Mn O  H 
 1.0000000000000000
     5.7471469900000001    0.0000000000000000    0.0000000000000000
     0.0000000000000000    5.7471469900000001    0.0000000000000000
     0.0000000000000000    0.0000000000000000   38.3523056924327008
 Mn  O   H  
  15  22   4
Selective dynamics
Direct
 -0.0093835343744717  0.2391760241319369  0.2623916092900749   F   F   F
  0.7489864879576713  0.4968346817732093  0.3235847127412249   F   F   F
  0.4822443279310273  0.2378738665665953  0.3950074156226278   T   T   T
  0.7314065219470435 -0.0163138303179327  0.4596958675758111   T   T   T
  0.2311695038297528 -0.0151453520507010  0.4588427943857106   T   T   T
  0.2510151206674320  0.4955812159049278  0.3269556710605909   F   F   F
  0.4833461504227525  0.7378983585552392  0.3948924604064175   T   T   T
 -0.0100916428494874  0.7513987945614823  0.2627757334990781   F   F   F
  0.0024768544779153 -0.0045784375955736  0.3571699137271092   F   F   F
 -0.0187827176667325  0.4893003241692683  0.4272025117284187   T   T   T
  0.4752813635881140  0.4886950124019576  0.4918372166189313   T   T   T
  0.4872487909802456 -0.0043314717839424  0.2917774653642574   F   F   F
  0.4661197077523206  0.0353991597622490  0.5510940203385691   T   T   T
  0.9917064385875796  0.2356245412399558  0.5208177226315839   T   T   T
  0.0130152645608232  0.7420510647985499  0.5379577297685343   T   T   T
 -0.0205704367443810  0.2172136276363637  0.4633235546429758   T   T   T
  0.7747574636748692  0.4958631552600724  0.2647010163483396   F   F   F
  0.4994775423373534  0.2678073900728424  0.3280746410023943   F   F   F
  0.7102413856801914 -0.0127310678916200  0.3980086976517800   T   T   T
  0.0037645548922136  0.2690184215424850  0.3222536979589821   F   F   F
  0.7692367725186661 -0.0055241815224737  0.2597891457639432   F   F   F
  0.4820012887199804  0.2142590854554821  0.4562622644012390   T   T   T
  0.7092035057499765  0.4885700499272284  0.3920201730050142   T   T   T
  0.2111692605782599 -0.0057975698878655  0.2583053953367737   F   F   F
  0.2531540628252125  0.4889061631617647  0.3919601569810882   T   T   T
  0.2272536477132092  0.4962741366236937  0.2626329689737672   F   F   F
  0.2541434248262739 -0.0132673917090166  0.3978982387279765   T   T   T
  0.4987015056994976  0.7247605740973498  0.3278246169346272   F   F   F
 -0.0180185799755975  0.7607248942776045  0.4614269513753441   T   T   T
  0.4818777161754287  0.7552779517853924  0.4562782875808498   T   T   T
  0.0041034282560547  0.7236694402594225  0.3222276800561435   F   F   F
  0.7490338343108598  0.4764607238387847  0.5322655122147192   T   T   T
  0.2259156982202533  0.4547441903656467  0.5292344963611054   T   T   T
  0.6404001954116295  0.1906369114865880  0.5863250531370816   T   T   T
  0.2347509892598640 -0.0044228972294084  0.5160050937326127   T   T   T
  0.7429844719011387 -0.0004139262871674  0.5228118516961218   T   T   T
  0.2181381373571155  0.9083386147178879  0.5804657004900146   T   T   T
  0.3862807976787250  0.4992215041381847  0.2532026820654570   F   F   F
  0.6852716010372436  0.4134845467534459  0.5547044756246313   T   T   T
  0.2570930337561370  0.8626613009530100  0.6041344781351495   T   T   T
  0.5445978918324835  0.2220319302610536  0.6067187215882219   T   T   T
