Mn O  H 
 1.0000000000000000
     5.7471469900000001    0.0000000000000000    0.0000000000000000
     0.0000000000000000    5.7471469900000001    0.0000000000000000
     0.0000000000000000    0.0000000000000000   38.3523056924327008
 Mn  O   H  
  15  23   7
Selective dynamics
Direct
 -0.0093835343744717  0.2391760241319369  0.2623916092900749   F   F   F
  0.7489864879576713  0.4968346817732093  0.3235847127412249   F   F   F
  0.5714246929572342  0.1810684801534814  0.3899496266178261   T   T   T
  0.8210970570590007 -0.0524502444617239  0.4578048610489959   T   T   T
  0.3137681830753321 -0.0659169612573016  0.4513953437041437   T   T   T
  0.2510151206674320  0.4955812159049278  0.3269556710605909   F   F   F
  0.5739041107219991  0.6810525455398903  0.3884167024512197   T   T   T
 -0.0100916428494874  0.7513987945614823  0.2627757334990781   F   F   F
  0.0024768544779153 -0.0045784375955736  0.3571699137271092   F   F   F
  0.0686716130821960  0.4499857207934434  0.4226326833358419   T   T   T
  0.5392746098984177  0.4023604044642414  0.4859735087511295   T   T   T
  0.4872487909802456 -0.0043314717839424  0.2917774653642574   F   F   F
  0.4313226107408454  0.2719802167126893  0.5894695925937837   T   T   T
  0.8986338683155730  0.3549304870486146  0.5459234664307145   T   T   T
  0.7003060677201969  0.8492610873815374  0.5433232717591364   T   T   T
  0.0775799359718817  0.1661211265578551  0.4549966917530183   T   T   T
  0.7747574636748692  0.4958631552600724  0.2647010163483396   F   F   F
  0.4994775423373534  0.2678073900728424  0.3280746410023943   F   F   F
  0.7977865692443756 -0.0720210404127671  0.3923760898837060   T   T   T
  0.0037645548922136  0.2690184215424850  0.3222536979589821   F   F   F
  0.7692367725186661 -0.0055241815224737  0.2597891457639432   F   F   F
  0.5603747273876750  0.1644326765894510  0.4471717954068104   T   T   T
  0.7993945111995955  0.4328348334085082  0.3867760140504024   T   T   T
  0.2111692605782599 -0.0057975698878655  0.2583053953367737   F   F   F
  0.3422158094864807  0.4341868326682178  0.3868371622581576   T   T   T
  0.2272536477132092  0.4962741366236937  0.2626329689737672   F   F   F
  0.3431164645282607 -0.0747986062498393  0.3925671315735770   T   T   T
  0.4987015056994976  0.7247605740973498  0.3278246169346272   F   F   F
  0.0683951974889316  0.7163605014113080  0.4591221324170188   T   T   T
  0.5702753219644180  0.7147709705374158  0.4581684930943991   T   T   T
  0.0041034282560547  0.7236694402594225  0.3222276800561435   F   F   F
  0.4805694049042790  0.5572515697048982  0.5352189256236352   T   T   T
  0.2643574978351531  0.5294778848117876  0.6108508186919874   T   T   T
  0.0322010000049002  0.6932860262951257  0.5523998854515512   T   T   T
  0.7304500988255379  0.1375790332568616  0.5144814894143808   T   T   T
  0.1538444675270552  0.1556813240818796  0.5683264758121039   T   T   T
  0.7327610354860112  0.4034521386177549  0.5968805188123139   T   T   T
  0.5561376741538574 -0.0419871178982625  0.5915106878984985   T   T   T
  0.3862807976787250  0.4992215041381847  0.2532026820654570   F   F   F
  0.3191733572386460  0.6183813936426775  0.5378488702549209   T   T   T
  0.3326309482545421  0.5729072931679724  0.6331384108902620   T   T   T
  0.0716053381124548  0.6694293820873531  0.5773266407197120   T   T   T
  0.4458982631770729 -0.1663604943906875  0.5979933830347886   T   T   T
  0.1527083703764384  0.9914827411118881  0.5606782627853775   T   T   T
  0.8359673674185344  0.3286598637111793  0.6136305472209654   T   T   T
