<?xml version="1.0" encoding="ISO-8859-1"?>
<modeling>
 <generator>
  <i name="program" type="string">vasp </i>
  <i name="version" type="string">5.4.4.18Apr17-6-g9f103f2a35  </i>
  <i name="subversion" type="string">(build Sep 24 2019 09:38:50) complex            parallel </i>
  <i name="platform" type="string">KEELxe18.1gRLX-z </i>
  <i name="date" type="string">2026 07 25 </i>
  <i name="time" type="string">16:43:45 </i>
 </generator>
 <incar>
  <i type="int" name="ISTART">     0</i>
  <i type="string" name="PREC">accurate</i>
  <i type="string" name="ALGO"> fast</i>
  <i type="int" name="ISPIN">     2</i>
  <i type="int" name="IBRION">     2</i>
  <i name="EDIFF">      0.00001000</i>
  <i name="EDIFFG">     -0.05000000</i>
  <i type="int" name="NSW">   500</i>
  <i type="int" name="ISIF">     0</i>
  <i name="ENCUT">    520.00000000</i>
  <i name="POTIM">      0.50000000</i>
  <v name="MAGMOM">      3.80000000      3.80000000     -3.80000000     -3.80000000      3.80000000      3.80000000     -3.80000000     -3.80000000      4.40000000      4.40000000      4.40000000      0.00000000      4.40000000      0.00000000      0.00000000      0.00000000      0.00000000      0.00000000      0.00000000      0.00000000
      0.00000000      0.00000000      0.00000000      0.00000000      0.00000000      0.00000000      0.00000000      0.00000000      0.00000000      0.00000000      0.00000000      0.00000000      0.00000000      0.00000000      0.00000000      0.00000000      0.00000000      0.00000000      0.00000000      0.00000000
      0.00000000      0.00000000      0.00000000      0.00000000      0.00000000</v>
  <i type="string" name="LREAL"> auto</i>
  <i type="int" name="ISMEAR">     1</i>
  <i name="SIGMA">      0.20000000</i>
  <i type="int" name="NWRITE">     1</i>
  <i type="logical" name="LWAVE"> F  </i>
  <i type="logical" name="LCHARG"> F  </i>
  <i type="logical" name="LVTOT"> F  </i>
  <i type="int" name="LORBIT">    11</i>
  <v type="int" name="KPOINT_BSE">    -1     0     0     0</v>
  <i type="string" name="GGA"> PE</i>
  <i type="logical" name="LDAU"> T  </i>
  <v type="int" name="LDAUL">     2    -1    -1</v>
  <v name="LDAUU">      3.90000000      0.00000000      0.00000000</v>
  <v name="LDAUJ">      0.00000000      0.00000000      0.00000000</v>
 </incar>
 <structure name="primitive_cell" >
  <crystal>
   <varray name="basis" >
    <v>       2.87357350      -2.87357350       4.70833511 </v>
    <v>       5.74714699       0.00000000       0.00000000 </v>
    <v>       0.00000000      33.06569101      20.18052901 </v>
   </varray>
   <i name="volume">   1228.01926054 </i>
   <varray name="rec_basis" >
    <v>       0.00000000      -0.09444515       0.15474789 </v>
    <v>       0.17399938       0.04722258      -0.07737394 </v>
    <v>       0.00000000       0.02203507       0.01344836 </v>
   </varray>
  </crystal>
  <varray name="positions" >
   <v>       0.22067121      -0.10759759       0.08901558 </v>
   <v>       0.34617716      -0.39694581       0.05647018 </v>
   <v>       0.09516526       0.18175063       0.12156099 </v>
   <v>       0.09516526      -0.27143987       0.12156099 </v>
   <v>       0.34617716       0.05624469       0.05647018 </v>
   <v>      -0.43792180      -0.27830109       0.12275353 </v>
   <v>      -0.12073578       0.06310591       0.05527763 </v>
   <v>       0.34047062      -0.39608799       0.02782883 </v>
   <v>       0.34363348       0.06399961       0.02783421 </v>
   <v>      -0.05072388       0.02809995       0.15233499 </v>
   <v>      -0.11161874       0.05560908       0.02665597 </v>
   <v>       0.44927612       0.02809995       0.15233499 </v>
   <v>       0.44927612      -0.47190005       0.15233499 </v>
   <v>      -0.07565319      -0.31476349       0.03696881 </v>
   <v>      -0.09717756      -0.44867320       0.10484543 </v>
   <v>      -0.46148002       0.23347802       0.07318573 </v>
   <v>       0.31005701      -0.15179224       0.18038698 </v>
   <v>      -0.41753861       0.21150732       0.12452493 </v>
   <v>      -0.14111897      -0.42670250       0.05350623 </v>
   <v>      -0.20009731       0.33174602       0.18410538 </v>
   <v>      -0.20205398      -0.11994612       0.18475664 </v>
   <v>       0.33660877       0.33473316       0.18284480 </v>
   <v>      -0.00494442      -0.49225425       0.20407657 </v>
   <v>       0.34557744      -0.16024848       0.23328652 </v>
   <v>      -0.33004345       0.17444941       0.21797696 </v>
   <v>       0.00357430       0.01638091       0.25351472 </v>
   <v>      -0.45663888       0.46773616       0.25100781 </v>
   <v>      -0.45947422       0.01616803       0.25196066 </v>
   <v>       0.04741438       0.49221184       0.25737957 </v>
   <v>      -0.10712358      -0.17605387       0.28438502 </v>
   <v>      -0.10846860       0.32043014       0.28476253 </v>
   <v>       0.39751351       0.31656844       0.28415796 </v>
   <v>       0.24884693      -0.38045348       0.31478441 </v>
   <v>      -0.27037077       0.15284488       0.30882809 </v>
   <v>       0.24087185       0.17456320       0.31693594 </v>
   <v>      -0.21670428      -0.36998400       0.31454587 </v>
   <v>       0.43874628      -0.19877637       0.33523198 </v>
   <v>       0.11208778       0.47427961       0.34948124 </v>
   <v>      -0.00087362       0.15590010       0.37785260 </v>
   <v>       0.10002758      -0.26034258       0.38100177 </v>
   <v>      -0.01387959       0.32892516       0.38336013 </v>
   <v>      -0.45091724      -0.29462312       0.38709364 </v>
   <v>      -0.28561361      -0.46082173       0.38850077 </v>
   <v>       0.41488487      -0.32515157       0.39586827 </v>
   <v>       0.00686140      -0.25511588       0.40148932 </v>
  </varray>
 </structure>
 <varray name="primitive_index" >
  <v type="int" >        1 </v>
  <v type="int" >       30 </v>
  <v type="int" >       35 </v>
  <v type="int" >       21 </v>
  <v type="int" >       33 </v>
  <v type="int" >       26 </v>
  <v type="int" >       16 </v>
  <v type="int" >       38 </v>
  <v type="int" >       40 </v>
  <v type="int" >        3 </v>
  <v type="int" >       41 </v>
  <v type="int" >        7 </v>
  <v type="int" >        5 </v>
  <v type="int" >       39 </v>
  <v type="int" >        9 </v>
  <v type="int" >       13 </v>
  <v type="int" >       25 </v>
  <v type="int" >       18 </v>
  <v type="int" >       24 </v>
  <v type="int" >       28 </v>
  <v type="int" >       32 </v>
  <v type="int" >       17 </v>
  <v type="int" >       11 </v>
  <v type="int" >       10 </v>
  <v type="int" >        2 </v>
  <v type="int" >       27 </v>
  <v type="int" >       22 </v>
  <v type="int" >       34 </v>
  <v type="int" >       19 </v>
  <v type="int" >        8 </v>
  <v type="int" >        6 </v>
  <v type="int" >        4 </v>
  <v type="int" >       29 </v>
  <v type="int" >       23 </v>
  <v type="int" >       31 </v>
  <v type="int" >       15 </v>
  <v type="int" >       12 </v>
  <v type="int" >       14 </v>
  <v type="int" >       44 </v>
  <v type="int" >       36 </v>
  <v type="int" >       37 </v>
  <v type="int" >       20 </v>
  <v type="int" >       45 </v>
  <v type="int" >       42 </v>
  <v type="int" >       43 </v>
 </varray>
 <kpoints>
  <generation param="Gamma">
   <v type="int" name="divisions">       4        4        1 </v>
   <v name="usershift">      0.00000000       0.00000000       0.00000000 </v>
   <v name="genvec1">      0.25000000       0.00000000       0.00000000 </v>
   <v name="genvec2">     -0.00000000       0.25000000      -0.00000000 </v>
   <v name="genvec3">     -0.00000000       0.00000000       1.00000000 </v>
   <v name="shift">      0.00000000       0.00000000       0.00000000 </v>
  </generation>
  <varray name="kpointlist" >
   <v>       0.00000000       0.00000000       0.00000000 </v>
   <v>       0.25000000       0.00000000      -0.00000000 </v>
   <v>       0.50000000       0.00000000      -0.00000000 </v>
   <v>       0.00000000       0.25000000      -0.00000000 </v>
   <v>       0.25000000       0.25000000      -0.00000000 </v>
   <v>       0.50000000       0.25000000       0.00000000 </v>
   <v>      -0.25000000       0.25000000      -0.00000000 </v>
   <v>       0.00000000       0.50000000      -0.00000000 </v>
   <v>       0.25000000       0.50000000      -0.00000000 </v>
   <v>       0.50000000       0.50000000      -0.00000000 </v>
  </varray>
  <varray name="weights" >
   <v>       0.06250000 </v>
   <v>       0.12500000 </v>
   <v>       0.06250000 </v>
   <v>       0.12500000 </v>
   <v>       0.12500000 </v>
   <v>       0.12500000 </v>
   <v>       0.12500000 </v>
   <v>       0.06250000 </v>
   <v>       0.12500000 </v>
   <v>       0.06250000 </v>
  </varray>
 </kpoints>
 <parameters>
  <separator name="general" >
   <i type="string" name="SYSTEM">unknown system</i>
   <i type="logical" name="LCOMPAT"> F  </i>
  </separator>
  <separator name="electronic" >
   <i type="string" name="PREC">accura</i>
   <i name="ENMAX">    520.00000000</i>
   <i name="ENAUG">    605.39200000</i>
   <i name="EDIFF">      0.00001000</i>
   <i type="int" name="IALGO">    68</i>
   <i type="int" name="IWAVPR">    11</i>
   <i type="int" name="NBANDS">   206</i>
   <i name="NELECT">    328.00000000</i>
   <i type="int" name="TURBO">     0</i>
   <i type="int" name="IRESTART">     0</i>
   <i type="int" name="NREBOOT">     0</i>
   <i type="int" name="NMIN">     0</i>
   <i name="EREF">      0.00000000</i>
   <separator name="electronic smearing" >
    <i type="int" name="ISMEAR">     1</i>
    <i name="SIGMA">      0.20000000</i>
    <i name="KSPACING">      0.50000000</i>
    <i type="logical" name="KGAMMA"> T  </i>
   </separator>
   <separator name="electronic projectors" >
    <i type="logical" name="LREAL"> T  </i>
    <v name="ROPT">     -0.00025000     -0.00025000     -0.00025000</v>
    <i type="int" name="LMAXPAW">  -100</i>
    <i type="int" name="LMAXMIX">     2</i>
    <i type="logical" name="NLSPLINE"> F  </i>
   </separator>
   <separator name="electronic startup" >
    <i type="int" name="ISTART">     0</i>
    <i type="int" name="ICHARG">     2</i>
    <i type="int" name="INIWAV">     1</i>
   </separator>
   <separator name="electronic spin" >
    <i type="int" name="ISPIN">     2</i>
    <i type="logical" name="LNONCOLLINEAR"> F  </i>
    <v name="MAGMOM">      3.80000000      3.80000000     -3.80000000     -3.80000000      3.80000000      3.80000000     -3.80000000     -3.80000000      4.40000000      4.40000000      4.40000000      0.00000000      4.40000000      0.00000000      0.00000000      0.00000000      0.00000000      0.00000000      0.00000000      0.00000000
      0.00000000      0.00000000      0.00000000      0.00000000      0.00000000      0.00000000      0.00000000      0.00000000      0.00000000      0.00000000      0.00000000      0.00000000      0.00000000      0.00000000      0.00000000      0.00000000      0.00000000      0.00000000      0.00000000      0.00000000
      0.00000000      0.00000000      0.00000000      0.00000000      0.00000000</v>
    <i name="NUPDOWN">     -1.00000000</i>
    <i type="logical" name="LSORBIT"> F  </i>
    <v name="SAXIS">      0.00000000      0.00000000      1.00000000</v>
    <i type="logical" name="LSPIRAL"> F  </i>
    <v name="QSPIRAL">      0.00000000      0.00000000      0.00000000</v>
    <i type="logical" name="LZEROZ"> F  </i>
   </separator>
   <separator name="electronic exchange-correlation" >
    <i type="logical" name="LASPH"> F  </i>
    <i type="logical" name="LMETAGGA"> F  </i>
   </separator>
   <separator name="electronic convergence" >
    <i type="int" name="NELM">    60</i>
    <i type="int" name="NELMDL">    -5</i>
    <i type="int" name="NELMIN">     2</i>
    <i name="ENINI">    520.00000000</i>
    <separator name="electronic convergence detail" >
     <i type="logical" name="LDIAG"> T  </i>
     <i type="logical" name="LSUBROT"> F  </i>
     <i name="WEIMIN">      0.00100000</i>
     <i name="EBREAK">      0.00000001</i>
     <i name="DEPER">      0.30000000</i>
     <i type="int" name="NRMM">     4</i>
     <i name="TIME">      0.40000000</i>
    </separator>
   </separator>
   <separator name="electronic mixer" >
    <i name="AMIX">      0.40000000</i>
    <i name="BMIX">      1.00000000</i>
    <i name="AMIN">      0.10000000</i>
    <i name="AMIX_MAG">      1.60000000</i>
    <i name="BMIX_MAG">      1.00000000</i>
    <separator name="electronic mixer details" >
     <i type="int" name="IMIX">     4</i>
     <i type="logical" name="MIXFIRST"> F  </i>
     <i type="int" name="MAXMIX">   -45</i>
     <i name="WC">    100.00000000</i>
     <i type="int" name="INIMIX">     1</i>
     <i type="int" name="MIXPRE">     1</i>
     <i type="int" name="MREMOVE">     5</i>
    </separator>
   </separator>
   <separator name="electronic dipolcorrection" >
    <i type="logical" name="LDIPOL"> F  </i>
    <i type="logical" name="LMONO"> F  </i>
    <i type="int" name="IDIPOL">     0</i>
    <i name="EPSILON">      1.00000000</i>
    <v name="DIPOL">   -100.00000000   -100.00000000   -100.00000000</v>
    <i name="EFIELD">      0.00000000</i>
   </separator>
  </separator>
  <separator name="grids" >
   <i type="int" name="NGX">    48</i>
   <i type="int" name="NGY">    48</i>
   <i type="int" name="NGZ">   288</i>
   <i type="int" name="NGXF">    96</i>
   <i type="int" name="NGYF">    96</i>
   <i type="int" name="NGZF">   576</i>
   <i type="logical" name="ADDGRID"> F  </i>
  </separator>
  <separator name="ionic" >
   <i type="int" name="NSW">   500</i>
   <i type="int" name="IBRION">     2</i>
   <i type="int" name="MDALGO">     0</i>
   <i type="int" name="ISIF">     0</i>
   <i name="PSTRESS">      0.00000000</i>
   <i name="EDIFFG">     -0.05000000</i>
   <i type="int" name="NFREE">     1</i>
   <i name="POTIM">      0.50000000</i>
   <i name="SMASS">     -3.00000000</i>
   <i name="SCALEE">      1.00000000</i>
  </separator>
  <separator name="ionic md" >
   <i name="TEBEG">      0.00010000</i>
   <i name="TEEND">      0.00010000</i>
   <i type="int" name="NBLOCK">     1</i>
   <i type="int" name="KBLOCK">   500</i>
   <i type="int" name="NPACO">   256</i>
   <i name="APACO">     16.00000000</i>
  </separator>
  <separator name="symmetry" >
   <i type="int" name="ISYM">     2</i>
   <i name="SYMPREC">      0.00001000</i>
  </separator>
  <separator name="dos" >
   <i type="int" name="LORBIT">    11</i>
   <v name="RWIGS">     -1.00000000     -1.00000000     -1.00000000</v>
   <i type="int" name="NEDOS">   301</i>
   <i name="EMIN">     10.00000000</i>
   <i name="EMAX">    -10.00000000</i>
   <i name="EFERMI">      0.00000000</i>
  </separator>
  <separator name="writing" >
   <i type="int" name="NWRITE">     1</i>
   <i type="logical" name="LWAVE"> F  </i>
   <i type="logical" name="LDOWNSAMPLE"> F  </i>
   <i type="logical" name="LCHARG"> F  </i>
   <i type="logical" name="LPARD"> F  </i>
   <i type="logical" name="LVTOT"> F  </i>
   <i type="logical" name="LVHAR"> F  </i>
   <i type="logical" name="LELF"> F  </i>
   <i type="logical" name="LOPTICS"> F  </i>
   <v name="STM">      0.00000000      0.00000000      0.00000000      0.00000000      0.00000000      0.00000000      0.00000000</v>
  </separator>
  <separator name="performance" >
   <i type="int" name="NPAR">     2</i>
   <i type="int" name="NSIM">     4</i>
   <i type="int" name="NBLK">    -1</i>
   <i type="logical" name="LPLANE"> T  </i>
   <i type="logical" name="LSCALAPACK"> F  </i>
   <i type="logical" name="LSCAAWARE"> F  </i>
   <i type="logical" name="LSCALU"> F  </i>
   <i type="logical" name="LASYNC"> F  </i>
   <i type="logical" name="LORBITALREAL"> F  </i>
  </separator>
  <separator name="miscellaneous" >
   <i type="int" name="IDIOT">     3</i>
   <i type="int" name="ISPECIAL">     0</i>
   <i type="logical" name="LMUSIC"> F  </i>
   <v name="POMASS">     54.93800000     16.00000000      1.00000000</v>
   <v name="DARWINR">      0.00000000      0.00000000      0.00000000</v>
   <v name="DARWINV">      1.00000000      1.00000000      1.00000000</v>
   <i type="logical" name="LCORR"> T  </i>
  </separator>
  <i type="logical" name="GGA_COMPAT"> T  </i>
  <i type="logical" name="LBERRY"> F  </i>
  <i type="int" name="ICORELEVEL">     0</i>
  <i type="logical" name="LDAU"> T  </i>
  <v type="int" name="LDAUTYPE">     2</v>
  <v type="int" name="LDAUL">     2</v>
  <v name="LDAUU">      3.90000000</v>
  <v name="LDAUJ">      0.00000000</v>
  <i type="int" name="LDAUPRINT">     0</i>
  <i type="int" name="I_CONSTRAINED_M">     0</i>
  <separator name="electronic exchange-correlation" >
   <i type="string" name="GGA">PE</i>
   <i type="int" name="VOSKOWN">     0</i>
   <i type="logical" name="LHFCALC"> F  </i>
   <i type="string" name="PRECFOCK"></i>
   <i type="logical" name="LSYMGRAD"> F  </i>
   <i type="logical" name="LHFONE"> F  </i>
   <i type="logical" name="LRHFCALC"> F  </i>
   <i type="logical" name="LTHOMAS"> F  </i>
   <i type="logical" name="LMODELHF"> F  </i>
   <i name="ENCUT4O">     -1.00000000</i>
   <i type="int" name="EXXOEP">     0</i>
   <i type="int" name="FOURORBIT">     0</i>
   <i name="AEXX">      0.00000000</i>
   <i name="HFALPHA">      0.00000000</i>
   <i name="MCALPHA">      0.00000000</i>
   <i name="ALDAX">      1.00000000</i>
   <i name="AGGAX">      1.00000000</i>
   <i name="ALDAC">      1.00000000</i>
   <i name="AGGAC">      1.00000000</i>
   <i type="int" name="NKREDX">     1</i>
   <i type="int" name="NKREDY">     1</i>
   <i type="int" name="NKREDZ">     1</i>
   <i type="logical" name="SHIFTRED"> F  </i>
   <i type="logical" name="ODDONLY"> F  </i>
   <i type="logical" name="EVENONLY"> F  </i>
   <i type="int" name="LMAXFOCK">     0</i>
   <i type="int" name="NMAXFOCKAE">     0</i>
   <i type="logical" name="LFOCKAEDFT"> F  </i>
   <i name="HFSCREEN">      0.00000000</i>
   <i name="HFSCREENC">      0.00000000</i>
   <i type="int" name="NBANDSGWLOW">     0</i>
  </separator>
  <separator name="vdW DFT" >
   <i type="logical" name="LUSE_VDW"> F  </i>
   <i name="Zab_VDW">     -0.84910000</i>
   <i name="PARAM1">      0.12340000</i>
   <i name="PARAM2">      1.00000000</i>
   <i name="PARAM3">      0.00000000</i>
  </separator>
  <separator name="model GW" >
   <i type="int" name="MODEL_GW">     0</i>
   <i name="MODEL_EPS0">     16.37359014</i>
   <i name="MODEL_ALPHA">      1.00000000</i>
  </separator>
  <separator name="linear response parameters" >
   <i type="logical" name="LEPSILON"> F  </i>
   <i type="logical" name="LRPA"> F  </i>
   <i type="logical" name="LNABLA"> F  </i>
   <i type="logical" name="LVEL"> F  </i>
   <i type="int" name="KINTER">     0</i>
   <i name="CSHIFT">      0.10000000</i>
   <i name="OMEGAMAX">     -1.00000000</i>
   <i name="DEG_THRESHOLD">      0.00200000</i>
   <i name="RTIME">     -0.10000000</i>
   <i name="WPLASMAI">      0.00000000</i>
   <v name="DFIELD">      0.00000000      0.00000000      0.00000000</v>
   <v name="WPLASMA">      0.00000000      0.00000000      0.00000000      0.00000000      0.00000000      0.00000000      0.00000000      0.00000000      0.00000000</v>
  </separator>
  <separator name="orbital magnetization" >
   <i type="logical" name="NUCIND"> F  </i>
   <v name="MAGPOS">      0.00000000      0.00000000      0.00000000</v>
   <i type="logical" name="LNICSALL"> T  </i>
   <i type="logical" name="ORBITALMAG"> F  </i>
   <i type="logical" name="LMAGBLOCH"> F  </i>
   <i type="logical" name="LCHIMAG"> F  </i>
   <i type="logical" name="LGAUGE"> T  </i>
   <i type="int" name="MAGATOM">     0</i>
   <v name="MAGDIPOL">      0.00000000      0.00000000      0.00000000</v>
   <v name="AVECCONST">      0.00000000      0.00000000      0.00000000</v>
  </separator>
  <separator name="response functions" >
   <i type="logical" name="LADDER"> F  </i>
   <i type="logical" name="LRPAFORCE"> F  </i>
   <i type="logical" name="LFXC"> F  </i>
   <i type="logical" name="LHARTREE"> T  </i>
   <i type="int" name="IBSE">     0</i>
   <v type="int" name="KPOINT">    -1     0     0     0</v>
   <i type="logical" name="LTCTE"> F  </i>
   <i type="logical" name="LTETE"> F  </i>
   <i type="logical" name="LTRIPLET"> F  </i>
   <i type="logical" name="LFXCEPS"> F  </i>
   <i type="logical" name="LFXHEG"> F  </i>
   <i type="int" name="NATURALO">     2</i>
   <i type="logical" name="L2ORDER"> F  </i>
   <i type="logical" name="LMP2LT"> F  </i>
   <i type="logical" name="LUSEW"> F  </i>
   <i name="ENCUTGW">     -2.00000000</i>
   <i name="ENCUTGWSOFT">     -2.00000000</i>
   <i name="ENCUTLF">     -1.00000000</i>
   <i type="int" name="LMAXMP2">    -1</i>
   <i name="SCISSOR">      0.00000000</i>
   <i type="int" name="NOMEGA">     0</i>
   <i type="int" name="NOMEGAR">     0</i>
   <i type="int" name="NBANDSGW">    -1</i>
   <i type="int" name="NBANDSO">    -1</i>
   <i type="int" name="NBANDSV">    -1</i>
   <i type="int" name="NELM">     1</i>
   <i type="int" name="NELMHF">     1</i>
   <i type="int" name="DIM">     3</i>
   <i type="int" name="ANTIRES">     0</i>
   <i name="OMEGAMAX">    -30.00000000</i>
   <i name="OMEGAMIN">    -30.00000000</i>
   <i name="OMEGATL">   -200.00000000</i>
   <i type="int" name="OMEGAGRID">   140</i>
   <i name="CSHIFT">     -0.10000000</i>
   <i type="logical" name="SELFENERGY"> F  </i>
   <i type="logical" name="LSPECTRAL"> F  </i>
   <i type="logical" name="LSPECTRALGW"> F  </i>
   <i type="logical" name="LSINGLES"> F  </i>
   <i type="logical" name="LFERMIGW"> F  </i>
   <i type="logical" name="ODDONLYGW"> F  </i>
   <i type="logical" name="EVENONLYGW"> F  </i>
   <i type="int" name="NKREDLFX">     1</i>
   <i type="int" name="NKREDLFY">     1</i>
   <i type="int" name="NKREDLFZ">     1</i>
   <i type="int" name="MAXMEM">  2800</i>
   <i type="int" name="TELESCOPE">     0</i>
   <i type="int" name="TAUPAR">     1</i>
   <i type="int" name="OMEGAPAR">    -1</i>
   <i name="LAMBDA">      1.00000000</i>
  </separator>
  <separator name="External order field" >
   <i name="OFIELD_KAPPA">      0.00000000</i>
   <v name="OFIELD_K">      0.00000000      0.00000000      0.00000000</v>
   <i name="OFIELD_Q6_NEAR">      0.00000000</i>
   <i name="OFIELD_Q6_FAR">      0.00000000</i>
   <i name="OFIELD_A">      0.00000000</i>
  </separator>
  <separator name="solvation model" >
   <i type="logical" name="LSOL"> F  </i>
  </separator>
 </parameters>
 <atominfo>
  <atoms>      45 </atoms>
  <types>       3 </types>
  <array name="atoms" >
   <dimension dim="1">ion</dimension>
   <field type="string">element</field>
   <field type="int">atomtype</field>
   <set>
    <rc><c>Mn</c><c>   1</c></rc>
    <rc><c>Mn</c><c>   1</c></rc>
    <rc><c>Mn</c><c>   1</c></rc>
    <rc><c>Mn</c><c>   1</c></rc>
    <rc><c>Mn</c><c>   1</c></rc>
    <rc><c>Mn</c><c>   1</c></rc>
    <rc><c>Mn</c><c>   1</c></rc>
    <rc><c>Mn</c><c>   1</c></rc>
    <rc><c>Mn</c><c>   1</c></rc>
    <rc><c>Mn</c><c>   1</c></rc>
    <rc><c>Mn</c><c>   1</c></rc>
    <rc><c>Mn</c><c>   1</c></rc>
    <rc><c>Mn</c><c>   1</c></rc>
    <rc><c>Mn</c><c>   1</c></rc>
    <rc><c>O </c><c>   2</c></rc>
    <rc><c>O </c><c>   2</c></rc>
    <rc><c>O </c><c>   2</c></rc>
    <rc><c>O </c><c>   2</c></rc>
    <rc><c>O </c><c>   2</c></rc>
    <rc><c>O </c><c>   2</c></rc>
    <rc><c>O </c><c>   2</c></rc>
    <rc><c>O </c><c>   2</c></rc>
    <rc><c>O </c><c>   2</c></rc>
    <rc><c>O </c><c>   2</c></rc>
    <rc><c>O </c><c>   2</c></rc>
    <rc><c>O </c><c>   2</c></rc>
    <rc><c>O </c><c>   2</c></rc>
    <rc><c>O </c><c>   2</c></rc>
    <rc><c>O </c><c>   2</c></rc>
    <rc><c>O </c><c>   2</c></rc>
    <rc><c>O </c><c>   2</c></rc>
    <rc><c>O </c><c>   2</c></rc>
    <rc><c>O </c><c>   2</c></rc>
    <rc><c>O </c><c>   2</c></rc>
    <rc><c>O </c><c>   2</c></rc>
    <rc><c>O </c><c>   2</c></rc>
    <rc><c>O </c><c>   2</c></rc>
    <rc><c>H </c><c>   3</c></rc>
    <rc><c>H </c><c>   3</c></rc>
    <rc><c>H </c><c>   3</c></rc>
    <rc><c>H </c><c>   3</c></rc>
    <rc><c>H </c><c>   3</c></rc>
    <rc><c>H </c><c>   3</c></rc>
    <rc><c>H </c><c>   3</c></rc>
    <rc><c>H </c><c>   3</c></rc>
   </set>
  </array>
  <array name="atomtypes" >
   <dimension dim="1">type</dimension>
   <field type="int">atomspertype</field>
   <field type="string">element</field>
   <field>mass</field>
   <field>valence</field>
   <field type="string">pseudopotential</field>
   <set>
    <rc><c>  14</c><c>Mn</c><c>     54.93800000</c><c>     13.00000000</c><c>  PAW_PBE Mn_pv 02Aug2007               </c></rc>
    <rc><c>  23</c><c>O </c><c>     16.00000000</c><c>      6.00000000</c><c>  PAW_PBE O 08Apr2002                   </c></rc>
    <rc><c>   8</c><c>H </c><c>      1.00000000</c><c>      1.00000000</c><c>  PAW_PBE H 15Jun2001                   </c></rc>
   </set>
  </array>
 </atominfo>
 <structure name="initialpos" >
  <crystal>
   <varray name="basis" >
    <v>       2.87357350      -2.87357350       4.70833511 </v>
    <v>       5.74714699       0.00000000       0.00000000 </v>
    <v>       0.00000000      33.06569101      20.18052901 </v>
   </varray>
   <i name="volume">   1228.01926054 </i>
   <varray name="rec_basis" >
    <v>       0.00000000      -0.09444515       0.15474789 </v>
    <v>       0.17399938       0.04722258      -0.07737394 </v>
    <v>       0.00000000       0.02203507       0.01344836 </v>
   </varray>
  </crystal>
  <varray name="positions" >
   <v>       0.22067121       0.89240241       0.08901558 </v>
   <v>       0.66995655       0.17444941       0.21797696 </v>
   <v>       0.94927612       0.02809995       0.15233499 </v>
   <v>       0.39751351       0.31656844       0.28415796 </v>
   <v>       0.44927612       0.52809995       0.15233499 </v>
   <v>       0.89153140       0.32043014       0.28476253 </v>
   <v>       0.44927612       0.02809995       0.15233499 </v>
   <v>       0.89287642       0.82394613       0.28438502 </v>
   <v>       0.90282244       0.55132680       0.10484543 </v>
   <v>       0.34557744       0.83975152       0.23328652 </v>
   <v>       0.99505558       0.50774575       0.20407657 </v>
   <v>       0.43874628       0.80122363       0.33523198 </v>
   <v>       0.53851998       0.23347802       0.07318573 </v>
   <v>       0.11208778       0.47427961       0.34948124 </v>
   <v>       0.78329572       0.63001600       0.31454587 </v>
   <v>       0.87926422       0.06310591       0.05527763 </v>
   <v>       0.33660877       0.33473316       0.18284480 </v>
   <v>       0.58246139       0.21150732       0.12452493 </v>
   <v>       0.04741438       0.49221184       0.25737957 </v>
   <v>       0.54908276       0.70537688       0.38709364 </v>
   <v>       0.09516526       0.72856013       0.12156099 </v>
   <v>       0.54336112       0.46773616       0.25100781 </v>
   <v>       0.72962923       0.15284488       0.30882809 </v>
   <v>       0.85888103       0.57329750       0.05350623 </v>
   <v>       0.31005701       0.84820776       0.18038698 </v>
   <v>       0.56207820       0.72169891       0.12275353 </v>
   <v>       0.00357430       0.01638091       0.25351472 </v>
   <v>       0.79990269       0.33174602       0.18410538 </v>
   <v>       0.24884693       0.61954652       0.31478441 </v>
   <v>       0.34617716       0.60305419       0.05647018 </v>
   <v>       0.24087185       0.17456320       0.31693594 </v>
   <v>       0.79794602       0.88005388       0.18475664 </v>
   <v>       0.34617716       0.05624469       0.05647018 </v>
   <v>       0.54052578       0.01616803       0.25196066 </v>
   <v>       0.09516526       0.18175063       0.12156099 </v>
   <v>       0.10002758       0.73965742       0.38100177 </v>
   <v>       0.98612041       0.32892516       0.38336013 </v>
   <v>       0.34047062       0.60391201       0.02782883 </v>
   <v>       0.92434681       0.68523651       0.03696881 </v>
   <v>       0.34363348       0.06399961       0.02783421 </v>
   <v>       0.88838126       0.05560908       0.02665597 </v>
   <v>       0.41488487       0.67484843       0.39586827 </v>
   <v>       0.00686140       0.74488412       0.40148932 </v>
   <v>       0.99912638       0.15590010       0.37785260 </v>
   <v>       0.71438639       0.53917827       0.38850077 </v>
  </varray>
  <varray name="selective"  type="logical" >
   <v type="logical" >  F  F  F </v>
   <v type="logical" >  T  T  T </v>
   <v type="logical" >  F  F  F </v>
   <v type="logical" >  T  T  T </v>
   <v type="logical" >  F  F  F </v>
   <v type="logical" >  T  T  T </v>
   <v type="logical" >  F  F  F </v>
   <v type="logical" >  T  T  T </v>
   <v type="logical" >  F  F  F </v>
   <v type="logical" >  T  T  T </v>
   <v type="logical" >  T  T  T </v>
   <v type="logical" >  T  T  T </v>
   <v type="logical" >  F  F  F </v>
   <v type="logical" >  T  T  T </v>
   <v type="logical" >  T  T  T </v>
   <v type="logical" >  F  F  F </v>
   <v type="logical" >  T  T  T </v>
   <v type="logical" >  F  F  F </v>
   <v type="logical" >  T  T  T </v>
   <v type="logical" >  T  T  T </v>
   <v type="logical" >  F  F  F </v>
   <v type="logical" >  T  T  T </v>
   <v type="logical" >  T  T  T </v>
   <v type="logical" >  F  F  F </v>
   <v type="logical" >  T  T  T </v>
   <v type="logical" >  F  F  F </v>
   <v type="logical" >  T  T  T </v>
   <v type="logical" >  T  T  T </v>
   <v type="logical" >  T  T  T </v>
   <v type="logical" >  F  F  F </v>
   <v type="logical" >  T  T  T </v>
   <v type="logical" >  T  T  T </v>
   <v type="logical" >  F  F  F </v>
   <v type="logical" >  T  T  T </v>
   <v type="logical" >  F  F  F </v>
   <v type="logical" >  T  T  T </v>
   <v type="logical" >  T  T  T </v>
   <v type="logical" >  F  F  F </v>
   <v type="logical" >  F  F  F </v>
   <v type="logical" >  F  F  F </v>
   <v type="logical" >  F  F  F </v>
   <v type="logical" >  T  T  T </v>
   <v type="logical" >  T  T  T </v>
   <v type="logical" >  T  T  T </v>
   <v type="logical" >  T  T  T </v>
  </varray>
  <nose>
   <v>      -3.00000000       0.00000000       0.00010000       0.00010000 </v>
  </nose>
 </structure>
 <calculation>
  <scstep>
   <time name="dav">   49.10   49.61</time>
   <time name="total">   49.74   50.26</time>
   <energy>
    <i name="alphaZ">    494.33689101 </i>
    <i name="ewald"> 399291.73790653 </i>
    <i name="hartreedc">-433077.69254566 </i>
    <i name="XCdc">   1624.14002875 </i>
    <i name="pawpsdc">  31018.43273008 </i>
    <i name="pawaedc"> -31686.66680453 </i>
    <i name="eentropy">      0.00373106 </i>
    <i name="bandstr">  -2360.35021529 </i>
    <i name="atom">  38397.77816617 </i>
    <i name="e_fr_energy">   3701.71988813 </i>
    <i name="e_wo_entrp">   3701.71615706 </i>
    <i name="e_0_energy">   3701.71864444 </i>
   </energy>
  </scstep>
  <scstep>
   <time name="dav">   46.00   46.11</time>
   <time name="total">   46.03   46.15</time>
   <energy>
    <i name="e_fr_energy">    254.24810462 </i>
    <i name="e_wo_entrp">    254.24475544 </i>
    <i name="e_0_energy">    254.24698823 </i>
   </energy>
  </scstep>
  <scstep>
   <time name="dav">   48.82   49.29</time>
   <time name="total">   48.85   49.32</time>
   <energy>
    <i name="e_fr_energy">   -318.41695140 </i>
    <i name="e_wo_entrp">   -318.32777055 </i>
    <i name="e_0_energy">   -318.38722445 </i>
   </energy>
  </scstep>
  <scstep>
   <time name="dav">   49.31   49.89</time>
   <time name="total">   49.34   49.92</time>
   <energy>
    <i name="e_fr_energy">   -345.15161964 </i>
    <i name="e_wo_entrp">   -345.06165896 </i>
    <i name="e_0_energy">   -345.12163275 </i>
   </energy>
  </scstep>
  <scstep>
   <time name="dav">   47.97   48.64</time>
   <time name="total">   51.44   52.12</time>
   <energy>
    <i name="e_fr_energy">   -345.78004904 </i>
    <i name="e_wo_entrp">   -345.68917525 </i>
    <i name="e_0_energy">   -345.74975778 </i>
   </energy>
  </scstep>
  <scstep>
   <time name="diag">    9.12    9.14</time>
   <time name="diis">   32.29   32.70</time>
   <time name="orth">    0.51    0.52</time>
   <time name="total">   45.83   46.34</time>
   <energy>
    <i name="e_fr_energy">   -563.01443554 </i>
    <i name="e_wo_entrp">   -562.95076299 </i>
    <i name="e_0_energy">   -562.99321136 </i>
   </energy>
  </scstep>
  <scstep>
   <time name="diag">    9.13    9.14</time>
   <time name="diis">   26.67   26.73</time>
   <time name="orth">    0.49    0.49</time>
   <time name="total">   40.23   40.31</time>
   <energy>
    <i name="e_fr_energy">   -360.62763996 </i>
    <i name="e_wo_entrp">   -360.61275271 </i>
    <i name="e_0_energy">   -360.62267754 </i>
   </energy>
  </scstep>
  <scstep>
   <time name="diag">    9.17    9.26</time>
   <time name="diis">   27.97   28.40</time>
   <time name="orth">    0.49    0.49</time>
   <time name="total">   41.51   42.07</time>
   <energy>
    <i name="e_fr_energy">   -380.30710442 </i>
    <i name="e_wo_entrp">   -380.32122571 </i>
    <i name="e_0_energy">   -380.31181152 </i>
   </energy>
  </scstep>
  <scstep>
   <time name="diag">    9.13    9.14</time>
   <time name="diis">   28.99   29.45</time>
   <time name="orth">    0.49    0.49</time>
   <time name="total">   42.48   42.99</time>
   <energy>
    <i name="e_fr_energy">   -364.57915113 </i>
    <i name="e_wo_entrp">   -364.56139146 </i>
    <i name="e_0_energy">   -364.57323124 </i>
   </energy>
  </scstep>
  <scstep>
   <time name="diag">    9.13    9.18</time>
   <time name="diis">   28.35   28.39</time>
   <time name="orth">    0.49    0.49</time>
   <time name="total">   42.10   42.31</time>
   <energy>
    <i name="e_fr_energy">   -309.80323361 </i>
    <i name="e_wo_entrp">   -309.74587398 </i>
    <i name="e_0_energy">   -309.78411373 </i>
   </energy>
  </scstep>
  <scstep>
   <time name="diag">    9.48    9.85</time>
   <time name="diis">   26.35   26.41</time>
   <time name="orth">    0.49    0.49</time>
   <time name="total">   40.38   40.84</time>
   <energy>
    <i name="e_fr_energy">   -307.55265591 </i>
    <i name="e_wo_entrp">   -307.51502769 </i>
    <i name="e_0_energy">   -307.54011317 </i>
   </energy>
  </scstep>
  <scstep>
   <time name="diag">    9.12    9.13</time>
   <time name="diis">   28.44   28.83</time>
   <time name="orth">    0.49    0.49</time>
   <time name="total">   42.13   42.54</time>
   <energy>
    <i name="e_fr_energy">   -310.91006177 </i>
    <i name="e_wo_entrp">   -310.92040700 </i>
    <i name="e_0_energy">   -310.91351018 </i>
   </energy>
  </scstep>
  <scstep>
   <time name="diag">    9.16    9.22</time>
   <time name="diis">   28.25   28.42</time>
   <time name="orth">    0.50    0.50</time>
   <time name="total">   41.95   42.23</time>
   <energy>
    <i name="e_fr_energy">   -304.78419084 </i>
    <i name="e_wo_entrp">   -304.77669686 </i>
    <i name="e_0_energy">   -304.78169284 </i>
   </energy>
  </scstep>
  <scstep>
   <time name="diag">    9.35    9.58</time>
   <time name="diis">   28.28   28.32</time>
   <time name="orth">    0.49    0.49</time>
   <time name="total">   42.31   42.75</time>
   <energy>
    <i name="e_fr_energy">   -298.33113220 </i>
    <i name="e_wo_entrp">   -298.34753668 </i>
    <i name="e_0_energy">   -298.33660036 </i>
   </energy>
  </scstep>
  <scstep>
   <time name="diag">    9.19    9.25</time>
   <time name="diis">   27.80   28.27</time>
   <time name="orth">    0.49    0.49</time>
   <time name="total">   41.54   42.13</time>
   <energy>
    <i name="e_fr_energy">   -295.15600298 </i>
    <i name="e_wo_entrp">   -295.14998713 </i>
    <i name="e_0_energy">   -295.15399770 </i>
   </energy>
  </scstep>
  <scstep>
   <time name="diag">    9.10    9.11</time>
   <time name="diis">   26.38   26.68</time>
   <time name="orth">    0.73    0.86</time>
   <time name="total">   40.33   40.81</time>
   <energy>
    <i name="e_fr_energy">   -296.11405695 </i>
    <i name="e_wo_entrp">   -296.12426588 </i>
    <i name="e_0_energy">   -296.11745992 </i>
   </energy>
  </scstep>
  <scstep>
   <time name="diag">    9.09    9.10</time>
   <time name="diis">   26.34   26.39</time>
   <time name="orth">    0.49    0.49</time>
   <time name="total">   39.95   40.05</time>
   <energy>
    <i name="e_fr_energy">   -297.02793758 </i>
    <i name="e_wo_entrp">   -297.00077577 </i>
    <i name="e_0_energy">   -297.01888364 </i>
   </energy>
  </scstep>
  <scstep>
   <time name="diag">    9.16    9.22</time>
   <time name="diis">   27.40   27.82</time>
   <time name="orth">    0.49    0.50</time>
   <time name="total">   41.11   41.65</time>
   <energy>
    <i name="e_fr_energy">   -297.27094904 </i>
    <i name="e_wo_entrp">   -297.27879519 </i>
    <i name="e_0_energy">   -297.27356442 </i>
   </energy>
  </scstep>
  <scstep>
   <time name="diag">    9.14    9.15</time>
   <time name="diis">   27.48   27.90</time>
   <time name="orth">    0.50    0.50</time>
   <time name="total">   41.17   41.64</time>
   <energy>
    <i name="e_fr_energy">   -297.70928280 </i>
    <i name="e_wo_entrp">   -297.70664811 </i>
    <i name="e_0_energy">   -297.70840457 </i>
   </energy>
  </scstep>
  <scstep>
   <time name="diag">    9.14    9.15</time>
   <time name="diis">   26.13   26.17</time>
   <time name="orth">    0.50    0.50</time>
   <time name="total">   39.86   39.95</time>
   <energy>
    <i name="e_fr_energy">   -298.54831595 </i>
    <i name="e_wo_entrp">   -298.54500649 </i>
    <i name="e_0_energy">   -298.54721280 </i>
   </energy>
  </scstep>
  <scstep>
   <time name="diag">    9.19    9.23</time>
   <time name="diis">   26.67   27.01</time>
   <time name="orth">    0.50    0.50</time>
   <time name="total">   40.41   40.82</time>
   <energy>
    <i name="e_fr_energy">   -299.21395058 </i>
    <i name="e_wo_entrp">   -299.22837195 </i>
    <i name="e_0_energy">   -299.21875770 </i>
   </energy>
  </scstep>
  <scstep>
   <time name="diag">    9.10    9.11</time>
   <time name="diis">   27.12   27.50</time>
   <time name="orth">    0.49    0.49</time>
   <time name="total">   40.79   41.19</time>
   <energy>
    <i name="e_fr_energy">   -299.21580096 </i>
    <i name="e_wo_entrp">   -299.22974600 </i>
    <i name="e_0_energy">   -299.22044931 </i>
   </energy>
  </scstep>
  <scstep>
   <time name="diag">    9.16    9.18</time>
   <time name="diis">   26.18   26.22</time>
   <time name="orth">    0.49    0.49</time>
   <time name="total">   39.87   39.96</time>
   <energy>
    <i name="e_fr_energy">   -299.19875395 </i>
    <i name="e_wo_entrp">   -299.19370519 </i>
    <i name="e_0_energy">   -299.19707103 </i>
   </energy>
  </scstep>
  <scstep>
   <time name="diag">    9.61    9.91</time>
   <time name="diis">   26.71   26.78</time>
   <time name="orth">    0.49    0.49</time>
   <time name="total">   40.85   41.21</time>
   <energy>
    <i name="e_fr_energy">   -298.42910129 </i>
    <i name="e_wo_entrp">   -298.39385164 </i>
    <i name="e_0_energy">   -298.41735141 </i>
   </energy>
  </scstep>
  <scstep>
   <time name="diag">    9.12    9.13</time>
   <time name="diis">   26.61   27.05</time>
   <time name="orth">    0.49    0.49</time>
   <time name="total">   40.25   40.73</time>
   <energy>
    <i name="e_fr_energy">   -298.52528541 </i>
    <i name="e_wo_entrp">   -298.50607097 </i>
    <i name="e_0_energy">   -298.51888060 </i>
   </energy>
  </scstep>
  <scstep>
   <time name="diag">    9.14    9.15</time>
   <time name="diis">   25.74   25.77</time>
   <time name="orth">    0.50    0.50</time>
   <time name="total">   39.50   39.59</time>
   <energy>
    <i name="e_fr_energy">   -298.27711775 </i>
    <i name="e_wo_entrp">   -298.26745814 </i>
    <i name="e_0_energy">   -298.27389788 </i>
   </energy>
  </scstep>
  <scstep>
   <time name="diag">    9.89   10.28</time>
   <time name="diis">   25.90   25.96</time>
   <time name="orth">    0.50    0.50</time>
   <time name="total">   40.34   40.81</time>
   <energy>
    <i name="e_fr_energy">   -298.11953022 </i>
    <i name="e_wo_entrp">   -298.11171814 </i>
    <i name="e_0_energy">   -298.11692620 </i>
   </energy>
  </scstep>
  <scstep>
   <time name="diag">    9.11    9.12</time>
   <time name="diis">   27.55   28.02</time>
   <time name="orth">    0.49    0.49</time>
   <time name="total">   41.18   41.70</time>
   <energy>
    <i name="e_fr_energy">   -298.28788396 </i>
    <i name="e_wo_entrp">   -298.29140883 </i>
    <i name="e_0_energy">   -298.28905892 </i>
   </energy>
  </scstep>
  <scstep>
   <time name="diag">    9.17    9.19</time>
   <time name="diis">   26.31   26.34</time>
   <time name="orth">    0.49    0.49</time>
   <time name="total">   40.06   40.18</time>
   <energy>
    <i name="e_fr_energy">   -298.54516751 </i>
    <i name="e_wo_entrp">   -298.54092982 </i>
    <i name="e_0_energy">   -298.54375495 </i>
   </energy>
  </scstep>
  <scstep>
   <time name="diag">    9.60    9.90</time>
   <time name="diis">   25.60   25.64</time>
   <time name="orth">    0.49    0.49</time>
   <time name="total">   39.76   40.14</time>
   <energy>
    <i name="e_fr_energy">   -298.73811695 </i>
    <i name="e_wo_entrp">   -298.71901213 </i>
    <i name="e_0_energy">   -298.73174868 </i>
   </energy>
  </scstep>
  <scstep>
   <time name="diag">    9.15    9.16</time>
   <time name="diis">   28.45   28.93</time>
   <time name="orth">    0.49    0.49</time>
   <time name="total">   42.12   42.64</time>
   <energy>
    <i name="e_fr_energy">   -298.73367607 </i>
    <i name="e_wo_entrp">   -298.70249314 </i>
    <i name="e_0_energy">   -298.72328176 </i>
   </energy>
  </scstep>
  <scstep>
   <time name="diag">    9.13    9.14</time>
   <time name="diis">   25.79   25.87</time>
   <time name="orth">    0.49    0.49</time>
   <time name="total">   39.40   39.54</time>
   <energy>
    <i name="e_fr_energy">   -298.84851588 </i>
    <i name="e_wo_entrp">   -298.84195206 </i>
    <i name="e_0_energy">   -298.84632794 </i>
   </energy>
  </scstep>
  <scstep>
   <time name="diag">    9.87   10.28</time>
   <time name="diis">   25.78   25.82</time>
   <time name="orth">    0.49    0.49</time>
   <time name="total">   40.20   40.68</time>
   <energy>
    <i name="e_fr_energy">   -299.10841440 </i>
    <i name="e_wo_entrp">   -299.11021114 </i>
    <i name="e_0_energy">   -299.10901332 </i>
   </energy>
  </scstep>
  <scstep>
   <time name="diag">    9.11    9.13</time>
   <time name="diis">   26.24   26.64</time>
   <time name="orth">    0.49    0.49</time>
   <time name="total">   39.91   40.36</time>
   <energy>
    <i name="e_fr_energy">   -299.14625151 </i>
    <i name="e_wo_entrp">   -299.14958091 </i>
    <i name="e_0_energy">   -299.14736131 </i>
   </energy>
  </scstep>
  <scstep>
   <time name="diag">    9.15    9.17</time>
   <time name="diis">   25.93   26.01</time>
   <time name="orth">    0.49    0.50</time>
   <time name="total">   39.62   39.76</time>
   <energy>
    <i name="e_fr_energy">   -299.01321637 </i>
    <i name="e_wo_entrp">   -299.02492340 </i>
    <i name="e_0_energy">   -299.01711871 </i>
   </energy>
  </scstep>
  <scstep>
   <time name="diag">    9.56    9.97</time>
   <time name="diis">   25.77   25.81</time>
   <time name="orth">    0.49    0.49</time>
   <time name="total">   39.88   40.36</time>
   <energy>
    <i name="e_fr_energy">   -298.92335719 </i>
    <i name="e_wo_entrp">   -298.93653833 </i>
    <i name="e_0_energy">   -298.92775091 </i>
   </energy>
  </scstep>
  <scstep>
   <time name="diag">    9.15    9.17</time>
   <time name="diis">   26.31   26.74</time>
   <time name="orth">    0.49    0.49</time>
   <time name="total">   39.94   40.42</time>
   <energy>
    <i name="e_fr_energy">   -298.90052328 </i>
    <i name="e_wo_entrp">   -298.91737867 </i>
    <i name="e_0_energy">   -298.90614175 </i>
   </energy>
  </scstep>
  <scstep>
   <time name="diag">    9.12    9.14</time>
   <time name="diis">   25.30   25.37</time>
   <time name="orth">    0.50    0.50</time>
   <time name="total">   38.97   39.09</time>
   <energy>
    <i name="e_fr_energy">   -298.85407666 </i>
    <i name="e_wo_entrp">   -298.86772616 </i>
    <i name="e_0_energy">   -298.85862649 </i>
   </energy>
  </scstep>
  <scstep>
   <time name="diag">    9.68   10.17</time>
   <time name="diis">   26.86   26.91</time>
   <time name="orth">    0.50    0.50</time>
   <time name="total">   41.07   41.65</time>
   <energy>
    <i name="e_fr_energy">   -298.86321621 </i>
    <i name="e_wo_entrp">   -298.87691498 </i>
    <i name="e_0_energy">   -298.86778247 </i>
   </energy>
  </scstep>
  <scstep>
   <time name="diag">    9.11    9.13</time>
   <time name="diis">   26.30   26.75</time>
   <time name="orth">    0.49    0.49</time>
   <time name="total">   39.96   40.46</time>
   <energy>
    <i name="e_fr_energy">   -298.62712337 </i>
    <i name="e_wo_entrp">   -298.64281592 </i>
    <i name="e_0_energy">   -298.63235422 </i>
   </energy>
  </scstep>
  <scstep>
   <time name="diag">    9.15    9.17</time>
   <time name="diis">   25.16   25.23</time>
   <time name="orth">    0.49    0.49</time>
   <time name="total">   38.84   38.94</time>
   <energy>
    <i name="e_fr_energy">   -298.09172203 </i>
    <i name="e_wo_entrp">   -298.11368670 </i>
    <i name="e_0_energy">   -298.09904358 </i>
   </energy>
  </scstep>
  <scstep>
   <time name="diag">    9.47    9.82</time>
   <time name="diis">   25.27   25.30</time>
   <time name="orth">    0.49    0.49</time>
   <time name="total">   39.34   39.80</time>
   <energy>
    <i name="e_fr_energy">   -297.83138054 </i>
    <i name="e_wo_entrp">   -297.86289721 </i>
    <i name="e_0_energy">   -297.84188610 </i>
   </energy>
  </scstep>
  <scstep>
   <time name="diag">    9.13    9.15</time>
   <time name="diis">   26.88   27.34</time>
   <time name="orth">    0.49    0.49</time>
   <time name="total">   40.59   41.08</time>
   <energy>
    <i name="e_fr_energy">   -298.08153263 </i>
    <i name="e_wo_entrp">   -298.11725296 </i>
    <i name="e_0_energy">   -298.09343941 </i>
   </energy>
  </scstep>
  <scstep>
   <time name="diag">    9.12    9.14</time>
   <time name="diis">   27.63   27.70</time>
   <time name="orth">    0.49    0.49</time>
   <time name="total">   41.66   42.07</time>
   <energy>
    <i name="e_fr_energy">   -298.17592310 </i>
    <i name="e_wo_entrp">   -298.20984275 </i>
    <i name="e_0_energy">   -298.18722965 </i>
   </energy>
  </scstep>
  <scstep>
   <time name="diag">    9.14    9.16</time>
   <time name="diis">   25.33   25.38</time>
   <time name="orth">    0.49    0.49</time>
   <time name="total">   39.02   39.10</time>
   <energy>
    <i name="e_fr_energy">   -298.33713461 </i>
    <i name="e_wo_entrp">   -298.36862331 </i>
    <i name="e_0_energy">   -298.34763084 </i>
   </energy>
  </scstep>
  <scstep>
   <time name="diag">    9.06    9.07</time>
   <time name="diis">   25.90   26.38</time>
   <time name="orth">    0.50    0.50</time>
   <time name="total">   39.48   40.01</time>
   <energy>
    <i name="e_fr_energy">   -298.67624122 </i>
    <i name="e_wo_entrp">   -298.69764076 </i>
    <i name="e_0_energy">   -298.68337440 </i>
   </energy>
  </scstep>
  <scstep>
   <time name="diag">    9.14    9.16</time>
   <time name="diis">   25.50   25.59</time>
   <time name="orth">    0.49    0.49</time>
   <time name="total">   39.38   39.89</time>
   <energy>
    <i name="e_fr_energy">   -298.89828382 </i>
    <i name="e_wo_entrp">   -298.91505212 </i>
    <i name="e_0_energy">   -298.90387326 </i>
   </energy>
  </scstep>
  <scstep>
   <time name="diag">    9.20    9.23</time>
   <time name="diis">   26.93   27.00</time>
   <time name="orth">    0.49    0.49</time>
   <time name="total">   40.72   40.86</time>
   <energy>
    <i name="e_fr_energy">   -299.21407273 </i>
    <i name="e_wo_entrp">   -299.23137755 </i>
    <i name="e_0_energy">   -299.21984101 </i>
   </energy>
  </scstep>
  <scstep>
   <time name="diag">    9.17    9.19</time>
   <time name="diis">   26.29   26.80</time>
   <time name="orth">    0.49    0.49</time>
   <time name="total">   39.99   40.56</time>
   <energy>
    <i name="e_fr_energy">   -299.28284952 </i>
    <i name="e_wo_entrp">   -299.30095707 </i>
    <i name="e_0_energy">   -299.28888537 </i>
   </energy>
  </scstep>
  <scstep>
   <time name="diag">    9.05    9.06</time>
   <time name="diis">   25.64   25.73</time>
   <time name="orth">    0.49    0.49</time>
   <time name="total">   39.67   40.16</time>
   <energy>
    <i name="e_fr_energy">   -299.80431412 </i>
    <i name="e_wo_entrp">   -299.82857031 </i>
    <i name="e_0_energy">   -299.81239952 </i>
   </energy>
  </scstep>
  <scstep>
   <time name="diag">    9.18    9.20</time>
   <time name="diis">   25.24   25.32</time>
   <time name="orth">    0.49    0.49</time>
   <time name="total">   39.01   39.12</time>
   <energy>
    <i name="e_fr_energy">   -299.84073434 </i>
    <i name="e_wo_entrp">   -299.84367291 </i>
    <i name="e_0_energy">   -299.84171387 </i>
   </energy>
  </scstep>
  <scstep>
   <time name="diag">    9.14    9.17</time>
   <time name="diis">   28.84   29.30</time>
   <time name="orth">    0.49    0.50</time>
   <time name="total">   42.52   43.02</time>
   <energy>
    <i name="e_fr_energy">   -299.89278415 </i>
    <i name="e_wo_entrp">   -299.88713563 </i>
    <i name="e_0_energy">   -299.89090131 </i>
   </energy>
  </scstep>
  <scstep>
   <time name="diag">    9.15    9.18</time>
   <time name="diis">   25.83   26.14</time>
   <time name="orth">    0.58    0.75</time>
   <time name="total">   39.84   40.39</time>
   <energy>
    <i name="e_fr_energy">   -300.88766230 </i>
    <i name="e_wo_entrp">   -300.90165464 </i>
    <i name="e_0_energy">   -300.89232641 </i>
   </energy>
  </scstep>
  <scstep>
   <time name="diag">    9.15    9.16</time>
   <time name="diis">   25.25   25.30</time>
   <time name="orth">    0.49    0.49</time>
   <time name="total">   38.95   39.06</time>
   <energy>
    <i name="e_fr_energy">   -301.22797915 </i>
    <i name="e_wo_entrp">   -301.23388207 </i>
    <i name="e_0_energy">   -301.22994679 </i>
   </energy>
  </scstep>
  <scstep>
   <time name="diag">    9.21    9.28</time>
   <time name="diis">   29.02   29.48</time>
   <time name="orth">    0.49    0.49</time>
   <time name="total">   42.81   43.35</time>
   <energy>
    <i name="e_fr_energy">   -301.24121167 </i>
    <i name="e_wo_entrp">   -301.24644657 </i>
    <i name="e_0_energy">   -301.24295664 </i>
   </energy>
  </scstep>
  <scstep>
   <time name="diag">    9.13    9.14</time>
   <time name="diis">   26.08   26.52</time>
   <time name="orth">    0.51    0.51</time>
   <time name="total">   39.93   40.42</time>
   <energy>
    <i name="e_fr_energy">   -300.41034068 </i>
    <i name="e_wo_entrp">   -300.41687292 </i>
    <i name="e_0_energy">   -300.41251810 </i>
   </energy>
  </scstep>
  <scstep>
   <time name="diag">    9.16    9.18</time>
   <time name="diis">   29.17   29.21</time>
   <time name="orth">    0.49    0.50</time>
   <time name="total">   42.89   42.98</time>
   <energy>
    <i name="e_fr_energy">   -300.40699744 </i>
    <i name="e_wo_entrp">   -300.41565584 </i>
    <i name="e_0_energy">   -300.40988357 </i>
   </energy>
  </scstep>
  <scstep>
   <time name="diag">    9.58   10.09</time>
   <time name="diis">   26.06   26.15</time>
   <time name="orth">    0.49    0.49</time>
   <time name="total">   40.19   40.82</time>
   <energy>
    <i name="e_fr_energy">   -300.41958010 </i>
    <i name="e_wo_entrp">   -300.42990871 </i>
    <i name="e_0_energy">   -300.42302297 </i>
   </energy>
  </scstep>
  <scstep>
   <time name="diag">    9.14    9.15</time>
   <time name="diis">   25.02   25.38</time>
   <time name="orth">    0.49    0.49</time>
   <time name="total">   38.65   39.06</time>
   <energy>
    <i name="e_fr_energy">   -300.37393927 </i>
    <i name="e_wo_entrp">   -300.38536699 </i>
    <i name="e_0_energy">   -300.37774851 </i>
   </energy>
  </scstep>
  <scstep>
   <time name="diag">    9.14    9.15</time>
   <time name="diis">   24.01   24.04</time>
   <time name="orth">    0.49    0.49</time>
   <time name="total">   34.21   34.26</time>
   <energy>
    <i name="alphaZ">    494.33689101 </i>
    <i name="ewald"> 399291.73790653 </i>
    <i name="hartreedc">-433456.62449149 </i>
    <i name="XCdc">   1642.10194780 </i>
    <i name="pawpsdc">  38465.04109956 </i>
    <i name="pawaedc"> -39172.28381581 </i>
    <i name="eentropy">      0.01352680 </i>
    <i name="bandstr">  -5962.61995245 </i>
    <i name="atom">  38397.77816617 </i>
    <i name="e_fr_energy">   -300.51872187 </i>
    <i name="e_wo_entrp">   -300.53224867 </i>
    <i name="e_0_energy">   -300.52323081 </i>
   </energy>
  </scstep>
  <structure>
   <crystal>
    <varray name="basis" >
     <v>       2.87357350      -2.87357350       4.70833511 </v>
     <v>       5.74714699       0.00000000       0.00000000 </v>
     <v>       0.00000000      33.06569101      20.18052901 </v>
    </varray>
    <i name="volume">   1228.01926054 </i>
    <varray name="rec_basis" >
     <v>       0.00000000      -0.09444515       0.15474789 </v>
     <v>       0.17399938       0.04722258      -0.07737394 </v>
     <v>       0.00000000       0.02203507       0.01344836 </v>
    </varray>
   </crystal>
   <varray name="positions" >
    <v>       0.22067121       0.89240241       0.08901558 </v>
    <v>       0.66995655       0.17444941       0.21797696 </v>
    <v>       0.94927612       0.02809995       0.15233499 </v>
    <v>       0.39751351       0.31656844       0.28415796 </v>
    <v>       0.44927612       0.52809995       0.15233499 </v>
    <v>       0.89153140       0.32043014       0.28476253 </v>
    <v>       0.44927612       0.02809995       0.15233499 </v>
    <v>       0.89287642       0.82394613       0.28438502 </v>
    <v>       0.90282244       0.55132680       0.10484543 </v>
    <v>       0.34557744       0.83975152       0.23328652 </v>
    <v>       0.99505558       0.50774575       0.20407657 </v>
    <v>       0.43874628       0.80122363       0.33523198 </v>
    <v>       0.53851998       0.23347802       0.07318573 </v>
    <v>       0.11208778       0.47427961       0.34948124 </v>
    <v>       0.78329572       0.63001600       0.31454587 </v>
    <v>       0.87926422       0.06310591       0.05527763 </v>
    <v>       0.33660877       0.33473316       0.18284480 </v>
    <v>       0.58246139       0.21150732       0.12452493 </v>
    <v>       0.04741438       0.49221184       0.25737957 </v>
    <v>       0.54908276       0.70537688       0.38709364 </v>
    <v>       0.09516526       0.72856013       0.12156099 </v>
    <v>       0.54336112       0.46773616       0.25100781 </v>
    <v>       0.72962923       0.15284488       0.30882809 </v>
    <v>       0.85888103       0.57329750       0.05350623 </v>
    <v>       0.31005701       0.84820776       0.18038698 </v>
    <v>       0.56207820       0.72169891       0.12275353 </v>
    <v>       0.00357430       0.01638091       0.25351472 </v>
    <v>       0.79990269       0.33174602       0.18410538 </v>
    <v>       0.24884693       0.61954652       0.31478441 </v>
    <v>       0.34617716       0.60305419       0.05647018 </v>
    <v>       0.24087185       0.17456320       0.31693594 </v>
    <v>       0.79794602       0.88005388       0.18475664 </v>
    <v>       0.34617716       0.05624469       0.05647018 </v>
    <v>       0.54052578       0.01616803       0.25196066 </v>
    <v>       0.09516526       0.18175063       0.12156099 </v>
    <v>       0.10002758       0.73965742       0.38100177 </v>
    <v>       0.98612041       0.32892516       0.38336013 </v>
    <v>       0.34047062       0.60391201       0.02782883 </v>
    <v>       0.92434681       0.68523651       0.03696881 </v>
    <v>       0.34363348       0.06399961       0.02783421 </v>
    <v>       0.88838126       0.05560908       0.02665597 </v>
    <v>       0.41488487       0.67484843       0.39586827 </v>
    <v>       0.00686140       0.74488412       0.40148932 </v>
    <v>       0.99912638       0.15590010       0.37785260 </v>
    <v>       0.71438639       0.53917827       0.38850077 </v>
   </varray>
  </structure>
  <varray name="forces" >
   <v>       0.15232289      -1.06415287      -1.15746472 </v>
   <v>      -0.07971489      -0.56583079      -0.25716137 </v>
   <v>       0.19847682       1.14245680       0.13236987 </v>
   <v>       0.00354450      -0.60513859      -0.37271691 </v>
   <v>      -0.06380043       0.60847727       0.22052350 </v>
   <v>      -0.25603867      -0.22759757      -0.11021992 </v>
   <v>       0.19673599       0.71062923       0.21757275 </v>
   <v>       0.23617414      -0.45103319      -0.14322764 </v>
   <v>       0.23247906      -1.38254775      -1.04474665 </v>
   <v>       0.02249656      -0.37149658      -0.13692934 </v>
   <v>       0.02899787      -0.28600340      -0.15415236 </v>
   <v>       0.04623895      -0.51825842      -0.49283515 </v>
   <v>      -0.16756636      -1.09329893      -0.20394029 </v>
   <v>       0.15128621      -0.01144553      -2.12184941 </v>
   <v>       0.16220297       0.64602192       0.13352410 </v>
   <v>      -0.23247148      -1.90724192      -1.98374387 </v>
   <v>      -0.12468331       0.03987886       0.10289804 </v>
   <v>      -0.01346059      -0.10512128       0.29528668 </v>
   <v>       0.07864393       0.67455294      -0.33425192 </v>
   <v>      -0.27755263      -0.37999675      -0.06538575 </v>
   <v>      -0.47754398      -0.41775754       0.29341187 </v>
   <v>      -0.08931148       0.41321235       0.28771654 </v>
   <v>       0.00006782      -0.28081980       1.11843992 </v>
   <v>       0.58619294      -0.07020996       0.31070964 </v>
   <v>       0.11024323       0.08401333       0.07837685 </v>
   <v>      -0.01888850      -0.23491052      -0.19765023 </v>
   <v>      -0.09970205       0.57999856       0.23549908 </v>
   <v>      -0.06318866       0.09075599      -0.08483337 </v>
   <v>       0.95389551      -0.23106281       0.36315507 </v>
   <v>      -1.61630888      -3.44272102      -1.38113096 </v>
   <v>      -0.85323176      -0.41749853       0.37798091 </v>
   <v>       0.15582217       0.12086889       0.14155927 </v>
   <v>       1.89028100      -3.54458251      -1.23899891 </v>
   <v>       0.08787681       0.42793543       0.30525904 </v>
   <v>       0.00509211      -0.00755323       0.17112225 </v>
   <v>       0.46245232       1.15405336       0.51185602 </v>
   <v>      -1.46631114       0.20742861      -0.25935921 </v>
   <v>       0.48105207       3.37410984       2.08474343 </v>
   <v>      -1.23586873       1.54738125       0.40063900 </v>
   <v>      -0.54314455       3.48641691       1.91534907 </v>
   <v>       0.34203318       3.00398571       1.81393578 </v>
   <v>       0.11115294      -0.12572543      -0.03367229 </v>
   <v>       0.18728937      -0.75692511       0.12791033 </v>
   <v>       0.76341447       0.25710685       0.15780392 </v>
   <v>       0.03232226      -0.07035406      -0.02337267 </v>
  </varray>
  <energy>
   <i name="e_fr_energy">   -300.51872187 </i>
   <i name="e_wo_entrp">   -300.52323081 </i>
   <i name="e_0_energy">      0.01352680 </i>
  </energy>
  <time name="totalsc"> 2492.89 2515.94</time>
 </calculation>
 <calculation>
  <scstep>
   <time name="dav">   52.74   53.21</time>
   <time name="total">   57.17   57.69</time>
   <energy>
    <i name="alphaZ">    494.33689101 </i>
    <i name="ewald"> 399795.47525924 </i>
    <i name="hartreedc">-433951.44044202 </i>
    <i name="XCdc">   1644.28269242 </i>
    <i name="pawpsdc">  38469.76732509 </i>
    <i name="pawaedc"> -39176.99651370 </i>
    <i name="eentropy">      0.01592648 </i>
    <i name="bandstr">  -5964.83935149 </i>
    <i name="atom">  38397.77816617 </i>
    <i name="e_fr_energy">   -291.62004680 </i>
    <i name="e_wo_entrp">   -291.63597328 </i>
    <i name="e_0_energy">   -291.62535563 </i>
   </energy>
  </scstep>
  <scstep>
   <time name="diag">    9.17    9.18</time>
   <time name="diis">   30.84   30.89</time>
   <time name="orth">    0.49    0.50</time>
   <time name="total">   44.31   44.41</time>
   <energy>
    <i name="e_fr_energy">   -511.82588842 </i>
    <i name="e_wo_entrp">   -511.84654581 </i>
    <i name="e_0_energy">   -511.83277421 </i>
   </energy>
  </scstep>
  <scstep>
   <time name="diag">    9.54    9.85</time>
   <time name="diis">   27.96   28.10</time>
   <time name="orth">    0.49    0.49</time>
   <time name="total">   42.02   42.51</time>
   <energy>
    <i name="e_fr_energy">   -321.19751094 </i>
    <i name="e_wo_entrp">   -321.22343557 </i>
    <i name="e_0_energy">   -321.20615248 </i>
   </energy>
  </scstep>
  <scstep>
   <time name="diag">    9.14    9.15</time>
   <time name="diis">   28.47   28.86</time>
   <time name="orth">    0.49    0.50</time>
   <time name="total">   42.18   42.59</time>
   <energy>
    <i name="e_fr_energy">   -298.02395895 </i>
    <i name="e_wo_entrp">   -298.05468598 </i>
    <i name="e_0_energy">   -298.03420129 </i>
   </energy>
  </scstep>
  <scstep>
   <time name="diag">    9.12    9.15</time>
   <time name="diis">   26.75   26.80</time>
   <time name="orth">    0.49    0.49</time>
   <time name="total">   40.42   40.57</time>
   <energy>
    <i name="e_fr_energy">   -297.98151029 </i>
    <i name="e_wo_entrp">   -297.94331475 </i>
    <i name="e_0_energy">   -297.96877845 </i>
   </energy>
  </scstep>
  <scstep>
   <time name="diag">    9.48    9.87</time>
   <time name="diis">   27.80   27.87</time>
   <time name="orth">    0.50    0.50</time>
   <time name="total">   41.83   42.33</time>
   <energy>
    <i name="e_fr_energy">   -297.00404456 </i>
    <i name="e_wo_entrp">   -297.00538616 </i>
    <i name="e_0_energy">   -297.00449176 </i>
   </energy>
  </scstep>
  <scstep>
   <time name="diag">    9.11    9.13</time>
   <time name="diis">   26.83   27.32</time>
   <time name="orth">    0.50    0.50</time>
   <time name="total">   40.52   41.04</time>
   <energy>
    <i name="e_fr_energy">   -298.41910158 </i>
    <i name="e_wo_entrp">   -298.40531056 </i>
    <i name="e_0_energy">   -298.41450457 </i>
   </energy>
  </scstep>
  <scstep>
   <time name="diag">    9.15    9.17</time>
   <time name="diis">   27.20   27.29</time>
   <time name="orth">    0.49    0.49</time>
   <time name="total">   41.24   41.69</time>
   <energy>
    <i name="e_fr_energy">   -298.57681205 </i>
    <i name="e_wo_entrp">   -298.56638209 </i>
    <i name="e_0_energy">   -298.57333540 </i>
   </energy>
  </scstep>
  <scstep>
   <time name="diag">    9.40    9.42</time>
   <time name="diis">   26.95   26.99</time>
   <time name="orth">    0.49    0.49</time>
   <time name="total">   40.89   41.08</time>
   <energy>
    <i name="e_fr_energy">   -298.50674638 </i>
    <i name="e_wo_entrp">   -298.49814262 </i>
    <i name="e_0_energy">   -298.50387846 </i>
   </energy>
  </scstep>
  <scstep>
   <time name="diag">    9.14    9.16</time>
   <time name="diis">   26.99   27.47</time>
   <time name="orth">    0.50    0.50</time>
   <time name="total">   40.65   41.19</time>
   <energy>
    <i name="e_fr_energy">   -298.25648197 </i>
    <i name="e_wo_entrp">   -298.25792290 </i>
    <i name="e_0_energy">   -298.25696228 </i>
   </energy>
  </scstep>
  <scstep>
   <time name="diag">    9.12    9.13</time>
   <time name="diis">   27.55   28.17</time>
   <time name="orth">    0.50    0.51</time>
   <time name="total">   41.26   41.95</time>
   <energy>
    <i name="e_fr_energy">   -298.33169918 </i>
    <i name="e_wo_entrp">   -298.32971679 </i>
    <i name="e_0_energy">   -298.33103838 </i>
   </energy>
  </scstep>
  <scstep>
   <time name="diag">    9.13    9.14</time>
   <time name="diis">   26.47   26.51</time>
   <time name="orth">    0.49    0.49</time>
   <time name="total">   40.26   40.32</time>
   <energy>
    <i name="e_fr_energy">   -298.30938187 </i>
    <i name="e_wo_entrp">   -298.30504211 </i>
    <i name="e_0_energy">   -298.30793528 </i>
   </energy>
  </scstep>
  <scstep>
   <time name="diag">    9.15    9.19</time>
   <time name="diis">   26.71   27.06</time>
   <time name="orth">    0.49    0.49</time>
   <time name="total">   40.41   40.85</time>
   <energy>
    <i name="e_fr_energy">   -298.50109059 </i>
    <i name="e_wo_entrp">   -298.52353508 </i>
    <i name="e_0_energy">   -298.50857209 </i>
   </energy>
  </scstep>
  <scstep>
   <time name="diag">    9.14    9.15</time>
   <time name="diis">   26.82   27.25</time>
   <time name="orth">    0.61    0.61</time>
   <time name="total">   40.67   41.16</time>
   <energy>
    <i name="e_fr_energy">   -298.67066979 </i>
    <i name="e_wo_entrp">   -298.67813253 </i>
    <i name="e_0_energy">   -298.67315737 </i>
   </energy>
  </scstep>
  <scstep>
   <time name="diag">    9.11    9.12</time>
   <time name="diis">   28.08   28.14</time>
   <time name="orth">    0.50    0.50</time>
   <time name="total">   41.77   41.85</time>
   <energy>
    <i name="e_fr_energy">   -298.69501133 </i>
    <i name="e_wo_entrp">   -298.70210855 </i>
    <i name="e_0_energy">   -298.69737707 </i>
   </energy>
  </scstep>
  <scstep>
   <time name="diag">    9.22    9.30</time>
   <time name="diis">   27.41   27.82</time>
   <time name="orth">    0.49    0.49</time>
   <time name="total">   41.19   41.68</time>
   <energy>
    <i name="e_fr_energy">   -298.70460917 </i>
    <i name="e_wo_entrp">   -298.71177283 </i>
    <i name="e_0_energy">   -298.70699706 </i>
   </energy>
  </scstep>
  <scstep>
   <time name="diag">    9.11    9.11</time>
   <time name="diis">   26.62   27.01</time>
   <time name="orth">    0.49    0.49</time>
   <time name="total">   40.28   40.71</time>
   <energy>
    <i name="e_fr_energy">   -298.70842231 </i>
    <i name="e_wo_entrp">   -298.71559404 </i>
    <i name="e_0_energy">   -298.71081288 </i>
   </energy>
  </scstep>
  <scstep>
   <time name="diag">    9.15    9.16</time>
   <time name="diis">   26.50   26.54</time>
   <time name="orth">    0.49    0.49</time>
   <time name="total">   40.21   40.28</time>
   <energy>
    <i name="e_fr_energy">   -298.66789288 </i>
    <i name="e_wo_entrp">   -298.67709480 </i>
    <i name="e_0_energy">   -298.67096019 </i>
   </energy>
  </scstep>
  <scstep>
   <time name="diag">    9.70   10.12</time>
   <time name="diis">   26.93   26.99</time>
   <time name="orth">    0.49    0.49</time>
   <time name="total">   41.21   41.72</time>
   <energy>
    <i name="e_fr_energy">   -298.69566600 </i>
    <i name="e_wo_entrp">   -298.70294048 </i>
    <i name="e_0_energy">   -298.69809083 </i>
   </energy>
  </scstep>
  <scstep>
   <time name="diag">    9.14    9.15</time>
   <time name="diis">   27.26   27.66</time>
   <time name="orth">    0.49    0.49</time>
   <time name="total">   40.90   41.34</time>
   <energy>
    <i name="e_fr_energy">   -298.69301558 </i>
    <i name="e_wo_entrp">   -298.70384102 </i>
    <i name="e_0_energy">   -298.69662406 </i>
   </energy>
  </scstep>
  <scstep>
   <time name="diag">    9.21    9.26</time>
   <time name="diis">   26.64   26.69</time>
   <time name="orth">    0.49    0.49</time>
   <time name="total">   40.45   40.62</time>
   <energy>
    <i name="e_fr_energy">   -298.68610240 </i>
    <i name="e_wo_entrp">   -298.70333688 </i>
    <i name="e_0_energy">   -298.69184723 </i>
   </energy>
  </scstep>
  <scstep>
   <time name="diag">    9.50    9.86</time>
   <time name="diis">   26.26   26.30</time>
   <time name="orth">    0.49    0.49</time>
   <time name="total">   40.33   40.75</time>
   <energy>
    <i name="e_fr_energy">   -298.79531854 </i>
    <i name="e_wo_entrp">   -298.80614627 </i>
    <i name="e_0_energy">   -298.79892779 </i>
   </energy>
  </scstep>
  <scstep>
   <time name="diag">    9.11    9.13</time>
   <time name="diis">   27.47   28.48</time>
   <time name="orth">    0.49    0.49</time>
   <time name="total">   41.18   42.26</time>
   <energy>
    <i name="e_fr_energy">   -299.14260840 </i>
    <i name="e_wo_entrp">   -299.12939170 </i>
    <i name="e_0_energy">   -299.13820283 </i>
   </energy>
  </scstep>
  <scstep>
   <time name="diag">    9.14    9.16</time>
   <time name="diis">   27.41   27.48</time>
   <time name="orth">    0.49    0.49</time>
   <time name="total">   41.34   41.60</time>
   <energy>
    <i name="e_fr_energy">   -299.69053842 </i>
    <i name="e_wo_entrp">   -299.69465266 </i>
    <i name="e_0_energy">   -299.69190983 </i>
   </energy>
  </scstep>
  <scstep>
   <time name="diag">    9.91    9.95</time>
   <time name="diis">   26.08   26.13</time>
   <time name="orth">    0.49    0.49</time>
   <time name="total">   40.75   41.04</time>
   <energy>
    <i name="e_fr_energy">   -299.93544287 </i>
    <i name="e_wo_entrp">   -299.94724301 </i>
    <i name="e_0_energy">   -299.93937625 </i>
   </energy>
  </scstep>
  <scstep>
   <time name="diag">    9.15    9.17</time>
   <time name="diis">   26.45   26.82</time>
   <time name="orth">    0.49    0.49</time>
   <time name="total">   40.18   40.61</time>
   <energy>
    <i name="e_fr_energy">   -299.81383848 </i>
    <i name="e_wo_entrp">   -299.80902104 </i>
    <i name="e_0_energy">   -299.81223267 </i>
   </energy>
  </scstep>
  <scstep>
   <time name="diag">    9.12    9.14</time>
   <time name="diis">   25.64   25.71</time>
   <time name="orth">    0.49    0.49</time>
   <time name="total">   39.82   40.23</time>
   <energy>
    <i name="e_fr_energy">   -299.99298719 </i>
    <i name="e_wo_entrp">   -299.99331068 </i>
    <i name="e_0_energy">   -299.99309502 </i>
   </energy>
  </scstep>
  <scstep>
   <time name="diag">    9.20    9.22</time>
   <time name="diis">   25.04   25.08</time>
   <time name="orth">    0.49    0.49</time>
   <time name="total">   38.96   39.32</time>
   <energy>
    <i name="e_fr_energy">   -300.14664527 </i>
    <i name="e_wo_entrp">   -300.14996723 </i>
    <i name="e_0_energy">   -300.14775259 </i>
   </energy>
  </scstep>
  <scstep>
   <time name="diag">    9.16    9.18</time>
   <time name="diis">   27.09   27.85</time>
   <time name="orth">    0.49    0.49</time>
   <time name="total">   40.80   41.62</time>
   <energy>
    <i name="e_fr_energy">   -299.92885274 </i>
    <i name="e_wo_entrp">   -299.90958054 </i>
    <i name="e_0_energy">   -299.92242867 </i>
   </energy>
  </scstep>
  <scstep>
   <time name="diag">    9.14    9.16</time>
   <time name="diis">   27.04   27.44</time>
   <time name="orth">    0.53    0.57</time>
   <time name="total">   41.04   41.56</time>
   <energy>
    <i name="e_fr_energy">   -299.98315340 </i>
    <i name="e_wo_entrp">   -299.96019069 </i>
    <i name="e_0_energy">   -299.97549916 </i>
   </energy>
  </scstep>
  <scstep>
   <time name="diag">    9.13    9.14</time>
   <time name="diis">   26.78   26.84</time>
   <time name="orth">    0.50    0.50</time>
   <time name="total">   40.53   40.62</time>
   <energy>
    <i name="e_fr_energy">   -299.71947971 </i>
    <i name="e_wo_entrp">   -299.70856593 </i>
    <i name="e_0_energy">   -299.71584178 </i>
   </energy>
  </scstep>
  <scstep>
   <time name="diag">    9.31    9.46</time>
   <time name="diis">   26.00   26.42</time>
   <time name="orth">    0.49    0.49</time>
   <time name="total">   39.81   40.42</time>
   <energy>
    <i name="e_fr_energy">   -299.87810164 </i>
    <i name="e_wo_entrp">   -299.88140455 </i>
    <i name="e_0_energy">   -299.87920261 </i>
   </energy>
  </scstep>
  <scstep>
   <time name="diag">    9.03    9.04</time>
   <time name="diis">   24.98   25.36</time>
   <time name="orth">    0.51    0.53</time>
   <time name="total">   38.72   39.17</time>
   <energy>
    <i name="e_fr_energy">   -299.97164791 </i>
    <i name="e_wo_entrp">   -299.96998542 </i>
    <i name="e_0_energy">   -299.97109375 </i>
   </energy>
  </scstep>
  <scstep>
   <time name="diag">    9.15    9.17</time>
   <time name="diis">   24.81   24.86</time>
   <time name="orth">    0.49    0.49</time>
   <time name="total">   38.53   38.61</time>
   <energy>
    <i name="e_fr_energy">   -299.99354256 </i>
    <i name="e_wo_entrp">   -299.99384585 </i>
    <i name="e_0_energy">   -299.99364365 </i>
   </energy>
  </scstep>
  <scstep>
   <time name="diag">    9.15    9.25</time>
   <time name="diis">   26.26   26.63</time>
   <time name="orth">    0.49    0.49</time>
   <time name="total">   39.99   40.47</time>
   <energy>
    <i name="e_fr_energy">   -300.00834261 </i>
    <i name="e_wo_entrp">   -300.00835263 </i>
    <i name="e_0_energy">   -300.00834595 </i>
   </energy>
  </scstep>
  <scstep>
   <time name="diag">    9.14    9.16</time>
   <time name="diis">   26.56   26.84</time>
   <time name="orth">    0.55    0.62</time>
   <time name="total">   40.45   40.84</time>
   <energy>
    <i name="e_fr_energy">   -299.98175976 </i>
    <i name="e_wo_entrp">   -299.98241055 </i>
    <i name="e_0_energy">   -299.98197669 </i>
   </energy>
  </scstep>
  <scstep>
   <time name="diag">    9.07    9.09</time>
   <time name="diis">   25.62   25.67</time>
   <time name="orth">    0.49    0.49</time>
   <time name="total">   39.21   39.29</time>
   <energy>
    <i name="e_fr_energy">   -299.81420402 </i>
    <i name="e_wo_entrp">   -299.81311109 </i>
    <i name="e_0_energy">   -299.81383971 </i>
   </energy>
  </scstep>
  <scstep>
   <time name="diag">    9.12    9.23</time>
   <time name="diis">   26.24   26.69</time>
   <time name="orth">    0.49    0.49</time>
   <time name="total">   39.89   40.46</time>
   <energy>
    <i name="e_fr_energy">   -299.76711998 </i>
    <i name="e_wo_entrp">   -299.76741050 </i>
    <i name="e_0_energy">   -299.76721682 </i>
   </energy>
  </scstep>
  <scstep>
   <time name="diag">    9.05    9.06</time>
   <time name="diis">   27.24   27.58</time>
   <time name="orth">    0.51    0.52</time>
   <time name="total">   40.91   41.29</time>
   <energy>
    <i name="e_fr_energy">   -299.73862855 </i>
    <i name="e_wo_entrp">   -299.72889738 </i>
    <i name="e_0_energy">   -299.73538483 </i>
   </energy>
  </scstep>
  <scstep>
   <time name="diag">    9.11    9.12</time>
   <time name="diis">   25.14   25.20</time>
   <time name="orth">    0.49    0.49</time>
   <time name="total">   38.77   38.84</time>
   <energy>
    <i name="e_fr_energy">   -299.86147421 </i>
    <i name="e_wo_entrp">   -299.84923366 </i>
    <i name="e_0_energy">   -299.85739403 </i>
   </energy>
  </scstep>
  <scstep>
   <time name="diag">    9.12    9.31</time>
   <time name="diis">   25.98   26.34</time>
   <time name="orth">    0.49    0.49</time>
   <time name="total">   39.68   40.23</time>
   <energy>
    <i name="e_fr_energy">   -299.94982528 </i>
    <i name="e_wo_entrp">   -299.93927588 </i>
    <i name="e_0_energy">   -299.94630882 </i>
   </energy>
  </scstep>
  <scstep>
   <time name="diag">    9.14    9.16</time>
   <time name="diis">   26.23   26.86</time>
   <time name="orth">    0.49    0.50</time>
   <time name="total">   40.01   40.67</time>
   <energy>
    <i name="e_fr_energy">   -300.02815332 </i>
    <i name="e_wo_entrp">   -300.01457333 </i>
    <i name="e_0_energy">   -300.02362666 </i>
   </energy>
  </scstep>
  <scstep>
   <time name="diag">    9.13    9.17</time>
   <time name="diis">   26.02   26.06</time>
   <time name="orth">    0.49    0.50</time>
   <time name="total">   39.72   39.81</time>
   <energy>
    <i name="e_fr_energy">   -300.00401858 </i>
    <i name="e_wo_entrp">   -299.98949103 </i>
    <i name="e_0_energy">   -299.99917606 </i>
   </energy>
  </scstep>
  <scstep>
   <time name="diag">    9.16    9.22</time>
   <time name="diis">   27.04   27.47</time>
   <time name="orth">    0.49    0.50</time>
   <time name="total">   40.78   41.29</time>
   <energy>
    <i name="e_fr_energy">   -299.91700697 </i>
    <i name="e_wo_entrp">   -299.90669778 </i>
    <i name="e_0_energy">   -299.91357057 </i>
   </energy>
  </scstep>
  <scstep>
   <time name="diag">    9.13    9.14</time>
   <time name="diis">   26.29   26.76</time>
   <time name="orth">    0.51    0.51</time>
   <time name="total">   40.02   40.51</time>
   <energy>
    <i name="e_fr_energy">   -299.89428725 </i>
    <i name="e_wo_entrp">   -299.90232678 </i>
    <i name="e_0_energy">   -299.89696709 </i>
   </energy>
  </scstep>
  <scstep>
   <time name="diag">    9.16    9.17</time>
   <time name="diis">   26.39   26.43</time>
   <time name="orth">    0.49    0.50</time>
   <time name="total">   40.10   40.17</time>
   <energy>
    <i name="e_fr_energy">   -299.94250564 </i>
    <i name="e_wo_entrp">   -299.96303178 </i>
    <i name="e_0_energy">   -299.94934768 </i>
   </energy>
  </scstep>
  <scstep>
   <time name="diag">    9.12    9.20</time>
   <time name="diis">   26.17   26.62</time>
   <time name="orth">    0.49    0.49</time>
   <time name="total">   39.84   40.38</time>
   <energy>
    <i name="e_fr_energy">   -299.97626451 </i>
    <i name="e_wo_entrp">   -299.99848937 </i>
    <i name="e_0_energy">   -299.98367280 </i>
   </energy>
  </scstep>
  <scstep>
   <time name="diag">    9.06    9.07</time>
   <time name="diis">   31.43   31.87</time>
   <time name="orth">    0.49    0.49</time>
   <time name="total">   45.02   45.47</time>
   <energy>
    <i name="e_fr_energy">   -300.00986261 </i>
    <i name="e_wo_entrp">   -300.03084564 </i>
    <i name="e_0_energy">   -300.01685696 </i>
   </energy>
  </scstep>
  <scstep>
   <time name="diag">    9.08    9.10</time>
   <time name="diis">   25.36   25.40</time>
   <time name="orth">    0.49    0.49</time>
   <time name="total">   39.06   39.17</time>
   <energy>
    <i name="e_fr_energy">   -300.01654859 </i>
    <i name="e_wo_entrp">   -300.03035808 </i>
    <i name="e_0_energy">   -300.02115175 </i>
   </energy>
  </scstep>
  <scstep>
   <time name="diag">    9.64   10.01</time>
