 running on   64 total cores
 distrk:  each k-point on   64 cores,    1 groups
 distr:  one band on   32 cores,    2 groups
 using from now: INCAR     
 vasp.5.4.4.18Apr17-6-g9f103f2a35 (build Sep 24 2019 09:38:50) complex          
  
 POSCAR found type information on POSCAR  Mn O  H 
 POSCAR found :  3 types and      45 ions

 ----------------------------------------------------------------------------- 
|                                                                             |
|           W    W    AA    RRRRR   N    N  II  N    N   GGGG   !!!           |
|           W    W   A  A   R    R  NN   N  II  NN   N  G    G  !!!           |
|           W    W  A    A  R    R  N N  N  II  N N  N  G       !!!           |
|           W WW W  AAAAAA  RRRRR   N  N N  II  N  N N  G  GGG   !            |
|           WW  WW  A    A  R   R   N   NN  II  N   NN  G    G                |
|           W    W  A    A  R    R  N    N  II  N    N   GGGG   !!!           |
|                                                                             |
|      For optimal performance we recommend to set                            |
|        NCORE= 4 - approx SQRT( number of cores)                             |
|      NCORE specifies how many cores store one orbital (NPAR=cpu/NCORE).     |
|      This setting can  greatly improve the performance of VASP for DFT.     |
|      The default,   NCORE=1            might be grossly inefficient         |
|      on modern multi-core architectures or massively parallel machines.     |
|      Do your own testing !!!!                                               |
|      Unfortunately you need to use the default for GW and RPA calculations. |
|      (for HF NCORE is supported but not extensively tested yet)             |
|                                                                             |
 ----------------------------------------------------------------------------- 

 LDA part: xc-table for Pade appr. of Perdew
 POSCAR found type information on POSCAR  Mn O  H 
 POSCAR found :  3 types and      45 ions
 POSCAR, INCAR and KPOINTS ok, starting setup
 FFT: planning ...
 WAVECAR not read
 entering main loop
       N       E                     dE             d eps       ncg     rms          rms(c)
DAV:   1     0.370171988813E+04    0.37017E+04   -0.17852E+05  9840   0.148E+03
DAV:   2     0.254248104623E+03   -0.34475E+04   -0.32296E+04  9180   0.409E+02
DAV:   3    -0.318416951396E+03   -0.57267E+03   -0.56190E+03 10004   0.163E+02
DAV:   4    -0.345151619642E+03   -0.26735E+02   -0.26408E+02 10080   0.354E+01
DAV:   5    -0.345780049040E+03   -0.62843E+00   -0.62647E+00  9728   0.625E+00    0.820E+01
RMM:   6    -0.563014435540E+03   -0.21723E+03   -0.10648E+03 10526   0.668E+01    0.173E+02
RMM:   7    -0.360627639957E+03    0.20239E+03   -0.93374E+01  8793   0.222E+01    0.104E+02
RMM:   8    -0.380307104421E+03   -0.19679E+02   -0.16378E+02  8980   0.251E+01    0.116E+02
RMM:   9    -0.364579151132E+03    0.15728E+02   -0.80352E+01  9404   0.181E+01    0.934E+01
RMM:  10    -0.309803233610E+03    0.54776E+02   -0.23169E+01  9413   0.108E+01    0.683E+01
RMM:  11    -0.307552655914E+03    0.22506E+01   -0.24592E+01  8692   0.110E+01    0.610E+01
RMM:  12    -0.310910061773E+03   -0.33574E+01   -0.30185E+01  9253   0.113E+01    0.465E+01
RMM:  13    -0.304784190837E+03    0.61259E+01   -0.24264E+01  9386   0.929E+00    0.453E+01
RMM:  14    -0.298331132199E+03    0.64531E+01   -0.95160E+00  9206   0.674E+00    0.356E+01
RMM:  15    -0.295156002985E+03    0.31751E+01   -0.38922E+00  9064   0.394E+00    0.237E+01
RMM:  16    -0.296114056946E+03   -0.95805E+00   -0.23372E+00  8559   0.306E+00    0.175E+01
RMM:  17    -0.297027937578E+03   -0.91388E+00   -0.91841E-01  8688   0.178E+00    0.153E+01
RMM:  18    -0.297270949037E+03   -0.24301E+00   -0.63815E-01  8833   0.144E+00    0.175E+01
RMM:  19    -0.297709282804E+03   -0.43833E+00   -0.22213E-01  8872   0.928E-01    0.168E+01
RMM:  20    -0.298548315952E+03   -0.83903E+00   -0.34084E-01  8629   0.114E+00    0.205E+01
RMM:  21    -0.299213950581E+03   -0.66563E+00   -0.16088E-01  8703   0.878E-01    0.260E+01
RMM:  22    -0.299215800964E+03   -0.18504E-02   -0.33134E-01  8697   0.121E+00    0.288E+01
RMM:  23    -0.299198753951E+03    0.17047E-01   -0.24478E-01  8667   0.979E-01    0.307E+01
RMM:  24    -0.298429101288E+03    0.76965E+00   -0.31214E-01  8818   0.110E+00    0.308E+01
RMM:  25    -0.298525285410E+03   -0.96184E-01   -0.24093E-01  8605   0.904E-01    0.293E+01
RMM:  26    -0.298277117746E+03    0.24817E+00   -0.15938E-01  8472   0.791E-01    0.237E+01
RMM:  27    -0.298119530224E+03    0.15759E+00   -0.62410E-01  8447   0.164E+00    0.126E+01
RMM:  28    -0.298287883959E+03   -0.16835E+00   -0.60076E-01  8925   0.143E+00    0.748E+00
RMM:  29    -0.298545167510E+03   -0.25728E+00   -0.46796E-01  8690   0.139E+00    0.776E+00
RMM:  30    -0.298738116953E+03   -0.19295E+00   -0.37336E-01  8457   0.127E+00    0.103E+01
RMM:  31    -0.298733676071E+03    0.44409E-02   -0.78411E-02  9297   0.579E-01    0.119E+01
RMM:  32    -0.298848515876E+03   -0.11484E+00   -0.77713E-02  8504   0.628E-01    0.164E+01
RMM:  33    -0.299108414403E+03   -0.25990E+00   -0.86491E-02  8454   0.495E-01    0.179E+01
RMM:  34    -0.299146251513E+03   -0.37837E-01   -0.41179E-02  8359   0.298E-01    0.181E+01
RMM:  35    -0.299013216368E+03    0.13304E+00   -0.61088E-02  8496   0.425E-01    0.184E+01
RMM:  36    -0.298923357192E+03    0.89859E-01   -0.21961E-01  8469   0.764E-01    0.200E+01
RMM:  37    -0.298900523282E+03    0.22834E-01   -0.10950E-01  8592   0.515E-01    0.229E+01
RMM:  38    -0.298854076659E+03    0.46447E-01   -0.24221E-01  8317   0.901E-01    0.221E+01
RMM:  39    -0.298863216215E+03   -0.91396E-02   -0.39428E-02  8840   0.308E-01    0.220E+01
RMM:  40    -0.298627123371E+03    0.23609E+00   -0.28770E-02  8467   0.311E-01    0.216E+01
RMM:  41    -0.298091722026E+03    0.53540E+00   -0.13705E-01  8288   0.683E-01    0.204E+01
RMM:  42    -0.297831380541E+03    0.26034E+00   -0.15781E-01  8312   0.808E-01    0.197E+01
RMM:  43    -0.298081532629E+03   -0.25015E+00   -0.67843E-02  8657   0.577E-01    0.202E+01
RMM:  44    -0.298175923101E+03   -0.94390E-01   -0.20497E-02  9127   0.289E-01    0.202E+01
RMM:  45    -0.298337134613E+03   -0.16121E+00   -0.96260E-03  8369   0.201E-01    0.203E+01
RMM:  46    -0.298676241225E+03   -0.33911E+00   -0.31147E-01  8387   0.884E-01    0.204E+01
RMM:  47    -0.298898283823E+03   -0.22204E+00   -0.54383E-01  8377   0.118E+00    0.209E+01
RMM:  48    -0.299214072734E+03   -0.31579E+00   -0.13116E-01  8880   0.509E-01    0.208E+01
RMM:  49    -0.299282849517E+03   -0.68777E-01   -0.28438E-02  8585   0.289E-01    0.207E+01
RMM:  50    -0.299804314123E+03   -0.52146E+00   -0.11927E-01  8490   0.579E-01    0.210E+01
RMM:  51    -0.299840734343E+03   -0.36420E-01   -0.23721E-01  8277   0.101E+00    0.233E+01
RMM:  52    -0.299892784153E+03   -0.52050E-01   -0.43498E-02  9459   0.407E-01    0.249E+01
RMM:  53    -0.300887662295E+03   -0.99488E+00   -0.18614E-01  8429   0.825E-01    0.320E+01
RMM:  54    -0.301227979152E+03   -0.34032E+00   -0.10905E-01  8324   0.674E-01    0.323E+01
RMM:  55    -0.301241211669E+03   -0.13233E-01   -0.15661E-02  9343   0.204E-01    0.323E+01
RMM:  56    -0.300410340683E+03    0.83087E+00   -0.20711E-01  8306   0.822E-01    0.315E+01
RMM:  57    -0.300406997442E+03    0.33432E-02   -0.12817E-02  9678   0.216E-01    0.316E+01
RMM:  58    -0.300419580097E+03   -0.12583E-01   -0.19892E-03  8375   0.818E-02    0.317E+01
RMM:  59    -0.300373939267E+03    0.45641E-01   -0.40850E-03  7999   0.130E-01    0.317E+01
RMM:  60    -0.300518721874E+03   -0.14478E+00   -0.11748E-02  7846   0.220E-01
   1 F= -.30051872E+03 E0= -.30052323E+03  d E =-.300519E+03  mag=    17.4677
 curvature:   0.00 expect dE= 0.000E+00 dE for cont linesearch  0.000E+00
 trial: gam= 0.00000 g(F)=  0.860E+00 g(S)=  0.000E+00 ort = 0.000E+00 (trialstep = 0.100E+01)
 search vector abs. value=  0.860E+00
 bond charge predicted
       N       E                     dE             d eps       ncg     rms          rms(c)
DAV:   1    -0.291620046803E+03    0.87539E+01   -0.21317E+02 10936   0.846E+01    0.318E+01
RMM:   2    -0.511825888417E+03   -0.22021E+03   -0.21762E+02 10256   0.236E+01    0.132E+02
RMM:   3    -0.321197510944E+03    0.19063E+03   -0.62573E+01  9092   0.161E+01    0.758E+01
RMM:   4    -0.298023958950E+03    0.23174E+02   -0.24305E+01  9223   0.101E+01    0.454E+01
RMM:   5    -0.297981510294E+03    0.42449E-01   -0.13985E+01  8813   0.705E+00    0.359E+01
RMM:   6    -0.297004044558E+03    0.97747E+00   -0.36062E+00  9193   0.376E+00    0.173E+01
RMM:   7    -0.298419101579E+03   -0.14151E+01   -0.24111E+00  8597   0.320E+00    0.124E+01
RMM:   8    -0.298576812050E+03   -0.15771E+00   -0.81762E-01  8976   0.187E+00    0.964E+00
RMM:   9    -0.298506746376E+03    0.70066E-01   -0.42352E-01  8900   0.124E+00    0.724E+00
RMM:  10    -0.298256481975E+03    0.25026E+00   -0.28106E-01  8600   0.104E+00    0.537E+00
RMM:  11    -0.298331699182E+03   -0.75217E-01   -0.15130E-01  8943   0.748E-01    0.668E+00
RMM:  12    -0.298309381865E+03    0.22317E-01   -0.35627E-02  8745   0.422E-01    0.854E+00
RMM:  13    -0.298501090591E+03   -0.19171E+00   -0.22735E-02  8490   0.319E-01    0.117E+01
RMM:  14    -0.298670669786E+03   -0.16958E+00   -0.60622E-02  8548   0.524E-01    0.115E+01
RMM:  15    -0.298695011335E+03   -0.24342E-01   -0.10924E-02  9286   0.185E-01    0.115E+01
RMM:  16    -0.298704609174E+03   -0.95978E-02   -0.60112E-03  8663   0.145E-01    0.115E+01
RMM:  17    -0.298708422307E+03   -0.38131E-02   -0.25459E-03  8169   0.862E-02    0.115E+01
RMM:  18    -0.298667892883E+03    0.40529E-01   -0.17257E-02  8757   0.240E-01    0.114E+01
RMM:  19    -0.298695666004E+03   -0.27773E-01   -0.93261E-03  8888   0.180E-01    0.115E+01
RMM:  20    -0.298693015582E+03    0.26504E-02   -0.28475E-02  8766   0.291E-01    0.117E+01
RMM:  21    -0.298686102404E+03    0.69132E-02   -0.80416E-02  8766   0.477E-01    0.120E+01
RMM:  22    -0.298795318541E+03   -0.10922E+00   -0.30981E-01  8668   0.969E-01    0.131E+01
RMM:  23    -0.299142608401E+03   -0.34729E+00   -0.18716E-01  8782   0.785E-01    0.153E+01
RMM:  24    -0.299690538416E+03   -0.54793E+00   -0.11738E-01  9054   0.617E-01    0.219E+01
RMM:  25    -0.299935442871E+03   -0.24490E+00   -0.57134E-02  8619   0.503E-01    0.224E+01
RMM:  26    -0.299813838484E+03    0.12160E+00   -0.66977E-02  8409   0.490E-01    0.203E+01
RMM:  27    -0.299992987185E+03   -0.17915E+00   -0.33695E-02  8462   0.335E-01    0.198E+01
RMM:  28    -0.300146645273E+03   -0.15366E+00   -0.20410E-02  8176   0.269E-01    0.201E+01
RMM:  29    -0.299928852741E+03    0.21779E+00   -0.11747E-02  8747   0.224E-01    0.187E+01
RMM:  30    -0.299983153398E+03   -0.54301E-01   -0.31859E-03  8669   0.119E-01    0.184E+01
RMM:  31    -0.299719479708E+03    0.26367E+00   -0.30885E-02  8853   0.329E-01    0.151E+01
RMM:  32    -0.299878101640E+03   -0.15862E+00   -0.27766E-02  8386   0.366E-01    0.164E+01
RMM:  33    -0.299971647914E+03   -0.93546E-01   -0.16466E-02  8030   0.278E-01    0.174E+01
RMM:  34    -0.299993542558E+03   -0.21895E-01   -0.60469E-03  8128   0.143E-01    0.179E+01
RMM:  35    -0.300008342608E+03   -0.14800E-01   -0.39552E-03  8424   0.119E-01    0.181E+01
RMM:  36    -0.299981759761E+03    0.26583E-01   -0.34779E-03  8654   0.113E-01    0.180E+01
RMM:  37    -0.299814204024E+03    0.16756E+00   -0.44623E-02  8474   0.408E-01    0.169E+01
RMM:  38    -0.299767119980E+03    0.47084E-01   -0.18931E-02  8604   0.258E-01    0.168E+01
RMM:  39    -0.299738628553E+03    0.28491E-01   -0.15241E-02  8781   0.243E-01    0.146E+01
RMM:  40    -0.299861474208E+03   -0.12285E+00   -0.46771E-02  8282   0.424E-01    0.127E+01
RMM:  41    -0.299949825285E+03   -0.88351E-01   -0.16010E-02  8270   0.270E-01    0.122E+01
RMM:  42    -0.300028153322E+03   -0.78328E-01   -0.22137E-02  8494   0.297E-01    0.135E+01
RMM:  43    -0.300004018577E+03    0.24135E-01   -0.16692E-02  8530   0.234E-01    0.137E+01
RMM:  44    -0.299917006967E+03    0.87012E-01   -0.90085E-02  8503   0.551E-01    0.114E+01
RMM:  45    -0.299894287252E+03    0.22720E-01   -0.97293E-02  8477   0.586E-01    0.912E+00
RMM:  46    -0.299942505639E+03   -0.48218E-01   -0.46461E-02  8711   0.418E-01    0.832E+00
RMM:  47    -0.299976264512E+03   -0.33759E-01   -0.21287E-01  8410   0.964E-01    0.998E+00
RMM:  48    -0.300009862614E+03   -0.33598E-01   -0.16803E-02 10158   0.265E-01    0.998E+00
RMM:  49    -0.300016548592E+03   -0.66860E-02   -0.39469E-02  8384   0.400E-01    0.929E+00
