unknown system                          
           1
     2.873573   -2.873573    4.708335
     5.747147    0.000000    0.000000
     0.000000   33.065691   20.180529
   Mn   O    H 
  14  23   8
Direct configuration=     1
   0.22067121  0.89240241  0.08901558
   0.66995655  0.17444941  0.21797696
   0.94927612  0.02809995  0.15233499
   0.39751351  0.31656844  0.28415796
   0.44927612  0.52809995  0.15233499
   0.89153140  0.32043014  0.28476253
   0.44927612  0.02809995  0.15233499
   0.89287642  0.82394613  0.28438502
   0.90282244  0.55132680  0.10484543
   0.34557744  0.83975152  0.23328652
   0.99505558  0.50774575  0.20407657
   0.43874628  0.80122363  0.33523198
   0.53851998  0.23347802  0.07318573
   0.11208778  0.47427961  0.34948124
   0.78329572  0.63001600  0.31454587
   0.87926422  0.06310591  0.05527763
   0.33660877  0.33473316  0.18284480
   0.58246139  0.21150732  0.12452493
   0.04741438  0.49221184  0.25737957
   0.54908276  0.70537688  0.38709364
   0.09516526  0.72856013  0.12156099
   0.54336112  0.46773616  0.25100781
   0.72962923  0.15284488  0.30882809
   0.85888103  0.57329750  0.05350623
   0.31005701  0.84820776  0.18038698
   0.56207820  0.72169891  0.12275353
   0.00357430  0.01638091  0.25351472
   0.79990269  0.33174602  0.18410538
   0.24884693  0.61954652  0.31478441
   0.34617716  0.60305419  0.05647018
   0.24087185  0.17456320  0.31693594
   0.79794602  0.88005388  0.18475664
   0.34617716  0.05624469  0.05647018
   0.54052578  0.01616803  0.25196066
   0.09516526  0.18175063  0.12156099
   0.10002758  0.73965742  0.38100177
   0.98612041  0.32892516  0.38336013
   0.34047062  0.60391201  0.02782883
   0.92434681  0.68523651  0.03696881
   0.34363348  0.06399961  0.02783421
   0.88838126  0.05560908  0.02665597
   0.41488487  0.67484843  0.39586827
   0.00686140  0.74488412  0.40148932
   0.99912638  0.15590010  0.37785260
   0.71438639  0.53917827  0.38850077
