Mn  O  H                                
   1.00000000000000     
     2.8735734950000000   -2.8735734950000000    4.7083351100000002
     5.7471469900000001    0.0000000000000000    0.0000000000000000
     0.0000000000000000   33.0656910066415008   20.1805290088081009
   Mn   O    H 
    15    24     8
Selective dynamics
Direct
  0.2206712106837827  0.8924024101981232  0.0890155841539979   F   F   F
  0.6777458015629920  0.1613176806802988  0.2183576472261950   T   T   T
  0.9492761232251894  0.0280999539274163  0.1523349856625060   F   F   F
  0.4022291013156617  0.2947135722768796  0.2845446887449401   T   T   T
  0.4492761232251894  0.5280999539274163  0.1523349856625060   F   F   F
  0.9031020211362107  0.2992418143720187  0.2846575324903981   T   T   T
  0.4492761232251894  0.0280999539274163  0.1523349856625060   F   F   F
  0.9048520623719671  0.7976360424627007  0.2840992094229948   T   T   T
  0.9028224388191362  0.5513267961304464  0.1048454345311214   F   F   F
  0.3583282028128916  0.8185010319045921  0.2337806771659717   T   T   T
  0.9972170583771440  0.5022446925874239  0.2034125873323699   T   T   T
  0.4449951115555834  0.7781998397869176  0.3348217652571467   T   T   T
  0.5385199825484293  0.2334780242657999  0.0731857337768673   F   F   F
  0.1362386457313566  0.4410487501919956  0.3519814630062362   T   T   T
  0.7988828988845100  0.0979612122996411  0.3654185303470340   T   T   T
  0.7836260294508559  0.6128447622196151  0.3130979937612340   T   T   T
  0.8792642171272149  0.0631059069764035  0.0552776342656358   F   F   F
  0.3402688783055073  0.3323352814424034  0.1830000072474113   T   T   T
  0.5824613929758371  0.2115073190520960  0.1245249348239739   F   F   F
  0.0484526447763505  0.4742301277441747  0.2562231091070185   T   T   T
  0.4736888454008767  0.7455830845581611  0.3869839806940497   T   T   T
  0.0951652613222294  0.7285601348788973  0.1215609852990625   F   F   F
  0.5553034815217840  0.4461140649807524  0.2521592754509367   T   T   T
  0.7557297065877256  0.1202254525919721  0.3115253049497357   T   T   T
  0.8588810283917283  0.5732975013441504  0.0535062334840219   F   F   F
  0.3136953429511031  0.8457388514722544  0.1807136544784728   T   T   T
  0.5620782042403505  0.7216989134198428  0.1227535340423529   F   F   F
  0.0146435819731291  0.9936391590231451  0.2538269156115877   T   T   T
  0.8009645173178757  0.3263864169347155  0.1842917224591078   T   T   T
  0.2573198177158655  0.5928285239383914  0.3150709625029240   T   T   T
  0.3461771600453361  0.6030541855173510  0.0564701830089334   F   F   F
  0.2415880713009820  0.1542695605367924  0.3166829650141774   T   T   T
  0.8023663896668140  0.8749289120675494  0.1841602064619216   T   T   T
  0.3461771600453361  0.0562446855173491  0.0564701830089334   F   F   F
  0.5542192841587450 -0.0045154984078772  0.2519875503312067   T   T   T
  0.0951652613222294  0.1817506348788953  0.1215609852990625   F   F   F
  0.0575410800985117  0.7428167253699108  0.3804872575057448   T   T   T
  0.4578612695667940  0.2339517288591648  0.3833799359615802   T   T   T
 -0.0678840587983094  0.3460157872855545  0.3802286641071732   T   T   T
  0.3404706169097480  0.6039120138460916  0.0278288297643030   F   F   F
  0.9243468113422040  0.6852365052266407  0.0369688146645331   F   F   F
  0.3436334761770041  0.0639996102436484  0.0278342118600037   F   F   F
  0.8883812645227351  0.0556090842097916  0.0266559720288981   F   F   F
  0.4311995654129376  0.3521007647350664  0.4028082580257664   T   T   T
  0.2144946914828438  0.7497535131315195  0.3871529503632580   T   T   T
 -0.2151198626944787  0.5086619931684452  0.3876983776063759   T   T   T
  0.4541912504355490  0.9160263030649443  0.3954974473178283   T   T   T
 
  0.00000000E+00  0.00000000E+00  0.00000000E+00
  0.00000000E+00  0.00000000E+00  0.00000000E+00
  0.00000000E+00  0.00000000E+00  0.00000000E+00
  0.00000000E+00  0.00000000E+00  0.00000000E+00
  0.00000000E+00  0.00000000E+00  0.00000000E+00
  0.00000000E+00  0.00000000E+00  0.00000000E+00
  0.00000000E+00  0.00000000E+00  0.00000000E+00
  0.00000000E+00  0.00000000E+00  0.00000000E+00
  0.00000000E+00  0.00000000E+00  0.00000000E+00
  0.00000000E+00  0.00000000E+00  0.00000000E+00
  0.00000000E+00  0.00000000E+00  0.00000000E+00
  0.00000000E+00  0.00000000E+00  0.00000000E+00
  0.00000000E+00  0.00000000E+00  0.00000000E+00
  0.00000000E+00  0.00000000E+00  0.00000000E+00
  0.00000000E+00  0.00000000E+00  0.00000000E+00
  0.00000000E+00  0.00000000E+00  0.00000000E+00
  0.00000000E+00  0.00000000E+00  0.00000000E+00
  0.00000000E+00  0.00000000E+00  0.00000000E+00
  0.00000000E+00  0.00000000E+00  0.00000000E+00
  0.00000000E+00  0.00000000E+00  0.00000000E+00
  0.00000000E+00  0.00000000E+00  0.00000000E+00
  0.00000000E+00  0.00000000E+00  0.00000000E+00
  0.00000000E+00  0.00000000E+00  0.00000000E+00
  0.00000000E+00  0.00000000E+00  0.00000000E+00
  0.00000000E+00  0.00000000E+00  0.00000000E+00
  0.00000000E+00  0.00000000E+00  0.00000000E+00
  0.00000000E+00  0.00000000E+00  0.00000000E+00
  0.00000000E+00  0.00000000E+00  0.00000000E+00
  0.00000000E+00  0.00000000E+00  0.00000000E+00
  0.00000000E+00  0.00000000E+00  0.00000000E+00
  0.00000000E+00  0.00000000E+00  0.00000000E+00
  0.00000000E+00  0.00000000E+00  0.00000000E+00
  0.00000000E+00  0.00000000E+00  0.00000000E+00
  0.00000000E+00  0.00000000E+00  0.00000000E+00
  0.00000000E+00  0.00000000E+00  0.00000000E+00
  0.00000000E+00  0.00000000E+00  0.00000000E+00
  0.00000000E+00  0.00000000E+00  0.00000000E+00
  0.00000000E+00  0.00000000E+00  0.00000000E+00
  0.00000000E+00  0.00000000E+00  0.00000000E+00
  0.00000000E+00  0.00000000E+00  0.00000000E+00
  0.00000000E+00  0.00000000E+00  0.00000000E+00
  0.00000000E+00  0.00000000E+00  0.00000000E+00
  0.00000000E+00  0.00000000E+00  0.00000000E+00
  0.00000000E+00  0.00000000E+00  0.00000000E+00
  0.00000000E+00  0.00000000E+00  0.00000000E+00
  0.00000000E+00  0.00000000E+00  0.00000000E+00
  0.00000000E+00  0.00000000E+00  0.00000000E+00
