unknown system                          
           1
     2.873573   -2.873573    4.708335
     5.747147    0.000000    0.000000
     0.000000   33.065691   20.180529
   Mn   O    H 
  15  24   8
Direct configuration=     1
   0.22067121  0.89240241  0.08901558
   0.67774580  0.16131768  0.21835765
   0.94927612  0.02809995  0.15233499
   0.40222910  0.29471357  0.28454469
   0.44927612  0.52809995  0.15233499
   0.90310202  0.29924181  0.28465753
   0.44927612  0.02809995  0.15233499
   0.90485206  0.79763604  0.28409921
   0.90282244  0.55132680  0.10484543
   0.35832820  0.81850103  0.23378068
   0.99721706  0.50224469  0.20341259
   0.44499511  0.77819984  0.33482177
   0.53851998  0.23347802  0.07318573
   0.13623865  0.44104875  0.35198146
   0.79888290  0.09796121  0.36541853
   0.78362603  0.61284476  0.31309799
   0.87926422  0.06310591  0.05527763
   0.34026888  0.33233528  0.18300001
   0.58246139  0.21150732  0.12452493
   0.04845264  0.47423013  0.25622311
   0.47368885  0.74558308  0.38698398
   0.09516526  0.72856013  0.12156099
   0.55530348  0.44611406  0.25215928
   0.75572971  0.12022545  0.31152530
   0.85888103  0.57329750  0.05350623
   0.31369534  0.84573885  0.18071365
   0.56207820  0.72169891  0.12275353
   0.01464358  0.99363916  0.25382692
   0.80096452  0.32638642  0.18429172
   0.25731982  0.59282852  0.31507096
   0.34617716  0.60305419  0.05647018
   0.24158807  0.15426956  0.31668297
   0.80236639  0.87492891  0.18416021
   0.34617716  0.05624469  0.05647018
   0.55421928  0.99548450  0.25198755
   0.09516526  0.18175063  0.12156099
   0.05754108  0.74281673  0.38048726
   0.45786127  0.23395173  0.38337994
   0.93211594  0.34601579  0.38022866
   0.34047062  0.60391201  0.02782883
   0.92434681  0.68523651  0.03696881
   0.34363348  0.06399961  0.02783421
   0.88838126  0.05560908  0.02665597
   0.43119957  0.35210076  0.40280826
   0.21449469  0.74975351  0.38715295
   0.78488014  0.50866199  0.38769838
   0.45419125  0.91602630  0.39549745
Direct configuration=     2
   0.22067121  0.89240241  0.08901558
   0.67668191  0.16107692  0.21919510
   0.94927612  0.02809995  0.15233499
   0.40359859  0.29383572  0.28426760
   0.44927612  0.52809995  0.15233499
   0.90314001  0.29866367  0.28486958
   0.44927612  0.02809995  0.15233499
   0.90462608  0.79917467  0.28387418
   0.90282244  0.55132680  0.10484543
   0.35815636  0.81920100  0.23422264
   0.99740186  0.50226098  0.20385594
   0.43342852  0.77906133  0.33513455
   0.53851998  0.23347802  0.07318573
   0.13881301  0.44075658  0.35227586
   0.79639997  0.10080140  0.36330213
   0.78553197  0.61062379  0.31326164
   0.87926422  0.06310591  0.05527763
   0.34160960  0.33129967  0.18263617
   0.58246139  0.21150732  0.12452493
   0.04613022  0.47451770  0.25622578
   0.47475403  0.74817681  0.38598090
   0.09516526  0.72856013  0.12156099
   0.55584975  0.44550252  0.25211916
   0.75845103  0.11918900  0.31102245
   0.85888103  0.57329750  0.05350623
   0.31443684  0.84569087  0.18037129
   0.56207820  0.72169891  0.12275353
   0.01416281  0.99559890  0.25387593
   0.80265267  0.32315472  0.18360604
   0.26305491  0.59823763  0.31491432
   0.34617716  0.60305419  0.05647018
   0.24594061  0.14481589  0.31687884
   0.80304649  0.87631826  0.18347903
   0.34617716  0.05624469  0.05647018
   0.55390705  0.99639858  0.25182930
   0.09516526  0.18175063  0.12156099
   0.06129784  0.74158261  0.37995938
   0.45988449  0.23667325  0.38292890
   0.92754032  0.34076443  0.38044779
   0.34047062  0.60391201  0.02782883
   0.92434681  0.68523651  0.03696881
   0.34363348  0.06399961  0.02783421
   0.88838126  0.05560908  0.02665597
   0.42950315  0.35291549  0.40290244
   0.21328552  0.74977773  0.38735312
   0.78468922  0.50948310  0.38779593
   0.45338961  0.91759186  0.39588548
Direct configuration=     3
   0.22067121  0.89240241  0.08901558
   0.67668722  0.16107813  0.21919092
   0.94927612  0.02809995  0.15233499
   0.40359175  0.29384010  0.28426899
   0.44927612  0.52809995  0.15233499
   0.90313982  0.29866655  0.28486853
   0.44927612  0.02809995  0.15233499
   0.90462720  0.79916700  0.28387530
   0.90282244  0.55132680  0.10484543
   0.35815722  0.81919751  0.23422044
   0.99740093  0.50226090  0.20385373
   0.43348625  0.77905703  0.33513299
   0.53851998  0.23347802  0.07318573
   0.13880016  0.44075803  0.35227439
   0.79641236  0.10078722  0.36331270
   0.78552246  0.61063487  0.31326083
   0.87926422  0.06310591  0.05527763
   0.34160291  0.33130484  0.18263799
   0.58246139  0.21150732  0.12452493
   0.04614181  0.47451626  0.25622576
   0.47474871  0.74816387  0.38598591
   0.09516526  0.72856013  0.12156099
   0.55584702  0.44550557  0.25211936
   0.75843745  0.11919417  0.31102495
   0.85888103  0.57329750  0.05350623
   0.31443314  0.84569111  0.18037300
   0.56207820  0.72169891  0.12275353
   0.01416521  0.99558912  0.25387568
   0.80264425  0.32317085  0.18360946
   0.26302629  0.59821063  0.31491511
   0.34617716  0.60305419  0.05647018
   0.24591889  0.14486307  0.31687786
   0.80304309  0.87631132  0.18348243
   0.34617716  0.05624469  0.05647018
   0.55390861  0.99639401  0.25183009
   0.09516526  0.18175063  0.12156099
   0.06127909  0.74158877  0.37996201
   0.45987440  0.23665966  0.38293115
   0.92756316  0.34079064  0.38044670
   0.34047062  0.60391201  0.02782883
   0.92434681  0.68523651  0.03696881
   0.34363348  0.06399961  0.02783421
   0.88838126  0.05560908  0.02665597
   0.42951162  0.35291143  0.40290197
   0.21329156  0.74977761  0.38735212
   0.78469017  0.50947900  0.38779544
   0.45339361  0.91758405  0.39588354
Direct configuration=     4
   0.22067121  0.89240241  0.08901558
   0.67708901  0.16116905  0.21887465
   0.94927612  0.02809995  0.15233499
   0.40307456  0.29417163  0.28437363
   0.44927612  0.52809995  0.15233499
   0.90312548  0.29888489  0.28478844
   0.44927612  0.02809995  0.15233499
   0.90471255  0.79858592  0.28396029
   0.90282244  0.55132680  0.10484543
   0.35822212  0.81893316  0.23405353
   0.99733114  0.50225475  0.20368630
   0.43785443  0.77873168  0.33501486
   0.53851998  0.23347802  0.07318573
   0.13782794  0.44086838  0.35216321
   0.79735005  0.09971461  0.36411196
   0.78480267  0.61147364  0.31319902
   0.87926422  0.06310591  0.05527763
   0.34109658  0.33169594  0.18277539
   0.58246139  0.21150732  0.12452493
   0.04701889  0.47440766  0.25622476
   0.47434644  0.74718433  0.38636472
   0.09516526  0.72856013  0.12156099
   0.55564072  0.44573652  0.25213451
   0.75740973  0.11958559  0.31121486
   0.85888103  0.57329750  0.05350623
   0.31415311  0.84570923  0.18050229
   0.56207820  0.72169891  0.12275353
   0.01434677  0.99484901  0.25385717
   0.80200670  0.32439132  0.18386841
   0.26086040  0.59616785  0.31497426
   0.34617716  0.60305419  0.05647018
   0.24427513  0.14843330  0.31680389
   0.80278625  0.87578663  0.18373968
   0.34617716  0.05624469  0.05647018
   0.55402653  0.99604881  0.25188985
   0.09516526  0.18175063  0.12156099
   0.05986033  0.74205484  0.38016137
   0.45911031  0.23563187  0.38310149
   0.92929117  0.34277384  0.38036394
   0.34047062  0.60391201  0.02782883
   0.92434681  0.68523651  0.03696881
   0.34363348  0.06399961  0.02783421
   0.88838126  0.05560908  0.02665597
   0.43015228  0.35260374  0.40286640
   0.21374821  0.74976847  0.38727653
   0.78476227  0.50916891  0.38775860
   0.45369635  0.91699281  0.39573700
Direct configuration=     5
   0.22067121  0.89240241  0.08901558
   0.67751700  0.16126590  0.21853775
   0.94927612  0.02809995  0.15233499
   0.40252362  0.29452478  0.28448510
   0.44927612  0.52809995  0.15233499
   0.90311019  0.29911748  0.28470314
   0.44927612  0.02809995  0.15233499
   0.90480346  0.79796694  0.28405081
   0.90282244  0.55132680  0.10484543
   0.35829125  0.81865157  0.23387573
   0.99725680  0.50224820  0.20350794
   0.44250760  0.77838511  0.33488903
   0.53851998  0.23347802  0.07318573
   0.13679229  0.44098592  0.35204478
   0.79834892  0.09857202  0.36496338
   0.78403592  0.61236712  0.31313319
   0.87926422  0.06310591  0.05527763
   0.34055721  0.33211256  0.18292176
   0.58246139  0.21150732  0.12452493
   0.04795318  0.47429197  0.25622368
   0.47391792  0.74614089  0.38676826
   0.09516526  0.72856013  0.12156099
   0.55542096  0.44598255  0.25215065
   0.75631495  0.12000255  0.31141716
   0.85888103  0.57329750  0.05350623
   0.31385481  0.84572853  0.18064002
   0.56207820  0.72169891  0.12275353
   0.01454019  0.99406062  0.25383746
   0.80132757  0.32569141  0.18414426
   0.25855321  0.59399180  0.31503728
   0.34617716  0.60305419  0.05647018
   0.24252413  0.15223646  0.31672509
   0.80251265  0.87522770  0.18401371
   0.34617716  0.05624469  0.05647018
   0.55415214  0.99568108  0.25195352
   0.09516526  0.18175063  0.12156099
   0.05834901  0.74255132  0.38037373
   0.45829638  0.23453702  0.38328294
   0.93113191  0.34488643  0.38027579
   0.34047062  0.60391201  0.02782883
   0.92434681  0.68523651  0.03696881
   0.34363348  0.06399961  0.02783421
   0.88838126  0.05560908  0.02665597
   0.43083473  0.35227598  0.40282851
   0.21423465  0.74975872  0.38719600
   0.78483908  0.50883858  0.38771936
   0.45401885  0.91636299  0.39558090
Direct configuration=     6
   0.22067121  0.89240241  0.08901558
   0.67763293  0.16129214  0.21844650
   0.94927612  0.02809995  0.15233499
   0.40237440  0.29462044  0.28451529
   0.44927612  0.52809995  0.15233499
   0.90310605  0.29918048  0.28468003
   0.44927612  0.02809995  0.15233499
   0.90482809  0.79779928  0.28407533
   0.90282244  0.55132680  0.10484543
   0.35830997  0.81857530  0.23382757
   0.99723666  0.50224642  0.20345963
   0.44376795  0.77829124  0.33485495
   0.53851998  0.23347802  0.07318573
   0.13651177  0.44101775  0.35201270
   0.79861947  0.09826254  0.36519399
   0.78382824  0.61260913  0.31311536
   0.87926422  0.06310591  0.05527763
   0.34041112  0.33222541  0.18296141
   0.58246139  0.21150732  0.12452493
   0.04820625  0.47426064  0.25622339
   0.47380186  0.74585827  0.38687756
   0.09516526  0.72856013  0.12156099
   0.55536144  0.44604918  0.25215502
   0.75601843  0.12011549  0.31147195
   0.85888103  0.57329750  0.05350623
   0.31377401  0.84573376  0.18067733
   0.56207820  0.72169891  0.12275353
   0.01459257  0.99384708  0.25383212
   0.80114362  0.32604355  0.18421897
   0.25792829  0.59340241  0.31505434
   0.34617716  0.60305419  0.05647018
   0.24204986  0.15326657  0.31670375
   0.80243855  0.87507632  0.18408794
   0.34617716  0.05624469  0.05647018
   0.55418616  0.99558148  0.25197076
   0.09516526  0.18175063  0.12156099
   0.05793966  0.74268579  0.38043125
   0.45807592  0.23424047  0.38333208
   0.93163049  0.34545864  0.38025191
   0.34047062  0.60391201  0.02782883
   0.92434681  0.68523651  0.03696881
   0.34363348  0.06399961  0.02783421
   0.88838126  0.05560908  0.02665597
   0.43101958  0.35218720  0.40281825
   0.21436640  0.74975608  0.38717419
   0.78485988  0.50874911  0.38770873
   0.45410620  0.91619240  0.39553862
Direct configuration=     7
   0.22067121  0.89240241  0.08901558
   0.67766505  0.16129941  0.21842121
   0.94927612  0.02809995  0.15233499
   0.40233305  0.29464694  0.28452366
   0.44927612  0.52809995  0.15233499
   0.90310490  0.29919793  0.28467363
   0.44927612  0.02809995  0.15233499
   0.90483491  0.79775283  0.28408213
   0.90282244  0.55132680  0.10484543
   0.35831516  0.81855416  0.23381422
   0.99723109  0.50224593  0.20344624
   0.44411717  0.77826523  0.33484551
   0.53851998  0.23347802  0.07318573
   0.13643405  0.44102657  0.35200381
   0.79869444  0.09817679  0.36525789
   0.78377070  0.61267618  0.31311042
   0.87926422  0.06310591  0.05527763
   0.34037064  0.33225667  0.18297239
   0.58246139  0.21150732  0.12452493
   0.04827636  0.47425196  0.25622331
   0.47376970  0.74577996  0.38690784
   0.09516526  0.72856013  0.12156099
   0.55534495  0.44606765  0.25215623
   0.75593626  0.12014678  0.31148714
   0.85888103  0.57329750  0.05350623
   0.31375162  0.84573521  0.18068767
   0.56207820  0.72169891  0.12275353
   0.01460709  0.99378791  0.25383064
   0.80109265  0.32614112  0.18423968
   0.25775513  0.59323909  0.31505907
   0.34617716  0.60305419  0.05647018
   0.24191844  0.15355199  0.31669783
   0.80241801  0.87503437  0.18410850
   0.34617716  0.05624469  0.05647018
   0.55419558  0.99555388  0.25197554
   0.09516526  0.18175063  0.12156099
   0.05782623  0.74272305  0.38044719
   0.45801484  0.23415830  0.38334570
   0.93176864  0.34561719  0.38024530
   0.34047062  0.60391201  0.02782883
   0.92434681  0.68523651  0.03696881
   0.34363348  0.06399961  0.02783421
   0.88838126  0.05560908  0.02665597
   0.43107080  0.35216261  0.40281541
   0.21440291  0.74975535  0.38716814
   0.78486565  0.50872432  0.38770578
   0.45413040  0.91614513  0.39552690
Direct configuration=     8
   0.22067121  0.89240241  0.08901558
   0.67764066  0.16104775  0.21850871
   0.94927612  0.02809995  0.15233499
   0.40274683  0.29420526  0.28428399
   0.44927612  0.52809995  0.15233499
   0.90281227  0.29972230  0.28463085
   0.44927612  0.02809995  0.15233499
   0.90505394  0.79738809  0.28386372
   0.90282244  0.55132680  0.10484543
   0.35811360  0.81871362  0.23387191
   0.99718248  0.50230766  0.20352772
   0.44410329  0.77849150  0.33470562
   0.53851998  0.23347802  0.07318573
   0.13689895  0.44010180  0.35171077
   0.79887442  0.09803492  0.36514518
   0.78415765  0.61313751  0.31314726
   0.87926422  0.06310591  0.05527763
   0.34095926  0.33110213  0.18275663
   0.58246139  0.21150732  0.12452493
   0.04742688  0.47493110  0.25635382
   0.47371412  0.74612346  0.38697256
   0.09516526  0.72856013  0.12156099
   0.55487732  0.44524848  0.25218466
   0.75649123  0.11952481  0.31151275
   0.85888103  0.57329750  0.05350623
   0.31394908  0.84636530  0.18049218
   0.56207820  0.72169891  0.12275353
   0.01406303  0.99394028  0.25391251
   0.80149927  0.32495968  0.18403083
   0.25740393  0.59308071  0.31508559
   0.34617716  0.60305419  0.05647018
   0.24272450  0.15358221  0.31684719
   0.80256860  0.87551001  0.18392472
   0.34617716  0.05624469  0.05647018
   0.55442958  0.99615510  0.25204855
   0.09516526  0.18175063  0.12156099
   0.05684314  0.74418981  0.38047931
   0.45836300  0.23455444  0.38337767
   0.93185826  0.34497117  0.38030749
   0.34047062  0.60391201  0.02782883
   0.92434681  0.68523651  0.03696881
   0.34363348  0.06399961  0.02783421
   0.88838126  0.05560908  0.02665597
   0.43101276  0.35197936  0.40281375
   0.21470843  0.74969518  0.38719370
   0.78461876  0.50886053  0.38772832
   0.45416011  0.91586704  0.39550892
Direct configuration=     9
   0.22067121  0.89240241  0.08901558
   0.67763810  0.16102139  0.21851788
   0.94927612  0.02809995  0.15233499
   0.40279017  0.29415900  0.28425889
   0.44927612  0.52809995  0.15233499
   0.90278162  0.29977722  0.28462637
   0.44927612  0.02809995  0.15233499
   0.90507688  0.79734989  0.28384084
   0.90282244  0.55132680  0.10484543
   0.35809249  0.81873032  0.23387795
   0.99717738  0.50231413  0.20353625
   0.44410184  0.77851520  0.33469097
   0.53851998  0.23347802  0.07318573
   0.13694764  0.44000494  0.35168007
   0.79889326  0.09802006  0.36513337
   0.78419818  0.61318583  0.31315112
   0.87926422  0.06310591  0.05527763
   0.34102091  0.33098122  0.18273404
   0.58246139  0.21150732  0.12452493
   0.04733791  0.47500222  0.25636749
   0.47370830  0.74615943  0.38697934
   0.09516526  0.72856013  0.12156099
   0.55482835  0.44516268  0.25218764
   0.75654935  0.11945967  0.31151544
   0.85888103  0.57329750  0.05350623
   0.31396976  0.84643130  0.18047170
   0.56207820  0.72169891  0.12275353
   0.01400605  0.99395624  0.25392109
   0.80154186  0.32483594  0.18400896
   0.25736715  0.59306413  0.31508836
   0.34617716  0.60305419  0.05647018
   0.24280892  0.15358537  0.31686283
   0.80258438  0.87555982  0.18390547
   0.34617716  0.05624469  0.05647018
   0.55445408  0.99621806  0.25205620
   0.09516526  0.18175063  0.12156099
   0.05674018  0.74434343  0.38048268
   0.45839947  0.23459593  0.38338102
   0.93186764  0.34490350  0.38031401
   0.34047062  0.60391201  0.02782883
   0.92434681  0.68523651  0.03696881
   0.34363348  0.06399961  0.02783421
   0.88838126  0.05560908  0.02665597
   0.43100668  0.35196017  0.40281358
   0.21474043  0.74968888  0.38719638
   0.78459290  0.50887479  0.38773068
   0.45416322  0.91583792  0.39550704
Direct configuration=    10
   0.22067121  0.89240241  0.08901558
   0.67813279  0.16060345  0.21838530
   0.94927612  0.02809995  0.15233499
   0.40259433  0.29432318  0.28421634
   0.44927612  0.52809995  0.15233499
   0.90211349  0.30019316  0.28469277
   0.44927612  0.02809995  0.15233499
   0.90473739  0.79765904  0.28380147
   0.90282244  0.55132680  0.10484543
   0.35783143  0.81894599  0.23386914
   0.99711801  0.50230008  0.20352991
   0.44472547  0.77844757  0.33458972
   0.53851998  0.23347802  0.07318573
   0.13659959  0.44021000  0.35153537
   0.79901496  0.09789833  0.36513915
   0.78468299  0.61358677  0.31315411
   0.87926422  0.06310591  0.05527763
   0.34088672  0.33042797  0.18261720
   0.58246139  0.21150732  0.12452493
   0.04671963  0.47529509  0.25636309
   0.47369574  0.74508301  0.38696894
   0.09516526  0.72856013  0.12156099
   0.55409703  0.44495731  0.25217166
   0.75732570  0.11876146  0.31152566
   0.85888103  0.57329750  0.05350623
   0.31402660  0.84683588  0.18040868
   0.56207820  0.72169891  0.12275353
   0.01386321  0.99408474  0.25393372
   0.80181049  0.32432651  0.18392902
   0.25711871  0.59240638  0.31504346
   0.34617716  0.60305419  0.05647018
   0.24373283  0.15377316  0.31692338
   0.80277182  0.87543863  0.18384095
   0.34617716  0.05624469  0.05647018
   0.55463822  0.99599114  0.25208921
   0.09516526  0.18175063  0.12156099
   0.05641764  0.74514744  0.38045909
   0.45917451  0.23418240  0.38325339
   0.93185424  0.34489330  0.38036015
   0.34047062  0.60391201  0.02782883
   0.92434681  0.68523651  0.03696881
   0.34363348  0.06399961  0.02783421
   0.88838126  0.05560908  0.02665597
   0.43084310  0.35255502  0.40294935
   0.21453585  0.74980141  0.38720091
   0.78483952  0.50835083  0.38772133
   0.45406930  0.91667227  0.39554157
Direct configuration=    11
   0.22067121  0.89240241  0.08901558
   0.67794879  0.16075891  0.21843461
   0.94927612  0.02809995  0.15233499
   0.40266717  0.29426211  0.28423217
   0.44927612  0.52809995  0.15233499
   0.90236200  0.30003845  0.28466807
   0.44927612  0.02809995  0.15233499
   0.90486367  0.79754405  0.28381612
   0.90282244  0.55132680  0.10484543
   0.35792853  0.81886577  0.23387242
   0.99714009  0.50230531  0.20353227
   0.44449351  0.77847273  0.33462738
   0.53851998  0.23347802  0.07318573
   0.13672905  0.44013373  0.35158919
   0.79896970  0.09794361  0.36513700
   0.78450266  0.61343764  0.31315300
   0.87926422  0.06310591  0.05527763
   0.34093663  0.33063375  0.18266066
   0.58246139  0.21150732  0.12452493
   0.04694960  0.47518616  0.25636473
   0.47370042  0.74548339  0.38697281
   0.09516526  0.72856013  0.12156099
   0.55436905  0.44503370  0.25217760
   0.75703693  0.11902116  0.31152186
   0.85888103  0.57329750  0.05350623
   0.31400546  0.84668539  0.18043212
   0.56207820  0.72169891  0.12275353
   0.01391634  0.99403694  0.25392902
   0.80171057  0.32451599  0.18395875
   0.25721112  0.59265103  0.31506016
   0.34617716  0.60305419  0.05647018
   0.24338918  0.15370331  0.31690086
   0.80270210  0.87548371  0.18386495
   0.34617716  0.05624469  0.05647018
   0.55456973  0.99607554  0.25207693
   0.09516526  0.18175063  0.12156099
   0.05653761  0.74484839  0.38046786
   0.45888623  0.23433621  0.38330087
   0.93185922  0.34489710  0.38034299
   0.34047062  0.60391201  0.02782883
   0.92434681  0.68523651  0.03696881
   0.34363348  0.06399961  0.02783421
   0.88838126  0.05560908  0.02665597
   0.43090395  0.35233376  0.40289885
   0.21461195  0.74975955  0.38719922
   0.78474779  0.50854572  0.38772481
   0.45410423  0.91636193  0.39552873
Direct configuration=    12
   0.22067121  0.89240241  0.08901558
   0.67844874  0.16032054  0.21828789
   0.94927612  0.02809995  0.15233499
   0.40233750  0.29445521  0.28422588
   0.44927612  0.52809995  0.15233499
   0.90169916  0.30035818  0.28473700
   0.44927612  0.02809995  0.15233499
   0.90444064  0.79803617  0.28380103
   0.90282244  0.55132680  0.10484543
   0.35765056  0.81910867  0.23384503
   0.99709561  0.50223123  0.20350242
   0.44521612  0.77827920  0.33454488
   0.53851998  0.23347802  0.07318573
   0.13608524  0.44078757  0.35151244
   0.79916370  0.09785759  0.36517002
   0.78501249  0.61376130  0.31316491
   0.87926422  0.06310591  0.05527763
   0.34052779  0.33037101  0.18258090
   0.58246139  0.21150732  0.12452493
   0.04627368  0.47536313  0.25631994
   0.47349384  0.74557138  0.38701357
   0.09516526  0.72856013  0.12156099
   0.55356650  0.44499175  0.25212722
   0.75788237  0.11837215  0.31154537
   0.85888103  0.57329750  0.05350623
   0.31400550  0.84694816  0.18041976
   0.56207820  0.72169891  0.12275353
   0.01384318  0.99424897  0.25392466
   0.80193362  0.32430042  0.18391676
   0.25704124  0.59207461  0.31500120
   0.34617716  0.60305419  0.05647018
   0.24434605  0.15384397  0.31692966
   0.80294516  0.87508827  0.18383103
   0.34617716  0.05624469  0.05647018
   0.55477861  0.99560642  0.25208216
   0.09516526  0.18175063  0.12156099
   0.05633061  0.74532841  0.38040969
   0.45938368  0.23493954  0.38332842
   0.93220716  0.34467518  0.38036123
   0.34047062  0.60391201  0.02782883
   0.92434681  0.68523651  0.03696881
   0.34363348  0.06399961  0.02783421
   0.88838126  0.05560908  0.02665597
   0.43100856  0.35198585  0.40287914
   0.21436618  0.74994259  0.38719893
   0.78485146  0.50812585  0.38772241
   0.45415369  0.91600693  0.39549509
Direct configuration=    13
   0.22067121  0.89240241  0.08901558
   0.67854959  0.16023210  0.21825829
   0.94927612  0.02809995  0.15233499
   0.40227099  0.29449416  0.28422461
   0.44927612  0.52809995  0.15233499
   0.90156543  0.30042268  0.28475090
   0.44927612  0.02809995  0.15233499
   0.90435529  0.79813545  0.28379798
   0.90282244  0.55132680  0.10484543
   0.35759449  0.81915767  0.23383950
   0.99708663  0.50221628  0.20349640
   0.44536191  0.77824015  0.33452823
   0.53851998  0.23347802  0.07318573
   0.13595535  0.44091947  0.35149695
   0.79920284  0.09784023  0.36517668
   0.78511534  0.61382660  0.31316732
   0.87926422  0.06310591  0.05527763
   0.34044530  0.33031801  0.18256481
   0.58246139  0.21150732  0.12452493
   0.04613732  0.47539884  0.25631091
   0.47345216  0.74558913  0.38702180
   0.09516526  0.72856013  0.12156099
   0.55340459  0.44498329  0.25211705
   0.75805293  0.11824122  0.31155011
   0.85888103  0.57329750  0.05350623
   0.31400551  0.84700118  0.18041727
   0.56207820  0.72169891  0.12275353
   0.01382842  0.99429174  0.25392378
   0.80197862  0.32425693  0.18390829
   0.25700696  0.59195833  0.31498931
   0.34617716  0.60305419  0.05647018
   0.24453909  0.15387235  0.31693547
   0.80299419  0.87500849  0.18382418
   0.34617716  0.05624469  0.05647018
   0.55482075  0.99551177  0.25208321
   0.09516526  0.18175063  0.12156099
   0.05628885  0.74542524  0.38039796
   0.45948404  0.23506125  0.38333398
   0.93227735  0.34463040  0.38036491
   0.34047062  0.60391201  0.02782883
   0.92434681  0.68523651  0.03696881
   0.34363348  0.06399961  0.02783421
   0.88838126  0.05560908  0.02665597
   0.43102966  0.35191566  0.40287516
   0.21431660  0.74997951  0.38719887
   0.78487238  0.50804114  0.38772193
   0.45416367  0.91593532  0.39548830
Direct configuration=    14
   0.22067121  0.89240241  0.08901558
   0.67869806  0.15988344  0.21822272
   0.94927612  0.02809995  0.15233499
   0.40203469  0.29436000  0.28417574
   0.44927612  0.52809995  0.15233499
   0.90123206  0.30062174  0.28474728
   0.44927612  0.02809995  0.15233499
   0.90416753  0.79846707  0.28372776
   0.90282244  0.55132680  0.10484543
   0.35735028  0.81938175  0.23381216
   0.99708324  0.50204261  0.20347045
   0.44593345  0.77793346  0.33448205
   0.53851998  0.23347802  0.07318573
   0.13536642  0.44164404  0.35146204
   0.79932241  0.09791270  0.36523498
   0.78558124  0.61397530  0.31322109
   0.87926422  0.06310591  0.05527763
   0.33992571  0.33037971  0.18251504
   0.58246139  0.21150732  0.12452493
   0.04524731  0.47557509  0.25626512
   0.47321713  0.74561765  0.38702148
   0.09516526  0.72856013  0.12156099
   0.55264829  0.44493007  0.25202136
   0.75876820  0.11786554  0.31162307
   0.85888103  0.57329750  0.05350623
   0.31395661  0.84703420  0.18043597
   0.56207820  0.72169891  0.12275353
   0.01365529  0.99468712  0.25392031
   0.80212253  0.32428494  0.18387953
   0.25693368  0.59198296  0.31495241
   0.34617716  0.60305419  0.05647018
   0.24536243  0.15385220  0.31694663
   0.80328619  0.87445543  0.18379009
   0.34617716  0.05624469  0.05647018
   0.55512370  0.99504564  0.25205130
   0.09516526  0.18175063  0.12156099
   0.05604086  0.74571166  0.38031515
   0.46002239  0.23522267  0.38324361
   0.93285427  0.34424287  0.38036370
   0.34047062  0.60391201  0.02782883
   0.92434681  0.68523651  0.03696881
   0.34363348  0.06399961  0.02783421
   0.88838126  0.05560908  0.02665597
   0.43105242  0.35213908  0.40295437
   0.21421031  0.75021635  0.38719788
   0.78484192  0.50772361  0.38773205
   0.45421057  0.91558075  0.39545582
Direct configuration=    15
   0.22067121  0.89240241  0.08901558
   0.67872036  0.15983105  0.21821737
   0.94927612  0.02809995  0.15233499
   0.40199919  0.29433984  0.28416840
   0.44927612  0.52809995  0.15233499
   0.90118197  0.30065165  0.28474674
   0.44927612  0.02809995  0.15233499
   0.90413931  0.79851689  0.28371721
   0.90282244  0.55132680  0.10484543
   0.35731358  0.81941542  0.23380806
   0.99708273  0.50201651  0.20346655
   0.44601932  0.77788738  0.33447511
   0.53851998  0.23347802  0.07318573
   0.13527794  0.44175290  0.35145680
   0.79934037  0.09792358  0.36524374
   0.78565124  0.61399765  0.31322917
   0.87926422  0.06310591  0.05527763
   0.33984764  0.33038897  0.18250756
   0.58246139  0.21150732  0.12452493
   0.04511358  0.47560157  0.25625824
   0.47318182  0.74562193  0.38702143
   0.09516526  0.72856013  0.12156099
   0.55253466  0.44492207  0.25200698
   0.75887567  0.11780909  0.31163404
   0.85888103  0.57329750  0.05350623
   0.31394926  0.84703916  0.18043878
   0.56207820  0.72169891  0.12275353
   0.01362927  0.99474653  0.25391979
   0.80214416  0.32428915  0.18387521
   0.25692267  0.59198666  0.31494686
   0.34617716  0.60305419  0.05647018
   0.24548614  0.15384917  0.31694830
   0.80333006  0.87437233  0.18378497
   0.34617716  0.05624469  0.05647018
   0.55516922  0.99497560  0.25204651
   0.09516526  0.18175063  0.12156099
   0.05600359  0.74575469  0.38030271
   0.46010328  0.23524692  0.38323003
   0.93294095  0.34418465  0.38036352
   0.34047062  0.60391201  0.02782883
   0.92434681  0.68523651  0.03696881
   0.34363348  0.06399961  0.02783421
   0.88838126  0.05560908  0.02665597
   0.43105583  0.35217265  0.40296627
   0.21419434  0.75025194  0.38719773
   0.78483735  0.50767591  0.38773357
   0.45421762  0.91552748  0.39545094
Direct configuration=    16
   0.22067121  0.89240241  0.08901558
   0.67867155  0.15961441  0.21823126
   0.94927612  0.02809995  0.15233499
   0.40186880  0.29413769  0.28411405
   0.44927612  0.52809995  0.15233499
   0.90105856  0.30078645  0.28472221
   0.44927612  0.02809995  0.15233499
   0.90409511  0.79865000  0.28365273
   0.90282244  0.55132680  0.10484543
   0.35713629  0.81956783  0.23378785
   0.99708252  0.50182472  0.20344988
   0.44633417  0.77761688  0.33445006
   0.53851998  0.23347802  0.07318573
   0.13500712  0.44218466  0.35141100
   0.79943999  0.09805882  0.36528923
   0.78607445  0.61397304  0.31328475
   0.87926422  0.06310591  0.05527763
   0.33948208  0.33055125  0.18247813
   0.58246139  0.21150732  0.12452493
   0.04430063  0.47577208  0.25621946
   0.47301749  0.74527884  0.38699015
   0.09516526  0.72856013  0.12156099
   0.55194774  0.44485539  0.25191584
   0.75940616  0.11767191  0.31170286
   0.85888103  0.57329750  0.05350623
   0.31389769  0.84695415  0.18045718
   0.56207820  0.72169891  0.12275353
   0.01343711  0.99514910  0.25390808
   0.80215268  0.32434366  0.18385788
   0.25692017  0.59231213  0.31492584
   0.34617716  0.60305419  0.05647018
   0.24601751  0.15376906  0.31695076
   0.80352630  0.87399592  0.18375665
   0.34617716  0.05624469  0.05647018
   0.55545325  0.99459555  0.25200662
   0.09516526  0.18175063  0.12156099
   0.05593943  0.74596892  0.38024865
   0.46027342  0.23593166  0.38322174
   0.93317802  0.34412921  0.38037858
   0.34047062  0.60391201  0.02782883
   0.92434681  0.68523651  0.03696881
   0.34363348  0.06399961  0.02783421
   0.88838126  0.05560908  0.02665597
   0.43121765  0.35194766  0.40296180
   0.21407177  0.75045879  0.38718576
   0.78501709  0.50717468  0.38773537
   0.45422023  0.91552064  0.39543980
Direct configuration=    17
   0.22067121  0.89240241  0.08901558
   0.67865008  0.15951911  0.21823736
   0.94927612  0.02809995  0.15233499
   0.40181145  0.29404876  0.28409013
   0.44927612  0.52809995  0.15233499
   0.90100427  0.30084575  0.28471142
   0.44927612  0.02809995  0.15233499
   0.90407566  0.79870855  0.28362436
   0.90282244  0.55132680  0.10484543
   0.35705830  0.81963487  0.23377896
   0.99708242  0.50174035  0.20344255
   0.44647267  0.77749789  0.33443904
   0.53851998  0.23347802  0.07318573
   0.13488799  0.44237459  0.35139086
   0.79948382  0.09811831  0.36530924
   0.78626061  0.61396221  0.31330921
   0.87926422  0.06310591  0.05527763
   0.33932127  0.33062263  0.18246519
   0.58246139  0.21150732  0.12452493
   0.04394301  0.47584708  0.25620240
   0.47294521  0.74512792  0.38697638
   0.09516526  0.72856013  0.12156099
   0.55168956  0.44482606  0.25187574
   0.75963952  0.11761157  0.31173313
   0.85888103  0.57329750  0.05350623
   0.31387500  0.84691676  0.18046528
   0.56207820  0.72169891  0.12275353
   0.01335258  0.99532619  0.25390293
   0.80215642  0.32436763  0.18385026
   0.25691907  0.59245530  0.31491659
   0.34617716  0.60305419  0.05647018
   0.24625126  0.15373382  0.31695184
   0.80361263  0.87383033  0.18374419
   0.34617716  0.05624469  0.05647018
   0.55557820  0.99442836  0.25198907
   0.09516526  0.18175063  0.12156099
   0.05591120  0.74606315  0.38022488
   0.46034827  0.23623287  0.38321810
   0.93328231  0.34410482  0.38038521
   0.34047062  0.60391201  0.02782883
   0.92434681  0.68523651  0.03696881
   0.34363348  0.06399961  0.02783421
   0.88838126  0.05560908  0.02665597
   0.43128883  0.35184868  0.40295984
   0.21401785  0.75054979  0.38718049
   0.78509615  0.50695420  0.38773616
   0.45422138  0.91551763  0.39543490
Direct configuration=    18
   0.22067121  0.89240241  0.08901558
   0.67856199  0.15942219  0.21824120
   0.94927612  0.02809995  0.15233499
   0.40175932  0.29399268  0.28406107
   0.44927612  0.52809995  0.15233499
   0.90096805  0.30093049  0.28470569
   0.44927612  0.02809995  0.15233499
   0.90407681  0.79872632  0.28361239
   0.90282244  0.55132680  0.10484543
   0.35694975  0.81968909  0.23376735
   0.99704301  0.50158438  0.20343161
   0.44652617  0.77733314  0.33443037
   0.53851998  0.23347802  0.07318573
   0.13499920  0.44244027  0.35132566
   0.79952932  0.09828907  0.36533283
   0.78664548  0.61378323  0.31333948
   0.87926422  0.06310591  0.05527763
   0.33924547  0.33075009  0.18245200
   0.58246139  0.21150732  0.12452493
   0.04338003  0.47599840  0.25616794
   0.47277788  0.74523140  0.38696354
   0.09516526  0.72856013  0.12156099
   0.55130343  0.44478800  0.25181908
   0.75999411  0.11764412  0.31176021
   0.85888103  0.57329750  0.05350623
   0.31384867  0.84679577  0.18046788
   0.56207820  0.72169891  0.12275353
   0.01320842  0.99561356  0.25387407
   0.80198861  0.32433955  0.18384890
   0.25698387  0.59280588  0.31489445
   0.34617716  0.60305419  0.05647018
   0.24643309  0.15364405  0.31694586
   0.80363232  0.87379419  0.18373011
   0.34617716  0.05624469  0.05647018
   0.55575823  0.99412762  0.25196139
   0.09516526  0.18175063  0.12156099
   0.05590788  0.74627353  0.38020954
   0.46034975  0.23659943  0.38317644
   0.93344221  0.34406370  0.38040574
   0.34047062  0.60391201  0.02782883
   0.92434681  0.68523651  0.03696881
   0.34363348  0.06399961  0.02783421
   0.88838126  0.05560908  0.02665597
   0.43138613  0.35189502  0.40298708
   0.21397385  0.75066603  0.38715979
   0.78522932  0.50662569  0.38774282
   0.45425491  0.91517572  0.39540987
Direct configuration=    19
   0.22067121  0.89240241  0.08901558
   0.67852060  0.15937666  0.21824300
   0.94927612  0.02809995  0.15233499
   0.40173483  0.29396634  0.28404741
   0.44927612  0.52809995  0.15233499
   0.90095103  0.30097031  0.28470301
   0.44927612  0.02809995  0.15233499
   0.90407734  0.79873467  0.28360677
   0.90282244  0.55132680  0.10484543
   0.35689875  0.81971457  0.23376190
   0.99702449  0.50151110  0.20342648
   0.44655130  0.77725574  0.33442629
   0.53851998  0.23347802  0.07318573
   0.13505146  0.44247112  0.35129503
   0.79955071  0.09836931  0.36534391
   0.78682632  0.61369913  0.31335370
   0.87926422  0.06310591  0.05527763
   0.33920985  0.33080998  0.18244580
   0.58246139  0.21150732  0.12452493
   0.04311550  0.47606951  0.25615175
   0.47269926  0.74528003  0.38695750
   0.09516526  0.72856013  0.12156099
   0.55112200  0.44477012  0.25179246
   0.76016072  0.11765941  0.31177294
   0.85888103  0.57329750  0.05350623
   0.31383631  0.84673892  0.18046911
   0.56207820  0.72169891  0.12275353
   0.01314069  0.99574858  0.25386050
   0.80190976  0.32432635  0.18384826
   0.25701432  0.59297060  0.31488404
   0.34617716  0.60305419  0.05647018
   0.24651853  0.15360186  0.31694305
   0.80364158  0.87377721  0.18372349
   0.34617716  0.05624469  0.05647018
   0.55584282  0.99398631  0.25194839
   0.09516526  0.18175063  0.12156099
   0.05590632  0.74637238  0.38020233
   0.46035044  0.23677167  0.38315687
   0.93351735  0.34404438  0.38041540
   0.34047062  0.60391201  0.02782883
   0.92434681  0.68523651  0.03696881
   0.34363348  0.06399961  0.02783421
   0.88838126  0.05560908  0.02665597
   0.43143184  0.35191680  0.40299989
   0.21395317  0.75072065  0.38715006
   0.78529189  0.50647133  0.38774595
   0.45427066  0.91501507  0.39539811
Direct configuration=    20
   0.22067121  0.89240241  0.08901558
   0.67843781  0.15928558  0.21824660
   0.94927612  0.02809995  0.15233499
   0.40168585  0.29391364  0.28402010
   0.44927612  0.52809995  0.15233499
   0.90091700  0.30104994  0.28469763
   0.44927612  0.02809995  0.15233499
   0.90407842  0.79875137  0.28359552
   0.90282244  0.55132680  0.10484543
   0.35679675  0.81976552  0.23375099
   0.99698745  0.50136453  0.20341620
   0.44660157  0.77710092  0.33441814
   0.53851998  0.23347802  0.07318573
   0.13515598  0.44253284  0.35123376
   0.79959347  0.09852978  0.36536608
   0.78718800  0.61353094  0.31338215
   0.87926422  0.06310591  0.05527763
   0.33913862  0.33092975  0.18243341
   0.58246139  0.21150732  0.12452493
   0.04258644  0.47621171  0.25611937
   0.47254201  0.74537727  0.38694543
   0.09516526  0.72856013  0.12156099
   0.55075915  0.44473435  0.25173921
   0.76049395  0.11769000  0.31179839
   0.85888103  0.57329750  0.05350623
   0.31381157  0.84662522  0.18047155
   0.56207820  0.72169891  0.12275353
   0.01300523  0.99601863  0.25383338
   0.80175206  0.32429996  0.18384698
   0.25707522  0.59330006  0.31486323
   0.34617716  0.60305419  0.05647018
   0.24668941  0.15351750  0.31693744
   0.80366009  0.87374325  0.18371026
   0.34617716  0.05624469  0.05647018
   0.55601200  0.99370369  0.25192238
   0.09516526  0.18175063  0.12156099
   0.05590320  0.74657007  0.38018792
   0.46035184  0.23711614  0.38311772
   0.93366762  0.34400574  0.38043470
   0.34047062  0.60391201  0.02782883
   0.92434681  0.68523651  0.03696881
   0.34363348  0.06399961  0.02783421
   0.88838126  0.05560908  0.02665597
   0.43152328  0.35196034  0.40302549
   0.21391182  0.75082989  0.38713061
   0.78541704  0.50616262  0.38775221
   0.45430217  0.91469376  0.39537459
Direct configuration=    21
   0.22067121  0.89240241  0.08901558
   0.67848900  0.15934190  0.21824437
   0.94927612  0.02809995  0.15233499
   0.40171614  0.29394622  0.28403699
   0.44927612  0.52809995  0.15233499
   0.90093804  0.30100070  0.28470095
   0.44927612  0.02809995  0.15233499
   0.90407775  0.79874104  0.28360248
   0.90282244  0.55132680  0.10484543
   0.35685982  0.81973401  0.23375773
   0.99701035  0.50145516  0.20342255
   0.44657049  0.77719665  0.33442318
   0.53851998  0.23347802  0.07318573
   0.13509135  0.44249468  0.35127165
   0.79956703  0.09843055  0.36535237
   0.78696435  0.61363494  0.31336456
   0.87926422  0.06310591  0.05527763
   0.33918267  0.33085569  0.18244107
   0.58246139  0.21150732  0.12452493
   0.04291358  0.47612378  0.25613939
   0.47263924  0.74531714  0.38695289
   0.09516526  0.72856013  0.12156099
   0.55098352  0.44475647  0.25177214
   0.76028790  0.11767109  0.31178265
   0.85888103  0.57329750  0.05350623
   0.31382686  0.84669553  0.18047004
   0.56207820  0.72169891  0.12275353
   0.01308899  0.99585165  0.25385015
   0.80184958  0.32431628  0.18384777
   0.25703757  0.59309634  0.31487610
   0.34617716  0.60305419  0.05647018
   0.24658375  0.15356966  0.31694091
   0.80364864  0.87376425  0.18371844
   0.34617716  0.05624469  0.05647018
   0.55590739  0.99387845  0.25193846
   0.09516526  0.18175063  0.12156099
   0.05590513  0.74644783  0.38019683
   0.46035098  0.23690314  0.38314193
   0.93357470  0.34402963  0.38042276
   0.34047062  0.60391201  0.02782883
   0.92434681  0.68523651  0.03696881
   0.34363348  0.06399961  0.02783421
   0.88838126  0.05560908  0.02665597
   0.43146674  0.35193342  0.40300966
   0.21393739  0.75076234  0.38714264
   0.78533966  0.50635351  0.38774834
   0.45428269  0.91489244  0.39538913
Direct configuration=    22
   0.22067121  0.89240241  0.08901558
   0.67842371  0.15924711  0.21821733
   0.94927612  0.02809995  0.15233499
   0.40171608  0.29401251  0.28401702
   0.44927612  0.52809995  0.15233499
   0.90092781  0.30101343  0.28470783
   0.44927612  0.02809995  0.15233499
   0.90408665  0.79882246  0.28362188
   0.90282244  0.55132680  0.10484543
   0.35674116  0.81973632  0.23374680
   0.99688484  0.50132651  0.20340234
   0.44657392  0.77708666  0.33442057
   0.53851998  0.23347802  0.07318573
   0.13535169  0.44248157  0.35120695
   0.79960210  0.09864462  0.36536510
   0.78735960  0.61339756  0.31338868
   0.87926422  0.06310591  0.05527763
   0.33926795  0.33091245  0.18243537
   0.58246139  0.21150732  0.12452493
   0.04244010  0.47632774  0.25610376
   0.47254113  0.74503256  0.38691756
   0.09516526  0.72856013  0.12156099
   0.55061072  0.44476091  0.25174057
   0.76062282  0.11775275  0.31177897
   0.85888103  0.57329750  0.05350623
   0.31380950  0.84661001  0.18045608
   0.56207820  0.72169891  0.12275353
   0.01291460  0.99605953  0.25380755
   0.80154027  0.32423640  0.18385404
   0.25714721  0.59332530  0.31482941
   0.34617716  0.60305419  0.05647018
   0.24661258  0.15350462  0.31691978
   0.80354913  0.87391281  0.18371196
   0.34617716  0.05624469  0.05647018
   0.55600324  0.99359417  0.25192706
   0.09516526  0.18175063  0.12156099
   0.05580824  0.74661790  0.38018362
   0.46021123  0.23744583  0.38311664
   0.93398908  0.34374889  0.38043562
   0.34047062  0.60391201  0.02782883
   0.92434681  0.68523651  0.03696881
   0.34363348  0.06399961  0.02783421
   0.88838126  0.05560908  0.02665597
   0.43160011  0.35190666  0.40301260
   0.21404791  0.75086490  0.38711618
   0.78532754  0.50628981  0.38776942
   0.45425902  0.91491936  0.39538498
