Mn  O  H                                
   1.00000000000000     
     5.7471469900000001    0.0000000000000000    0.0000000000000000
     0.0000000000000000    5.7471469900000001    0.0000000000000000
     0.0000000000000000    0.0000000000000000   38.3054457865184048
   Mn   O    H 
    14    19     2
Selective dynamics
Direct
  0.0005897911438808  0.2476699193814511  0.2914703232202811   F   F   F
  0.5057702161798985  0.7386488052339242  0.4172942543738504   T   T   T
  0.5075261535656260  0.2398618112637085  0.4179253310063809   T   T   T
  0.0005897911438808  0.7476699193814511  0.2914703232202811   F   F   F
  0.7505897911438808  0.4976699193814511  0.3529281004804687   F   F   F
  0.7439192262775768 -0.0131889612511775  0.4760122222273941   T   T   T
  0.2505897911438808  0.4976699193814511  0.3529281004804687   F   F   F
  0.2484343372188088  0.9892014113674062  0.4870216397510042   T   T   T
  0.0106408881537627  0.9965568162020487  0.3854021590817635   T   T   T
  0.6451451484492009  0.4852991460066489  0.5042405121168979   T   T   T
  0.0477028860064884  0.4821092646195052  0.4524061121707031   T   T   T
  0.5005897911438808  0.9976699193814511  0.3221992118503749   F   F   F
  0.0177803779574235  0.2154543422712679  0.5542581593734691   T   T   T
  0.0230625995258724  0.7376027813205355  0.5452283151910143   T   T   T
  0.9879546747944024  0.2236758423770445  0.4896188614631685   T   T   T
  0.5005897911438808  0.7242651693814466  0.3546474211323059   F   F   F
  0.5005897911438808  0.2710746693814485  0.3546474211323059   F   F   F
  0.9850324804275896  0.7388194846473326  0.4922763325652947   T   T   T
  0.7739945411438782  0.4976699193814511  0.2931896438721111   F   F   F
  0.7349221989840748 -0.0122179197825295  0.4201431452216644   T   T   T
  0.4768768033773723  0.2289123883117743  0.4774484281163142   T   T   T
  0.0005897911438808  0.7242651693814466  0.3512087798286387   F   F   F
  0.0005897911438808  0.2710746693814485  0.3512087798286387   F   F   F
  0.4806215571332736  0.7459328674509160  0.4780204817195183   T   T   T
  0.7385086690207904  0.4906552118515584  0.4185226512351085   T   T   T
  0.7739945411438782  0.9976699193814511  0.2897510025684511   F   F   F
  0.2789657752650767  0.4892586696290598  0.4124110680896210   T   T   T
  0.2271850411438834  0.9976699193814511  0.2897510025684511   F   F   F
  0.2805562890305551 -0.0116121344707176  0.4196051187324697   T   T   T
  0.2271850411438834  0.4976699193814511  0.2931896438721111   F   F   F
  0.8132183653101017  0.4866539963852207  0.5514656815000357   T   T   T
  0.2523697909940045 -0.0303871838749737  0.5415625051790994   T   T   T
  0.9163819871041706  0.9259180836617359  0.5848805592322129   T   T   T
  0.3544677653501580  0.4873862763163501  0.2714495387823135   F   F   F
  0.7713759965826901  0.8741965165613340  0.5957984210946318   T   T   T
 
  0.00000000E+00  0.00000000E+00  0.00000000E+00
  0.00000000E+00  0.00000000E+00  0.00000000E+00
  0.00000000E+00  0.00000000E+00  0.00000000E+00
  0.00000000E+00  0.00000000E+00  0.00000000E+00
  0.00000000E+00  0.00000000E+00  0.00000000E+00
  0.00000000E+00  0.00000000E+00  0.00000000E+00
  0.00000000E+00  0.00000000E+00  0.00000000E+00
  0.00000000E+00  0.00000000E+00  0.00000000E+00
  0.00000000E+00  0.00000000E+00  0.00000000E+00
  0.00000000E+00  0.00000000E+00  0.00000000E+00
  0.00000000E+00  0.00000000E+00  0.00000000E+00
  0.00000000E+00  0.00000000E+00  0.00000000E+00
  0.00000000E+00  0.00000000E+00  0.00000000E+00
  0.00000000E+00  0.00000000E+00  0.00000000E+00
  0.00000000E+00  0.00000000E+00  0.00000000E+00
  0.00000000E+00  0.00000000E+00  0.00000000E+00
  0.00000000E+00  0.00000000E+00  0.00000000E+00
  0.00000000E+00  0.00000000E+00  0.00000000E+00
  0.00000000E+00  0.00000000E+00  0.00000000E+00
  0.00000000E+00  0.00000000E+00  0.00000000E+00
  0.00000000E+00  0.00000000E+00  0.00000000E+00
  0.00000000E+00  0.00000000E+00  0.00000000E+00
  0.00000000E+00  0.00000000E+00  0.00000000E+00
  0.00000000E+00  0.00000000E+00  0.00000000E+00
  0.00000000E+00  0.00000000E+00  0.00000000E+00
  0.00000000E+00  0.00000000E+00  0.00000000E+00
  0.00000000E+00  0.00000000E+00  0.00000000E+00
  0.00000000E+00  0.00000000E+00  0.00000000E+00
  0.00000000E+00  0.00000000E+00  0.00000000E+00
  0.00000000E+00  0.00000000E+00  0.00000000E+00
  0.00000000E+00  0.00000000E+00  0.00000000E+00
  0.00000000E+00  0.00000000E+00  0.00000000E+00
  0.00000000E+00  0.00000000E+00  0.00000000E+00
  0.00000000E+00  0.00000000E+00  0.00000000E+00
  0.00000000E+00  0.00000000E+00  0.00000000E+00
