 running on   68 total cores
 distrk:  each k-point on   68 cores,    1 groups
 distr:  one band on   34 cores,    2 groups
 using from now: INCAR     
 vasp.5.4.4.18Apr17-6-g9f103f2a35 (build Sep 24 2019 09:38:50) complex          
  
 POSCAR found type information on POSCAR  Mn O  H 
 POSCAR found :  3 types and      45 ions

 ----------------------------------------------------------------------------- 
|                                                                             |
|           W    W    AA    RRRRR   N    N  II  N    N   GGGG   !!!           |
|           W    W   A  A   R    R  NN   N  II  NN   N  G    G  !!!           |
|           W    W  A    A  R    R  N N  N  II  N N  N  G       !!!           |
|           W WW W  AAAAAA  RRRRR   N  N N  II  N  N N  G  GGG   !            |
|           WW  WW  A    A  R   R   N   NN  II  N   NN  G    G                |
|           W    W  A    A  R    R  N    N  II  N    N   GGGG   !!!           |
|                                                                             |
|      For optimal performance we recommend to set                            |
|        NCORE= 4 - approx SQRT( number of cores)                             |
|      NCORE specifies how many cores store one orbital (NPAR=cpu/NCORE).     |
|      This setting can  greatly improve the performance of VASP for DFT.     |
|      The default,   NCORE=1            might be grossly inefficient         |
|      on modern multi-core architectures or massively parallel machines.     |
|      Do your own testing !!!!                                               |
|      Unfortunately you need to use the default for GW and RPA calculations. |
|      (for HF NCORE is supported but not extensively tested yet)             |
|                                                                             |
 ----------------------------------------------------------------------------- 

 LDA part: xc-table for Pade appr. of Perdew
 POSCAR found type information on POSCAR  Mn O  H 
 POSCAR found :  3 types and      45 ions
 POSCAR, INCAR and KPOINTS ok, starting setup
 FFT: planning ...
 WAVECAR not read
 entering main loop
       N       E                     dE             d eps       ncg     rms          rms(c)
DAV:   1     0.390499732146E+04    0.39050E+04   -0.18590E+05 10120   0.149E+03
DAV:   2     0.284644743474E+03   -0.36204E+04   -0.33956E+04  9396   0.415E+02
DAV:   3    -0.314442459474E+03   -0.59909E+03   -0.58687E+03 10542   0.165E+02
DAV:   4    -0.343668647851E+03   -0.29226E+02   -0.28750E+02 10464   0.362E+01
DAV:   5    -0.344392232459E+03   -0.72358E+00   -0.72011E+00 10210   0.650E+00    0.842E+01
RMM:   6    -0.751923725248E+03   -0.40753E+03   -0.12538E+03 11519   0.694E+01    0.193E+02
RMM:   7    -0.426343930163E+03    0.32558E+03   -0.15105E+02  9455   0.267E+01    0.141E+02
RMM:   8    -0.362873393946E+03    0.63471E+02   -0.10113E+02  8982   0.212E+01    0.110E+02
RMM:   9    -0.344747050540E+03    0.18126E+02   -0.99871E+01  9656   0.202E+01    0.104E+02
RMM:  10    -0.313440794221E+03    0.31306E+02   -0.34421E+01  9371   0.128E+01    0.849E+01
RMM:  11    -0.337348385097E+03   -0.23908E+02   -0.50078E+01  9211   0.149E+01    0.860E+01
RMM:  12    -0.309075856506E+03    0.28273E+02   -0.40268E+01  9608   0.128E+01    0.830E+01
RMM:  13    -0.283233761401E+03    0.25842E+02   -0.20139E+01  9621   0.957E+00    0.559E+01
RMM:  14    -0.284471317954E+03   -0.12376E+01   -0.14440E+01  9239   0.775E+00    0.496E+01
RMM:  15    -0.296205872484E+03   -0.11735E+02   -0.10409E+01  9426   0.612E+00    0.569E+01
RMM:  16    -0.287723551373E+03    0.84823E+01   -0.49248E+00  9331   0.447E+00    0.403E+01
RMM:  17    -0.292492982255E+03   -0.47694E+01   -0.21975E+00  8745   0.314E+00    0.391E+01
RMM:  18    -0.293343536773E+03   -0.85055E+00   -0.10492E+00  8865   0.197E+00    0.348E+01
RMM:  19    -0.295381938968E+03   -0.20384E+01   -0.14033E+00  8692   0.233E+00    0.270E+01
RMM:  20    -0.297232051457E+03   -0.18501E+01   -0.17089E+00  8627   0.279E+00    0.247E+01
RMM:  21    -0.297072624761E+03    0.15943E+00   -0.15651E+00  8708   0.257E+00    0.173E+01
RMM:  22    -0.299377584974E+03   -0.23050E+01   -0.13174E+00  9140   0.192E+00    0.161E+01
RMM:  23    -0.299580060317E+03   -0.20248E+00   -0.97137E-01  9042   0.188E+00    0.133E+01
RMM:  24    -0.299093948472E+03    0.48611E+00   -0.10381E+00  8870   0.190E+00    0.148E+01
RMM:  25    -0.300546411904E+03   -0.14525E+01   -0.60264E-01  8803   0.140E+00    0.165E+01
RMM:  26    -0.300784198379E+03   -0.23779E+00   -0.16490E-01  9785   0.742E-01    0.168E+01
RMM:  27    -0.300625692706E+03    0.15851E+00   -0.12672E-01  9113   0.691E-01    0.159E+01
RMM:  28    -0.299711547755E+03    0.91414E+00   -0.14396E+00  8810   0.226E+00    0.118E+01
RMM:  29    -0.299056995774E+03    0.65455E+00   -0.62065E-01  8849   0.151E+00    0.981E+00
RMM:  30    -0.298605637093E+03    0.45136E+00   -0.36735E-01  8905   0.112E+00    0.789E+00
RMM:  31    -0.299308051256E+03   -0.70241E+00   -0.83917E-02  9339   0.531E-01    0.123E+01
RMM:  32    -0.299923727242E+03   -0.61568E+00   -0.29900E-01  8617   0.102E+00    0.136E+01
RMM:  33    -0.299850744630E+03    0.72983E-01   -0.10177E-01  8731   0.529E-01    0.142E+01
RMM:  34    -0.299848202569E+03    0.25421E-02   -0.17580E-02 10046   0.204E-01    0.143E+01
RMM:  35    -0.299826238004E+03    0.21965E-01   -0.46519E-02  8652   0.421E-01    0.145E+01
RMM:  36    -0.299822861190E+03    0.33768E-02   -0.18112E-02  9162   0.219E-01    0.145E+01
RMM:  37    -0.299869439232E+03   -0.46578E-01   -0.11278E-02  8637   0.233E-01    0.145E+01
RMM:  38    -0.299859826132E+03    0.96131E-02   -0.44371E-03  9371   0.136E-01    0.144E+01
RMM:  39    -0.299859777167E+03    0.48965E-04   -0.18623E-01  8667   0.770E-01    0.152E+01
RMM:  40    -0.300030598343E+03   -0.17082E+00   -0.35495E-01  8647   0.963E-01    0.190E+01
RMM:  41    -0.301169438140E+03   -0.11388E+01   -0.21984E-01  8864   0.849E-01    0.233E+01
RMM:  42    -0.301954712245E+03   -0.78527E+00   -0.20324E-01  8659   0.814E-01    0.252E+01
RMM:  43    -0.301879589705E+03    0.75123E-01   -0.89552E-02  9157   0.489E-01    0.258E+01
RMM:  44    -0.301897152864E+03   -0.17563E-01   -0.23967E-02  8863   0.259E-01    0.262E+01
RMM:  45    -0.302084107736E+03   -0.18695E+00   -0.16147E-02  8523   0.200E-01    0.276E+01
RMM:  46    -0.302247058216E+03   -0.16295E+00   -0.38615E-02  8263   0.335E-01    0.280E+01
RMM:  47    -0.302228895812E+03    0.18162E-01   -0.17585E-02  8339   0.221E-01    0.279E+01
RMM:  48    -0.302209958300E+03    0.18938E-01   -0.53028E-03  8033   0.108E-01    0.279E+01
RMM:  49    -0.302190626962E+03    0.19331E-01   -0.19873E-03  8206   0.639E-02    0.279E+01
RMM:  50    -0.302132305956E+03    0.58321E-01   -0.13857E-03  7939   0.696E-02    0.278E+01
RMM:  51    -0.302364231160E+03   -0.23193E+00   -0.19331E+00  8714   0.244E+00    0.293E+01
RMM:  52    -0.302185687308E+03    0.17854E+00   -0.23453E-01  9631   0.993E-01    0.279E+01
RMM:  53    -0.302130989331E+03    0.54698E-01   -0.23750E-02 10432   0.295E-01    0.267E+01
RMM:  54    -0.302336535436E+03   -0.20555E+00   -0.19457E-02  8487   0.286E-01    0.257E+01
RMM:  55    -0.302741720337E+03   -0.40518E+00   -0.85378E-02  8625   0.578E-01    0.256E+01
RMM:  56    -0.302618393558E+03    0.12333E+00   -0.62451E-01  8584   0.162E+00    0.267E+01
RMM:  57    -0.302468033762E+03    0.15036E+00   -0.16341E-01  9165   0.783E-01    0.256E+01
RMM:  58    -0.302044964183E+03    0.42307E+00   -0.76240E-02  9186   0.517E-01    0.253E+01
RMM:  59    -0.301457011616E+03    0.58795E+00   -0.79669E-02  9052   0.541E-01    0.249E+01
RMM:  60    -0.300993977037E+03    0.46303E+00   -0.11327E-01  8790   0.659E-01
   1 F= -.30099398E+03 E0= -.30099097E+03  d E =-.300994E+03  mag=    16.2963
 curvature:   0.00 expect dE= 0.000E+00 dE for cont linesearch  0.000E+00
 trial: gam= 0.00000 g(F)=  0.431E+00 g(S)=  0.000E+00 ort = 0.000E+00 (trialstep = 0.100E+01)
 search vector abs. value=  0.431E+00
 bond charge predicted
       N       E                     dE             d eps       ncg     rms          rms(c)
DAV:   1    -0.300914667182E+03    0.54234E+00   -0.11976E+02 11136   0.579E+01    0.298E+01
RMM:   2    -0.373145922395E+03   -0.72231E+02   -0.24003E+02 10489   0.264E+01    0.920E+01
RMM:   3    -0.300657503590E+03    0.72488E+02   -0.53526E+01  9223   0.156E+01    0.467E+01
RMM:   4    -0.300555822129E+03    0.10168E+00   -0.12622E+01  9705   0.682E+00    0.373E+01
RMM:   5    -0.297982340056E+03    0.25735E+01   -0.31103E+00  9473   0.339E+00    0.230E+01
RMM:   6    -0.300010325466E+03   -0.20280E+01   -0.92928E-01  9121   0.180E+00    0.216E+01
RMM:   7    -0.300105661580E+03   -0.95336E-01   -0.14279E-01 11087   0.685E-01    0.216E+01
RMM:   8    -0.299924987556E+03    0.18067E+00   -0.50126E-02  9276   0.452E-01    0.214E+01
RMM:   9    -0.299106448579E+03    0.81854E+00   -0.13280E+00  8787   0.215E+00    0.188E+01
RMM:  10    -0.300747021475E+03   -0.16406E+01   -0.86529E-01  8876   0.182E+00    0.161E+01
RMM:  11    -0.300484326154E+03    0.26270E+00   -0.12979E+00  8698   0.226E+00    0.144E+01
RMM:  12    -0.299405944486E+03    0.10784E+01   -0.20481E+00  8755   0.264E+00    0.196E+01
RMM:  13    -0.299600003976E+03   -0.19406E+00   -0.42167E-01  9643   0.120E+00    0.239E+01
RMM:  14    -0.299749228635E+03   -0.14922E+00   -0.13096E-01  9651   0.681E-01    0.244E+01
RMM:  15    -0.299679936973E+03    0.69292E-01   -0.44535E-02  9515   0.389E-01    0.240E+01
RMM:  16    -0.299678988863E+03    0.94811E-03   -0.24314E-01  8871   0.914E-01    0.240E+01
RMM:  17    -0.299343362793E+03    0.33563E+00   -0.20505E-01  9113   0.778E-01    0.242E+01
RMM:  18    -0.298094464039E+03    0.12489E+01   -0.41066E-01  8665   0.119E+00    0.246E+01
RMM:  19    -0.296515853921E+03    0.15786E+01   -0.59340E-01  8637   0.147E+00    0.228E+01
RMM:  20    -0.294146476693E+03    0.23694E+01   -0.76658E-01  8658   0.173E+00    0.242E+01
RMM:  21    -0.292167503662E+03    0.19790E+01   -0.48445E-01  8694   0.134E+00    0.288E+01
RMM:  22    -0.292419093977E+03   -0.25159E+00   -0.10593E-01  9163   0.653E-01    0.291E+01
RMM:  23    -0.292315645591E+03    0.10345E+00   -0.26132E-02  8961   0.309E-01    0.292E+01
RMM:  24    -0.291984831370E+03    0.33081E+00   -0.13848E-02  8646   0.238E-01    0.293E+01
RMM:  25    -0.291380006503E+03    0.60482E+00   -0.57248E-02  8571   0.506E-01    0.294E+01
RMM:  26    -0.291747427048E+03   -0.36742E+00   -0.12202E-02  8826   0.240E-01    0.293E+01
RMM:  27    -0.291693268226E+03    0.54159E-01   -0.14797E-03  9402   0.905E-02    0.293E+01
RMM:  28    -0.291477860828E+03    0.21541E+00   -0.88813E-03  8294   0.192E-01    0.294E+01
RMM:  29    -0.288950310777E+03    0.25276E+01   -0.33912E-01  8609   0.121E+00    0.303E+01
RMM:  30    -0.285783943354E+03    0.31664E+01   -0.43270E-01  8608   0.136E+00    0.318E+01
RMM:  31    -0.286595222243E+03   -0.81128E+00   -0.33603E-02  9778   0.404E-01    0.312E+01
RMM:  32    -0.287960796278E+03   -0.13656E+01   -0.56010E-02  8520   0.489E-01    0.306E+01
RMM:  33    -0.291818590096E+03   -0.38578E+01   -0.57997E-01  8584   0.148E+00    0.290E+01
RMM:  34    -0.298104660187E+03   -0.62861E+01   -0.29859E+00  8628   0.328E+00    0.230E+01
RMM:  35    -0.300558213429E+03   -0.24536E+01   -0.14414E+00  8745   0.228E+00    0.216E+01
RMM:  36    -0.301990450215E+03   -0.14322E+01   -0.22390E+00  8846   0.300E+00    0.137E+01
RMM:  37    -0.302139977845E+03   -0.14953E+00   -0.27550E-01 10068   0.107E+00    0.151E+01
RMM:  38    -0.302825042110E+03   -0.68506E+00   -0.27011E-01  8803   0.108E+00    0.178E+01
RMM:  39    -0.302937969006E+03   -0.11293E+00   -0.50218E-02  9534   0.468E-01    0.186E+01
RMM:  40    -0.302748733418E+03    0.18924E+00   -0.23811E-02  8776   0.306E-01    0.183E+01
RMM:  41    -0.302549567326E+03    0.19917E+00   -0.22589E-02  8992   0.279E-01    0.182E+01
RMM:  42    -0.302247232997E+03    0.30233E+00   -0.40952E-02  9000   0.375E-01    0.162E+01
RMM:  43    -0.302525560436E+03   -0.27833E+00   -0.54051E-02  8725   0.433E-01    0.140E+01
RMM:  44    -0.302824964667E+03   -0.29940E+00   -0.13578E-01  8550   0.586E-01    0.138E+01
RMM:  45    -0.302863183027E+03   -0.38218E-01   -0.15363E-02  8836   0.215E-01    0.140E+01
RMM:  46    -0.303062188412E+03   -0.19901E+00   -0.49220E-02  8808   0.437E-01    0.142E+01
RMM:  47    -0.301112050678E+03    0.19501E+01   -0.71380E+00  8836   0.527E+00    0.187E+01
RMM:  48    -0.302163282248E+03   -0.10512E+01   -0.13560E+00 10745   0.203E+00    0.205E+01
RMM:  49    -0.302853428685E+03   -0.69015E+00   -0.21520E-01  9694   0.967E-01    0.207E+01
RMM:  50    -0.302702533292E+03    0.15090E+00   -0.52176E-02  9446   0.490E-01    0.208E+01
RMM:  51    -0.302935395586E+03   -0.23286E+00   -0.54239E-02  8524   0.462E-01    0.206E+01
RMM:  52    -0.302563143969E+03    0.37225E+00   -0.40438E+00  8834   0.393E+00    0.262E+01
RMM:  53    -0.303085511273E+03   -0.52237E+00   -0.51811E-01 11072   0.132E+00    0.272E+01
RMM:  54    -0.303223648496E+03   -0.13814E+00   -0.10177E-01  9571   0.559E-01    0.275E+01
RMM:  55    -0.303195007223E+03    0.28641E-01   -0.30080E-02  8743   0.309E-01    0.275E+01
RMM:  56    -0.303053465044E+03    0.14154E+00   -0.14889E-02  8553   0.226E-01    0.275E+01
RMM:  57    -0.302075703390E+03    0.97776E+00   -0.98437E-02  8770   0.573E-01    0.267E+01
RMM:  58    -0.301300460905E+03    0.77524E+00   -0.90133E-02  8732   0.561E-01    0.259E+01
RMM:  59    -0.300704583313E+03    0.59588E+00   -0.25714E-01  8707   0.926E-01    0.210E+01
RMM:  60    -0.301763044736E+03   -0.10585E+01   -0.16409E-01  8697   0.932E-01
   2 F= -.30176304E+03 E0= -.30176402E+03  d E =-.769068E+00  mag=    16.4973
 trial-energy change:   -0.769068  1 .order   -0.102372   -0.431224    0.226480
 step:   0.6557(harm=  0.6557)  dis= 0.03222  next Energy=  -301.135343 (dE=-0.141E+00)
 bond charge predicted
       N       E                     dE             d eps       ncg     rms          rms(c)
DAV:   1    -0.301656529996E+03   -0.95195E+00   -0.13391E+01 10818   0.200E+01    0.209E+01
RMM:   2    -0.316965137583E+03   -0.15309E+02   -0.20143E+01  9498   0.965E+00    0.589E+01
RMM:   3    -0.304683917931E+03    0.12281E+02   -0.11283E+01  9667   0.670E+00    0.206E+01
RMM:   4    -0.306191803731E+03   -0.15079E+01   -0.16911E+00  9106   0.270E+00    0.142E+01
RMM:   5    -0.306665771849E+03   -0.47397E+00   -0.16751E+00  8864   0.284E+00    0.851E+00
RMM:   6    -0.307455433223E+03   -0.78966E+00   -0.52413E-01  9615   0.144E+00    0.710E+00
RMM:   7    -0.307926212524E+03   -0.47078E+00   -0.59744E-01  9172   0.141E+00    0.893E+00
RMM:   8    -0.308074152728E+03   -0.14794E+00   -0.30887E-01  9231   0.103E+00    0.585E+00
RMM:   9    -0.308001946094E+03    0.72207E-01   -0.18382E-01  8876   0.797E-01    0.459E+00
RMM:  10    -0.308284115616E+03   -0.28217E+00   -0.12112E-01  8787   0.671E-01    0.519E+00
RMM:  11    -0.308274602649E+03    0.95130E-02   -0.59392E-02  8891   0.450E-01    0.196E+00
RMM:  12    -0.308458006048E+03   -0.18340E+00   -0.35959E-02  8629   0.336E-01    0.231E+00
RMM:  13    -0.308584325730E+03   -0.12632E+00   -0.27186E-02  8766   0.299E-01    0.120E+00
RMM:  14    -0.308724926695E+03   -0.14060E+00   -0.43900E-02  8785   0.320E-01    0.144E+00
RMM:  15    -0.308846436530E+03   -0.12151E+00   -0.56534E-02  8661   0.378E-01    0.650E-01
RMM:  16    -0.308937085479E+03   -0.90649E-01   -0.19063E-02  8807   0.183E-01    0.106E+00
RMM:  17    -0.308979401887E+03   -0.42316E-01   -0.55607E-03  8643   0.120E-01    0.493E-01
RMM:  18    -0.309086932823E+03   -0.10753E+00   -0.45430E-03  8496   0.834E-02    0.484E-01
RMM:  19    -0.309135496871E+03   -0.48564E-01   -0.17982E-03  8382   0.724E-02    0.242E-01
RMM:  20    -0.309187700457E+03   -0.52204E-01   -0.10375E-03  8331   0.394E-02    0.124E-01
RMM:  21    -0.309256776437E+03   -0.69076E-01   -0.16995E-03  8174   0.532E-02    0.169E-01
RMM:  22    -0.309278586059E+03   -0.21810E-01   -0.85352E-04  7875   0.359E-02    0.577E-01
RMM:  23    -0.309285947489E+03   -0.73614E-02   -0.47379E-04  8208   0.391E-02    0.453E-01
RMM:  24    -0.309289017698E+03   -0.30702E-02   -0.77887E-04  8259   0.442E-02    0.347E-01
RMM:  25    -0.309288357707E+03    0.65999E-03   -0.41262E-04  7825   0.421E-02    0.657E-01
RMM:  26    -0.309293434300E+03   -0.50766E-02   -0.32826E-04  8087   0.375E-02    0.428E-01
RMM:  27    -0.309306922580E+03   -0.13488E-01   -0.52718E-04  8393   0.396E-02    0.418E-01
RMM:  28    -0.309313810231E+03   -0.68877E-02   -0.32135E-04  7506   0.422E-02    0.960E-01
RMM:  29    -0.309315557842E+03   -0.17476E-02   -0.27436E-04  7720   0.392E-02    0.104E+00
RMM:  30    -0.309315229258E+03    0.32858E-03   -0.17464E-04  7971   0.256E-02    0.775E-01
RMM:  31    -0.309320213740E+03   -0.49845E-02   -0.39225E-04  8193   0.363E-02    0.414E-02
RMM:  32    -0.309336092511E+03   -0.15879E-01   -0.47369E-04  8018   0.483E-02    0.954E-01
RMM:  33    -0.309346655404E+03   -0.10563E-01   -0.56031E-04  7587   0.542E-02    0.151E+00
RMM:  34    -0.309345456359E+03    0.11990E-02   -0.48602E-04  7977   0.489E-02    0.150E+00
RMM:  35    -0.309341997655E+03    0.34587E-02   -0.19084E-03  8724   0.774E-02    0.758E-02
RMM:  36    -0.309351026200E+03   -0.90285E-02   -0.88214E-04  7930   0.698E-02    0.120E+00
RMM:  37    -0.309350310612E+03    0.71559E-03   -0.13897E-03  8295   0.842E-02    0.117E+00
RMM:  38    -0.309348078327E+03    0.22323E-02   -0.46737E-04  8404   0.420E-02    0.614E-01
RMM:  39    -0.309349040405E+03   -0.96208E-03   -0.10999E-04  7349   0.249E-02    0.207E-01
RMM:  40    -0.309349901350E+03   -0.86095E-03   -0.15280E-04  7521   0.285E-02    0.232E-01
RMM:  41    -0.309350742929E+03   -0.84158E-03   -0.16940E-04  8055   0.233E-02    0.675E-01
RMM:  42    -0.309350352480E+03    0.39045E-03   -0.11352E-04  7328   0.233E-02    0.683E-01
RMM:  43    -0.309349688100E+03    0.66438E-03   -0.30330E-04  8296   0.315E-02    0.913E-02
RMM:  44    -0.309351187135E+03   -0.14990E-02   -0.13266E-04  7203   0.277E-02    0.397E-01
RMM:  45    -0.309351474183E+03   -0.28705E-03   -0.16567E-04  7038   0.309E-02    0.524E-01
RMM:  46    -0.309350952513E+03    0.52167E-03   -0.10492E-04  7666   0.213E-02    0.383E-01
RMM:  47    -0.309350942362E+03    0.10151E-04   -0.81244E-05  7637   0.162E-02    0.266E-02
RMM:  48    -0.309351474623E+03   -0.53226E-03   -0.51964E-05  5681   0.175E-02    0.183E-01
RMM:  49    -0.309351550554E+03   -0.75931E-04   -0.40314E-05  5801   0.158E-02    0.220E-01
RMM:  50    -0.309351499982E+03    0.50572E-04   -0.10921E-05  4794   0.780E-03    0.189E-01
RMM:  51    -0.309351482703E+03    0.17279E-04   -0.69784E-06  4635   0.490E-03    0.951E-02
RMM:  52    -0.309351544067E+03   -0.61364E-04   -0.46303E-06  4355   0.536E-03    0.770E-03
RMM:  53    -0.309351606131E+03   -0.62064E-04   -0.42622E-06  4356   0.551E-03    0.538E-02
RMM:  54    -0.309351619528E+03   -0.13397E-04   -0.27841E-06  4305   0.449E-03    0.833E-02
RMM:  55    -0.309351613143E+03    0.63853E-05   -0.12402E-06  4074   0.293E-03
   3 F= -.30935161E+03 E0= -.30934819E+03  d E =-.835764E+01  mag=    15.9759
 curvature:  -0.33 expect dE=-0.106E+00 dE for cont linesearch -0.267E-01
 ZBRENT: interpolating
 opt :   0.4571  next Energy=  -309.370214 (dE=-0.838E+01)
 bond charge predicted
       N       E                     dE             d eps       ncg     rms          rms(c)
DAV:   1    -0.309305031346E+03    0.46588E-01   -0.45315E+00 10912   0.115E+01    0.133E+00
RMM:   2    -0.309376062185E+03   -0.71031E-01   -0.66638E-01 10662   0.226E+00    0.107E+00
RMM:   3    -0.309387584627E+03   -0.11522E-01   -0.53798E-02  9418   0.536E-01    0.204E+00
RMM:   4    -0.309379097933E+03    0.84867E-02   -0.76728E-03  9349   0.195E-01    0.928E-01
RMM:   5    -0.309379264382E+03   -0.16645E-03   -0.13209E-03  9371   0.766E-02    0.448E-01
RMM:   6    -0.309381007623E+03   -0.17432E-02   -0.10980E-03  8360   0.756E-02    0.319E-01
RMM:   7    -0.309381966553E+03   -0.95893E-03   -0.19364E-03  8667   0.878E-02    0.840E-01
RMM:   8    -0.309385661240E+03   -0.36947E-02   -0.10210E-03  8333   0.720E-02    0.179E+00
RMM:   9    -0.309380187781E+03    0.54735E-02   -0.96743E-04  8445   0.730E-02    0.161E+00
RMM:  10    -0.309377782519E+03    0.24053E-02   -0.22560E-04  8181   0.294E-02    0.118E+00
RMM:  11    -0.309378234450E+03   -0.45193E-03   -0.96451E-05  7380   0.230E-02    0.774E-01
RMM:  12    -0.309379033592E+03   -0.79914E-03   -0.12167E-04  7318   0.268E-02    0.346E-01
RMM:  13    -0.309380146912E+03   -0.11133E-02   -0.14840E-04  7367   0.302E-02    0.183E-01
RMM:  14    -0.309381288266E+03   -0.11414E-02   -0.15521E-04  6532   0.313E-02    0.612E-01
RMM:  15    -0.309381362767E+03   -0.74500E-04   -0.13356E-04  6491   0.290E-02    0.858E-01
RMM:  16    -0.309381397081E+03   -0.34314E-04   -0.62448E-05  6004   0.207E-02    0.110E+00
RMM:  17    -0.309381053759E+03    0.34332E-03   -0.47364E-05  5856   0.179E-02    0.125E+00
RMM:  18    -0.309380707612E+03    0.34615E-03   -0.24322E-05  5334   0.129E-02    0.136E+00
RMM:  19    -0.309380419482E+03    0.28813E-03   -0.12252E-05  4925   0.925E-03    0.143E+00
RMM:  20    -0.309380141976E+03    0.27751E-03   -0.64614E-06  4747   0.664E-03    0.147E+00
RMM:  21    -0.309379689485E+03    0.45249E-03   -0.73320E-06  4879   0.597E-03    0.143E+00
RMM:  22    -0.309379803076E+03   -0.11359E-03   -0.63899E-06  4875   0.540E-03    0.143E+00
RMM:  23    -0.309380150918E+03   -0.34784E-03   -0.48744E-06  4432   0.407E-03    0.148E+00
RMM:  24    -0.309380562449E+03   -0.41153E-03   -0.81837E-06  4858   0.597E-03    0.159E+00
RMM:  25    -0.309380347235E+03    0.21521E-03   -0.59871E-06  4553   0.668E-03    0.166E+00
RMM:  26    -0.309380384767E+03   -0.37532E-04   -0.50933E-06  4586   0.605E-03    0.174E+00
RMM:  27    -0.309380213421E+03    0.17135E-03   -0.42415E-06  4461   0.538E-03    0.180E+00
RMM:  28    -0.309380386533E+03   -0.17311E-03   -0.53927E-06  4704   0.569E-03    0.188E+00
RMM:  29    -0.309380634655E+03   -0.24812E-03   -0.73821E-06  4806   0.629E-03    0.199E+00
RMM:  30    -0.309380449280E+03    0.18538E-03   -0.71926E-06  4655   0.665E-03    0.208E+00
RMM:  31    -0.309380380336E+03    0.68944E-04   -0.62576E-06  4684   0.627E-03    0.216E+00
RMM:  32    -0.309380198598E+03    0.18174E-03   -0.49762E-06  4541   0.558E-03    0.223E+00
RMM:  33    -0.309380038966E+03    0.15963E-03   -0.39793E-06  4593   0.509E-03    0.228E+00
RMM:  34    -0.309379863567E+03    0.17540E-03   -0.26124E-06  4314   0.410E-03    0.232E+00
RMM:  35    -0.309379898481E+03   -0.34914E-04   -0.24843E-06  4500   0.405E-03    0.237E+00
RMM:  36    -0.309379733327E+03    0.16515E-03   -0.18752E-06  4101   0.359E-03    0.241E+00
RMM:  37    -0.309379804065E+03   -0.70738E-04   -0.21049E-06  4480   0.373E-03    0.245E+00
RMM:  38    -0.309379792079E+03    0.11986E-04   -0.18743E-06  4286   0.344E-03    0.249E+00
RMM:  39    -0.309379672107E+03    0.11997E-03   -0.13289E-06  4032   0.311E-03    0.253E+00
RMM:  40    -0.309379622686E+03    0.49421E-04   -0.13530E-06  4244   0.310E-03    0.256E+00
RMM:  41    -0.309379494005E+03    0.12868E-03   -0.90217E-07  3752   0.263E-03    0.258E+00
RMM:  42    -0.309379606695E+03   -0.11269E-03   -0.84884E-07  4073   0.261E-03    0.261E+00
RMM:  43    -0.309379160134E+03    0.44656E-03   -0.12884E-06  4134   0.301E-03    0.260E+00
RMM:  44    -0.309378312524E+03    0.84761E-03   -0.45748E-06  4593   0.397E-03    0.253E+00
RMM:  45    -0.309377426985E+03    0.88554E-03   -0.12984E-05  5088   0.707E-03    0.236E+00
RMM:  46    -0.309377040729E+03    0.38626E-03   -0.23747E-05  5479   0.105E-02    0.215E+00
RMM:  47    -0.309376859040E+03    0.18169E-03   -0.43480E-05  6418   0.145E-02    0.186E+00
RMM:  48    -0.309376839322E+03    0.19718E-04   -0.77693E-05  7115   0.198E-02    0.146E+00
RMM:  49    -0.309377497410E+03   -0.65809E-03   -0.12156E-04  7202   0.261E-02    0.980E-01
RMM:  50    -0.309378838279E+03   -0.13409E-02   -0.16611E-04  7178   0.318E-02    0.452E-01
RMM:  51    -0.309380454080E+03   -0.16158E-02   -0.19051E-04  6878   0.346E-02    0.791E-02
RMM:  52    -0.309381724974E+03   -0.12709E-02   -0.18227E-04  6852   0.335E-02    0.519E-01
RMM:  53    -0.309382329807E+03   -0.60483E-03   -0.14522E-04  6476   0.304E-02    0.898E-01
RMM:  54    -0.309382356279E+03   -0.26472E-04   -0.10690E-04  6204   0.262E-02    0.118E+00
RMM:  55    -0.309382115498E+03    0.24078E-03   -0.65810E-05  6006   0.204E-02    0.138E+00
RMM:  56    -0.309381805087E+03    0.31041E-03   -0.35215E-05  5678   0.153E-02    0.152E+00
RMM:  57    -0.309380663368E+03    0.11417E-02   -0.36322E-05  6188   0.133E-02    0.148E+00
RMM:  58    -0.309380001993E+03    0.66138E-03   -0.20497E-05  5492   0.854E-03    0.134E+00
RMM:  59    -0.309379360276E+03    0.64172E-03   -0.60201E-05  7569   0.144E-02    0.105E+00
RMM:  60    -0.309379208401E+03    0.15187E-03   -0.12122E-04  7786   0.233E-02
   4 F= -.30937921E+03 E0= -.30937799E+03  d E =-.838523E+01  mag=    15.9743
 curvature:  -0.23 expect dE=-0.437E-01 dE for cont linesearch -0.731E-02
 ZBRENT: interpolating
 opt :   0.1949  next Energy=  -309.397897 (dE=-0.840E+01)
 bond charge predicted
       N       E                     dE             d eps       ncg     rms          rms(c)
DAV:   1    -0.309282007299E+03    0.97353E-01   -0.80838E+00 10636   0.152E+01    0.173E+00
RMM:   2    -0.309402395089E+03   -0.12039E+00   -0.10492E+00 10724   0.287E+00    0.272E+00
RMM:   3    -0.309403483097E+03   -0.10880E-02   -0.90649E-02  9323   0.717E-01    0.281E+00
RMM:   4    -0.309398251360E+03    0.52317E-02   -0.17255E-02  9240   0.311E-01    0.179E+00
RMM:   5    -0.309391293602E+03    0.69578E-02   -0.31708E-03  9323   0.121E-01    0.440E-01
RMM:   6    -0.309395771214E+03   -0.44776E-02   -0.13541E-03  8430   0.884E-02    0.284E-01
RMM:   7    -0.309396692080E+03   -0.92087E-03   -0.13533E-03  8836   0.728E-02    0.597E-01
RMM:   8    -0.309395510916E+03    0.11812E-02   -0.17354E-03  8407   0.882E-02    0.125E-01
RMM:   9    -0.309396393848E+03   -0.88293E-03   -0.38923E-04  8738   0.435E-02    0.517E-01
RMM:  10    -0.309396156964E+03    0.23688E-03   -0.33496E-04  7944   0.425E-02    0.518E-01
RMM:  11    -0.309395649259E+03    0.50771E-03   -0.10311E-04  7594   0.213E-02    0.322E-01
RMM:  12    -0.309395797681E+03   -0.14842E-03   -0.92089E-05  7634   0.184E-02    0.659E-02
RMM:  13    -0.309396359924E+03   -0.56224E-03   -0.67317E-05  6202   0.204E-02    0.315E-01
RMM:  14    -0.309396383703E+03   -0.23779E-04   -0.51241E-05  5983   0.183E-02    0.427E-01
RMM:  15    -0.309396716730E+03   -0.33303E-03   -0.44358E-05  6290   0.160E-02    0.707E-01
RMM:  16    -0.309395974761E+03    0.74197E-03   -0.12395E-04  7436   0.233E-02    0.607E-01
RMM:  17    -0.309395593376E+03    0.38139E-03   -0.14950E-04  7958   0.217E-02    0.183E-01
RMM:  18    -0.309396497821E+03   -0.90445E-03   -0.11145E-04  7318   0.242E-02    0.276E-01
RMM:  19    -0.309397097413E+03   -0.59959E-03   -0.11308E-04  6149   0.262E-02    0.565E-01
RMM:  20    -0.309396892196E+03    0.20522E-03   -0.75867E-05  6145   0.216E-02    0.685E-01
RMM:  21    -0.309396975422E+03   -0.83226E-04   -0.25178E-05  5365   0.132E-02    0.860E-01
RMM:  22    -0.309396340728E+03    0.63469E-03   -0.45083E-05  6224   0.148E-02    0.823E-01
RMM:  23    -0.309395795592E+03    0.54514E-03   -0.52625E-05  6962   0.124E-02    0.604E-01
RMM:  24    -0.309395879115E+03   -0.83523E-04   -0.63600E-05  7090   0.164E-02    0.278E-01
RMM:  25    -0.309396507288E+03   -0.62817E-03   -0.73410E-05  6611   0.204E-02    0.852E-02
RMM:  26    -0.309397109990E+03   -0.60270E-03   -0.72957E-05  5992   0.211E-02    0.346E-01
RMM:  27    -0.309397124094E+03   -0.14104E-04   -0.63329E-05  6088   0.189E-02    0.437E-01
RMM:  28    -0.309396850596E+03    0.27350E-03   -0.48590E-05  6585   0.143E-02    0.352E-01
RMM:  29    -0.309396796342E+03    0.54253E-04   -0.48104E-05  6927   0.120E-02    0.109E-01
RMM:  30    -0.309397103388E+03   -0.30705E-03   -0.27518E-05  5415   0.127E-02    0.102E-01
RMM:  31    -0.309397240497E+03   -0.13711E-03   -0.28722E-05  5270   0.131E-02    0.187E-01
RMM:  32    -0.309397182420E+03    0.58077E-04   -0.17548E-05  5106   0.961E-03    0.166E-01
RMM:  33    -0.309397171530E+03    0.10890E-04   -0.96201E-06  4897   0.566E-03    0.744E-02
RMM:  34    -0.309397252030E+03   -0.80500E-04   -0.57537E-06  4376   0.527E-03    0.226E-02
RMM:  35    -0.309397323444E+03   -0.71414E-04   -0.52385E-06  4423   0.577E-03    0.100E-01
RMM:  36    -0.309397336246E+03   -0.12802E-04   -0.44106E-06  4403   0.538E-03    0.129E-01
RMM:  37    -0.309397324774E+03    0.11472E-04   -0.17428E-06  4224   0.335E-03    0.139E-01
RMM:  38    -0.309397313187E+03    0.11587E-04   -0.22338E-06  4201   0.318E-03    0.102E-01
RMM:  39    -0.309397330302E+03   -0.17114E-04   -0.22476E-06  4144   0.302E-03    0.380E-02
RMM:  40    -0.309397369518E+03   -0.39216E-04   -0.20859E-06  4194   0.373E-03    0.134E-02
RMM:  41    -0.309397394669E+03   -0.25151E-04   -0.19591E-06  4199   0.362E-03    0.633E-02
RMM:  42    -0.309397396146E+03   -0.14771E-05   -0.19719E-06  4247   0.359E-03
   5 F= -.30939740E+03 E0= -.30939731E+03  d E =-.840342E+01  mag=    15.9711
 curvature:  -0.58 expect dE=-0.590E-01 dE for cont linesearch -0.250E-03
 trial: gam= 0.26565 g(F)=  0.101E+00 g(S)=  0.000E+00 ort =-0.136E-01 (trialstep = 0.839E+00)
 search vector abs. value=  0.124E+00
 bond charge predicted
       N       E                     dE             d eps       ncg     rms          rms(c)
DAV:   1    -0.309204749601E+03    0.19265E+00   -0.23937E+01  9368   0.212E+01    0.286E+00
RMM:   2    -0.309592976504E+03   -0.38823E+00   -0.24041E+00 10709   0.407E+00    0.796E+00
RMM:   3    -0.309416120452E+03    0.17686E+00   -0.23457E-01  9246   0.110E+00    0.259E+00
RMM:   4    -0.309467183496E+03   -0.51063E-01   -0.44656E-02  9039   0.448E-01    0.376E+00
RMM:   5    -0.309450042533E+03    0.17141E-01   -0.32847E-02  9183   0.403E-01    0.265E+00
RMM:   6    -0.309432464027E+03    0.17579E-01   -0.69808E-03  9556   0.166E-01    0.567E-01
RMM:   7    -0.309451014866E+03   -0.18551E-01   -0.48891E-03  8666   0.151E-01    0.207E+00
RMM:   8    -0.309448012619E+03    0.30022E-02   -0.71449E-03  8622   0.185E-01    0.202E+00
RMM:   9    -0.309439334909E+03    0.86777E-02   -0.48294E-03  8890   0.141E-01    0.179E-01
RMM:  10    -0.309447972797E+03   -0.86379E-02   -0.15823E-03  8684   0.949E-02    0.108E+00
RMM:  11    -0.309447220818E+03    0.75198E-03   -0.13042E-03  8210   0.842E-02    0.116E+00
RMM:  12    -0.309444633691E+03    0.25871E-02   -0.49998E-04  8281   0.447E-02    0.729E-01
RMM:  13    -0.309445359567E+03   -0.72588E-03   -0.29875E-04  8166   0.334E-02    0.836E-02
RMM:  14    -0.309448383601E+03   -0.30240E-02   -0.31972E-04  7402   0.430E-02    0.801E-01
RMM:  15    -0.309449055257E+03   -0.67166E-03   -0.31855E-04  6958   0.440E-02    0.123E+00
RMM:  16    -0.309449466090E+03   -0.41083E-03   -0.17739E-04  6717   0.331E-02    0.162E+00
RMM:  17    -0.309449438856E+03    0.27234E-04   -0.11817E-04  6327   0.271E-02    0.194E+00
RMM:  18    -0.309447898057E+03    0.15408E-02   -0.97132E-05  6525   0.229E-02    0.203E+00
RMM:  19    -0.309447554986E+03    0.34307E-03   -0.17727E-05  5199   0.109E-02    0.210E+00
RMM:  20    -0.309445839981E+03    0.17150E-02   -0.41612E-05  7088   0.124E-02    0.196E+00
RMM:  21    -0.309444091555E+03    0.17484E-02   -0.10980E-04  7908   0.187E-02    0.153E+00
RMM:  22    -0.309444697705E+03   -0.60615E-03   -0.11013E-04  7406   0.244E-02    0.108E+00
RMM:  23    -0.309445968797E+03   -0.12711E-02   -0.13127E-04  6903   0.279E-02    0.639E-01
RMM:  24    -0.309447231357E+03   -0.12626E-02   -0.13212E-04  6802   0.283E-02    0.207E-01
RMM:  25    -0.309448291379E+03   -0.10600E-02   -0.12118E-04  6334   0.275E-02    0.176E-01
RMM:  26    -0.309448771896E+03   -0.48052E-03   -0.95442E-05  6179   0.243E-02    0.432E-01
RMM:  27    -0.309448827701E+03   -0.55805E-04   -0.58918E-05  5936   0.194E-02    0.635E-01
RMM:  28    -0.309448871862E+03   -0.44161E-04   -0.35784E-05  5638   0.156E-02    0.830E-01
RMM:  29    -0.309448736581E+03    0.13528E-03   -0.28969E-05  5530   0.140E-02    0.982E-01
RMM:  30    -0.309448655125E+03    0.81456E-04   -0.19901E-05  5231   0.119E-02    0.113E+00
RMM:  31    -0.309448443909E+03    0.21122E-03   -0.15967E-05  5104   0.103E-02    0.124E+00
RMM:  32    -0.309448344120E+03    0.99789E-04   -0.10534E-05  4852   0.862E-03    0.135E+00
RMM:  33    -0.309448107544E+03    0.23658E-03   -0.89347E-06  4764   0.767E-03    0.142E+00
RMM:  34    -0.309448013758E+03    0.93787E-04   -0.55405E-06  4605   0.630E-03    0.150E+00
RMM:  35    -0.309447770195E+03    0.24356E-03   -0.46876E-06  4623   0.565E-03    0.154E+00
RMM:  36    -0.309447444841E+03    0.32535E-03   -0.32821E-06  4484   0.439E-03    0.154E+00
RMM:  37    -0.309446799616E+03    0.64522E-03   -0.94318E-06  4937   0.600E-03    0.144E+00
RMM:  38    -0.309445865619E+03    0.93400E-03   -0.59382E-05  7489   0.132E-02    0.111E+00
RMM:  39    -0.309446353053E+03   -0.48743E-03   -0.57832E-05  6149   0.185E-02    0.767E-01
RMM:  40    -0.309447193907E+03   -0.84085E-03   -0.71365E-05  6008   0.211E-02    0.464E-01
RMM:  41    -0.309447900481E+03   -0.70657E-03   -0.64779E-05  5909   0.199E-02    0.257E-01
RMM:  42    -0.309448275653E+03   -0.37517E-03   -0.42649E-05  5815   0.160E-02    0.171E-01
RMM:  43    -0.309448407785E+03   -0.13213E-03   -0.15561E-05  5082   0.956E-03    0.151E-01
RMM:  44    -0.309448476963E+03   -0.69178E-04   -0.90775E-06  4967   0.621E-03    0.217E-01
RMM:  45    -0.309448486971E+03   -0.10007E-04   -0.35595E-06  4494   0.436E-03    0.258E-01
RMM:  46    -0.309448412321E+03    0.74650E-04   -0.11256E-05  4804   0.673E-03    0.158E-01
RMM:  47    -0.309448529726E+03   -0.11741E-03   -0.14485E-05  5118   0.751E-03    0.163E-02
RMM:  48    -0.309448700559E+03   -0.17083E-03   -0.14630E-05  4903   0.913E-03    0.110E-01
RMM:  49    -0.309448720419E+03   -0.19860E-04   -0.94429E-06  4798   0.730E-03    0.132E-01
RMM:  50    -0.309448720719E+03   -0.30083E-06   -0.27655E-06  4429   0.365E-03
   6 F= -.30944872E+03 E0= -.30944491E+03  d E =-.513246E-01  mag=    15.9919
 trial-energy change:   -0.051325  1 .order   -0.050780   -0.081687   -0.019873
 step:   1.0913(harm=  1.1087)  dis= 0.05613  next Energy=  -309.451724 (dE=-0.543E-01)
 bond charge predicted
       N       E                     dE             d eps       ncg     rms          rms(c)
DAV:   1    -0.309430077393E+03    0.18643E-01   -0.21658E+00  9710   0.639E+00    0.805E-01
RMM:   2    -0.309459795938E+03   -0.29719E-01   -0.20870E-01 10682   0.120E+00    0.246E+00
RMM:   3    -0.309446848866E+03    0.12947E-01   -0.19437E-02  9151   0.324E-01    0.595E-01
RMM:   4    -0.309453674488E+03   -0.68256E-02   -0.29429E-03  8897   0.120E-01    0.110E+00
RMM:   5    -0.309451764090E+03    0.19104E-02   -0.28711E-03  8742   0.120E-01    0.655E-01
RMM:   6    -0.309451018027E+03    0.74606E-03   -0.66255E-04  8639   0.514E-02    0.240E-01
RMM:   7    -0.309452382920E+03   -0.13649E-02   -0.42460E-04  7959   0.480E-02    0.598E-01
RMM:   8    -0.309451290477E+03    0.10924E-02   -0.85410E-04  8316   0.608E-02    0.806E-02
RMM:   9    -0.309451853587E+03   -0.56311E-03   -0.90917E-05  7675   0.223E-02    0.235E-01
RMM:  10    -0.309451891473E+03   -0.37885E-04   -0.76089E-05  6420   0.214E-02    0.259E-01
RMM:  11    -0.309451784637E+03    0.10684E-03   -0.23381E-05  5703   0.108E-02    0.177E-01
RMM:  12    -0.309451840266E+03   -0.55629E-04   -0.10820E-05  5121   0.658E-03    0.339E-02
RMM:  13    -0.309452078298E+03   -0.23803E-03   -0.17419E-05  5275   0.932E-03    0.156E-01
RMM:  14    -0.309452162609E+03   -0.84312E-04   -0.18357E-05  5004   0.107E-02    0.264E-01
RMM:  15    -0.309452159463E+03    0.31466E-05   -0.10183E-05  4700   0.843E-03
   7 F= -.30945216E+03 E0= -.30944761E+03  d E =-.547633E-01  mag=    15.9936
 curvature:  -0.70 expect dE=-0.518E-01 dE for cont linesearch -0.870E-06
 trial: gam= 0.68915 g(F)=  0.735E-01 g(S)=  0.000E+00 ort = 0.392E-03 (trialstep = 0.830E+00)
 search vector abs. value=  0.133E+00
 bond charge predicted
       N       E                     dE             d eps       ncg     rms          rms(c)
DAV:   1    -0.309274621870E+03    0.17754E+00   -0.22746E+01  9296   0.190E+01    0.201E+00
RMM:   2    -0.309453007432E+03   -0.17839E+00   -0.17102E+00 10682   0.351E+00    0.232E+00
RMM:   3    -0.309465606410E+03   -0.12599E-01   -0.11418E-01  9408   0.827E-01    0.374E+00
RMM:   4    -0.309445945166E+03    0.19661E-01   -0.28244E-02  9351   0.363E-01    0.225E+00
RMM:   5    -0.309437236812E+03    0.87084E-02   -0.94430E-03  9546   0.184E-01    0.988E-01
RMM:   6    -0.309452357887E+03   -0.15121E-01   -0.47459E-03  8468   0.160E-01    0.209E+00
RMM:   7    -0.309441502705E+03    0.10855E-01   -0.54993E-03  8789   0.163E-01    0.120E+00
RMM:   8    -0.309442864903E+03   -0.13622E-02   -0.32891E-03  8894   0.114E-01    0.745E-01
RMM:   9    -0.309450023445E+03   -0.71585E-02   -0.20141E-03  8521   0.107E-01    0.174E+00
RMM:  10    -0.309445186837E+03    0.48366E-02   -0.15865E-03  8366   0.919E-02    0.168E+00
RMM:  11    -0.309441918580E+03    0.32683E-02   -0.35810E-04  8153   0.378E-02    0.127E+00
RMM:  12    -0.309441311122E+03    0.60746E-03   -0.30208E-04  8279   0.333E-02    0.446E-01
RMM:  13    -0.309444379384E+03   -0.30683E-02   -0.33957E-04  7475   0.452E-02    0.315E-01
RMM:  14    -0.309445842262E+03   -0.14629E-02   -0.39816E-04  7588   0.479E-02    0.637E-01
RMM:  15    -0.309444963536E+03    0.87873E-03   -0.34616E-04  7950   0.392E-02    0.423E-01
RMM:  16    -0.309445111187E+03   -0.14765E-03   -0.23412E-04  8000   0.277E-02    0.174E-01
RMM:  17    -0.309446056281E+03   -0.94509E-03   -0.13130E-04  6488   0.280E-02    0.531E-01
RMM:  18    -0.309445418377E+03    0.63790E-03   -0.23454E-04  7733   0.331E-02    0.375E-01
RMM:  19    -0.309445360911E+03    0.57466E-04   -0.49363E-05  7052   0.133E-02    0.988E-02
RMM:  20    -0.309445736191E+03   -0.37528E-03   -0.28041E-05  5240   0.134E-02    0.894E-02
RMM:  21    -0.309445896016E+03   -0.15983E-03   -0.27432E-05  5259   0.132E-02    0.150E-01
RMM:  22    -0.309445909785E+03   -0.13769E-04   -0.12454E-05  4980   0.817E-03    0.121E-01
RMM:  23    -0.309445958756E+03   -0.48970E-04   -0.84256E-06  4731   0.510E-03    0.188E-02
RMM:  24    -0.309446066452E+03   -0.10770E-03   -0.59462E-06  4399   0.560E-03    0.803E-02
RMM:  25    -0.309446112944E+03   -0.46492E-04   -0.56713E-06  4447   0.599E-03    0.159E-01
RMM:  26    -0.309446091409E+03    0.21535E-04   -0.55146E-06  4515   0.587E-03    0.176E-01
RMM:  27    -0.309446073403E+03    0.18006E-04   -0.14382E-06  4070   0.292E-03    0.187E-01
RMM:  28    -0.309446052986E+03    0.20417E-04   -0.98015E-07  3924   0.241E-03    0.171E-01
RMM:  29    -0.309446044040E+03    0.89459E-05   -0.64699E-07  3372   0.182E-03
   8 F= -.30944604E+03 E0= -.30944133E+03  d E =0.611542E-02  mag=    15.9969
 trial-energy change:    0.006115  1 .order    0.006118   -0.061271    0.073507
 step:   0.3774(harm=  0.3774)  dis= 0.01962  next Energy=  -309.466087 (dE=-0.139E-01)
 bond charge predicted
       N       E                     dE             d eps       ncg     rms          rms(c)
DAV:   1    -0.309415842953E+03    0.30210E-01   -0.67661E+00  9358   0.104E+01    0.111E+00
RMM:   2    -0.309470272434E+03   -0.54429E-01   -0.50886E-01 10614   0.191E+00    0.168E+00
RMM:   3    -0.309468271826E+03    0.20006E-02   -0.35663E-02  9391   0.461E-01    0.172E+00
RMM:   4    -0.309466842602E+03    0.14292E-02   -0.76848E-03  9302   0.194E-01    0.105E+00
RMM:   5    -0.309464833084E+03    0.20095E-02   -0.25057E-03  9126   0.101E-01    0.583E-01
RMM:   6    -0.309467667064E+03   -0.28340E-02   -0.11734E-03  8302   0.816E-02    0.990E-01
RMM:   7    -0.309464744713E+03    0.29224E-02   -0.19730E-03  8643   0.923E-02    0.325E-01
RMM:   8    -0.309467257859E+03   -0.25131E-02   -0.88706E-04  8558   0.588E-02    0.981E-01
RMM:   9    -0.309467244451E+03    0.13407E-04   -0.10093E-03  8195   0.727E-02    0.119E+00
RMM:  10    -0.309464936046E+03    0.23084E-02   -0.32431E-04  8061   0.403E-02    0.970E-01
RMM:  11    -0.309464611482E+03    0.32456E-03   -0.53828E-05  7267   0.142E-02    0.712E-01
RMM:  12    -0.309464690109E+03   -0.78628E-04   -0.11711E-04  7839   0.222E-02    0.239E-01
RMM:  13    -0.309465905780E+03   -0.12157E-02   -0.14825E-04  7526   0.296E-02    0.338E-01
RMM:  14    -0.309466832758E+03   -0.92698E-03   -0.17222E-04  6536   0.325E-02    0.729E-01
RMM:  15    -0.309466404807E+03    0.42795E-03   -0.14660E-04  7016   0.293E-02    0.869E-01
RMM:  16    -0.309466014339E+03    0.39047E-03   -0.42547E-05  5777   0.161E-02    0.949E-01
RMM:  17    -0.309465826645E+03    0.18769E-03   -0.11643E-05  4934   0.938E-03    0.102E+00
RMM:  18    -0.309465969303E+03   -0.14266E-03   -0.78042E-06  4732   0.758E-03    0.114E+00
RMM:  19    -0.309465285317E+03    0.68399E-03   -0.22355E-05  5471   0.107E-02    0.110E+00
RMM:  20    -0.309464731385E+03    0.55393E-03   -0.17056E-05  5295   0.716E-03    0.940E-01
RMM:  21    -0.309464540188E+03    0.19120E-03   -0.45881E-05  7022   0.129E-02    0.627E-01
RMM:  22    -0.309465020065E+03   -0.47988E-03   -0.11288E-04  7700   0.234E-02    0.119E-01
RMM:  23    -0.309466289089E+03   -0.12690E-02   -0.13904E-04  6596   0.290E-02    0.375E-01
RMM:  24    -0.309466836596E+03   -0.54751E-03   -0.14293E-04  6256   0.296E-02    0.692E-01
RMM:  25    -0.309466516714E+03    0.31988E-03   -0.94633E-05  6340   0.239E-02    0.843E-01
RMM:  26    -0.309466425092E+03    0.91622E-04   -0.31427E-05  5478   0.142E-02    0.100E+00
RMM:  27    -0.309466058776E+03    0.36632E-03   -0.21618E-05  5319   0.119E-02    0.107E+00
RMM:  28    -0.309466038129E+03    0.20647E-04   -0.66800E-06  4744   0.703E-03    0.115E+00
RMM:  29    -0.309465587286E+03    0.45084E-03   -0.91897E-06  4740   0.734E-03    0.113E+00
RMM:  30    -0.309465009210E+03    0.57808E-03   -0.17313E-05  5384   0.720E-03    0.974E-01
RMM:  31    -0.309464902411E+03    0.10680E-03   -0.21732E-05  5212   0.994E-03    0.748E-01
RMM:  32    -0.309465132590E+03   -0.23018E-03   -0.35599E-05  5815   0.139E-02    0.486E-01
RMM:  33    -0.309465587238E+03   -0.45465E-03   -0.41700E-05  5693   0.160E-02    0.234E-01
RMM:  34    -0.309466008249E+03   -0.42101E-03   -0.39333E-05  5635   0.156E-02    0.322E-02
RMM:  35    -0.309466255706E+03   -0.24746E-03   -0.29252E-05  5436   0.134E-02    0.987E-02
RMM:  36    -0.309466315413E+03   -0.59707E-04   -0.16316E-05  5009   0.101E-02    0.168E-01
RMM:  37    -0.309466275186E+03    0.40227E-04   -0.82089E-06  4786   0.686E-03    0.176E-01
RMM:  38    -0.309466244970E+03    0.30216E-04   -0.36201E-06  4539   0.387E-03    0.142E-01
RMM:  39    -0.309466251643E+03   -0.66729E-05   -0.37327E-06  4474   0.384E-03
   9 F= -.30946625E+03 E0= -.30946150E+03  d E =-.140922E-01  mag=    15.9974
 curvature:  -0.34 expect dE=-0.102E-01 dE for cont linesearch -0.971E-07
 trial: gam= 0.46462 g(F)=  0.300E-01 g(S)=  0.000E+00 ort =-0.195E-03 (trialstep = 0.740E+00)
 search vector abs. value=  0.585E-01
 bond charge predicted
       N       E                     dE             d eps       ncg     rms          rms(c)
DAV:   1    -0.309405938816E+03    0.60306E-01   -0.84383E+00  9406   0.120E+01    0.130E+00
RMM:   2    -0.309479717470E+03   -0.73779E-01   -0.69769E-01 10538   0.223E+00    0.891E-01
RMM:   3    -0.309488688470E+03   -0.89710E-02   -0.42651E-02  9444   0.489E-01    0.219E+00
RMM:   4    -0.309480249726E+03    0.84387E-02   -0.84174E-03  9434   0.193E-01    0.127E+00
RMM:   5    -0.309478640016E+03    0.16097E-02   -0.21055E-03  9142   0.871E-02    0.395E-01
RMM:   6    -0.309482207575E+03   -0.35676E-02   -0.12880E-03  8212   0.842E-02    0.623E-01
RMM:   7    -0.309480803844E+03    0.14037E-02   -0.16752E-03  8577   0.891E-02    0.161E-01
RMM:   8    -0.309483131043E+03   -0.23272E-02   -0.86902E-04  8463   0.645E-02    0.103E+00
RMM:   9    -0.309482531338E+03    0.59970E-03   -0.69693E-04  8219   0.633E-02    0.125E+00
RMM:  10    -0.309479698170E+03    0.28332E-02   -0.41639E-04  8166   0.433E-02    0.897E-01
RMM:  11    -0.309479452788E+03    0.24538E-03   -0.16993E-04  7988   0.251E-02    0.299E-01
RMM:  12    -0.309480978176E+03   -0.15254E-02   -0.16563E-04  6849   0.321E-02    0.248E-01
RMM:  13    -0.309481823214E+03   -0.84504E-03   -0.17966E-04  6583   0.337E-02    0.562E-01
RMM:  14    -0.309481812132E+03    0.11082E-04   -0.91347E-05  6217   0.244E-02    0.775E-01
RMM:  15    -0.309481734280E+03    0.77851E-04   -0.45552E-05  5943   0.172E-02    0.962E-01
RMM:  16    -0.309481607144E+03    0.12714E-03   -0.28724E-05  5465   0.139E-02    0.111E+00
RMM:  17    -0.309481267364E+03    0.33978E-03   -0.19284E-05  5200   0.110E-02    0.119E+00
RMM:  18    -0.309481133182E+03    0.13418E-03   -0.68034E-06  4764   0.678E-03    0.125E+00
RMM:  19    -0.309480924264E+03    0.20892E-03   -0.41984E-06  4606   0.524E-03    0.127E+00
RMM:  20    -0.309480814426E+03    0.10984E-03   -0.15510E-06  4237   0.322E-03    0.129E+00
RMM:  21    -0.309480726643E+03    0.87783E-04   -0.78384E-07  3786   0.239E-03    0.129E+00
RMM:  22    -0.309480636164E+03    0.90479E-04   -0.68531E-07  3581   0.206E-03    0.127E+00
RMM:  23    -0.309480300797E+03    0.33537E-03   -0.57279E-06  4739   0.493E-03    0.117E+00
RMM:  24    -0.309479664999E+03    0.63580E-03   -0.53192E-05  7206   0.131E-02    0.877E-01
RMM:  25    -0.309479812212E+03   -0.14721E-03   -0.72953E-05  7307   0.192E-02    0.481E-01
RMM:  26    -0.309480603605E+03   -0.79139E-03   -0.79737E-05  6096   0.224E-02    0.151E-01
RMM:  27    -0.309481156933E+03   -0.55333E-03   -0.76945E-05  6058   0.214E-02    0.141E-02
RMM:  28    -0.309481295252E+03   -0.13832E-03   -0.45829E-05  6308   0.153E-02    0.145E-02
RMM:  29    -0.309481358013E+03   -0.62762E-04   -0.27895E-05  6036   0.984E-03    0.165E-01
RMM:  30    -0.309481374821E+03   -0.16808E-04   -0.76893E-06  4549   0.733E-03    0.253E-01
RMM:  31    -0.309481318514E+03    0.56307E-04   -0.57307E-06  4378   0.634E-03    0.283E-01
RMM:  32    -0.309481270221E+03    0.48293E-04   -0.20010E-06  4256   0.363E-03    0.285E-01
RMM:  33    -0.309481238080E+03    0.32141E-04   -0.91776E-07  3769   0.213E-03    0.262E-01
RMM:  34    -0.309481230604E+03    0.74766E-05   -0.10559E-06  3969   0.220E-03
  10 F= -.30948123E+03 E0= -.30947766E+03  d E =-.149790E-01  mag=    15.9971
 trial-energy change:   -0.014979  1 .order   -0.015005   -0.022088   -0.007923
 step:   1.1533(harm=  1.1533)  dis= 0.03956  next Energy=  -309.483473 (dE=-0.172E-01)
 bond charge predicted
       N       E                     dE             d eps       ncg     rms          rms(c)
DAV:   1    -0.309460097263E+03    0.21141E-01   -0.26444E+00  9474   0.673E+00    0.745E-01
RMM:   2    -0.309484343635E+03   -0.24246E-01   -0.21632E-01 10624   0.125E+00    0.112E+00
RMM:   3    -0.309484585675E+03   -0.24204E-03   -0.18130E-02  9356   0.305E-01    0.120E+00
RMM:   4    -0.309483869924E+03    0.71575E-03   -0.32173E-03  8921   0.128E-01    0.789E-01
RMM:   5    -0.309482500626E+03    0.13693E-02   -0.71009E-04  8714   0.544E-02    0.149E-01
RMM:   6    -0.309483656234E+03   -0.11556E-02   -0.28851E-04  7831   0.411E-02    0.275E-01
RMM:   7    -0.309483518998E+03    0.13724E-03   -0.47771E-04  8288   0.483E-02    0.103E-01
RMM:   8    -0.309483923434E+03   -0.40444E-03   -0.26308E-04  8115   0.326E-02    0.456E-01
RMM:   9    -0.309483789780E+03    0.13365E-03   -0.18093E-04  7739   0.319E-02    0.534E-01
RMM:  10    -0.309483197560E+03    0.59222E-03   -0.90612E-05  7735   0.203E-02    0.323E-01
RMM:  11    -0.309483271435E+03   -0.73874E-04   -0.28463E-05  5947   0.121E-02    0.607E-02
RMM:  12    -0.309483588740E+03   -0.31731E-03   -0.35865E-05  5879   0.152E-02    0.191E-01
RMM:  13    -0.309483725650E+03   -0.13691E-03   -0.36176E-05  5739   0.153E-02    0.347E-01
RMM:  14    -0.309483750209E+03   -0.24559E-04   -0.20667E-05  5229   0.121E-02    0.493E-01
RMM:  15    -0.309483597037E+03    0.15317E-03   -0.17720E-05  5099   0.106E-02    0.556E-01
RMM:  16    -0.309483453052E+03    0.14398E-03   -0.71196E-06  4732   0.655E-03    0.571E-01
RMM:  17    -0.309483375840E+03    0.77212E-04   -0.20881E-06  4353   0.335E-03    0.568E-01
RMM:  18    -0.309483335291E+03    0.40549E-04   -0.74955E-07  3529   0.202E-03    0.551E-01
RMM:  19    -0.309483198352E+03    0.13694E-03   -0.64833E-06  4688   0.533E-03    0.445E-01
RMM:  20    -0.309483111175E+03    0.87177E-04   -0.40126E-05  6712   0.116E-02    0.167E-01
RMM:  21    -0.309483493519E+03   -0.38234E-03   -0.45237E-05  5944   0.162E-02    0.143E-01
RMM:  22    -0.309483774181E+03   -0.28066E-03   -0.50831E-05  5665   0.176E-02    0.343E-01
RMM:  23    -0.309483727365E+03    0.46816E-04   -0.32437E-05  5524   0.144E-02    0.452E-01
RMM:  24    -0.309483694680E+03    0.32685E-04   -0.13150E-05  4845   0.932E-03    0.555E-01
RMM:  25    -0.309483524282E+03    0.17040E-03   -0.10334E-05  4875   0.802E-03    0.584E-01
RMM:  26    -0.309483486209E+03    0.38073E-04   -0.26361E-06  4482   0.430E-03    0.621E-01
RMM:  27    -0.309483416094E+03    0.70115E-04   -0.17592E-06  4298   0.347E-03    0.634E-01
RMM:  28    -0.309483324973E+03    0.91121E-04   -0.13651E-06  3984   0.274E-03    0.613E-01
RMM:  29    -0.309483354457E+03   -0.29484E-04   -0.20810E-07  2514   0.162E-03    0.613E-01
RMM:  30    -0.309483346794E+03    0.76626E-05   -0.21035E-08  1539   0.120E-03
  11 F= -.30948335E+03 E0= -.30948063E+03  d E =-.170952E-01  mag=    15.9968
 curvature:  -1.13 expect dE=-0.186E-01 dE for cont linesearch -0.541E-07
 trial: gam= 0.51372 g(F)=  0.164E-01 g(S)=  0.000E+00 ort = 0.529E-04 (trialstep = 0.822E+00)
 search vector abs. value=  0.319E-01
 bond charge predicted
       N       E                     dE             d eps       ncg     rms          rms(c)
DAV:   1    -0.309429024318E+03    0.54330E-01   -0.54779E+00  9772   0.103E+01    0.146E+00
RMM:   2    -0.309550947476E+03   -0.12192E+00   -0.59478E-01 10668   0.201E+00    0.599E+00
RMM:   3    -0.309482604678E+03    0.68343E-01   -0.73091E-02  9084   0.618E-01    0.375E+00
RMM:   4    -0.309471955662E+03    0.10649E-01   -0.34908E-02  9417   0.344E-01    0.266E+00
RMM:   5    -0.309494353962E+03   -0.22398E-01   -0.28690E-02  9093   0.358E-01    0.219E+00
RMM:   6    -0.309483057991E+03    0.11296E-01   -0.39130E-03  9036   0.134E-01    0.104E+00
RMM:   7    -0.309486238966E+03   -0.31810E-02   -0.97755E-04  9036   0.665E-02    0.335E-01
RMM:   8    -0.309488886236E+03   -0.26473E-02   -0.89516E-04  8349   0.679E-02    0.538E-01
RMM:   9    -0.309488902761E+03   -0.16525E-04   -0.10234E-03  8411   0.760E-02    0.446E-01
RMM:  10    -0.309488568961E+03    0.33380E-03   -0.18072E-04  8460   0.290E-02    0.282E-01
RMM:  11    -0.309488700322E+03   -0.13136E-03   -0.31455E-05  6038   0.139E-02    0.233E-01
RMM:  12    -0.309488714800E+03   -0.14479E-04   -0.16920E-05  5297   0.104E-02    0.771E-02
RMM:  13    -0.309488853242E+03   -0.13844E-03   -0.14727E-05  5274   0.105E-02    0.675E-02
RMM:  14    -0.309488940088E+03   -0.86846E-04   -0.12635E-05  5195   0.942E-03    0.174E-01
RMM:  15    -0.309488916633E+03    0.23456E-04   -0.89712E-06  4859   0.788E-03    0.227E-01
RMM:  16    -0.309489010936E+03   -0.94304E-04   -0.89542E-06  4814   0.764E-03    0.367E-01
RMM:  17    -0.309488908944E+03    0.10199E-03   -0.11666E-05  4825   0.870E-03    0.412E-01
RMM:  18    -0.309488867085E+03    0.41859E-04   -0.37409E-06  4497   0.527E-03    0.453E-01
RMM:  19    -0.309488956965E+03   -0.89880E-04   -0.41204E-06  4673   0.488E-03    0.548E-01
RMM:  20    -0.309488999877E+03   -0.42912E-04   -0.58233E-06  4685   0.598E-03    0.653E-01
RMM:  21    -0.309488775416E+03    0.22446E-03   -0.80108E-06  4718   0.695E-03    0.668E-01
RMM:  22    -0.309488661894E+03    0.11352E-03   -0.21804E-06  4365   0.348E-03    0.659E-01
RMM:  23    -0.309488377101E+03    0.28479E-03   -0.13859E-05  5108   0.752E-03    0.518E-01
RMM:  24    -0.309488290862E+03    0.86239E-04   -0.58803E-05  7235   0.139E-02    0.200E-01
RMM:  25    -0.309488761637E+03   -0.47077E-03   -0.52632E-05  6039   0.179E-02    0.115E-01
RMM:  26    -0.309489040683E+03   -0.27905E-03   -0.58163E-05  5821   0.188E-02    0.261E-01
RMM:  27    -0.309488976696E+03    0.63987E-04   -0.27210E-05  5442   0.131E-02    0.313E-01
RMM:  28    -0.309488860628E+03    0.11607E-03   -0.11844E-05  4864   0.791E-03    0.285E-01
RMM:  29    -0.309488818259E+03    0.42369E-04   -0.41161E-06  4517   0.376E-03    0.220E-01
RMM:  30    -0.309488828161E+03   -0.99021E-05   -0.66525E-06  4603   0.564E-03
  12 F= -.30948883E+03 E0= -.30948604E+03  d E =-.548137E-02  mag=    15.9955
 trial-energy change:   -0.005481  1 .order   -0.005859   -0.013532    0.001814
 step:   0.7109(harm=  0.7251)  dis= 0.01254  next Energy=  -309.488952 (dE=-0.561E-02)
 bond charge predicted
       N       E                     dE             d eps       ncg     rms          rms(c)
DAV:   1    -0.309487895157E+03    0.92310E-03   -0.10051E-01 10192   0.139E+00    0.178E-01
RMM:   2    -0.309489724942E+03   -0.18298E-02   -0.10599E-02 10442   0.269E-01    0.705E-01
RMM:   3    -0.309488761287E+03    0.96365E-03   -0.11306E-03  8565   0.783E-02    0.383E-01
RMM:   4    -0.309488931162E+03   -0.16987E-03   -0.41359E-04  8426   0.411E-02    0.351E-01
RMM:   5    -0.309489087411E+03   -0.15625E-03   -0.38052E-04  8023   0.442E-02    0.258E-01
RMM:   6    -0.309488926911E+03    0.16050E-03   -0.54830E-05  6987   0.162E-02    0.101E-01
RMM:   7    -0.309489023339E+03   -0.96428E-04   -0.18120E-05  5334   0.106E-02    0.635E-02
RMM:   8    -0.309489099082E+03   -0.75744E-04   -0.24665E-05  5524   0.128E-02    0.116E-01
RMM:   9    -0.309489075592E+03    0.23490E-04   -0.70141E-06  4872   0.713E-03    0.116E-01
RMM:  10    -0.309489061844E+03    0.13748E-04   -0.20780E-06  4699   0.367E-03    0.950E-02
RMM:  11    -0.309489065707E+03   -0.38622E-05   -0.47246E-06  4808   0.431E-03
  13 F= -.30948907E+03 E0= -.30948637E+03  d E =-.571891E-02  mag=    15.9952
 curvature:  -0.69 expect dE=-0.750E-02 dE for cont linesearch -0.298E-05
 trial: gam= 0.62791 g(F)=  0.109E-01 g(S)=  0.000E+00 ort = 0.372E-03 (trialstep = 0.800E+00)
 search vector abs. value=  0.240E-01
 bond charge predicted
       N       E                     dE             d eps       ncg     rms          rms(c)
DAV:   1    -0.309441681847E+03    0.47380E-01   -0.38971E+00 10432   0.916E+00    0.110E+00
RMM:   2    -0.309489801618E+03   -0.48120E-01   -0.44571E-01 10625   0.171E+00    0.122E+00
RMM:   3    -0.309495355817E+03   -0.55542E-02   -0.35261E-02  9429   0.408E-01    0.210E+00
RMM:   4    -0.309489549134E+03    0.58067E-02   -0.82372E-03  9106   0.196E-01    0.133E+00
RMM:   5    -0.309486478366E+03    0.30708E-02   -0.15701E-03  9187   0.758E-02    0.330E-01
RMM:   6    -0.309489402687E+03   -0.29243E-02   -0.65587E-04  8086   0.607E-02    0.251E-01
RMM:   7    -0.309489626410E+03   -0.22372E-03   -0.92280E-04  8379   0.689E-02    0.107E-01
RMM:   8    -0.309490115059E+03   -0.48865E-03   -0.42073E-04  8279   0.430E-02    0.535E-01
RMM:   9    -0.309489754040E+03    0.36102E-03   -0.23491E-04  7936   0.363E-02    0.565E-01
RMM:  10    -0.309489059960E+03    0.69408E-03   -0.14635E-04  7962   0.242E-02    0.216E-01
RMM:  11    -0.309489510450E+03   -0.45049E-03   -0.52528E-05  6510   0.175E-02    0.133E-01
RMM:  12    -0.309489854761E+03   -0.34431E-03   -0.63885E-05  6122   0.204E-02    0.317E-01
RMM:  13    -0.309489830373E+03    0.24388E-04   -0.31294E-05  5624   0.149E-02    0.434E-01
RMM:  14    -0.309489824375E+03    0.59977E-05   -0.14300E-05  5096   0.995E-03
  14 F= -.30948982E+03 E0= -.30948720E+03  d E =-.758669E-03  mag=    15.9952
 trial-energy change:   -0.000759  1 .order   -0.000574   -0.008909    0.007762
 step:   0.4408(harm=  0.4276)  dis= 0.00468  next Energy=  -309.491551 (dE=-0.248E-02)
 bond charge predicted
       N       E                     dE             d eps       ncg     rms          rms(c)
DAV:   1    -0.309481946818E+03    0.78836E-02   -0.78510E-01 10726   0.413E+00    0.863E-01
RMM:   2    -0.309528461509E+03   -0.46515E-01   -0.11503E-01 10582   0.844E-01    0.473E+00
RMM:   3    -0.309489233941E+03    0.39228E-01   -0.27962E-02  9026   0.355E-01    0.323E+00
RMM:   4    -0.309470619588E+03    0.18614E-01   -0.68066E-03  9206   0.154E-01    0.743E-01
RMM:   5    -0.309489072790E+03   -0.18453E-01   -0.31054E-03  8404   0.135E-01    0.687E-01
RMM:   6    -0.309494143317E+03   -0.50705E-02   -0.18576E-03  8033   0.105E-01    0.126E+00
RMM:   7    -0.309491760529E+03    0.23828E-02   -0.79532E-04  8049   0.662E-02    0.125E+00
RMM:   8    -0.309490091790E+03    0.16687E-02   -0.22257E-04  8086   0.296E-02    0.975E-01
RMM:   9    -0.309489710245E+03    0.38154E-03   -0.21179E-04  8165   0.288E-02    0.503E-01
RMM:  10    -0.309490979038E+03   -0.12688E-02   -0.45865E-04  8318   0.460E-02    0.417E-01
RMM:  11    -0.309493343123E+03   -0.23641E-02   -0.38254E-04  7467   0.492E-02    0.106E+00
RMM:  12    -0.309492157921E+03    0.11852E-02   -0.40938E-04  7806   0.477E-02    0.117E+00
RMM:  13    -0.309489567887E+03    0.25900E-02   -0.40747E-04  8213   0.389E-02    0.701E-01
RMM:  14    -0.309490117245E+03   -0.54936E-03   -0.14407E-04  7810   0.260E-02    0.115E-01
RMM:  15    -0.309491457219E+03   -0.13400E-02   -0.16025E-04  6531   0.315E-02    0.267E-01
RMM:  16    -0.309491634432E+03   -0.17721E-03   -0.14092E-04  7065   0.285E-02    0.362E-01
RMM:  17    -0.309491310510E+03    0.32392E-03   -0.72719E-05  7225   0.179E-02    0.233E-01
RMM:  18    -0.309491322435E+03   -0.11925E-04   -0.36371E-05  6409   0.116E-02    0.174E-02
RMM:  19    -0.309491503181E+03   -0.18075E-03   -0.26440E-05  5213   0.130E-02    0.115E-01
RMM:  20    -0.309491504743E+03   -0.15623E-05   -0.10868E-05  4783   0.888E-03
  15 F= -.30949150E+03 E0= -.30948863E+03  d E =-.243904E-02  mag=    15.9949
 curvature:  -0.46 expect dE=-0.298E-02 dE for cont linesearch -0.936E-06
 trial: gam= 0.61595 g(F)=  0.649E-02 g(S)=  0.000E+00 ort =-0.221E-03 (trialstep = 0.728E+00)
 search vector abs. value=  0.153E-01
 bond charge predicted
       N       E                     dE             d eps       ncg     rms          rms(c)
DAV:   1    -0.309461973528E+03    0.29530E-01   -0.18942E+00 10768   0.729E+00    0.944E-01
RMM:   2    -0.309498458027E+03   -0.36484E-01   -0.28890E-01 10683   0.134E+00    0.202E+00
RMM:   3    -0.309491178967E+03    0.72791E-02   -0.27431E-02  9154   0.347E-01    0.754E-01
RMM:   4    -0.309496905567E+03   -0.57266E-02   -0.36193E-03  9154   0.140E-01    0.109E+00
RMM:   5    -0.309493473775E+03    0.34318E-02   -0.15807E-03  8727   0.857E-02    0.546E-01
RMM:   6    -0.309493823516E+03   -0.34974E-03   -0.42792E-04  8517   0.430E-02    0.255E-01
RMM:   7    -0.309494713141E+03   -0.88963E-03   -0.40891E-04  8007   0.479E-02    0.376E-01
RMM:   8    -0.309494610163E+03    0.10298E-03   -0.78596E-04  8528   0.557E-02    0.432E-01
RMM:   9    -0.309495045616E+03   -0.43545E-03   -0.29444E-04  8033   0.419E-02    0.675E-01
RMM:  10    -0.309494077062E+03    0.96855E-03   -0.17411E-04  7947   0.299E-02    0.509E-01
RMM:  11    -0.309493910371E+03    0.16669E-03   -0.40328E-05  6824   0.126E-02    0.244E-01
RMM:  12    -0.309494290941E+03   -0.38057E-03   -0.46229E-05  6278   0.161E-02    0.823E-02
RMM:  13    -0.309494732350E+03   -0.44141E-03   -0.54502E-05  5945   0.187E-02    0.330E-01
RMM:  14    -0.309494799390E+03   -0.67040E-04   -0.41702E-05  5802   0.166E-02    0.500E-01
RMM:  15    -0.309494817285E+03   -0.17894E-04   -0.24450E-05  5396   0.130E-02    0.653E-01
RMM:  16    -0.309494650489E+03    0.16680E-03   -0.18570E-05  5129   0.110E-02    0.740E-01
RMM:  17    -0.309494631121E+03    0.19368E-04   -0.86847E-06  4786   0.787E-03    0.837E-01
RMM:  18    -0.309494401785E+03    0.22934E-03   -0.81003E-06  4774   0.727E-03    0.864E-01
RMM:  19    -0.309494324594E+03    0.77190E-04   -0.22216E-06  4469   0.397E-03    0.886E-01
RMM:  20    -0.309494340736E+03   -0.16141E-04   -0.90387E-07  3749   0.260E-03    0.918E-01
RMM:  21    -0.309494124632E+03    0.21610E-03   -0.25296E-06  4416   0.391E-03    0.885E-01
RMM:  22    -0.309494064417E+03    0.60214E-04   -0.10873E-06  3691   0.234E-03    0.841E-01
RMM:  23    -0.309493921094E+03    0.14332E-03   -0.60333E-06  4698   0.559E-03    0.733E-01
RMM:  24    -0.309493819414E+03    0.10168E-03   -0.17399E-05  5182   0.897E-03    0.539E-01
RMM:  25    -0.309493919377E+03   -0.99963E-04   -0.54535E-05  7060   0.152E-02    0.213E-01
RMM:  26    -0.309494493308E+03   -0.57393E-03   -0.77744E-05  6965   0.208E-02    0.194E-01
RMM:  27    -0.309495147428E+03   -0.65412E-03   -0.89054E-05  6201   0.233E-02    0.558E-01
RMM:  28    -0.309495267227E+03   -0.11980E-03   -0.83649E-05  6026   0.227E-02    0.812E-01
RMM:  29    -0.309495167294E+03    0.99933E-04   -0.53166E-05  5825   0.186E-02    0.101E+00
RMM:  30    -0.309495037005E+03    0.13029E-03   -0.34575E-05  5615   0.152E-02    0.118E+00
RMM:  31    -0.309494809385E+03    0.22762E-03   -0.23696E-05  5304   0.125E-02    0.131E+00
RMM:  32    -0.309494622935E+03    0.18645E-03   -0.14988E-05  5049   0.100E-02    0.143E+00
RMM:  33    -0.309494427889E+03    0.19505E-03   -0.10155E-05  4864   0.831E-03    0.152E+00
RMM:  34    -0.309494254973E+03    0.17292E-03   -0.70267E-06  4662   0.694E-03    0.160E+00
RMM:  35    -0.309494100182E+03    0.15479E-03   -0.49069E-06  4585   0.581E-03    0.166E+00
RMM:  36    -0.309493974295E+03    0.12589E-03   -0.34232E-06  4438   0.488E-03    0.171E+00
RMM:  37    -0.309493810109E+03    0.16419E-03   -0.24302E-06  4375   0.417E-03    0.175E+00
RMM:  38    -0.309493654614E+03    0.15550E-03   -0.14807E-06  3996   0.325E-03    0.177E+00
RMM:  39    -0.309493605112E+03    0.49502E-04   -0.71395E-07  3488   0.244E-03    0.179E+00
RMM:  40    -0.309493438248E+03    0.16686E-03   -0.73366E-07  3698   0.252E-03    0.179E+00
RMM:  41    -0.309492445899E+03    0.99235E-03   -0.18447E-05  5485   0.834E-03    0.163E+00
RMM:  42    -0.309491297533E+03    0.11484E-02   -0.87729E-05  7676   0.166E-02    0.124E+00
RMM:  43    -0.309491904031E+03   -0.60650E-03   -0.90409E-05  6811   0.232E-02    0.809E-01
RMM:  44    -0.309493066818E+03   -0.11628E-02   -0.11057E-04  6263   0.262E-02    0.401E-01
RMM:  45    -0.309494087516E+03   -0.10207E-02   -0.10872E-04  6186   0.261E-02    0.622E-02
RMM:  46    -0.309494699263E+03   -0.61175E-03   -0.83096E-05  6042   0.226E-02    0.195E-01
RMM:  47    -0.309494890387E+03   -0.19112E-03   -0.53054E-05  5859   0.181E-02    0.367E-01
RMM:  48    -0.309494821574E+03    0.68813E-04   -0.29022E-05  5517   0.135E-02    0.462E-01
RMM:  49    -0.309494707034E+03    0.11454E-03   -0.11991E-05  4978   0.885E-03    0.510E-01
RMM:  50    -0.309494636969E+03    0.70065E-04   -0.40579E-06  4636   0.528E-03    0.543E-01
RMM:  51    -0.309494580586E+03    0.56383E-04   -0.19279E-06  4379   0.363E-03    0.562E-01
RMM:  52    -0.309494570484E+03    0.10102E-04   -0.78546E-07  3844   0.261E-03    0.586E-01
RMM:  53    -0.309494548630E+03    0.21855E-04   -0.62672E-07  3787   0.244E-03    0.604E-01
RMM:  54    -0.309494508299E+03    0.40331E-04   -0.46512E-07  3419   0.212E-03    0.609E-01
RMM:  55    -0.309494530526E+03   -0.22227E-04   -0.25493E-07  3005   0.181E-03    0.630E-01
RMM:  56    -0.309494522995E+03    0.75310E-05   -0.34979E-07  3355   0.202E-03
  16 F= -.30949452E+03 E0= -.30949184E+03  d E =-.301825E-02  mag=    15.9956
 trial-energy change:   -0.003018  1 .order   -0.003090   -0.004629   -0.001550
 step:   1.2051(harm=  1.0949)  dis= 0.01122  next Energy=  -309.495010 (dE=-0.351E-02)
 bond charge predicted
       N       E                     dE             d eps       ncg     rms          rms(c)
DAV:   1    -0.309480771526E+03    0.13759E-01   -0.81082E-01 10682   0.480E+00    0.817E-01
RMM:   2    -0.309518408258E+03   -0.37637E-01   -0.13361E-01 10642   0.909E-01    0.387E+00
RMM:   3    -0.309491182690E+03    0.27226E-01   -0.24135E-02  9035   0.333E-01    0.244E+00
RMM:   4    -0.309484324320E+03    0.68584E-02   -0.10175E-02  9305   0.190E-01    0.114E+00
RMM:   5    -0.309498282662E+03   -0.13958E-01   -0.72596E-03  8698   0.188E-01    0.139E+00
RMM:   6    -0.309494706032E+03    0.35766E-02   -0.12902E-03  8393   0.839E-02    0.117E+00
RMM:   7    -0.309493404184E+03    0.13018E-02   -0.37490E-04  8583   0.372E-02    0.751E-01
RMM:   8    -0.309493815166E+03   -0.41098E-03   -0.22643E-04  8139   0.315E-02    0.176E-01
RMM:   9    -0.309495112925E+03   -0.12978E-02   -0.23624E-04  7753   0.396E-02    0.242E-01
RMM:  10    -0.309495822286E+03   -0.70936E-03   -0.13946E-04  6973   0.308E-02    0.619E-01
RMM:  11    -0.309495620760E+03    0.20153E-03   -0.12736E-04  6788   0.279E-02    0.781E-01
RMM:  12    -0.309494975134E+03    0.64563E-03   -0.70826E-05  7011   0.192E-02    0.750E-01
RMM:  13    -0.309494333845E+03    0.64129E-03   -0.72835E-05  7616   0.156E-02    0.478E-01
RMM:  14    -0.309494550303E+03   -0.21646E-03   -0.50262E-05  6806   0.162E-02    0.114E-01
RMM:  15    -0.309495121706E+03   -0.57140E-03   -0.65969E-05  6030   0.205E-02    0.961E-02
RMM:  16    -0.309495260614E+03   -0.13891E-03   -0.44083E-05  5913   0.167E-02    0.160E-01
RMM:  17    -0.309495198826E+03    0.61789E-04   -0.19131E-05  5218   0.992E-03    0.118E-01
RMM:  18    -0.309495197414E+03    0.14112E-05   -0.67776E-06  4715   0.488E-03
  17 F= -.30949520E+03 E0= -.30949199E+03  d E =-.369267E-02  mag=    15.9959
 curvature:  -1.20 expect dE=-0.445E-02 dE for cont linesearch -0.184E-06
 trial: gam= 0.45007 g(F)=  0.371E-02 g(S)=  0.000E+00 ort =-0.485E-04 (trialstep = 0.824E+00)
 search vector abs. value=  0.677E-02
 bond charge predicted
       N       E                     dE             d eps       ncg     rms          rms(c)
DAV:   1    -0.309483794339E+03    0.11404E-01   -0.92766E-01 10864   0.494E+00    0.603E-01
RMM:   2    -0.309500336360E+03   -0.16542E-01   -0.12276E-01 10616   0.913E-01    0.166E+00
RMM:   3    -0.309494160698E+03    0.61757E-02   -0.10959E-02  8989   0.242E-01    0.307E-01
RMM:   4    -0.309498084528E+03   -0.39238E-02   -0.14962E-03  8819   0.925E-02    0.887E-01
RMM:   5    -0.309496659262E+03    0.14253E-02   -0.13853E-03  8518   0.849E-02    0.569E-01
RMM:   6    -0.309496176214E+03    0.48305E-03   -0.34428E-04  8366   0.378E-02    0.103E-01
RMM:   7    -0.309497064165E+03   -0.88795E-03   -0.18774E-04  7521   0.336E-02    0.347E-01
RMM:   8    -0.309496721081E+03    0.34308E-03   -0.38353E-04  8113   0.426E-02    0.517E-02
RMM:   9    -0.309496869343E+03   -0.14826E-03   -0.30749E-05  6074   0.143E-02    0.114E-01
RMM:  10    -0.309496862312E+03    0.70305E-05   -0.24498E-05  5605   0.132E-02
  18 F= -.30949686E+03 E0= -.30949363E+03  d E =-.166490E-02  mag=    15.9962
 trial-energy change:   -0.001665  1 .order   -0.001650   -0.003036   -0.000264
 step:   0.9021(harm=  0.9021)  dis= 0.00387  next Energy=  -309.496860 (dE=-0.166E-02)
 bond charge predicted
       N       E                     dE             d eps       ncg     rms          rms(c)
DAV:   1    -0.309496739498E+03    0.12984E-03   -0.84601E-03 11022   0.470E-01    0.650E-02
RMM:   2    -0.309497036681E+03   -0.29718E-03   -0.11946E-03 10225   0.894E-02    0.314E-01
RMM:   3    -0.309496845220E+03    0.19146E-03   -0.14601E-04  7559   0.293E-02    0.223E-01
RMM:   4    -0.309496771684E+03    0.73535E-04   -0.67589E-05  7382   0.167E-02    0.725E-02
RMM:   5    -0.309496904822E+03   -0.13314E-03   -0.45868E-05  6067   0.169E-02    0.796E-02
RMM:   6    -0.309496888427E+03    0.16395E-04   -0.81527E-06  4917   0.769E-03    0.489E-02
RMM:   7    -0.309496892711E+03   -0.42846E-05   -0.36503E-06  4712   0.404E-03
  19 F= -.30949689E+03 E0= -.30949369E+03  d E =-.169530E-02  mag=    15.9963
 curvature:  -0.83 expect dE=-0.516E-02 dE for cont linesearch -0.373E-06
 trial: gam= 1.70659 g(F)=  0.623E-02 g(S)=  0.000E+00 ort =-0.552E-04 (trialstep = 0.221E+00)
 search vector abs. value=  0.257E-01
 bond charge predicted
       N       E                     dE             d eps       ncg     rms          rms(c)
DAV:   1    -0.309494924562E+03    0.19639E-02   -0.22845E-01 10700   0.242E+00    0.272E-01
RMM:   2    -0.309498002514E+03   -0.30780E-02   -0.27863E-02 10487   0.440E-01    0.334E-01
RMM:   3    -0.309498254654E+03   -0.25214E-03   -0.20181E-03  8942   0.104E-01    0.507E-01
RMM:   4    -0.309497942821E+03    0.31183E-03   -0.51193E-04  8602   0.509E-02    0.299E-01
RMM:   5    -0.309497799018E+03    0.14380E-03   -0.12877E-04  7983   0.227E-02    0.854E-02
RMM:   6    -0.309498069162E+03   -0.27014E-03   -0.52633E-05  6164   0.186E-02    0.215E-01
RMM:   7    -0.309497936428E+03    0.13273E-03   -0.96740E-05  7458   0.216E-02    0.912E-02
RMM:   8    -0.309498058765E+03   -0.12234E-03   -0.65448E-05  7303   0.157E-02    0.225E-01
RMM:   9    -0.309498101229E+03   -0.42465E-04   -0.47627E-05  6001   0.173E-02    0.322E-01
RMM:  10    -0.309497913158E+03    0.18807E-03   -0.24843E-05  5582   0.121E-02    0.280E-01
RMM:  11    -0.309497857225E+03    0.55934E-04   -0.48017E-06  4805   0.463E-03    0.207E-01
RMM:  12    -0.309497868619E+03   -0.11395E-04   -0.63442E-06  4704   0.591E-03    0.864E-02
RMM:  13    -0.309497957442E+03   -0.88823E-04   -0.92855E-06  4839   0.753E-03    0.571E-02
RMM:  14    -0.309498033071E+03   -0.75630E-04   -0.10521E-05  4739   0.830E-03    0.150E-01
RMM:  15    -0.309498007069E+03    0.26002E-04   -0.73731E-06  4629   0.702E-03    0.183E-01
RMM:  16    -0.309497978822E+03    0.28247E-04   -0.25168E-06  4368   0.392E-03    0.197E-01
RMM:  17    -0.309497998150E+03   -0.19328E-04   -0.14117E-06  4189   0.305E-03    0.251E-01
RMM:  18    -0.309497960489E+03    0.37661E-04   -0.19241E-06  4303   0.374E-03    0.260E-01
RMM:  19    -0.309497972839E+03   -0.12350E-04   -0.84970E-07  3933   0.267E-03    0.298E-01
RMM:  20    -0.309497933892E+03    0.38947E-04   -0.11465E-06  4191   0.301E-03    0.299E-01
RMM:  21    -0.309497891072E+03    0.42819E-04   -0.10652E-06  3760   0.216E-03    0.266E-01
RMM:  22    -0.309497852648E+03    0.38424E-04   -0.55011E-06  4594   0.485E-03    0.155E-01
RMM:  23    -0.309497923456E+03   -0.70808E-04   -0.10922E-05  4791   0.744E-03    0.124E-02
RMM:  24    -0.309498062842E+03   -0.13939E-03   -0.14273E-05  4832   0.919E-03    0.166E-01
RMM:  25    -0.309498115275E+03   -0.52432E-04   -0.13988E-05  4829   0.919E-03    0.294E-01
RMM:  26    -0.309498079287E+03    0.35988E-04   -0.11118E-05  4768   0.818E-03    0.376E-01
RMM:  27    -0.309498020341E+03    0.58946E-04   -0.64311E-06  4574   0.624E-03    0.433E-01
RMM:  28    -0.309497989267E+03    0.31073E-04   -0.33520E-06  4403   0.452E-03    0.487E-01
RMM:  29    -0.309497942237E+03    0.47031E-04   -0.23674E-06  4386   0.391E-03    0.525E-01
RMM:  30    -0.309497916666E+03    0.25571E-04   -0.14167E-06  4047   0.312E-03    0.561E-01
RMM:  31    -0.309497880951E+03    0.35714E-04   -0.10853E-06  4013   0.284E-03    0.587E-01
RMM:  32    -0.309497851040E+03    0.29911E-04   -0.69842E-07  3645   0.239E-03    0.607E-01
RMM:  33    -0.309497831023E+03    0.20018E-04   -0.43914E-07  3425   0.208E-03    0.626E-01
RMM:  34    -0.309497817435E+03    0.13588E-04   -0.33871E-07  3281   0.192E-03    0.643E-01
RMM:  35    -0.309497758035E+03    0.59399E-04   -0.43347E-07  3263   0.201E-03    0.638E-01
RMM:  36    -0.309497687149E+03    0.70886E-04   -0.79309E-07  3373   0.204E-03    0.605E-01
RMM:  37    -0.309497585696E+03    0.10145E-03   -0.37119E-06  4316   0.404E-03    0.514E-01
RMM:  38    -0.309497574140E+03    0.11556E-04   -0.70431E-06  4632   0.617E-03    0.379E-01
RMM:  39    -0.309497667726E+03   -0.93586E-04   -0.12668E-05  4866   0.848E-03    0.210E-01
RMM:  40    -0.309497852562E+03   -0.18484E-03   -0.20362E-05  5178   0.107E-02    0.129E-02
RMM:  41    -0.309498068208E+03   -0.21565E-03   -0.24128E-05  5275   0.119E-02    0.180E-01
RMM:  42    -0.309498153712E+03   -0.85504E-04   -0.21769E-05  5168   0.115E-02    0.327E-01
RMM:  43    -0.309498079778E+03    0.73934E-04   -0.16722E-05  4973   0.101E-02    0.399E-01
RMM:  44    -0.309497961685E+03    0.11809E-03   -0.79748E-06  4747   0.671E-03    0.413E-01
RMM:  45    -0.309497872260E+03    0.89425E-04   -0.30949E-06  4492   0.367E-03    0.385E-01
RMM:  46    -0.309497755227E+03    0.11703E-03   -0.11599E-05  4964   0.649E-03    0.242E-01
RMM:  47    -0.309497850648E+03   -0.95421E-04   -0.10293E-05  4563   0.775E-03    0.966E-02
RMM:  48    -0.309497972461E+03   -0.12181E-03   -0.10893E-05  4663   0.829E-03    0.164E-02
RMM:  49    -0.309498024371E+03   -0.51911E-04   -0.54634E-06  4514   0.607E-03    0.443E-02
RMM:  50    -0.309498029403E+03   -0.50322E-05   -0.40128E-06  4454   0.487E-03
  20 F= -.30949803E+03 E0= -.30949479E+03  d E =-.113669E-02  mag=    15.9969
 trial-energy change:   -0.001137  1 .order   -0.001099   -0.001353   -0.000845
 step:   0.5878(harm=  0.5878)  dis= 0.00563  next Energy=  -309.498695 (dE=-0.180E-02)
 bond charge predicted
       N       E                     dE             d eps       ncg     rms          rms(c)
DAV:   1    -0.309490015437E+03    0.80089E-02   -0.63213E-01 10486   0.402E+00    0.493E-01
RMM:   2    -0.309501362243E+03   -0.11347E-01   -0.81187E-02 10600   0.749E-01    0.147E+00
RMM:   3    -0.309496606048E+03    0.47562E-02   -0.71241E-03  8956   0.196E-01    0.354E-01
RMM:   4    -0.309499386200E+03   -0.27802E-02   -0.11671E-03  8657   0.799E-02    0.789E-01
RMM:   5    -0.309498558060E+03    0.82814E-03   -0.11894E-03  8539   0.788E-02    0.542E-01
RMM:   6    -0.309498007422E+03    0.55064E-03   -0.25110E-04  8318   0.325E-02    0.103E-01
RMM:   7    -0.309498665920E+03   -0.65850E-03   -0.11677E-04  7328   0.267E-02    0.252E-01
RMM:   8    -0.309498586280E+03    0.79640E-04   -0.23719E-04  7917   0.349E-02    0.115E-01
RMM:   9    -0.309498586695E+03   -0.41504E-06   -0.13653E-05  5264   0.962E-03
  21 F= -.30949859E+03 E0= -.30949534E+03  d E =-.169398E-02  mag=    15.9970
 curvature:  -1.23 expect dE=-0.457E-02 dE for cont linesearch -0.985E-06
 trial: gam= 0.59275 g(F)=  0.370E-02 g(S)=  0.000E+00 ort =-0.143E-03 (trialstep = 0.294E+00)
 search vector abs. value=  0.126E-01
 bond charge predicted
       N       E                     dE             d eps       ncg     rms          rms(c)
DAV:   1    -0.309496767897E+03    0.18184E-02   -0.17956E-01 11400   0.231E+00    0.267E-01
RMM:   2    -0.309499762982E+03   -0.29951E-02   -0.25178E-02 10497   0.411E-01    0.524E-01
RMM:   3    -0.309499334228E+03    0.42875E-03   -0.21307E-03  8970   0.102E-01    0.261E-01
RMM:   4    -0.309499678962E+03   -0.34473E-03   -0.32102E-04  8435   0.429E-02    0.279E-01
RMM:   5    -0.309499417754E+03    0.26121E-03   -0.12017E-04  7661   0.240E-02    0.670E-02
RMM:   6    -0.309499541908E+03   -0.12415E-03   -0.24784E-05  5633   0.131E-02    0.128E-01
RMM:   7    -0.309499532868E+03    0.90397E-05   -0.47388E-05  6295   0.170E-02
  22 F= -.30949953E+03 E0= -.30949608E+03  d E =-.946173E-03  mag=    15.9971
 ZBRENT: can't locate minimum, use default step
 trial-energy change:   -0.000946  1 .order   -0.000935   -0.001064   -0.000806
 step:   1.1760(harm=  1.2139)  dis= 0.00740  next Energy=  -309.500782 (dE=-0.220E-02)
 bond charge predicted
       N       E                     dE             d eps       ncg     rms          rms(c)
DAV:   1    -0.309475942421E+03    0.23599E-01   -0.16133E+00 11056   0.693E+00    0.861E-01
RMM:   2    -0.309510356516E+03   -0.34414E-01   -0.23322E-01 10698   0.125E+00    0.277E+00
RMM:   3    -0.309494166335E+03    0.16190E-01   -0.22190E-02  9202   0.335E-01    0.708E-01
RMM:   4    -0.309502681524E+03   -0.85152E-02   -0.39205E-03  8814   0.143E-01    0.137E+00
RMM:   5    -0.309501532975E+03    0.11485E-02   -0.34380E-03  8772   0.135E-01    0.117E+00
RMM:   6    -0.309499035092E+03    0.24979E-02   -0.56008E-04  8626   0.503E-02    0.736E-01
RMM:   7    -0.309499227214E+03   -0.19212E-03   -0.37757E-04  8591   0.407E-02    0.100E-01
RMM:   8    -0.309501015568E+03   -0.17884E-02   -0.42562E-04  8036   0.517E-02    0.508E-01
RMM:   9    -0.309500704565E+03    0.31100E-03   -0.32891E-04  7892   0.440E-02    0.474E-01
RMM:  10    -0.309500374311E+03    0.33025E-03   -0.78802E-05  7355   0.185E-02    0.310E-01
RMM:  11    -0.309500449273E+03   -0.74962E-04   -0.60291E-05  7251   0.155E-02    0.159E-02
RMM:  12    -0.309500812356E+03   -0.36308E-03   -0.43217E-05  5931   0.169E-02    0.233E-01
RMM:  13    -0.309500762700E+03    0.49656E-04   -0.51376E-05  6163   0.174E-02    0.263E-01
RMM:  14    -0.309500609687E+03    0.15301E-03   -0.25574E-05  5817   0.103E-02    0.151E-01
RMM:  15    -0.309500656738E+03   -0.47051E-04   -0.85585E-06  4690   0.650E-03    0.913E-03
RMM:  16    -0.309500757276E+03   -0.10054E-03   -0.93397E-06  4753   0.803E-03    0.708E-02
RMM:  17    -0.309500779883E+03   -0.22607E-04   -0.50864E-06  4525   0.615E-03    0.121E-01
RMM:  18    -0.309500757572E+03    0.22311E-04   -0.37239E-06  4502   0.481E-03    0.115E-01
RMM:  19    -0.309500748603E+03    0.89691E-05   -0.94858E-07  3732   0.207E-03
  23 F= -.30950075E+03 E0= -.30949672E+03  d E =-.216191E-02  mag=    15.9977
 curvature:  -2.11 expect dE=-0.581E-02 dE for cont linesearch -0.603E-07
 trial: gam= 0.65443 g(F)=  0.276E-02 g(S)=  0.000E+00 ort =-0.190E-04 (trialstep = 0.470E+00)
 search vector abs. value=  0.812E-02
 bond charge predicted
       N       E                     dE             d eps       ncg     rms          rms(c)
DAV:   1    -0.309498105982E+03    0.26516E-02   -0.28771E-01 10800   0.265E+00    0.299E-01
RMM:   2    -0.309501710857E+03   -0.36049E-02   -0.33149E-02 10447   0.485E-01    0.252E-01
RMM:   3    -0.309502216394E+03   -0.50554E-03   -0.23349E-03  9127   0.109E-01    0.542E-01
RMM:   4    -0.309501687901E+03    0.52849E-03   -0.50979E-04  8603   0.489E-02    0.289E-01
RMM:   5    -0.309501624519E+03    0.63382E-04   -0.93745E-05  7700   0.196E-02    0.731E-02
RMM:   6    -0.309501829936E+03   -0.20542E-03   -0.52607E-05  6183   0.184E-02    0.120E-01
RMM:   7    -0.309501782556E+03    0.47379E-04   -0.82906E-05  7365   0.200E-02    0.359E-02
RMM:   8    -0.309501900882E+03   -0.11833E-03   -0.41932E-05  6484   0.140E-02    0.255E-01
RMM:   9    -0.309501827022E+03    0.73860E-04   -0.35646E-05  5837   0.151E-02    0.291E-01
RMM:  10    -0.309501689303E+03    0.13772E-03   -0.13399E-05  5077   0.866E-03    0.223E-01
RMM:  11    -0.309501683485E+03    0.58180E-05   -0.41785E-06  4753   0.450E-03
  24 F= -.30950168E+03 E0= -.30949746E+03  d E =-.934882E-03  mag=    15.9980
 trial-energy change:   -0.000935  1 .order   -0.001037   -0.001291   -0.000783
 step:   1.1950(harm=  1.1950)  dis= 0.00672  next Energy=  -309.502388 (dE=-0.164E-02)
 bond charge predicted
       N       E                     dE             d eps       ncg     rms          rms(c)
DAV:   1    -0.309493485150E+03    0.82042E-02   -0.68204E-01 10582   0.408E+00    0.475E-01
RMM:   2    -0.309503331129E+03   -0.98460E-02   -0.79773E-02 10578   0.751E-01    0.102E+00
RMM:   3    -0.309501296291E+03    0.20348E-02   -0.66767E-03  9034   0.186E-01    0.360E-01
RMM:   4    -0.309502811112E+03   -0.15148E-02   -0.89376E-04  8859   0.722E-02    0.563E-01
RMM:   5    -0.309501827687E+03    0.98343E-03   -0.48097E-04  8200   0.479E-02    0.212E-01
RMM:   6    -0.309502126253E+03   -0.29857E-03   -0.15092E-04  7905   0.273E-02    0.262E-01
RMM:   7    -0.309502261958E+03   -0.13570E-03   -0.16515E-04  7498   0.307E-02    0.324E-01
RMM:   8    -0.309501994997E+03    0.26696E-03   -0.25039E-04  8096   0.315E-02    0.133E-01
RMM:   9    -0.309502314036E+03   -0.31904E-03   -0.75232E-05  6394   0.217E-02    0.312E-01
RMM:  10    -0.309502105378E+03    0.20866E-03   -0.53977E-05  6488   0.178E-02    0.259E-01
RMM:  11    -0.309502040894E+03    0.64483E-04   -0.81292E-06  4882   0.646E-03    0.168E-01
RMM:  12    -0.309502089038E+03   -0.48143E-04   -0.64870E-06  4873   0.634E-03    0.532E-02
RMM:  13    -0.309502197170E+03   -0.10813E-03   -0.10938E-05  4885   0.813E-03    0.106E-01
RMM:  14    -0.309502262888E+03   -0.65717E-04   -0.12425E-05  4803   0.908E-03    0.208E-01
RMM:  15    -0.309502231691E+03    0.31196E-04   -0.83719E-06  4639   0.749E-03    0.260E-01
RMM:  16    -0.309502227717E+03    0.39740E-05   -0.34742E-06  4456   0.486E-03
  25 F= -.30950223E+03 E0= -.30949818E+03  d E =-.147911E-02  mag=    15.9983
 curvature:  -1.77 expect dE=-0.126E-01 dE for cont linesearch -0.613E-04
 ZBRENT: interpolating
 opt :   1.0197  next Energy=  -309.502274 (dE=-0.153E-02)
 bond charge predicted
       N       E                     dE             d eps       ncg     rms          rms(c)
DAV:   1    -0.309501706756E+03    0.52494E-03   -0.39887E-02 10880   0.987E-01    0.372E-01
RMM:   2    -0.309512164676E+03   -0.10458E-01   -0.11879E-02 10192   0.245E-01    0.256E+00
RMM:   3    -0.309501944440E+03    0.10220E-01   -0.65086E-03  8848   0.162E-01    0.193E+00
RMM:   4    -0.309497645493E+03    0.42989E-02   -0.79125E-04  8780   0.528E-02    0.130E+00
RMM:   5    -0.309498423061E+03   -0.77757E-03   -0.44148E-04  8608   0.446E-02    0.511E-01
RMM:   6    -0.309501438058E+03   -0.30150E-02   -0.38789E-04  7573   0.472E-02    0.327E-01
RMM:   7    -0.309503045173E+03   -0.16071E-02   -0.45761E-04  7621   0.522E-02    0.685E-01
RMM:   8    -0.309502496672E+03    0.54850E-03   -0.20556E-04  7393   0.340E-02    0.760E-01
RMM:   9    -0.309502160272E+03    0.33640E-03   -0.36425E-05  5946   0.152E-02    0.793E-01
RMM:  10    -0.309502114765E+03    0.45507E-04   -0.64418E-06  4955   0.753E-03    0.847E-01
RMM:  11    -0.309501913794E+03    0.20097E-03   -0.57403E-06  4803   0.609E-03    0.839E-01
RMM:  12    -0.309501332760E+03    0.58103E-03   -0.44267E-05  6983   0.112E-02    0.600E-01
RMM:  13    -0.309501501033E+03   -0.16827E-03   -0.46726E-05  6678   0.156E-02    0.302E-01
RMM:  14    -0.309502065006E+03   -0.56397E-03   -0.66894E-05  6357   0.193E-02    0.260E-01
RMM:  15    -0.309502305781E+03   -0.24078E-03   -0.36524E-05  6414   0.128E-02    0.355E-01
RMM:  16    -0.309502054742E+03    0.25104E-03   -0.62048E-05  7432   0.153E-02    0.106E-01
RMM:  17    -0.309502378744E+03   -0.32400E-03   -0.58973E-05  7229   0.167E-02    0.257E-01
RMM:  18    -0.309502623634E+03   -0.24489E-03   -0.59390E-05  5895   0.191E-02    0.476E-01
RMM:  19    -0.309502459748E+03    0.16389E-03   -0.42594E-05  5710   0.165E-02    0.574E-01
RMM:  20    -0.309502305434E+03    0.15431E-03   -0.14912E-05  4943   0.970E-03    0.632E-01
RMM:  21    -0.309502257739E+03    0.47695E-04   -0.47986E-06  4556   0.584E-03    0.697E-01
RMM:  22    -0.309502083413E+03    0.17433E-03   -0.48705E-06  4646   0.549E-03    0.702E-01
RMM:  23    -0.309502055765E+03    0.27648E-04   -0.10552E-06  3873   0.266E-03    0.715E-01
RMM:  24    -0.309502013886E+03    0.41880E-04   -0.61428E-07  3598   0.220E-03    0.714E-01
RMM:  25    -0.309502065163E+03   -0.51277E-04   -0.58077E-07  3555   0.229E-03    0.742E-01
RMM:  26    -0.309502037136E+03    0.28026E-04   -0.38847E-07  3283   0.206E-03    0.757E-01
RMM:  27    -0.309501888469E+03    0.14867E-03   -0.19071E-06  4258   0.326E-03    0.715E-01
RMM:  28    -0.309501780299E+03    0.10817E-03   -0.31995E-06  4404   0.368E-03    0.626E-01
RMM:  29    -0.309501769448E+03    0.10852E-04   -0.60828E-06  4544   0.589E-03    0.498E-01
RMM:  30    -0.309501843548E+03   -0.74100E-04   -0.11248E-05  4819   0.803E-03    0.334E-01
RMM:  31    -0.309502007064E+03   -0.16352E-03   -0.17567E-05  5048   0.101E-02    0.144E-01
RMM:  32    -0.309502233424E+03   -0.22636E-03   -0.23943E-05  5318   0.118E-02    0.600E-02
RMM:  33    -0.309502409203E+03   -0.17578E-03   -0.24417E-05  5272   0.121E-02    0.222E-01
RMM:  34    -0.309502402148E+03    0.70548E-05   -0.18375E-05  5002   0.106E-02
  26 F= -.30950240E+03 E0= -.30949835E+03  d E =-.165355E-02  mag=    15.9985
 curvature:  -1.34 expect dE=-0.706E-02 dE for cont linesearch -0.642E-06
 trial: gam= 1.88059 g(F)=  0.526E-02 g(S)=  0.000E+00 ort =-0.624E-04 (trialstep = 0.140E+00)
 search vector abs. value=  0.337E-01
 bond charge predicted
       N       E                     dE             d eps       ncg     rms          rms(c)
DAV:   1    -0.309501519464E+03    0.88974E-03   -0.95043E-02 10696   0.162E+00    0.402E-01
RMM:   2    -0.309512985174E+03   -0.11466E-01   -0.18724E-02 10488   0.340E-01    0.259E+00
RMM:   3    -0.309502376857E+03    0.10608E-01   -0.69466E-03  8805   0.175E-01    0.193E+00
RMM:   4    -0.309497064487E+03    0.53124E-02   -0.11711E-03  8734   0.647E-02    0.102E+00
RMM:   5    -0.309499853667E+03   -0.27892E-02   -0.55218E-04  8417   0.554E-02    0.187E-01
RMM:   6    -0.309503032628E+03   -0.31790E-02   -0.45404E-04  7401   0.519E-02    0.528E-01
RMM:   7    -0.309503498415E+03   -0.46579E-03   -0.42922E-04  7700   0.506E-02    0.731E-01
RMM:   8    -0.309502751356E+03    0.74706E-03   -0.14614E-04  7411   0.279E-02    0.702E-01
RMM:   9    -0.309502515202E+03    0.23615E-03   -0.17056E-05  5402   0.993E-03    0.649E-01
RMM:  10    -0.309502401735E+03    0.11347E-03   -0.15204E-05  5322   0.760E-03    0.533E-01
RMM:  11    -0.309502234697E+03    0.16704E-03   -0.21433E-04  8284   0.266E-02    0.419E-02
RMM:  12    -0.309503457014E+03   -0.12223E-02   -0.14351E-04  7208   0.291E-02    0.563E-01
RMM:  13    -0.309503317733E+03    0.13928E-03   -0.21035E-04  7505   0.343E-02    0.711E-01
RMM:  14    -0.309502135161E+03    0.11826E-02   -0.26014E-04  8061   0.314E-02    0.354E-01
RMM:  15    -0.309502472342E+03   -0.33718E-03   -0.49393E-05  6539   0.160E-02    0.196E-02
RMM:  16    -0.309502944353E+03   -0.47201E-03   -0.56193E-05  5890   0.189E-02    0.231E-01
RMM:  17    -0.309502948242E+03   -0.38889E-05   -0.55727E-05  5986   0.178E-02
  27 F= -.30950295E+03 E0= -.30949890E+03  d E =-.546094E-03  mag=    15.9986
 trial-energy change:   -0.000546  1 .order   -0.000607   -0.000719   -0.000495
 step:   0.4484(harm=  0.4484)  dis= 0.00557  next Energy=  -309.503556 (dE=-0.115E-02)
 bond charge predicted
       N       E                     dE             d eps       ncg     rms          rms(c)
DAV:   1    -0.309496603486E+03    0.63409E-02   -0.46481E-01 10688   0.357E+00    0.515E-01
RMM:   2    -0.309511225004E+03   -0.14622E-01   -0.64401E-02 10607   0.670E-01    0.234E+00
RMM:   3    -0.309501285351E+03    0.99397E-02   -0.94357E-03  8928   0.218E-01    0.144E+00
RMM:   4    -0.309500192976E+03    0.10924E-02   -0.42651E-03  9148   0.125E-01    0.963E-01
RMM:   5    -0.309504407090E+03   -0.42141E-02   -0.35428E-03  8711   0.132E-01    0.946E-01
RMM:   6    -0.309502626187E+03    0.17809E-02   -0.54607E-04  8260   0.524E-02    0.695E-01
RMM:   7    -0.309502404223E+03    0.22196E-03   -0.14922E-04  8477   0.238E-02    0.339E-01
RMM:   8    -0.309502997649E+03   -0.59343E-03   -0.14760E-04  7707   0.276E-02    0.149E-01
RMM:   9    -0.309503678138E+03   -0.68049E-03   -0.13667E-04  6966   0.306E-02    0.464E-01
RMM:  10    -0.309503660257E+03    0.17881E-04   -0.89866E-05  6442   0.242E-02    0.636E-01
RMM:  11    -0.309503224181E+03    0.43608E-03   -0.57901E-05  6560   0.177E-02    0.638E-01
RMM:  12    -0.309502825598E+03    0.39858E-03   -0.30547E-05  6194   0.110E-02    0.493E-01
RMM:  13    -0.309502718622E+03    0.10698E-03   -0.42122E-05  6963   0.121E-02    0.179E-01
RMM:  14    -0.309503189416E+03   -0.47079E-03   -0.52614E-05  6151   0.179E-02    0.142E-01
RMM:  15    -0.309503421128E+03   -0.23171E-03   -0.65208E-05  6012   0.198E-02    0.268E-01
RMM:  16    -0.309503308224E+03    0.11290E-03   -0.30534E-05  5676   0.133E-02    0.267E-01
RMM:  17    -0.309503205688E+03    0.10254E-03   -0.14482E-05  5080   0.763E-03    0.160E-01
RMM:  18    -0.309503255831E+03   -0.50143E-04   -0.65216E-06  4537   0.594E-03    0.456E-02
RMM:  19    -0.309503340694E+03   -0.84863E-04   -0.77483E-06  4538   0.710E-03    0.722E-02
RMM:  20    -0.309503371160E+03   -0.30466E-04   -0.82144E-06  4535   0.751E-03    0.116E-01
RMM:  21    -0.309503366343E+03    0.48177E-05   -0.29861E-06  4404   0.468E-03
  28 F= -.30950337E+03 E0= -.30949916E+03  d E =-.964194E-03  mag=    15.9986
 curvature:  -1.47 expect dE=-0.296E-02 dE for cont linesearch -0.166E-05
 trial: gam= 0.47114 g(F)=  0.201E-02 g(S)=  0.000E+00 ort =-0.195E-03 (trialstep = 0.201E+00)
 search vector abs. value=  0.932E-02
 bond charge predicted
       N       E                     dE             d eps       ncg     rms          rms(c)
DAV:   1    -0.309502777798E+03    0.59336E-03   -0.52942E-02 11488   0.129E+00    0.232E-01
RMM:   2    -0.309506031982E+03   -0.32542E-02   -0.94428E-03 10469   0.246E-01    0.129E+00
RMM:   3    -0.309503042857E+03    0.29891E-02   -0.20614E-03  8682   0.981E-02    0.814E-01
RMM:   4    -0.309502291023E+03    0.75183E-03   -0.61193E-04  8322   0.483E-02    0.120E-01
RMM:   5    -0.309503873248E+03   -0.15822E-02   -0.35712E-04  7696   0.467E-02    0.319E-01
RMM:   6    -0.309503847302E+03    0.25947E-04   -0.10750E-04  6862   0.263E-02    0.391E-01
RMM:   7    -0.309503619755E+03    0.22755E-03   -0.38490E-05  6226   0.144E-02    0.353E-01
RMM:   8    -0.309503423897E+03    0.19586E-03   -0.41834E-05  6905   0.116E-02    0.116E-01
RMM:   9    -0.309503771709E+03   -0.34781E-03   -0.71028E-05  7414   0.179E-02    0.285E-01
RMM:  10    -0.309504077214E+03   -0.30550E-03   -0.74455E-05  6080   0.215E-02    0.530E-01
RMM:  11    -0.309503729962E+03    0.34725E-03   -0.66290E-05  6445   0.197E-02    0.552E-01
RMM:  12    -0.309503251803E+03    0.47816E-03   -0.70905E-05  7494   0.153E-02    0.317E-01
RMM:  13    -0.309503438996E+03   -0.18719E-03   -0.22027E-05  5214   0.115E-02    0.927E-02
RMM:  14    -0.309503680665E+03   -0.24167E-03   -0.25679E-05  5264   0.128E-02    0.796E-02
RMM:  15    -0.309503780082E+03   -0.99418E-04   -0.19795E-05  5059   0.114E-02    0.183E-01
RMM:  16    -0.309503737693E+03    0.42390E-04   -0.12309E-05  4879   0.881E-03    0.210E-01
RMM:  17    -0.309503688568E+03    0.49125E-04   -0.41253E-06  4532   0.462E-03    0.200E-01
RMM:  18    -0.309503664221E+03    0.24347E-04   -0.16694E-06  3998   0.273E-03    0.162E-01
RMM:  19    -0.309503657683E+03    0.65382E-05   -0.33844E-06  4409   0.387E-03
  29 F= -.30950366E+03 E0= -.30949940E+03  d E =-.291340E-03  mag=    15.9987
 ZBRENT: can't locate minimum, use default step
 trial-energy change:   -0.000291  1 .order   -0.000360   -0.000387   -0.000333
 step:   0.8055(harm=  1.4398)  dis= 0.00539  next Energy=  -309.504750 (dE=-0.138E-02)
 bond charge predicted
       N       E                     dE             d eps       ncg     rms          rms(c)
DAV:   1    -0.309496140089E+03    0.75241E-02   -0.47646E-01 11082   0.387E+00    0.468E-01
RMM:   2    -0.309504628298E+03   -0.84882E-02   -0.72387E-02 10560   0.688E-01    0.731E-01
RMM:   3    -0.309504642557E+03   -0.14259E-04   -0.64084E-03  9028   0.170E-01    0.714E-01
RMM:   4    -0.309504618967E+03    0.23591E-04   -0.12510E-03  8889   0.807E-02    0.524E-01
RMM:   5    -0.309503954268E+03    0.66470E-03   -0.24613E-04  8390   0.323E-02    0.177E-01
RMM:   6    -0.309504297722E+03   -0.34345E-03   -0.62853E-05  6611   0.203E-02    0.955E-02
RMM:   7    -0.309504396997E+03   -0.99275E-04   -0.11276E-04  7400   0.252E-02    0.707E-02
RMM:   8    -0.309504470435E+03   -0.73438E-04   -0.92728E-05  7637   0.195E-02    0.227E-01
RMM:   9    -0.309504472313E+03   -0.18777E-05   -0.42844E-05  6099   0.167E-02
  30 F= -.30950447E+03 E0= -.30950008E+03  d E =-.110597E-02  mag=    15.9988
 curvature:  -2.57 expect dE=-0.390E-02 dE for cont linesearch -0.337E-03
 ZBRENT: increasing intervall
 opt :   2.0138  next Energy=  -309.505142 (dE=-0.178E-02)
 bond charge predicted
       N       E                     dE             d eps       ncg     rms          rms(c)
DAV:   1    -0.309471281061E+03    0.33189E-01   -0.19038E+00 11020   0.773E+00    0.100E+00
RMM:   2    -0.309514425791E+03   -0.43145E-01   -0.29601E-01 10721   0.140E+00    0.293E+00
RMM:   3    -0.309496518534E+03    0.17907E-01   -0.30572E-02  9123   0.378E-01    0.531E-01
RMM:   4    -0.309507824533E+03   -0.11306E-01   -0.43603E-03  8894   0.155E-01    0.154E+00
RMM:   5    -0.309505369532E+03    0.24550E-02   -0.34655E-03  8725   0.136E-01    0.137E+00
RMM:   6    -0.309502356712E+03    0.30128E-02   -0.58103E-04  8555   0.514E-02    0.960E-01
RMM:   7    -0.309502009948E+03    0.34676E-03   -0.34439E-04  8616   0.378E-02    0.214E-01
RMM:   8    -0.309503998384E+03   -0.19884E-02   -0.43447E-04  8033   0.526E-02    0.341E-01
RMM:   9    -0.309504167347E+03   -0.16896E-03   -0.40777E-04  8121   0.487E-02    0.252E-01
RMM:  10    -0.309504163247E+03    0.41008E-05   -0.41809E-05  6616   0.149E-02
  31 F= -.30950416E+03 E0= -.30949973E+03  d E =-.796904E-03  mag=    15.9989
 curvature:  -5.12 expect dE=-0.122E-01 dE for cont linesearch -0.271E-03
 ZBRENT: bracketing found
 ZBRENT: interpolating
 opt :   1.5441  next Energy=  -309.504328 (dE=-0.962E-03)
 bond charge predicted
       N       E                     dE             d eps       ncg     rms          rms(c)
DAV:   1    -0.309499346912E+03    0.48204E-02   -0.28784E-01 11352   0.301E+00    0.372E-01
RMM:   2    -0.309505217635E+03   -0.58707E-02   -0.44382E-02 10507   0.538E-01    0.847E-01
RMM:   3    -0.309503822773E+03    0.13949E-02   -0.40698E-03  8965   0.139E-01    0.209E-01
RMM:   4    -0.309504976185E+03   -0.11534E-02   -0.50198E-04  8668   0.545E-02    0.475E-01
RMM:   5    -0.309504376400E+03    0.59979E-03   -0.32375E-04  7983   0.402E-02    0.234E-01
RMM:   6    -0.309504460160E+03   -0.83761E-04   -0.60585E-05  7154   0.172E-02    0.705E-02
RMM:   7    -0.309504675450E+03   -0.21529E-03   -0.43694E-05  5947   0.173E-02    0.166E-01
RMM:   8    -0.309504632763E+03    0.42687E-04   -0.83304E-05  7440   0.192E-02    0.280E-02
RMM:   9    -0.309504803487E+03   -0.17072E-03   -0.22730E-05  5513   0.117E-02    0.232E-01
RMM:  10    -0.309504714018E+03    0.89469E-04   -0.34393E-05  5876   0.149E-02    0.223E-01
RMM:  11    -0.309504658889E+03    0.55129E-04   -0.48566E-06  4834   0.550E-03    0.184E-01
RMM:  12    -0.309504656772E+03    0.21174E-05   -0.23789E-06  4625   0.365E-03
  32 F= -.30950466E+03 E0= -.30950028E+03  d E =-.129043E-02  mag=    15.9989
 curvature:  -3.12 expect dE=-0.463E-02 dE for cont linesearch -0.357E-05
 trial: gam= 0.56590 g(F)=  0.149E-02 g(S)=  0.000E+00 ort =-0.103E-03 (trialstep = 0.470E+00)
 search vector abs. value=  0.435E-02
 bond charge predicted
       N       E                     dE             d eps       ncg     rms          rms(c)
DAV:   1    -0.309502730335E+03    0.19286E-02   -0.15245E-01 11484   0.218E+00    0.260E-01
RMM:   2    -0.309505401521E+03   -0.26712E-02   -0.22569E-02 10464   0.393E-01    0.445E-01
RMM:   3    -0.309505268085E+03    0.13344E-03   -0.19502E-03  8981   0.987E-02    0.346E-01
RMM:   4    -0.309505375078E+03   -0.10699E-03   -0.33611E-04  8515   0.440E-02    0.265E-01
RMM:   5    -0.309505195714E+03    0.17936E-03   -0.72152E-05  7281   0.187E-02    0.794E-02
RMM:   6    -0.309505302779E+03   -0.10707E-03   -0.17686E-05  5295   0.114E-02    0.587E-02
RMM:   7    -0.309505331906E+03   -0.29127E-04   -0.30265E-05  5836   0.141E-02    0.401E-02
RMM:   8    -0.309505347971E+03   -0.16065E-04   -0.17093E-05  5259   0.928E-03    0.923E-02
RMM:   9    -0.309505353244E+03   -0.52729E-05   -0.86917E-06  4896   0.828E-03
  33 F= -.30950535E+03 E0= -.30950083E+03  d E =-.696472E-03  mag=    15.9990
 trial-energy change:   -0.000696  1 .order   -0.000563   -0.000671   -0.000455
 step:   1.4617(harm=  1.4617)  dis= 0.00679  next Energy=  -309.505700 (dE=-0.104E-02)
 reached required accuracy - stopping structural energy minimisation
