unknown system                          
           1
     2.873573   -2.873573    4.708335
     5.747147    0.000000    0.000000
     0.000000   33.065691   20.180529
   Mn   O    H 
  15  23   7
Direct configuration=     1
   0.22067121  0.89240241  0.08901558
   0.67280079  0.17256645  0.21785752
   0.94927612  0.02809995  0.15233499
   0.39378359  0.31503007  0.28301493
   0.44927612  0.52809995  0.15233499
   0.89330666  0.31967140  0.28412766
   0.44927612  0.02809995  0.15233499
   0.89735412  0.81602148  0.28405257
   0.90282244  0.55132680  0.10484543
   0.34546142  0.83925902  0.23298508
   0.99030325  0.51034187  0.20269168
   0.43155189  0.80549045  0.33482432
   0.53851998  0.23347802  0.07318573
   0.11678524  0.44425102  0.35136773
   0.78479027  0.09367272  0.36442427
   0.78361910  0.62644734  0.31495447
   0.87926422  0.06310591  0.05527763
   0.33504461  0.33541657  0.18243541
   0.58246139  0.21150732  0.12452493
   0.02762068  0.50059422  0.25568835
   0.85968097  0.38569618  0.38276035
   0.09516526  0.72856013  0.12156099
   0.54366033  0.46594243  0.25098976
   0.75966195  0.13516209  0.31197103
   0.85888103  0.57329750  0.05350623
   0.28820553  0.85896436  0.17919350
   0.56207820  0.72169891  0.12275353
   0.00128467  0.01567268  0.25318179
   0.79393391  0.33527458  0.18330875
   0.25943575  0.60855853  0.31545604
   0.34617716  0.60305419  0.05647018
   0.23698623  0.16189830  0.31274082
   0.79308973  0.88311490  0.18381981
   0.34617716  0.05624469  0.05647018
   0.54533944  0.01247886  0.25141048
   0.09516526  0.18175063  0.12156099
   0.46413524  0.06665168  0.37544292
   0.09888759  0.75914355  0.38162281
   0.34047062  0.60391201  0.02782883
   0.92434681  0.68523651  0.03696881
   0.34363348  0.06399961  0.02783421
   0.88838126  0.05560908  0.02665597
   0.87437751  0.40337821  0.40743368
   0.44426766  0.01137642  0.39838946
   0.12090333  0.73680503  0.40642632
Direct configuration=     2
   0.22067121  0.89240241  0.08901558
   0.67285465  0.17227628  0.21710270
   0.94927612  0.02809995  0.15233499
   0.39697885  0.31316254  0.28216488
   0.44927612  0.52809995  0.15233499
   0.89152321  0.31926850  0.28374029
   0.44927612  0.02809995  0.15233499
   0.89697380  0.81847182  0.28338923
   0.90282244  0.55132680  0.10484543
   0.34478674  0.83972332  0.23241658
   0.99059676  0.51048805  0.20230098
   0.43335998  0.80755151  0.33512774
   0.53851998  0.23347802  0.07318573
   0.11904007  0.44001975  0.35100957
   0.78753101  0.09355139  0.36382223
   0.78160810  0.62795517  0.31596807
   0.87926422  0.06310591  0.05527763
   0.33538658  0.33404308  0.18265964
   0.58246139  0.21150732  0.12452493
   0.02910909  0.50155694  0.25605325
   0.86272682  0.38692687  0.38214576
   0.09516526  0.72856013  0.12156099
   0.54284075  0.46415358  0.25162884
   0.75645071  0.13721607  0.31213937
   0.85888103  0.57329750  0.05350623
   0.29578119  0.85610135  0.17986129
   0.56207820  0.72169891  0.12275353
   0.00127432  0.01305208  0.25347170
   0.79401735  0.33422050  0.18368187
   0.26081072  0.61006908  0.31643289
   0.34617716  0.60305419  0.05647018
   0.23614667  0.16447135  0.31371558
   0.79255879  0.88336170  0.18422487
   0.34617716  0.05624469  0.05647018
   0.54432239  0.01402414  0.25201618
   0.09516526  0.18175063  0.12156099
   0.45931029  0.06580916  0.37459494
   0.09940469  0.75429333  0.38177086
   0.34047062  0.60391201  0.02782883
   0.92434681  0.68523651  0.03696881
   0.34363348  0.06399961  0.02783421
   0.88838126  0.05560908  0.02665597
   0.87548526  0.40254475  0.40726001
   0.44425470  0.01109302  0.39843623
   0.12135816  0.73590016  0.40631531
Direct configuration=     3
   0.22067121  0.89240241  0.08901558
   0.67283610  0.17237620  0.21736262
   0.94927612  0.02809995  0.15233499
   0.39587856  0.31380562  0.28245759
   0.44927612  0.52809995  0.15233499
   0.89213734  0.31940724  0.28387368
   0.44927612  0.02809995  0.15233499
   0.89710476  0.81762805  0.28361765
   0.90282244  0.55132680  0.10484543
   0.34501906  0.83956344  0.23261234
   0.99049569  0.51043771  0.20243551
   0.43273736  0.80684179  0.33502326
   0.53851998  0.23347802  0.07318573
   0.11826362  0.44147679  0.35113290
   0.78658723  0.09359317  0.36402954
   0.78230059  0.62743595  0.31561904
   0.87926422  0.06310591  0.05527763
   0.33526882  0.33451604  0.18258243
   0.58246139  0.21150732  0.12452493
   0.02859655  0.50122543  0.25592760
   0.86167798  0.38650308  0.38235739
   0.09516526  0.72856013  0.12156099
   0.54312297  0.46476957  0.25140877
   0.75755650  0.13650878  0.31208140
   0.85888103  0.57329750  0.05350623
   0.29317252  0.85708723  0.17963134
   0.56207820  0.72169891  0.12275353
   0.00127788  0.01395449  0.25337187
   0.79398861  0.33458347  0.18355339
   0.26033725  0.60954892  0.31609651
   0.34617716  0.60305419  0.05647018
   0.23643577  0.16358532  0.31337992
   0.79274162  0.88327672  0.18408538
   0.34617716  0.05624469  0.05647018
   0.54467261  0.01349203  0.25180761
   0.09516526  0.18175063  0.12156099
   0.46097176  0.06609928  0.37488694
   0.09922663  0.75596350  0.38171988
   0.34047062  0.60391201  0.02782883
   0.92434681  0.68523651  0.03696881
   0.34363348  0.06399961  0.02783421
   0.88838126  0.05560908  0.02665597
   0.87510380  0.40283175  0.40731981
   0.44425916  0.01119061  0.39842013
   0.12120154  0.73621175  0.40635353
Direct configuration=     4
   0.22067121  0.89240241  0.08901558
   0.67282541  0.17243382  0.21751251
   0.94927612  0.02809995  0.15233499
   0.39524406  0.31417647  0.28262639
   0.44927612  0.52809995  0.15233499
   0.89249149  0.31948725  0.28395060
   0.44927612  0.02809995  0.15233499
   0.89718028  0.81714147  0.28374938
   0.90282244  0.55132680  0.10484543
   0.34515304  0.83947124  0.23272523
   0.99043741  0.51040868  0.20251310
   0.43237832  0.80643251  0.33496301
   0.53851998  0.23347802  0.07318573
   0.11781586  0.44231701  0.35120403
   0.78604299  0.09361726  0.36414909
   0.78269992  0.62713653  0.31541776
   0.87926422  0.06310591  0.05527763
   0.33520091  0.33478878  0.18253790
   0.58246139  0.21150732  0.12452493
   0.02830099  0.50103425  0.25585514
   0.86107315  0.38625870  0.38247944
   0.09516526  0.72856013  0.12156099
   0.54328572  0.46512479  0.25128187
   0.75819418  0.13610091  0.31204797
   0.85888103  0.57329750  0.05350623
   0.29166818  0.85765575  0.17949873
   0.56207820  0.72169891  0.12275353
   0.00127994  0.01447487  0.25331430
   0.79397205  0.33479279  0.18347930
   0.26006422  0.60924897  0.31590253
   0.34617716  0.60305419  0.05647018
   0.23660249  0.16307438  0.31318636
   0.79284705  0.88322771  0.18400495
   0.34617716  0.05624469  0.05647018
   0.54487457  0.01318517  0.25168733
   0.09516526  0.18175063  0.12156099
   0.46192987  0.06626658  0.37505533
   0.09912394  0.75692663  0.38169048
   0.34047062  0.60391201  0.02782883
   0.92434681  0.68523651  0.03696881
   0.34363348  0.06399961  0.02783421
   0.88838126  0.05560908  0.02665597
   0.87488383  0.40299726  0.40735430
   0.44426174  0.01124689  0.39841084
   0.12111122  0.73639144  0.40637558
Direct configuration=     5
   0.22067121  0.89240241  0.08901558
   0.67281129  0.17250990  0.21771040
   0.94927612  0.02809995  0.15233499
   0.39440636  0.31466608  0.28284925
   0.44927612  0.52809995  0.15233499
   0.89295906  0.31959287  0.28405216
   0.44927612  0.02809995  0.15233499
   0.89727999  0.81649906  0.28392329
   0.90282244  0.55132680  0.10484543
   0.34532992  0.83934951  0.23287427
   0.99036046  0.51037036  0.20261553
   0.43190430  0.80589216  0.33488346
   0.53851998  0.23347802  0.07318573
   0.11722472  0.44342632  0.35129793
   0.78532445  0.09364907  0.36430693
   0.78322715  0.62674123  0.31515202
   0.87926422  0.06310591  0.05527763
   0.33511126  0.33514887  0.18247911
   0.58246139  0.21150732  0.12452493
   0.02791078  0.50078186  0.25575947
   0.86027463  0.38593605  0.38264056
   0.09516526  0.72856013  0.12156099
   0.54350059  0.46559377  0.25111432
   0.75903607  0.13556242  0.31200384
   0.85888103  0.57329750  0.05350623
   0.28968207  0.85840635  0.17932366
   0.56207820  0.72169891  0.12275353
   0.00128265  0.01516191  0.25323830
   0.79395017  0.33506913  0.18338147
   0.25970374  0.60885295  0.31564643
   0.34617716  0.60305419  0.05647018
   0.23682260  0.16239980  0.31293080
   0.79298625  0.88316301  0.18389876
   0.34617716  0.05624469  0.05647018
   0.54514121  0.01278004  0.25152853
   0.09516526  0.18175063  0.12156099
   0.46319483  0.06648747  0.37527765
   0.09898837  0.75819822  0.38165166
   0.34047062  0.60391201  0.02782883
   0.92434681  0.68523651  0.03696881
   0.34363348  0.06399961  0.02783421
   0.88838126  0.05560908  0.02665597
   0.87459341  0.40321577  0.40739983
   0.44426514  0.01132119  0.39839858
   0.12099198  0.73662867  0.40640468
Direct configuration=     6
   0.22067121  0.89240241  0.08901558
   0.67156395  0.17280461  0.21786502
   0.94927612  0.02809995  0.15233499
   0.39392191  0.31523338  0.28289762
   0.44927612  0.52809995  0.15233499
   0.89232431  0.32060220  0.28410600
   0.44927612  0.02809995  0.15233499
   0.89674256  0.81690698  0.28391982
   0.90282244  0.55132680  0.10484543
   0.34541333  0.83943865  0.23278874
   0.99070116  0.51049876  0.20267020
   0.43377235  0.80530063  0.33513355
   0.53851998  0.23347802  0.07318573
   0.11915604  0.44330902  0.35085032
   0.78545521  0.09314130  0.36411365
   0.78404791  0.62778727  0.31530070
   0.87926422  0.06310591  0.05527763
   0.33564150  0.33386491  0.18240697
   0.58246139  0.21150732  0.12452493
   0.02845309  0.50129147  0.25572758
   0.86173675  0.38603524  0.38258328
   0.09516526  0.72856013  0.12156099
   0.54379410  0.46389161  0.25119624
   0.75827618  0.13506757  0.31202324
   0.85888103  0.57329750  0.05350623
   0.29730202  0.85534602  0.17968415
   0.56207820  0.72169891  0.12275353
   0.00117011  0.01361269  0.25322602
   0.79481909  0.33349049  0.18333573
   0.25873146  0.60681771  0.31578408
   0.34617716  0.60305419  0.05647018
   0.23515652  0.16535208  0.31299340
   0.79333105  0.88300941  0.18387128
   0.34617716  0.05624469  0.05647018
   0.54507950  0.01324596  0.25155729
   0.09516526  0.18175063  0.12156099
   0.46246325  0.06663168  0.37535800
   0.09837033  0.75692666  0.38152459
   0.34047062  0.60391201  0.02782883
   0.92434681  0.68523651  0.03696881
   0.34363348  0.06399961  0.02783421
   0.88838126  0.05560908  0.02665597
   0.87498271  0.40290897  0.40723711
   0.44450810  0.01167875  0.39825783
   0.12116779  0.73596188  0.40651313
Direct configuration=     7
   0.22067121  0.89240241  0.08901558
   0.67118876  0.17289325  0.21791152
   0.94927612  0.02809995  0.15233499
   0.39377619  0.31540402  0.28291217
   0.44927612  0.52809995  0.15233499
   0.89213338  0.32090579  0.28412220
   0.44927612  0.02809995  0.15233499
   0.89658091  0.81702968  0.28391878
   0.90282244  0.55132680  0.10484543
   0.34543842  0.83946546  0.23276302
   0.99080364  0.51053738  0.20268665
   0.43433425  0.80512270  0.33520877
   0.53851998  0.23347802  0.07318573
   0.11973697  0.44327373  0.35071569
   0.78549454  0.09298857  0.36405552
   0.78429478  0.62810191  0.31534542
   0.87926422  0.06310591  0.05527763
   0.33580099  0.33347871  0.18238526
   0.58246139  0.21150732  0.12452493
   0.02861621  0.50144475  0.25571798
   0.86217654  0.38606507  0.38256605
   0.09516526  0.72856013  0.12156099
   0.54388239  0.46337962  0.25122089
   0.75804761  0.13491873  0.31202908
   0.85888103  0.57329750  0.05350623
   0.29959403  0.85442550  0.17979258
   0.56207820  0.72169891  0.12275353
   0.00113625  0.01314669  0.25322233
   0.79508046  0.33301565  0.18332197
   0.25843901  0.60620553  0.31582548
   0.34617716  0.60305419  0.05647018
   0.23465538  0.16624010  0.31301223
   0.79343476  0.88296321  0.18386301
   0.34617716  0.05624469  0.05647018
   0.54506094  0.01338610  0.25156594
   0.09516526  0.18175063  0.12156099
   0.46224320  0.06667506  0.37538217
   0.09818443  0.75654418  0.38148637
   0.34047062  0.60391201  0.02782883
   0.92434681  0.68523651  0.03696881
   0.34363348  0.06399961  0.02783421
   0.88838126  0.05560908  0.02665597
   0.87509981  0.40281669  0.40718817
   0.44458118  0.01178630  0.39821549
   0.12122067  0.73576131  0.40654575
Direct configuration=     8
   0.22067121  0.89240241  0.08901558
   0.67039021  0.17260243  0.21798005
   0.94927612  0.02809995  0.15233499
   0.39242732  0.31592117  0.28311146
   0.44927612  0.52809995  0.15233499
   0.89177500  0.32161899  0.28419592
   0.44927612  0.02809995  0.15233499
   0.89605271  0.81709652  0.28400033
   0.90282244  0.55132680  0.10484543
   0.34600441  0.83913768  0.23287346
   0.99111769  0.51053393  0.20274206
   0.43534345  0.80443844  0.33541764
   0.53851998  0.23347802  0.07318573
   0.12097319  0.44409864  0.35049149
   0.78537220  0.09249538  0.36403150
   0.78544725  0.62916786  0.31532060
   0.87926422  0.06310591  0.05527763
   0.33597758  0.33268191  0.18234067
   0.58246139  0.21150732  0.12452493
   0.02873699  0.50168191  0.25567545
   0.86344173  0.38512987  0.38218207
   0.09516526  0.72856013  0.12156099
   0.54415408  0.46281584  0.25127883
   0.75763535  0.13454416  0.31193829
   0.85888103  0.57329750  0.05350623
   0.30747982  0.85095242  0.18009104
   0.56207820  0.72169891  0.12275353
   0.00103193  0.01229407  0.25322368
   0.79655740  0.33101824  0.18331177
   0.25814118  0.60512597  0.31579452
   0.34617716  0.60305419  0.05647018
   0.23353991  0.16700126  0.31284994
   0.79439759  0.88266953  0.18382380
   0.34617716  0.05624469  0.05647018
   0.54466950  0.01333920  0.25159082
   0.09516526  0.18175063  0.12156099
   0.46303227  0.06829834  0.37506245
   0.09773412  0.75552115  0.38183713
   0.34047062  0.60391201  0.02782883
   0.92434681  0.68523651  0.03696881
   0.34363348  0.06399961  0.02783421
   0.88838126  0.05560908  0.02665597
   0.87578885  0.40275922  0.40728946
   0.44443785  0.01109612  0.39858399
   0.12081678  0.73529482  0.40614545
Direct configuration=     9
   0.22067121  0.89240241  0.08901558
   0.67082573  0.17276104  0.21794268
   0.94927612  0.02809995  0.15233499
   0.39316298  0.31563912  0.28300277
   0.44927612  0.52809995  0.15233499
   0.89197046  0.32123002  0.28415571
   0.44927612  0.02809995  0.15233499
   0.89634078  0.81706007  0.28395586
   0.90282244  0.55132680  0.10484543
   0.34569572  0.83931645  0.23281323
   0.99094641  0.51053581  0.20271184
   0.43479304  0.80481163  0.33530372
   0.53851998  0.23347802  0.07318573
   0.12029896  0.44364874  0.35061376
   0.78543893  0.09276436  0.36404460
   0.78481870  0.62858650  0.31533413
   0.87926422  0.06310591  0.05527763
   0.33588127  0.33311648  0.18236499
   0.58246139  0.21150732  0.12452493
   0.02867112  0.50155256  0.25569865
   0.86275171  0.38563992  0.38239149
   0.09516526  0.72856013  0.12156099
   0.54400590  0.46312332  0.25124723
   0.75786019  0.13474845  0.31198780
   0.85888103  0.57329750  0.05350623
   0.30317897  0.85284661  0.17992826
   0.56207820  0.72169891  0.12275353
   0.00108883  0.01275908  0.25322294
   0.79575189  0.33210761  0.18331733
   0.25830362  0.60571476  0.31581141
   0.34617716  0.60305419  0.05647018
   0.23414828  0.16658613  0.31293845
   0.79387247  0.88282970  0.18384519
   0.34617716  0.05624469  0.05647018
   0.54488299  0.01336478  0.25157725
   0.09516526  0.18175063  0.12156099
   0.46260192  0.06741302  0.37523682
   0.09797971  0.75607910  0.38164583
   0.34047062  0.60391201  0.02782883
   0.92434681  0.68523651  0.03696881
   0.34363348  0.06399961  0.02783421
   0.88838126  0.05560908  0.02665597
   0.87541305  0.40279057  0.40723422
   0.44451602  0.01147254  0.39838301
   0.12103706  0.73554924  0.40636377
Direct configuration=    10
   0.22067121  0.89240241  0.08901558
   0.67073425  0.17220359  0.21791408
   0.94927612  0.02809995  0.15233499
   0.39227069  0.31558363  0.28311042
   0.44927612  0.52809995  0.15233499
   0.89191217  0.32125202  0.28416036
   0.44927612  0.02809995  0.15233499
   0.89608595  0.81708458  0.28398895
   0.90282244  0.55132680  0.10484543
   0.34630956  0.83880632  0.23302929
   0.99109618  0.51040297  0.20273629
   0.43488158  0.80435967  0.33538850
   0.53851998  0.23347802  0.07318573
   0.12062668  0.44479175  0.35062265
   0.78545367  0.09235814  0.36411824
   0.78547661  0.62925356  0.31525266
   0.87926422  0.06310591  0.05527763
   0.33572048  0.33304794  0.18236869
   0.58246139  0.21150732  0.12452493
   0.02841889  0.50152674  0.25568855
   0.86371412  0.38467985  0.38229638
   0.09516526  0.72856013  0.12156099
   0.54409483  0.46342412  0.25129811
   0.75774215  0.13477795  0.31189624
   0.85888103  0.57329750  0.05350623
   0.30797647  0.85047402  0.18006618
   0.56207820  0.72169891  0.12275353
   0.00099531  0.01273871  0.25325127
   0.79710807  0.33061412  0.18335231
   0.25856122  0.60597624  0.31574619
   0.34617716  0.60305419  0.05647018
   0.23372217  0.16550840  0.31275784
   0.79494839  0.88248909  0.18382137
   0.34617716  0.05624469  0.05647018
   0.54435582  0.01314073  0.25162313
   0.09516526  0.18175063  0.12156099
   0.46344977  0.06790688  0.37537956
   0.09719940  0.75602092  0.38156971
   0.34047062  0.60391201  0.02782883
   0.92434681  0.68523651  0.03696881
   0.34363348  0.06399961  0.02783421
   0.88838126  0.05560908  0.02665597
   0.87591201  0.40263984  0.40708845
   0.44463933  0.01180837  0.39835881
   0.12095427  0.73480269  0.40635582
Direct configuration=    11
   0.22067121  0.89240241  0.08901558
   0.67068309  0.17189181  0.21789809
   0.94927612  0.02809995  0.15233499
   0.39177165  0.31555259  0.28317062
   0.44927612  0.52809995  0.15233499
   0.89187956  0.32126433  0.28416296
   0.44927612  0.02809995  0.15233499
   0.89594342  0.81709829  0.28400746
   0.90282244  0.55132680  0.10484543
   0.34665286  0.83852101  0.23315013
   0.99117994  0.51032868  0.20274996
   0.43493110  0.80410690  0.33543592
   0.53851998  0.23347802  0.07318573
   0.12080997  0.44543102  0.35062763
   0.78546191  0.09213095  0.36415943
   0.78584456  0.62962664  0.31520709
   0.87926422  0.06310591  0.05527763
   0.33563056  0.33300960  0.18237077
   0.58246139  0.21150732  0.12452493
   0.02827782  0.50151230  0.25568290
   0.86425238  0.38414290  0.38224318
   0.09516526  0.72856013  0.12156099
   0.54414457  0.46359236  0.25132657
   0.75767613  0.13479445  0.31184503
   0.85888103  0.57329750  0.05350623
   0.31065962  0.84914707  0.18014331
   0.56207820  0.72169891  0.12275353
   0.00094301  0.01272731  0.25326711
   0.79786656  0.32977884  0.18337186
   0.25870530  0.60612248  0.31570972
   0.34617716  0.60305419  0.05647018
   0.23348385  0.16490565  0.31265683
   0.79555013  0.88229860  0.18380805
   0.34617716  0.05624469  0.05647018
   0.54406099  0.01301542  0.25164879
   0.09516526  0.18175063  0.12156099
   0.46392395  0.06818309  0.37545940
   0.09676298  0.75598838  0.38152714
   0.34047062  0.60391201  0.02782883
   0.92434681  0.68523651  0.03696881
   0.34363348  0.06399961  0.02783421
   0.88838126  0.05560908  0.02665597
   0.87619106  0.40255555  0.40700692
   0.44470830  0.01199619  0.39834527
   0.12090797  0.73438516  0.40635137
Direct configuration=    12
   0.22067121  0.89240241  0.08901558
   0.67077865  0.17167531  0.21794035
   0.94927612  0.02809995  0.15233499
   0.39199335  0.31497188  0.28305187
   0.44927612  0.52809995  0.15233499
   0.89186637  0.32090283  0.28407658
   0.44927612  0.02809995  0.15233499
   0.89608048  0.81754699  0.28387685
   0.90282244  0.55132680  0.10484543
   0.34687864  0.83798716  0.23341800
   0.99125047  0.51002997  0.20277671
   0.43478958  0.80405082  0.33540384
   0.53851998  0.23347802  0.07318573
   0.12053621  0.44538592  0.35064922
   0.78549661  0.09206877  0.36415882
   0.78571920  0.62993148  0.31524029
   0.87926422  0.06310591  0.05527763
   0.33551695  0.33326546  0.18238911
   0.58246139  0.21150732  0.12452493
   0.02786379  0.50143859  0.25570107
   0.86516538  0.38307036  0.38218439
   0.09516526  0.72856013  0.12156099
   0.54421900  0.46307674  0.25140775
   0.75740575  0.13521753  0.31190508
   0.85888103  0.57329750  0.05350623
   0.31331594  0.84759980  0.18024263
   0.56207820  0.72169891  0.12275353
   0.00077713  0.01293626  0.25329397
   0.79918007  0.32859002  0.18342420
   0.25939466  0.60717809  0.31564605
   0.34617716  0.60305419  0.05647018
   0.23359923  0.16304464  0.31260876
   0.79680125  0.88170603  0.18378297
   0.34617716  0.05624469  0.05647018
   0.54370745  0.01326611  0.25171963
   0.09516526  0.18175063  0.12156099
   0.46477817  0.06882943  0.37550877
   0.09632687  0.75637441  0.38161344
   0.34047062  0.60391201  0.02782883
   0.92434681  0.68523651  0.03696881
   0.34363348  0.06399961  0.02783421
   0.88838126  0.05560908  0.02665597
   0.87669671  0.40244127  0.40683250
   0.44473308  0.01222407  0.39844257
   0.12069845  0.73366894  0.40625487
Direct configuration=    13
   0.22067121  0.89240241  0.08901558
   0.67076570  0.17170465  0.21793462
   0.94927612  0.02809995  0.15233499
   0.39196331  0.31505058  0.28306796
   0.44927612  0.52809995  0.15233499
   0.89186815  0.32095182  0.28408829
   0.44927612  0.02809995  0.15233499
   0.89606190  0.81748618  0.28389455
   0.90282244  0.55132680  0.10484543
   0.34684804  0.83805951  0.23338170
   0.99124092  0.51007045  0.20277308
   0.43480876  0.80405842  0.33540819
   0.53851998  0.23347802  0.07318573
   0.12057331  0.44539204  0.35064630
   0.78549191  0.09207719  0.36415890
   0.78573619  0.62989017  0.31523579
   0.87926422  0.06310591  0.05527763
   0.33553235  0.33323078  0.18238662
   0.58246139  0.21150732  0.12452493
   0.02791990  0.50144858  0.25569861
   0.86504165  0.38321572  0.38219235
   0.09516526  0.72856013  0.12156099
   0.54420891  0.46314662  0.25139675
   0.75744240  0.13516019  0.31189694
   0.85888103  0.57329750  0.05350623
   0.31295595  0.84780949  0.18022917
   0.56207820  0.72169891  0.12275353
   0.00079961  0.01290794  0.25329033
   0.79900206  0.32875113  0.18341710
   0.25930123  0.60703503  0.31565468
   0.34617716  0.60305419  0.05647018
   0.23358359  0.16329685  0.31261527
   0.79663169  0.88178634  0.18378637
   0.34617716  0.05624469  0.05647018
   0.54375537  0.01323213  0.25171003
   0.09516526  0.18175063  0.12156099
   0.46466241  0.06874184  0.37550208
   0.09638597  0.75632209  0.38160174
   0.34047062  0.60391201  0.02782883
   0.92434681  0.68523651  0.03696881
   0.34363348  0.06399961  0.02783421
   0.88838126  0.05560908  0.02665597
   0.87662819  0.40245675  0.40685614
   0.44472972  0.01219319  0.39842939
   0.12072684  0.73376601  0.40626795
Direct configuration=    14
   0.22067121  0.89240241  0.08901558
   0.67106767  0.17155901  0.21796807
   0.94927612  0.02809995  0.15233499
   0.39229151  0.31460141  0.28297493
   0.44927612  0.52809995  0.15233499
   0.89162789  0.32089128  0.28407406
   0.44927612  0.02809995  0.15233499
   0.89608453  0.81787298  0.28382506
   0.90282244  0.55132680  0.10484543
   0.34679875  0.83754738  0.23363448
   0.99133103  0.50967067  0.20280119
   0.43493393  0.80413796  0.33536523
   0.53851998  0.23347802  0.07318573
   0.12035472  0.44495743  0.35057421
   0.78561004  0.09214763  0.36411962
   0.78552894  0.62987155  0.31526807
   0.87926422  0.06310591  0.05527763
   0.33562602  0.33348423  0.18241088
   0.58246139  0.21150732  0.12452493
   0.02755484  0.50135216  0.25569697
   0.86600081  0.38203058  0.38197562
   0.09516526  0.72856013  0.12156099
   0.54439796  0.46221471  0.25145640
   0.75723170  0.13561366  0.31196777
   0.85888103  0.57329750  0.05350623
   0.31407612  0.84698782  0.18033473
   0.56207820  0.72169891  0.12275353
   0.00071967  0.01314693  0.25325205
   0.80007619  0.32784577  0.18348748
   0.25974506  0.60745691  0.31560353
   0.34617716  0.60305419  0.05647018
   0.23366282  0.16222817  0.31264999
   0.79775006  0.88121970  0.18378388
   0.34617716  0.05624469  0.05647018
   0.54373279  0.01343746  0.25174634
   0.09516526  0.18175063  0.12156099
   0.46515873  0.06905656  0.37565064
   0.09591515  0.75685603  0.38146032
   0.34047062  0.60391201  0.02782883
   0.92434681  0.68523651  0.03696881
   0.34363348  0.06399961  0.02783421
   0.88838126  0.05560908  0.02665597
   0.87724934  0.40248820  0.40683597
   0.44484924  0.01276104  0.39844074
   0.12071781  0.73276754  0.40640516
Direct configuration=    15
   0.22067121  0.89240241  0.08901558
   0.67093205  0.17162442  0.21795305
   0.94927612  0.02809995  0.15233499
   0.39214411  0.31480314  0.28301671
   0.44927612  0.52809995  0.15233499
   0.89173579  0.32091847  0.28408045
   0.44927612  0.02809995  0.15233499
   0.89607437  0.81769926  0.28385627
   0.90282244  0.55132680  0.10484543
   0.34682089  0.83777738  0.23352095
   0.99129056  0.50985022  0.20278857
   0.43487772  0.80410224  0.33538452
   0.53851998  0.23347802  0.07318573
   0.12045289  0.44515262  0.35060658
   0.78555699  0.09211600  0.36413726
   0.78562202  0.62987991  0.31525357
   0.87926422  0.06310591  0.05527763
   0.33558395  0.33337040  0.18239998
   0.58246139  0.21150732  0.12452493
   0.02771879  0.50139546  0.25569771
   0.86557004  0.38256284  0.38207296
   0.09516526  0.72856013  0.12156099
   0.54431306  0.46263324  0.25142961
   0.75732632  0.13541000  0.31193596
   0.85888103  0.57329750  0.05350623
   0.31357304  0.84735684  0.18028732
   0.56207820  0.72169891  0.12275353
   0.00075557  0.01303960  0.25326924
   0.79959379  0.32825238  0.18345587
   0.25954573  0.60726744  0.31562650
   0.34617716  0.60305419  0.05647018
   0.23362724  0.16270812  0.31263440
   0.79724778  0.88147418  0.18378500
   0.34617716  0.05624469  0.05647018
   0.54374293  0.01334524  0.25173003
   0.09516526  0.18175063  0.12156099
   0.46493583  0.06891521  0.37558392
   0.09612660  0.75661623  0.38152383
   0.34047062  0.60391201  0.02782883
   0.92434681  0.68523651  0.03696881
   0.34363348  0.06399961  0.02783421
   0.88838126  0.05560908  0.02665597
   0.87697037  0.40247408  0.40684503
   0.44479557  0.01250601  0.39843564
   0.12072187  0.73321597  0.40634354
Direct configuration=    16
   0.22067121  0.89240241  0.08901558
   0.67138281  0.17137714  0.21794533
   0.94927612  0.02809995  0.15233499
   0.39221431  0.31460597  0.28301337
   0.44927612  0.52809995  0.15233499
   0.89138879  0.32115120  0.28413238
   0.44927612  0.02809995  0.15233499
   0.89596403  0.81786623  0.28387214
   0.90282244  0.55132680  0.10484543
   0.34668075  0.83731655  0.23371389
   0.99143452  0.50944610  0.20280917
   0.43521176  0.80419438  0.33536674
   0.53851998  0.23347802  0.07318573
   0.12043498  0.44471299  0.35047229
   0.78562219  0.09218937  0.36408911
   0.78552999  0.62972406  0.31525197
   0.87926422  0.06310591  0.05527763
   0.33585320  0.33349236  0.18242268
   0.58246139  0.21150732  0.12452493
   0.02744689  0.50133853  0.25568805
   0.86658006  0.38171229  0.38200100
   0.09516526  0.72856013  0.12156099
   0.54456073  0.46176852  0.25145989
   0.75722296  0.13570998  0.31196582
   0.85888103  0.57329750  0.05350623
   0.31371317  0.84710454  0.18038946
   0.56207820  0.72169891  0.12275353
   0.00069957  0.01324998  0.25319976
   0.80030494  0.32767750  0.18352712
   0.25967852  0.60698359  0.31558017
   0.34617716  0.60305419  0.05647018
   0.23360289  0.16254732  0.31269156
   0.79804991  0.88106969  0.18380573
   0.34617716  0.05624469  0.05647018
   0.54396620  0.01330969  0.25173001
   0.09516526  0.18175063  0.12156099
   0.46523959  0.06924918  0.37565992
   0.09605232  0.75671704  0.38153958
   0.34047062  0.60391201  0.02782883
   0.92434681  0.68523651  0.03696881
   0.34363348  0.06399961  0.02783421
   0.88838126  0.05560908  0.02665597
   0.87751458  0.40241734  0.40671377
   0.44486987  0.01295750  0.39850295
   0.12053863  0.73241549  0.40632300
Direct configuration=    17
   0.22067121  0.89240241  0.08901558
   0.67167797  0.17121522  0.21794028
   0.94927612  0.02809995  0.15233499
   0.39226028  0.31447685  0.28301119
   0.44927612  0.52809995  0.15233499
   0.89116157  0.32130360  0.28416638
   0.44927612  0.02809995  0.15233499
   0.89589178  0.81797556  0.28388253
   0.90282244  0.55132680  0.10484543
   0.34658898  0.83701480  0.23384024
   0.99152879  0.50918148  0.20282267
   0.43543049  0.80425471  0.33535509
   0.53851998  0.23347802  0.07318573
   0.12042325  0.44442512  0.35038435
   0.78566489  0.09223742  0.36405758
   0.78546973  0.62962200  0.31525091
   0.87926422  0.06310591  0.05527763
   0.33602950  0.33357223  0.18243754
   0.58246139  0.21150732  0.12452493
   0.02726884  0.50130125  0.25568172
   0.86724144  0.38115533  0.38195389
   0.09516526  0.72856013  0.12156099
   0.54472291  0.46120229  0.25147971
   0.75715527  0.13590641  0.31198536
   0.85888103  0.57329750  0.05350623
   0.31380493  0.84693934  0.18045635
   0.56207820  0.72169891  0.12275353
   0.00066290  0.01338775  0.25315426
   0.80077061  0.32730107  0.18357378
   0.25976548  0.60679773  0.31554982
   0.34617716  0.60305419  0.05647018
   0.23358695  0.16244203  0.31272899
   0.79857515  0.88080482  0.18381931
   0.34617716  0.05624469  0.05647018
   0.54411240  0.01328641  0.25172999
   0.09516526  0.18175063  0.12156099
   0.46543850  0.06946786  0.37570968
   0.09600368  0.75678305  0.38154990
   0.34047062  0.60391201  0.02782883
   0.92434681  0.68523651  0.03696881
   0.34363348  0.06399961  0.02783421
   0.88838126  0.05560908  0.02665597
   0.87787093  0.40238020  0.40662783
   0.44491853  0.01325314  0.39854703
   0.12041864  0.73189133  0.40630955
Direct configuration=    18
   0.22067121  0.89240241  0.08901558
   0.67218525  0.17058910  0.21789456
   0.94927612  0.02809995  0.15233499
   0.39204153  0.31427892  0.28306025
   0.44927612  0.52809995  0.15233499
   0.89106411  0.32144328  0.28416404
   0.44927612  0.02809995  0.15233499
   0.89590198  0.81790844  0.28389701
   0.90282244  0.55132680  0.10484543
   0.34667635  0.83657296  0.23392161
   0.99186357  0.50884825  0.20282563
   0.43562772  0.80423558  0.33538638
   0.53851998  0.23347802  0.07318573
   0.12047148  0.44453723  0.35035277
   0.78582067  0.09209344  0.36407388
   0.78546527  0.62968484  0.31522908
   0.87926422  0.06310591  0.05527763
   0.33645992  0.33335934  0.18244709
   0.58246139  0.21150732  0.12452493
   0.02702673  0.50143995  0.25572942
   0.86812682  0.38053302  0.38183331
   0.09516526  0.72856013  0.12156099
   0.54493845  0.46094764  0.25149867
   0.75712975  0.13581469  0.31195139
   0.85888103  0.57329750  0.05350623
   0.31358587  0.84710387  0.18051518
   0.56207820  0.72169891  0.12275353
   0.00029078  0.01359383  0.25317236
   0.80098969  0.32714684  0.18360484
   0.25974593  0.60644467  0.31550259
   0.34617716  0.60305419  0.05647018
   0.23360927  0.16263615  0.31272192
   0.79887473  0.88063772  0.18384960
   0.34617716  0.05624469  0.05647018
   0.54442987  0.01285969  0.25172503
   0.09516526  0.18175063  0.12156099
   0.46558705  0.06972891  0.37569939
   0.09613948  0.75639445  0.38153832
   0.34047062  0.60391201  0.02782883
   0.92434681  0.68523651  0.03696881
   0.34363348  0.06399961  0.02783421
   0.88838126  0.05560908  0.02665597
   0.87843798  0.40239028  0.40657408
   0.44495407  0.01361530  0.39865694
   0.12018560  0.73119976  0.40627137
Direct configuration=    19
   0.22067121  0.89240241  0.08901558
   0.67223363  0.17052939  0.21789020
   0.94927612  0.02809995  0.15233499
   0.39202067  0.31426005  0.28306493
   0.44927612  0.52809995  0.15233499
   0.89105481  0.32145660  0.28416382
   0.44927612  0.02809995  0.15233499
   0.89590296  0.81790204  0.28389839
   0.90282244  0.55132680  0.10484543
   0.34668469  0.83653083  0.23392937
   0.99189550  0.50881647  0.20282592
   0.43564653  0.80423375  0.33538936
   0.53851998  0.23347802  0.07318573
   0.12047608  0.44454793  0.35034976
   0.78583552  0.09207971  0.36407543
   0.78546485  0.62969084  0.31522699
   0.87926422  0.06310591  0.05527763
   0.33650097  0.33333904  0.18244800
   0.58246139  0.21150732  0.12452493
   0.02700364  0.50145317  0.25573397
   0.86821126  0.38047367  0.38182181
   0.09516526  0.72856013  0.12156099
   0.54495901  0.46092335  0.25150048
   0.75712731  0.13580594  0.31194815
   0.85888103  0.57329750  0.05350623
   0.31356498  0.84711956  0.18052079
   0.56207820  0.72169891  0.12275353
   0.00025529  0.01361348  0.25317409
   0.80101058  0.32713214  0.18360780
   0.25974407  0.60641099  0.31549809
   0.34617716  0.60305419  0.05647018
   0.23361140  0.16265467  0.31272124
   0.79890330  0.88062178  0.18385249
   0.34617716  0.05624469  0.05647018
   0.54446015  0.01281900  0.25172456
   0.09516526  0.18175063  0.12156099
   0.46560122  0.06975381  0.37569841
   0.09615243  0.75635738  0.38153721
   0.34047062  0.60391201  0.02782883
   0.92434681  0.68523651  0.03696881
   0.34363348  0.06399961  0.02783421
   0.88838126  0.05560908  0.02665597
   0.87849206  0.40239124  0.40656896
   0.44495746  0.01364984  0.39866743
   0.12016338  0.73113380  0.40626773
Direct configuration=    20
   0.22067121  0.89240241  0.08901558
   0.67246479  0.17020532  0.21787829
   0.94927612  0.02809995  0.15233499
   0.39198572  0.31409932  0.28307452
   0.44927612  0.52809995  0.15233499
   0.89099243  0.32150186  0.28415325
   0.44927612  0.02809995  0.15233499
   0.89590218  0.81788107  0.28390173
   0.90282244  0.55132680  0.10484543
   0.34675445  0.83629482  0.23395994
   0.99212433  0.50863213  0.20282828
   0.43571691  0.80420067  0.33540764
   0.53851998  0.23347802  0.07318573
   0.12052031  0.44468086  0.35034123
   0.78594212  0.09195745  0.36408448
   0.78545106  0.62975576  0.31521929
   0.87926422  0.06310591  0.05527763
   0.33674688  0.33318209  0.18245168
   0.58246139  0.21150732  0.12452493
   0.02690269  0.50153775  0.25576038
   0.86871521  0.38019236  0.38179170
   0.09516526  0.72856013  0.12156099
   0.54506663  0.46080155  0.25151053
   0.75712209  0.13571135  0.31193167
   0.85888103  0.57329750  0.05350623
   0.31342436  0.84724830  0.18054186
   0.56207820  0.72169891  0.12275353
   0.00006026  0.01369857  0.25319415
   0.80107417  0.32709922  0.18361526
   0.25971877  0.60628973  0.31548199
   0.34617716  0.60305419  0.05647018
   0.23362459  0.16273434  0.31271687
   0.79902519  0.88051124  0.18386439
   0.34617716  0.05624469  0.05647018
   0.54462220  0.01255631  0.25172373
   0.09516526  0.18175063  0.12156099
   0.46561234  0.06974858  0.37573856
   0.09624604  0.75609138  0.38151268
   0.34047062  0.60391201  0.02782883
   0.92434681  0.68523651  0.03696881
   0.34363348  0.06399961  0.02783421
   0.88838126  0.05560908  0.02665597
   0.87881015  0.40236943  0.40650652
   0.44502012  0.01398622  0.39868164
   0.12003865  0.73072803  0.40625906
Direct configuration=    21
   0.22067121  0.89240241  0.08901558
   0.67284965  0.16966577  0.21785844
   0.94927612  0.02809995  0.15233499
   0.39192753  0.31383173  0.28309048
   0.44927612  0.52809995  0.15233499
   0.89088856  0.32157721  0.28413564
   0.44927612  0.02809995  0.15233499
   0.89590087  0.81784616  0.28390729
   0.90282244  0.55132680  0.10484543
   0.34687061  0.83590189  0.23401084
   0.99250533  0.50832522  0.20283222
   0.43583410  0.80414558  0.33543807
   0.53851998  0.23347802  0.07318573
   0.12059394  0.44490219  0.35032704
   0.78611960  0.09175389  0.36409954
   0.78542811  0.62986385  0.31520647
   0.87926422  0.06310591  0.05527763
   0.33715631  0.33292079  0.18245779
   0.58246139  0.21150732  0.12452493
   0.02673463  0.50167857  0.25580435
   0.86955426  0.37972399  0.38174156
   0.09516526  0.72856013  0.12156099
   0.54524582  0.46059875  0.25152728
   0.75711340  0.13555386  0.31190423
   0.85888103  0.57329750  0.05350623
   0.31319024  0.84746265  0.18057695
   0.56207820  0.72169891  0.12275353
  -0.00026447  0.01384024  0.25322755
   0.80118004  0.32704442  0.18362767
   0.25967666  0.60608784  0.31545518
   0.34617716  0.60305419  0.05647018
   0.23364655  0.16286700  0.31270958
   0.79922813  0.88032721  0.18388420
   0.34617716  0.05624469  0.05647018
   0.54489201  0.01211896  0.25172233
   0.09516526  0.18175063  0.12156099
   0.46563086  0.06973987  0.37580542
   0.09640189  0.75564850  0.38147184
   0.34047062  0.60391201  0.02782883
   0.92434681  0.68523651  0.03696881
   0.34363348  0.06399961  0.02783421
   0.88838126  0.05560908  0.02665597
   0.87933974  0.40233313  0.40640256
   0.44512445  0.01454626  0.39870531
   0.11983098  0.73005246  0.40624462
Direct configuration=    22
   0.22067121  0.89240241  0.08901558
   0.67295089  0.16949525  0.21787998
   0.94927612  0.02809995  0.15233499
   0.39209911  0.31360393  0.28306059
   0.44927612  0.52809995  0.15233499
   0.89075623  0.32159945  0.28412431
   0.44927612  0.02809995  0.15233499
   0.89585728  0.81787838  0.28390757
   0.90282244  0.55132680  0.10484543
   0.34692145  0.83571202  0.23402376
   0.99278278  0.50813234  0.20283871
   0.43582921  0.80410452  0.33545096
   0.53851998  0.23347802  0.07318573
   0.12066622  0.44503311  0.35031688
   0.78621899  0.09161072  0.36409693
   0.78537413  0.62993004  0.31521177
   0.87926422  0.06310591  0.05527763
   0.33736426  0.33275723  0.18246216
   0.58246139  0.21150732  0.12452493
   0.02673545  0.50171388  0.25581117
   0.87002615  0.37944429  0.38170239
   0.09516526  0.72856013  0.12156099
   0.54532725  0.46040952  0.25153593
   0.75710651  0.13545822  0.31190885
   0.85888103  0.57329750  0.05350623
   0.31307909  0.84758085  0.18057723
   0.56207820  0.72169891  0.12275353
  -0.00030712  0.01383226  0.25324520
   0.80118765  0.32705790  0.18362230
   0.25966812  0.60614019  0.31545961
   0.34617716  0.60305419  0.05647018
   0.23366108  0.16281160  0.31271711
   0.79932929  0.88014252  0.18388272
   0.34617716  0.05624469  0.05647018
   0.54499501  0.01187108  0.25172503
   0.09516526  0.18175063  0.12156099
   0.46567846  0.06974124  0.37581702
   0.09654054  0.75535080  0.38146105
   0.34047062  0.60391201  0.02782883
   0.92434681  0.68523651  0.03696881
   0.34363348  0.06399961  0.02783421
   0.88838126  0.05560908  0.02665597
   0.87968654  0.40233036  0.40635637
   0.44515697  0.01485201  0.39874419
   0.11968921  0.72964501  0.40622375
Direct configuration=    23
   0.22067121  0.89240241  0.08901558
   0.67325459  0.16898370  0.21794458
   0.94927612  0.02809995  0.15233499
   0.39261385  0.31292056  0.28297093
   0.44927612  0.52809995  0.15233499
   0.89035926  0.32166617  0.28409032
   0.44927612  0.02809995  0.15233499
   0.89572651  0.81797505  0.28390840
   0.90282244  0.55132680  0.10484543
   0.34707398  0.83514240  0.23406253
   0.99361513  0.50755372  0.20285818
   0.43581454  0.80398131  0.33548961
   0.53851998  0.23347802  0.07318573
   0.12088306  0.44542588  0.35028642
   0.78651715  0.09118120  0.36408910
   0.78521219  0.63012862  0.31522767
   0.87926422  0.06310591  0.05527763
   0.33798811  0.33226656  0.18247528
   0.58246139  0.21150732  0.12452493
   0.02673790  0.50181980  0.25583160
   0.87144184  0.37860519  0.38158488
   0.09516526  0.72856013  0.12156099
   0.54557157  0.45984184  0.25156188
   0.75708584  0.13517133  0.31192271
   0.85888103  0.57329750  0.05350623
   0.31274563  0.84793544  0.18057807
   0.56207820  0.72169891  0.12275353
  -0.00043509  0.01380833  0.25329814
   0.80121049  0.32709833  0.18360620
   0.25964249  0.60629726  0.31547288
   0.34617716  0.60305419  0.05647018
   0.23370465  0.16264539  0.31273968
   0.79963276  0.87958848  0.18387827
   0.34617716  0.05624469  0.05647018
   0.54530398  0.01112743  0.25173312
   0.09516526  0.18175063  0.12156099
   0.46582125  0.06974537  0.37585183
   0.09695647  0.75445769  0.38142868
   0.34047062  0.60391201  0.02782883
   0.92434681  0.68523651  0.03696881
   0.34363348  0.06399961  0.02783421
   0.88838126  0.05560908  0.02665597
   0.88072693  0.40232207  0.40621781
   0.44525453  0.01576927  0.39886081
   0.11926389  0.72842268  0.40616111
Direct configuration=    24
   0.22067121  0.89240241  0.08901558
   0.67337492  0.16887243  0.21794184
   0.94927612  0.02809995  0.15233499
   0.39263547  0.31281547  0.28296925
   0.44927612  0.52809995  0.15233499
   0.89022874  0.32177352  0.28411340
   0.44927612  0.02809995  0.15233499
   0.89570296  0.81787135  0.28392747
   0.90282244  0.55132680  0.10484543
   0.34703231  0.83500314  0.23404113
   0.99391523  0.50732247  0.20285655
   0.43567161  0.80398189  0.33549787
   0.53851998  0.23347802  0.07318573
   0.12104865  0.44535247  0.35024778
   0.78664943  0.09098616  0.36407275
   0.78513006  0.63012447  0.31523647
   0.87926422  0.06310591  0.05527763
   0.33815539  0.33213249  0.18249639
   0.58246139  0.21150732  0.12452493
   0.02689521  0.50170526  0.25581184
   0.87197709  0.37818147  0.38152205
   0.09516526  0.72856013  0.12156099
   0.54565478  0.45960245  0.25156409
   0.75704350  0.13515473  0.31194851
   0.85888103  0.57329750  0.05350623
   0.31270347  0.84797000  0.18056627
   0.56207820  0.72169891  0.12275353
  -0.00017035  0.01365171  0.25329457
   0.80113532  0.32712654  0.18361216
   0.25980026  0.60639042  0.31546805
   0.34617716  0.60305419  0.05647018
   0.23378173  0.16246353  0.31274331
   0.79972527  0.87935795  0.18387689
   0.34617716  0.05624469  0.05647018
   0.54535884  0.01079845  0.25173735
   0.09516526  0.18175063  0.12156099
   0.46596886  0.06966006  0.37586531
   0.09709812  0.75423080  0.38139935
   0.34047062  0.60391201  0.02782883
   0.92434681  0.68523651  0.03696881
   0.34363348  0.06399961  0.02783421
   0.88838126  0.05560908  0.02665597
   0.88123110  0.40234516  0.40618624
   0.44527944  0.01621743  0.39890935
   0.11910808  0.72781847  0.40617070
Direct configuration=    25
   0.22067121  0.89240241  0.08901558
   0.67356025  0.16870104  0.21793762
   0.94927612  0.02809995  0.15233499
   0.39266876  0.31265362  0.28296666
   0.44927612  0.52809995  0.15233499
   0.89002771  0.32193885  0.28414895
   0.44927612  0.02809995  0.15233499
   0.89566669  0.81771164  0.28395684
   0.90282244  0.55132680  0.10484543
   0.34696813  0.83478864  0.23400816
   0.99437744  0.50696632  0.20285404
   0.43545146  0.80398279  0.33551060
   0.53851998  0.23347802  0.07318573
   0.12130369  0.44523939  0.35018827
   0.78685318  0.09068576  0.36404757
   0.78500356  0.63011807  0.31525003
   0.87926422  0.06310591  0.05527763
   0.33841302  0.33192599  0.18252890
   0.58246139  0.21150732  0.12452493
   0.02713748  0.50152885  0.25578140
   0.87280148  0.37752887  0.38142529
   0.09516526  0.72856013  0.12156099
   0.54578295  0.45923373  0.25156750
   0.75697831  0.13512917  0.31198826
   0.85888103  0.57329750  0.05350623
   0.31263855  0.84802325  0.18054809
   0.56207820  0.72169891  0.12275353
   0.00023739  0.01341050  0.25328907
   0.80101953  0.32716998  0.18362133
   0.26004326  0.60653390  0.31546063
   0.34617716  0.60305419  0.05647018
   0.23390045  0.16218343  0.31274892
   0.79986775  0.87900288  0.18387476
   0.34617716  0.05624469  0.05647018
   0.54544332  0.01029175  0.25174387
   0.09516526  0.18175063  0.12156099
   0.46619622  0.06952866  0.37588607
   0.09731629  0.75388135  0.38135418
   0.34047062  0.60391201  0.02782883
   0.92434681  0.68523651  0.03696881
   0.34363348  0.06399961  0.02783421
   0.88838126  0.05560908  0.02665597
   0.88200760  0.40238071  0.40613762
   0.44531780  0.01690767  0.39898410
   0.11886809  0.72688787  0.40618546
Direct configuration=    26
   0.22067121  0.89240241  0.08901558
   0.67351543  0.16874249  0.21793864
   0.94927612  0.02809995  0.15233499
   0.39266071  0.31269276  0.28296728
   0.44927612  0.52809995  0.15233499
   0.89007633  0.32189887  0.28414035
   0.44927612  0.02809995  0.15233499
   0.89567546  0.81775026  0.28394974
   0.90282244  0.55132680  0.10484543
   0.34698365  0.83484051  0.23401613
   0.99426566  0.50705245  0.20285464
   0.43550470  0.80398257  0.33550752
   0.53851998  0.23347802  0.07318573
   0.12124201  0.44526674  0.35020266
   0.78680390  0.09075840  0.36405366
   0.78503415  0.63011961  0.31524675
   0.87926422  0.06310591  0.05527763
   0.33835072  0.33197593  0.18252104
   0.58246139  0.21150732  0.12452493
   0.02707889  0.50157151  0.25578876
   0.87260212  0.37768668  0.38144869
   0.09516526  0.72856013  0.12156099
   0.54575195  0.45932290  0.25156667
   0.75699407  0.13513535  0.31197865
   0.85888103  0.57329750  0.05350623
   0.31265425  0.84801037  0.18055249
   0.56207820  0.72169891  0.12275353
   0.00013879  0.01346883  0.25329040
   0.80104753  0.32715948  0.18361911
   0.25998449  0.60649920  0.31546242
   0.34617716  0.60305419  0.05647018
   0.23387174  0.16225117  0.31274756
   0.79983329  0.87908875  0.18387528
   0.34617716  0.05624469  0.05647018
   0.54542289  0.01041428  0.25174229
   0.09516526  0.18175063  0.12156099
   0.46614123  0.06956043  0.37588105
   0.09726353  0.75396585  0.38136511
   0.34047062  0.60391201  0.02782883
   0.92434681  0.68523651  0.03696881
   0.34363348  0.06399961  0.02783421
   0.88838126  0.05560908  0.02665597
   0.88181982  0.40237211  0.40614938
   0.44530852  0.01674075  0.39896603
   0.11892612  0.72711291  0.40618189
Direct configuration=    27
   0.22067121  0.89240241  0.08901558
   0.67358555  0.16865690  0.21793177
   0.94927612  0.02809995  0.15233499
   0.39262903  0.31265767  0.28297320
   0.44927612  0.52809995  0.15233499
   0.89004784  0.32193014  0.28415409
   0.44927612  0.02809995  0.15233499
   0.89569424  0.81767830  0.28395690
   0.90282244  0.55132680  0.10484543
   0.34695699  0.83476366  0.23399504
   0.99440469  0.50692780  0.20284990
   0.43539836  0.80399959  0.33551248
   0.53851998  0.23347802  0.07318573
   0.12135454  0.44514948  0.35017656
   0.78688570  0.09063516  0.36404467
   0.78498841  0.63009912  0.31525288
   0.87926422  0.06310591  0.05527763
   0.33843690  0.33191317  0.18253556
   0.58246139  0.21150732  0.12452493
   0.02718758  0.50147339  0.25577998
   0.87291339  0.37745066  0.38144065
   0.09516526  0.72856013  0.12156099
   0.54579237  0.45919698  0.25156620
   0.75696398  0.13514274  0.31199316
   0.85888103  0.57329750  0.05350623
   0.31265070  0.84799954  0.18054322
   0.56207820  0.72169891  0.12275353
   0.00031304  0.01336457  0.25329032
   0.80099749  0.32717593  0.18362504
   0.26011202  0.60653792  0.31545191
   0.34617716  0.60305419  0.05647018
   0.23393350  0.16213213  0.31274522
   0.79988211  0.87897587  0.18387458
   0.34617716  0.05624469  0.05647018
   0.54544878  0.01024686  0.25174555
   0.09516526  0.18175063  0.12156099
   0.46624816  0.06947822  0.37589375
   0.09736968  0.75383916  0.38137533
   0.34047062  0.60391201  0.02782883
   0.92434681  0.68523651  0.03696881
   0.34363348  0.06399961  0.02783421
   0.88838126  0.05560908  0.02665597
   0.88212645  0.40235879  0.40610705
   0.44532265  0.01703543  0.39898941
   0.11881210  0.72676281  0.40616783
Direct configuration=    28
   0.22067121  0.89240241  0.08901558
   0.67374065  0.16846759  0.21791658
   0.94927612  0.02809995  0.15233499
   0.39255898  0.31258005  0.28298630
   0.44927612  0.52809995  0.15233499
   0.88998482  0.32199929  0.28418446
   0.44927612  0.02809995  0.15233499
   0.89573579  0.81751914  0.28397275
   0.90282244  0.55132680  0.10484543
   0.34689804  0.83459368  0.23394840
   0.99471219  0.50665211  0.20283940
   0.43516315  0.80403723  0.33552344
   0.53851998  0.23347802  0.07318573
   0.12160342  0.44489012  0.35011881
   0.78706663  0.09036256  0.36402478
   0.78488723  0.63005380  0.31526645
   0.87926422  0.06310591  0.05527763
   0.33862752  0.33177438  0.18256768
   0.58246139  0.21150732  0.12452493
   0.02742797  0.50125637  0.25576055
   0.87360185  0.37692863  0.38142285
   0.09516526  0.72856013  0.12156099
   0.54588176  0.45891847  0.25156516
   0.75689743  0.13515910  0.31202526
   0.85888103  0.57329750  0.05350623
   0.31264284  0.84797559  0.18052273
   0.56207820  0.72169891  0.12275353
   0.00069844  0.01313395  0.25329013
   0.80088681  0.32721231  0.18363814
   0.26039407  0.60662355  0.31542866
   0.34617716  0.60305419  0.05647018
   0.23407009  0.16186885  0.31274002
   0.79999008  0.87872620  0.18387303
   0.34617716  0.05624469  0.05647018
   0.54550605  0.00987656  0.25175275
   0.09516526  0.18175063  0.12156099
   0.46648464  0.06929639  0.37592185
   0.09760445  0.75355894  0.38139795
   0.34047062  0.60391201  0.02782883
   0.92434681  0.68523651  0.03696881
   0.34363348  0.06399961  0.02783421
   0.88838126  0.05560908  0.02665597
   0.88280465  0.40232933  0.40601342
   0.44535390  0.01768720  0.39904114
   0.11855990  0.72598847  0.40613675
Direct configuration=    29
   0.22067121  0.89240241  0.08901558
   0.67376860  0.16835326  0.21791584
   0.94927612  0.02809995  0.15233499
   0.39254882  0.31253896  0.28298579
   0.44927612  0.52809995  0.15233499
   0.89004148  0.32192694  0.28418358
   0.44927612  0.02809995  0.15233499
   0.89578695  0.81749633  0.28396482
   0.90282244  0.55132680  0.10484543
   0.34691671  0.83451697  0.23392615
   0.99473527  0.50658716  0.20283276
   0.43511553  0.80405546  0.33553582
   0.53851998  0.23347802  0.07318573
   0.12172749  0.44477838  0.35009785
   0.78714280  0.09026061  0.36402682
   0.78487012  0.63002406  0.31527154
   0.87926422  0.06310591  0.05527763
   0.33868607  0.33174466  0.18257659
   0.58246139  0.21150732  0.12452493
   0.02749939  0.50115986  0.25576649
   0.87383634  0.37671582  0.38140786
   0.09516526  0.72856013  0.12156099
   0.54589642  0.45885364  0.25156210
   0.75688366  0.13516538  0.31202705
   0.85888103  0.57329750  0.05350623
   0.31266060  0.84793193  0.18051263
   0.56207820  0.72169891  0.12275353
   0.00077855  0.01306949  0.25330122
   0.80086741  0.32721236  0.18364192
   0.26045090  0.60656174  0.31541887
   0.34617716  0.60305419  0.05647018
   0.23407499  0.16185298  0.31273870
   0.80002530  0.87868581  0.18387037
   0.34617716  0.05624469  0.05647018
   0.54553165  0.00981700  0.25175543
   0.09516526  0.18175063  0.12156099
   0.46660091  0.06921838  0.37592644
   0.09767633  0.75346537  0.38139690
   0.34047062  0.60391201  0.02782883
   0.92434681  0.68523651  0.03696881
   0.34363348  0.06399961  0.02783421
   0.88838126  0.05560908  0.02665597
   0.88306686  0.40232106  0.40599281
   0.44535224  0.01792243  0.39906025
   0.11847810  0.72568834  0.40613608
Direct configuration=    30
   0.22067121  0.89240241  0.08901558
   0.67385246  0.16801026  0.21791362
   0.94927612  0.02809995  0.15233499
   0.39251834  0.31241567  0.28298428
   0.44927612  0.52809995  0.15233499
   0.89021145  0.32170991  0.28418095
   0.44927612  0.02809995  0.15233499
   0.89594042  0.81742791  0.28394102
   0.90282244  0.55132680  0.10484543
   0.34697269  0.83428683  0.23385938
   0.99480452  0.50639230  0.20281286
   0.43497267  0.80411016  0.33557295
   0.53851998  0.23347802  0.07318573
   0.12209970  0.44444317  0.35003496
   0.78737132  0.08995474  0.36403293
   0.78481879  0.62993483  0.31528679
   0.87926422  0.06310591  0.05527763
   0.33886174  0.33165549  0.18260333
   0.58246139  0.21150732  0.12452493
   0.02771363  0.50087035  0.25578431
   0.87453983  0.37607738  0.38136290
   0.09516526  0.72856013  0.12156099
   0.54594041  0.45865916  0.25155294
   0.75684236  0.13518422  0.31203242
   0.85888103  0.57329750  0.05350623
   0.31271386  0.84780096  0.18048232
   0.56207820  0.72169891  0.12275353
   0.00101890  0.01287613  0.25333448
   0.80080921  0.32721252  0.18365329
   0.26062139  0.60637633  0.31538950
   0.34617716  0.60305419  0.05647018
   0.23408970  0.16180537  0.31273474
   0.80013096  0.87856462  0.18386237
   0.34617716  0.05624469  0.05647018
   0.54560848  0.00963832  0.25176347
   0.09516526  0.18175063  0.12156099
   0.46694972  0.06898436  0.37594020
   0.09789198  0.75318465  0.38139374
   0.34047062  0.60391201  0.02782883
   0.92434681  0.68523651  0.03696881
   0.34363348  0.06399961  0.02783421
   0.88838126  0.05560908  0.02665597
   0.88385350  0.40229623  0.40593099
   0.44534724  0.01862811  0.39911758
   0.11823271  0.72478796  0.40613408
Direct configuration=    31
   0.22067121  0.89240241  0.08901558
   0.67402017  0.16732428  0.21790920
   0.94927612  0.02809995  0.15233499
   0.39245738  0.31216911  0.28298125
   0.44927612  0.52809995  0.15233499
   0.89055140  0.32127585  0.28417570
   0.44927612  0.02809995  0.15233499
   0.89624737  0.81729106  0.28389342
   0.90282244  0.55132680  0.10484543
   0.34708466  0.83382655  0.23372586
   0.99494302  0.50600259  0.20277306
   0.43468695  0.80421955  0.33564723
   0.53851998  0.23347802  0.07318573
   0.12284411  0.44377274  0.34990919
   0.78782837  0.08934300  0.36404515
   0.78471612  0.62975637  0.31531730
   0.87926422  0.06310591  0.05527763
   0.33921307  0.33147716  0.18265681
   0.58246139  0.21150732  0.12452493
   0.02814213  0.50029133  0.25581993
   0.87594681  0.37480051  0.38127297
   0.09516526  0.72856013  0.12156099
   0.54602837  0.45827018  0.25153461
   0.75675976  0.13522191  0.31204314
   0.85888103  0.57329750  0.05350623
   0.31282039  0.84753903  0.18042170
   0.56207820  0.72169891  0.12275353
   0.00149958  0.01248939  0.25340101
   0.80069280  0.32721284  0.18367601
   0.26096236  0.60600550  0.31533077
   0.34617716  0.60305419  0.05647018
   0.23411911  0.16171015  0.31272683
   0.80034228  0.87832224  0.18384637
   0.34617716  0.05624469  0.05647018
   0.54576213  0.00928095  0.25177954
   0.09516526  0.18175063  0.12156099
   0.46764733  0.06851632  0.37596773
   0.09832327  0.75262320  0.38138742
   0.34047062  0.60391201  0.02782883
   0.92434681  0.68523651  0.03696881
   0.34363348  0.06399961  0.02783421
   0.88838126  0.05560908  0.02665597
   0.88542679  0.40224657  0.40580734
   0.44533723  0.02003947  0.39923224
   0.11774193  0.72298718  0.40613008
Direct configuration=    32
   0.22067121  0.89240241  0.08901558
   0.67395497  0.16759095  0.21791092
   0.94927612  0.02809995  0.15233499
   0.39248108  0.31226496  0.28298243
   0.44927612  0.52809995  0.15233499
   0.89041925  0.32144459  0.28417775
   0.44927612  0.02809995  0.15233499
   0.89612804  0.81734426  0.28391192
   0.90282244  0.55132680  0.10484543
   0.34704113  0.83400548  0.23377776
   0.99488918  0.50615409  0.20278853
   0.43479802  0.80417702  0.33561835
   0.53851998  0.23347802  0.07318573
   0.12255472  0.44403337  0.34995808
   0.78765069  0.08958081  0.36404040
   0.78475603  0.62982575  0.31530544
   0.87926422  0.06310591  0.05527763
   0.33907649  0.33154649  0.18263602
   0.58246139  0.21150732  0.12452493
   0.02797555  0.50051642  0.25580608
   0.87539986  0.37529689  0.38130793
   0.09516526  0.72856013  0.12156099
   0.54599418  0.45842139  0.25154173
   0.75679187  0.13520726  0.31203897
   0.85888103  0.57329750  0.05350623
   0.31277897  0.84764085  0.18044527
   0.56207820  0.72169891  0.12275353
   0.00131272  0.01263973  0.25337515
   0.80073806  0.32721271  0.18366718
   0.26082981  0.60614966  0.31535360
   0.34617716  0.60305419  0.05647018
   0.23410768  0.16174717  0.31272990
   0.80026013  0.87841646  0.18385259
   0.34617716  0.05624469  0.05647018
   0.54570240  0.00941987  0.25177329
   0.09516526  0.18175063  0.12156099
   0.46737613  0.06869827  0.37595703
   0.09815561  0.75284146  0.38138987
   0.34047062  0.60391201  0.02782883
   0.92434681  0.68523651  0.03696881
   0.34363348  0.06399961  0.02783421
   0.88838126  0.05560908  0.02665597
   0.88481518  0.40226587  0.40585541
   0.44534112  0.01949081  0.39918767
   0.11793271  0.72368722  0.40613164
Direct configuration=    33
   0.22067121  0.89240241  0.08901558
   0.67389027  0.16753699  0.21792957
   0.94927612  0.02809995  0.15233499
   0.39267099  0.31213153  0.28295094
   0.44927612  0.52809995  0.15233499
   0.89046780  0.32132883  0.28417615
   0.44927612  0.02809995  0.15233499
   0.89609678  0.81727111  0.28392162
   0.90282244  0.55132680  0.10484543
   0.34722866  0.83383027  0.23375648
   0.99476689  0.50613300  0.20278782
   0.43487927  0.80410924  0.33564369
   0.53851998  0.23347802  0.07318573
   0.12262839  0.44398184  0.34995760
   0.78783437  0.08939828  0.36405510
   0.78485348  0.62979686  0.31528893
   0.87926422  0.06310591  0.05527763
   0.33911911  0.33151647  0.18263723
   0.58246139  0.21150732  0.12452493
   0.02804180  0.50038606  0.25581434
   0.87576930  0.37495954  0.38128425
   0.09516526  0.72856013  0.12156099
   0.54599140  0.45835911  0.25152634
   0.75687723  0.13510038  0.31201131
   0.85888103  0.57329750  0.05350623
   0.31277919  0.84761324  0.18043619
   0.56207820  0.72169891  0.12275353
   0.00138685  0.01254792  0.25338555
   0.80077365  0.32709847  0.18366952
   0.26084484  0.60603120  0.31533742
   0.34617716  0.60305419  0.05647018
   0.23413558  0.16165111  0.31272449
   0.80031888  0.87838916  0.18384684
   0.34617716  0.05624469  0.05647018
   0.54573086  0.00938070  0.25176999
   0.09516526  0.18175063  0.12156099
   0.46756809  0.06854345  0.37596940
   0.09830411  0.75258653  0.38139036
   0.34047062  0.60391201  0.02782883
   0.92434681  0.68523651  0.03696881
   0.34363348  0.06399961  0.02783421
   0.88838126  0.05560908  0.02665597
   0.88524710  0.40222358  0.40584000
   0.44531732  0.01988241  0.39920129
   0.11780697  0.72321887  0.40612985
