 vasp.5.4.4.18Apr17-6-g9f103f2a35 (build Sep 24 2019 09:38:50) complex          
  
 executed on     KEELxe18.1gRLX-z date 2026.07.25  16:42:47
 running on   64 total cores
 distrk:  each k-point on   64 cores,    1 groups
 distr:  one band on NCORES_PER_BAND=  32 cores,    2 groups


--------------------------------------------------------------------------------------------------------


 INCAR:
 POTCAR:    PAW_PBE Mn_pv 02Aug2007               
 POTCAR:    PAW_PBE O 08Apr2002                   
 POTCAR:    PAW_PBE H 15Jun2001                   

 ----------------------------------------------------------------------------- 
|                                                                             |
|           W    W    AA    RRRRR   N    N  II  N    N   GGGG   !!!           |
|           W    W   A  A   R    R  NN   N  II  NN   N  G    G  !!!           |
|           W    W  A    A  R    R  N N  N  II  N N  N  G       !!!           |
|           W WW W  AAAAAA  RRRRR   N  N N  II  N  N N  G  GGG   !            |
|           WW  WW  A    A  R   R   N   NN  II  N   NN  G    G                |
|           W    W  A    A  R    R  N    N  II  N    N   GGGG   !!!           |
|                                                                             |
|      For optimal performance we recommend to set                            |
|        NCORE= 4 - approx SQRT( number of cores)                             |
|      NCORE specifies how many cores store one orbital (NPAR=cpu/NCORE).     |
|      This setting can  greatly improve the performance of VASP for DFT.     |
|      The default,   NCORE=1            might be grossly inefficient         |
|      on modern multi-core architectures or massively parallel machines.     |
|      Do your own testing !!!!                                               |
|      Unfortunately you need to use the default for GW and RPA calculations. |
|      (for HF NCORE is supported but not extensively tested yet)             |
|                                                                             |
 ----------------------------------------------------------------------------- 

 POTCAR:    PAW_PBE Mn_pv 02Aug2007               
  local pseudopotential read in
  partial core-charges read in
  partial kinetic energy density read in
  atomic valenz-charges read in
  non local Contribution for L=           1  read in
    real space projection operators read in
  non local Contribution for L=           1  read in
    real space projection operators read in
  non local Contribution for L=           2  read in
    real space projection operators read in
  non local Contribution for L=           2  read in
    real space projection operators read in
  non local Contribution for L=           0  read in
    real space projection operators read in
  non local Contribution for L=           0  read in
    real space projection operators read in
    PAW grid and wavefunctions read in
 
   number of l-projection  operators is LMAX  =           6
   number of lm-projection operators is LMMAX =          18
 
 POTCAR:    PAW_PBE O 08Apr2002                   
  local pseudopotential read in
  partial core-charges read in
  partial kinetic energy density read in
  kinetic energy density of atom read in
  atomic valenz-charges read in
  non local Contribution for L=           0  read in
    real space projection operators read in
  non local Contribution for L=           0  read in
    real space projection operators read in
  non local Contribution for L=           1  read in
    real space projection operators read in
  non local Contribution for L=           1  read in
    real space projection operators read in
    PAW grid and wavefunctions read in
 
   number of l-projection  operators is LMAX  =           4
   number of lm-projection operators is LMMAX =           8
 
 POTCAR:    PAW_PBE H 15Jun2001                   
  local pseudopotential read in
  atomic valenz-charges read in
  non local Contribution for L=           0  read in
    real space projection operators read in
  non local Contribution for L=           0  read in
    real space projection operators read in
  non local Contribution for L=           1  read in
    real space projection operators read in
    PAW grid and wavefunctions read in
 
   number of l-projection  operators is LMAX  =           3
   number of lm-projection operators is LMMAX =           5
 
 Optimization of the real space projectors (new method)

 maximal supplied QI-value         = 16.25
 optimisation between [QCUT,QGAM] = [ 11.54, 23.24] = [ 37.28,151.24] Ry 
 Optimized for a Real-space Cutoff    1.45 Angstroem

   l    n(q)    QCUT    max X(q) W(low)/X(q) W(high)/X(q)  e(spline) 
   1     10    11.539     3.658    0.56E-04    0.12E-03    0.13E-06
   1     10    11.539     5.612    0.11E-03    0.23E-03    0.24E-06
   2      9    11.539    55.373    0.45E-04    0.92E-04    0.22E-06
   2      9    11.539    50.863    0.47E-04    0.95E-04    0.22E-06
   0     10    11.539    79.536    0.46E-04    0.27E-04    0.11E-06
   0     10    11.539    38.668    0.38E-04    0.25E-04    0.10E-06
 Optimization of the real space projectors (new method)

 maximal supplied QI-value         = 24.76
 optimisation between [QCUT,QGAM] = [ 11.64, 23.27] = [ 37.91,151.63] Ry 
 Optimized for a Real-space Cutoff    1.14 Angstroem

   l    n(q)    QCUT    max X(q) W(low)/X(q) W(high)/X(q)  e(spline) 
   0      8    11.635    20.381    0.10E-03    0.33E-03    0.24E-06
   0      8    11.635    15.268    0.11E-03    0.35E-03    0.26E-06
   1      7    11.635     5.964    0.24E-03    0.31E-03    0.30E-06
   1      7    11.635     5.382    0.22E-03    0.25E-03    0.26E-06
 Optimization of the real space projectors (new method)

 maximal supplied QI-value         = 34.20
 optimisation between [QCUT,QGAM] = [ 11.63, 23.26] = [ 37.87,151.49] Ry 
 Optimized for a Real-space Cutoff    1.21 Angstroem

   l    n(q)    QCUT    max X(q) W(low)/X(q) W(high)/X(q)  e(spline) 
   0      8    11.629    19.460    0.17E-03    0.34E-03    0.21E-06
   0      8    11.629    12.209    0.16E-03    0.33E-03    0.21E-06
   1      8    11.629     4.655    0.18E-03    0.16E-03    0.26E-06
  PAW_PBE Mn_pv 02Aug2007               :
 energy of atom  1       EATOM=-2025.2664
 kinetic energy error for atom=    0.0058 (will be added to EATOM!!)
  PAW_PBE O 08Apr2002                   :
 energy of atom  2       EATOM= -432.3788
 kinetic energy error for atom=    0.0208 (will be added to EATOM!!)
  PAW_PBE H 15Jun2001                   :
 energy of atom  3       EATOM=  -12.4884
 kinetic energy error for atom=    0.0014 (will be added to EATOM!!)
 
 
 POSCAR: Mn  O  H                                
  positions in direct lattice
  velocities in cartesian coordinates
 exchange correlation table for  LEXCH =        8
   RHO(1)=    0.500       N(1)  =     2000
   RHO(2)=  100.500       N(2)  =     4000

 VTST: version 3.1, (03/28/14)

 CHAIN: initializing optimizer
 
 OPT: Using VASP Conjugate-Gradient optimizer
 CHAIN: Read ICHAIN            0
 
 POSCAR: Mn  O  H                                
  positions in direct lattice
  velocities in cartesian coordinates
 


--------------------------------------------------------------------------------------------------------


 ion  position               nearest neighbor table
   1  0.221  0.892  0.089-  27 1.94  32 1.94  30 1.94  18 1.94  23 2.29  14 2.29   3 2.87   7 3.11
                             5 3.11
   2  0.674  0.162  0.218-  31 1.95  25 1.97  29 1.98  19 2.02  24 2.23  15 2.29   3 2.97   4 3.02
                             6 3.12   8 3.14   7 3.17
   3  0.949  0.028  0.152-  18 1.94  32 1.94  29 1.96  25 1.97  16 2.29  22 2.31   1 2.87   2 2.97
                             7 3.11   5 3.11   5 3.11   7 3.11
   4  0.386  0.294  0.284-  28 1.90  26 1.95  31 1.98  19 2.05  20 2.26  17 2.33   6 2.99   2 3.02
                             8 3.06   8 3.16
   5  0.449  0.528  0.152-  16 1.94  23 1.94  15 1.96  22 1.96  25 2.29  18 2.29   7 2.87   7 2.87
                             3 3.11   3 3.11   1 3.11
   6  0.907  0.291  0.282-  28 1.84  24 1.98  17 1.99  13 2.02  20 2.08  19 2.08   8 2.85   8 2.90
                             4 2.99   2 3.12
   7  0.449  0.028  0.152-  16 1.94  23 1.94  15 1.97  22 1.97  29 2.25  32 2.29   5 2.87   5 2.87
                             1 3.11   3 3.11   3 3.11   2 3.17
   8  0.898  0.791  0.282-  17 1.91  24 1.93  13 1.97  20 1.98  26 2.19  31 2.28   6 2.85   6 2.90
                             4 3.06   2 3.14   4 3.16
   9  0.903  0.551  0.105-  21 2.00  23 2.00  18 2.00  32 2.00
  10  0.360  0.810  0.235-  31 2.03  24 2.06  22 2.10  19 2.10
  11  0.992  0.508  0.200-  29 2.02  25 2.03  17 2.04  15 2.04
  12  0.539  0.233  0.073-  30 2.00  27 2.00  14 2.00  16 2.00
  13  0.778  0.607  0.314-  38 0.98   8 1.97   6 2.02
  14  0.879  0.063  0.055-  36 1.11  12 2.00   1 2.29
  15  0.341  0.333  0.183-   5 1.96   7 1.97  11 2.04   2 2.29
  16  0.582  0.212  0.125-   5 1.94   7 1.94  12 2.00   3 2.29
  17  0.028  0.490  0.253-   8 1.91   6 1.99  11 2.04   4 2.33
  18  0.095  0.729  0.122-   3 1.94   1 1.94   9 2.00   5 2.29
  19  0.577  0.435  0.256-   2 2.02   4 2.05   6 2.08  10 2.10
  20  0.749  0.110  0.312-  37 0.97   8 1.98   6 2.08   4 2.26
  21  0.859  0.573  0.054-  34 1.11   9 2.00
  22  0.315  0.844  0.181-   5 1.96   7 1.97  10 2.10   3 2.31
  23  0.562  0.722  0.123-   7 1.94   5 1.94   9 2.00   1 2.29
  24  0.004  0.983  0.251-   8 1.93   6 1.98  10 2.06   2 2.23
  25  0.797  0.326  0.184-   2 1.97   3 1.97  11 2.03   5 2.29
  26  0.229  0.607  0.313-  39 0.98   4 1.95   8 2.19
  27  0.346  0.603  0.056-  33 1.11   1 1.94  12 2.00
  28  0.200  0.144  0.305-   6 1.84   4 1.90
  29  0.795  0.879  0.183-   3 1.96   2 1.98  11 2.02   7 2.25
  30  0.346  0.056  0.056-  35 1.11   1 1.94  12 2.00
  31  0.548  0.001  0.251-   2 1.95   4 1.98  10 2.03   8 2.28
  32  0.095  0.182  0.122-   3 1.94   1 1.94   9 2.00   7 2.29
  33  0.340  0.604  0.028-  27 1.11
  34  0.924  0.685  0.037-  21 1.11
  35  0.344  0.064  0.028-  30 1.11
  36  0.888  0.056  0.027-  14 1.11
  37  0.790  0.082  0.336-  20 0.97
  38  0.900  0.548  0.332-  13 0.98
  39  0.308  0.721  0.314-  26 0.98
 
  LATTYP: Found a base centered orthorhombic cell.
 ALAT       =     5.7471469900
 B/A-ratio  =     1.9195481432
 C/A-ratio  =     6.7403003707
  
  Lattice vectors:
  
 A1 = (  -2.8735734950,  -2.8735734950,   4.7083351100)
 A2 = (  -2.8735734950,   2.8735734950,  -4.7083351100)
 A3 = (   0.0000000000, -33.0656910066, -20.1805290088)


Analysis of symmetry for initial positions (statically):
=====================================================================
 Subroutine PRICEL returns:
 Original cell was already a primitive cell.
 

 Routine SETGRP: Setting up the symmetry group for a 
 base centered orthorhombic supercell.


 Subroutine GETGRP returns: Found  1 space group operations
 (whereof  1 operations were pure point group operations)
 out of a pool of  8 trial point group operations.


The static configuration has the point symmetry C_1 .


Analysis of symmetry for dynamics (positions and initial velocities):
=====================================================================
 Subroutine PRICEL returns:
 Original cell was already a primitive cell.
 

 Routine SETGRP: Setting up the symmetry group for a 
 base centered orthorhombic supercell.


 Subroutine GETGRP returns: Found  1 space group operations
 (whereof  1 operations were pure point group operations)
 out of a pool of  8 trial point group operations.


The dynamic configuration has the point symmetry C_1 .


Analysis of constrained symmetry for selective dynamics:
=====================================================================
 Subroutine PRICEL returns:
 Original cell was already a primitive cell.
 

 Routine SETGRP: Setting up the symmetry group for a 
 base centered orthorhombic supercell.


 Subroutine GETGRP returns: Found  1 space group operations
 (whereof  1 operations were pure point group operations)
 out of a pool of  8 trial point group operations.


The constrained configuration has the point symmetry C_1 .


Analysis of structural, dynamic, and magnetic symmetry:
=====================================================================
 Subroutine PRICEL returns:
 Original cell was already a primitive cell.
 

 Routine SETGRP: Setting up the symmetry group for a 
 base centered orthorhombic supercell.


 Subroutine GETGRP returns: Found  1 space group operations
 (whereof  1 operations were pure point group operations)
 out of a pool of  8 trial point group operations.


The magnetic configuration has the point symmetry C_1 .


 Subroutine INISYM returns: Found  1 space group operations
 (whereof  1 operations are pure point group operations),
 and found     1 'primitive' translations

 
 
 KPOINTS: KPOINTS created by Atomic Simulation Env

Automatic generation of k-mesh.
Space group operators:
 irot       det(A)        alpha          n_x          n_y          n_z        tau_x        tau_y        tau_z
    1     1.000000     0.000000     1.000000     0.000000     0.000000     0.000000     0.000000     0.000000
 
 Subroutine IBZKPT returns following result:
 ===========================================
 
 Found     10 irreducible k-points:
 
 Following reciprocal coordinates:
            Coordinates               Weight
  0.000000  0.000000  0.000000      1.000000
  0.250000  0.000000 -0.000000      2.000000
  0.500000  0.000000 -0.000000      1.000000
  0.000000  0.250000 -0.000000      2.000000
  0.250000  0.250000 -0.000000      2.000000
  0.500000  0.250000  0.000000      2.000000
 -0.250000  0.250000 -0.000000      2.000000
  0.000000  0.500000 -0.000000      1.000000
  0.250000  0.500000 -0.000000      2.000000
  0.500000  0.500000 -0.000000      1.000000
 
 Following cartesian coordinates:
            Coordinates               Weight
  0.000000  0.000000  0.000000      1.000000
  0.000000 -0.023611  0.038687      2.000000
  0.000000 -0.047223  0.077374      1.000000
  0.043500  0.011806 -0.019343      2.000000
  0.043500 -0.011806  0.019343      2.000000
  0.043500 -0.035417  0.058030      2.000000
  0.043500  0.035417 -0.058030      2.000000
  0.087000  0.023611 -0.038687      1.000000
  0.087000  0.000000  0.000000      2.000000
  0.087000 -0.023611  0.038687      1.000000
 


--------------------------------------------------------------------------------------------------------




 Dimension of arrays:
   k-points           NKPTS =     10   k-points in BZ     NKDIM =     10   number of bands    NBANDS=    178
   number of dos      NEDOS =    301   number of ions     NIONS =     39
   non local maximal  LDIM  =      6   non local SUM 2l+1 LMDIM =     18
   total plane-waves  NPLWV = 663552
   max r-space proj   IRMAX =   6889   max aug-charges    IRDMAX=  16593
   dimension x,y,z NGX =    48 NGY =   48 NGZ =  288
   dimension x,y,z NGXF=    96 NGYF=   96 NGZF=  576
   support grid    NGXF=    96 NGYF=   96 NGZF=  576
   ions per type =              12  20   7
   NGX,Y,Z   is equivalent  to a cutoff of  12.83, 13.88, 12.36 a.u.
   NGXF,Y,Z  is equivalent  to a cutoff of  25.66, 27.77, 24.72 a.u.

 SYSTEM =  unknown system                          
 POSCAR =  Mn  O  H                                

 Startparameter for this run:
   NWRITE =      1    write-flag & timer
   PREC   = accura    normal or accurate (medium, high low for compatibility)
   ISTART =      0    job   : 0-new  1-cont  2-samecut
   ICHARG =      2    charge: 1-file 2-atom 10-const
   ISPIN  =      2    spin polarized calculation?
   LNONCOLLINEAR =      F non collinear calculations
   LSORBIT =      F    spin-orbit coupling
   INIWAV =      1    electr: 0-lowe 1-rand  2-diag
   LASPH  =      F    aspherical Exc in radial PAW
   METAGGA=      F    non-selfconsistent MetaGGA calc.

 Electronic Relaxation 1
   ENCUT  =  520.0 eV  38.22 Ry    6.18 a.u.  11.56 10.69 72.03*2*pi/ulx,y,z
   ENINI  =  520.0     initial cutoff
   ENAUG  =  605.4 eV  augmentation charge cutoff
   NELM   =     60;   NELMIN=  2; NELMDL= -5     # of ELM steps 
   EDIFF  = 0.1E-04   stopping-criterion for ELM
   LREAL  =      T    real-space projection
   NLSPLINE    = F    spline interpolate recip. space projectors
   LCOMPAT=      F    compatible to vasp.4.4
   GGA_COMPAT  = T    GGA compatible to vasp.4.4-vasp.4.6
   LMAXPAW     = -100 max onsite density
   LMAXMIX     =    2 max onsite mixed and CHGCAR
   VOSKOWN=      0    Vosko Wilk Nusair interpolation
   ROPT   =   -0.00025  -0.00025  -0.00025
 Ionic relaxation
   EDIFFG = -.5E-01   stopping-criterion for IOM
   NSW    =    500    number of steps for IOM
   NBLOCK =      1;   KBLOCK =    500    inner block; outer block 
   IBRION =      2    ionic relax: 0-MD 1-quasi-New 2-CG
   NFREE  =      1    steps in history (QN), initial steepest desc. (CG)
   ISIF   =      0    stress and relaxation
   IWAVPR =     11    prediction:  0-non 1-charg 2-wave 3-comb
   ISYM   =      2    0-nonsym 1-usesym 2-fastsym
   LCORR  =      T    Harris-Foulkes like correction to forces

   POTIM  = 0.5000    time-step for ionic-motion
   TEIN   =    0.0    initial temperature
   TEBEG  =    0.0;   TEEND  =   0.0 temperature during run
   SMASS  =  -3.00    Nose mass-parameter (am)
   estimated Nose-frequenzy (Omega)   =  0.10E-29 period in steps =****** mass=  -0.884E-27a.u.
   SCALEE = 1.0000    scale energy and forces
   NPACO  =    256;   APACO  = 16.0  distance and # of slots for P.C.
   PSTRESS=    0.0 pullay stress

  Mass of Ions in am
   POMASS =  54.94 16.00  1.00
  Ionic Valenz
   ZVAL   =  13.00  6.00  1.00
  Atomic Wigner-Seitz radii
   RWIGS  =  -1.00 -1.00 -1.00
  virtual crystal weights 
   VCA    =   1.00  1.00  1.00
   NELECT =     283.0000    total number of electrons
   NUPDOWN=      -1.0000    fix difference up-down

 DOS related values:
   EMIN   =  10.00;   EMAX   =-10.00  energy-range for DOS
   EFERMI =   0.00
   ISMEAR =     1;   SIGMA  =   0.20  broadening in eV -4-tet -1-fermi 0-gaus

 Electronic relaxation 2 (details)
   IALGO  =     68    algorithm
   LDIAG  =      T    sub-space diagonalisation (order eigenvalues)
   LSUBROT=      F    optimize rotation matrix (better conditioning)
   TURBO    =      0    0=normal 1=particle mesh
   IRESTART =      0    0=no restart 2=restart with 2 vectors
   NREBOOT  =      0    no. of reboots
   NMIN     =      0    reboot dimension
   EREF     =   0.00    reference energy to select bands
   IMIX   =      4    mixing-type and parameters
     AMIX     =   0.40;   BMIX     =  1.00
     AMIX_MAG =   1.60;   BMIX_MAG =  1.00
     AMIN     =   0.10
     WC   =   100.;   INIMIX=   1;  MIXPRE=   1;  MAXMIX= -45

 Intra band minimization:
   WEIMIN = 0.0010     energy-eigenvalue tresh-hold
   EBREAK =  0.14E-07  absolut break condition
   DEPER  =   0.30     relativ break condition  

   TIME   =   0.40     timestep for ELM

  volume/ion in A,a.u.               =      31.49       212.49
  Fermi-wavevector in a.u.,A,eV,Ry     =   1.003695  1.896709 13.706569  1.007404
  Thomas-Fermi vector in A             =   2.136264
 
 Write flags
   LWAVE        =      F    write WAVECAR
   LDOWNSAMPLE  =      F    k-point downsampling of WAVECAR
   LCHARG       =      F    write CHGCAR
   LVTOT        =      F    write LOCPOT, total local potential
   LVHAR        =      F    write LOCPOT, Hartree potential only
   LELF         =      F    write electronic localiz. function (ELF)
   LORBIT       =     11    0 simple, 1 ext, 2 COOP (PROOUT), +10 PAW based schemes


 Dipole corrections
   LMONO  =      F    monopole corrections only (constant potential shift)
   LDIPOL =      F    correct potential (dipole corrections)
   IDIPOL =      0    1-x, 2-y, 3-z, 4-all directions 
   EPSILON=  1.0000000 bulk dielectric constant

 LDA+U is selected, type is set to LDAUTYPE =  2
   angular momentum for each species LDAUL =     2   -1   -1
   U (eV)           for each species LDAUU =   3.9  0.0  0.0
   J (eV)           for each species LDAUJ =   0.0  0.0  0.0
 Exchange correlation treatment:
   GGA     =    PE    GGA type
   LEXCH   =     8    internal setting for exchange type
   VOSKOWN=      0    Vosko Wilk Nusair interpolation
   LHFCALC =     F    Hartree Fock is set to
   LHFONE  =     F    Hartree Fock one center treatment
   AEXX    =    0.0000 exact exchange contribution

 Linear response parameters
   LEPSILON=     F    determine dielectric tensor
   LRPA    =     F    only Hartree local field effects (RPA)
   LNABLA  =     F    use nabla operator in PAW spheres
   LVEL    =     F    velocity operator in full k-point grid
   LINTERFAST=   F  fast interpolation
   KINTER  =     0    interpolate to denser k-point grid
   CSHIFT  =0.1000    complex shift for real part using Kramers Kronig
   OMEGAMAX=  -1.0    maximum frequency
   DEG_THRESHOLD= 0.2000000E-02 threshold for treating states as degnerate
   RTIME   =   -0.100 relaxation time in fs
  (WPLASMAI=    0.000 imaginary part of plasma frequency in eV, 0.658/RTIME)
   DFIELD  = 0.0000000 0.0000000 0.0000000 field for delta impulse in time
 
 Orbital magnetization related:
   ORBITALMAG=     F  switch on orbital magnetization
   LCHIMAG   =     F  perturbation theory with respect to B field
   DQ        =  0.001000  dq finite difference perturbation B field
   LLRAUG    =     F  two centre corrections for induced B field



--------------------------------------------------------------------------------------------------------


 conjugate gradient relaxation of ions
   using selective dynamics as specified on POSCAR
 charge density and potential will be updated during run
 spin polarized calculation
 RMM-DIIS sequential band-by-band and
  variant of blocked Davidson during initial phase
 perform sub-space diagonalisation
    before iterative eigenvector-optimisation
 modified Broyden-mixing scheme, WC =      100.0
 initial mixing is a Kerker type mixing with AMIX =  0.4000 and BMIX =      1.0000
 Hartree-type preconditioning will be used
 using additional bands           36
 real space projection scheme for non local part
 use partial core corrections
 calculate Harris-corrections to forces 
   (improved forces if not selfconsistent)
 use gradient corrections 
 use of overlap-Matrix (Vanderbilt PP)
 Methfessel and Paxton  Order N= 1 SIGMA  =   0.20


--------------------------------------------------------------------------------------------------------


  energy-cutoff  :      520.00
  volume of cell :     1228.02
      direct lattice vectors                 reciprocal lattice vectors
     2.873573495 -2.873573495  4.708335110     0.000000000 -0.094445153  0.154747888
     5.747146990  0.000000000  0.000000000     0.173999378  0.047222576 -0.077373944
     0.000000000 33.065691007 20.180529009     0.000000000  0.022035073  0.013448363

  length of vectors
     6.219587508  5.747146990 38.737496987     0.181292017  0.196195011  0.025814781


 
 k-points in units of 2pi/SCALE and weight: KPOINTS created by Atomic Simulation Env
   0.00000000  0.00000000  0.00000000       0.062
   0.00000000 -0.02361129  0.03868697       0.125
   0.00000000 -0.04722258  0.07737394       0.062
   0.04349984  0.01180564 -0.01934349       0.125
   0.04349984 -0.01180564  0.01934349       0.125
   0.04349984 -0.03541693  0.05803046       0.125
   0.04349984  0.03541693 -0.05803046       0.125
   0.08699969  0.02361129 -0.03868697       0.062
   0.08699969 -0.00000000 -0.00000000       0.125
   0.08699969 -0.02361129  0.03868697       0.062
 
 k-points in reciprocal lattice and weights: KPOINTS created by Atomic Simulation Env
   0.00000000  0.00000000  0.00000000       0.062
   0.25000000  0.00000000 -0.00000000       0.125
   0.50000000  0.00000000 -0.00000000       0.062
   0.00000000  0.25000000 -0.00000000       0.125
   0.25000000  0.25000000 -0.00000000       0.125
   0.50000000  0.25000000  0.00000000       0.125
  -0.25000000  0.25000000 -0.00000000       0.125
   0.00000000  0.50000000 -0.00000000       0.062
   0.25000000  0.50000000 -0.00000000       0.125
   0.50000000  0.50000000 -0.00000000       0.062
 
 position of ions in fractional coordinates (direct lattice) 
   0.22067121  0.89240241  0.08901558
   0.67389937  0.16237221  0.21827073
   0.94927612  0.02809995  0.15233499
   0.38633364  0.29418417  0.28449430
   0.44927612  0.52809995  0.15233499
   0.90650720  0.29139970  0.28196211
   0.44927612  0.02809995  0.15233499
   0.89820602  0.79140296  0.28224614
   0.90282244  0.55132680  0.10484543
   0.36000816  0.81035651  0.23503909
   0.99227253  0.50769466  0.20048038
   0.53851998  0.23347802  0.07318573
   0.77847598  0.60666349  0.31356823
   0.87926422  0.06310591  0.05527763
   0.34055766  0.33339197  0.18312636
   0.58246139  0.21150732  0.12452493
   0.02836844  0.49039464  0.25277041
   0.09516526  0.72856013  0.12156099
   0.57716950  0.43544111  0.25577871
   0.74864261  0.10968922  0.31160676
   0.85888103  0.57329750  0.05350623
   0.31502762  0.84395470  0.18127751
   0.56207820  0.72169891  0.12275353
   0.00410594  0.98265931  0.25148158
   0.79722254  0.32595454  0.18436521
   0.22929003  0.60700731  0.31321114
   0.34617716  0.60305419  0.05647018
   0.20023002  0.14449904  0.30467503
   0.79476762  0.87934949  0.18313980
   0.34617716  0.05624469  0.05647018
   0.54755512  0.00070224  0.25138033
   0.09516526  0.18175063  0.12156099
   0.34047062  0.60391201  0.02782883
   0.92434681  0.68523651  0.03696881
   0.34363348  0.06399961  0.02783421
   0.88838126  0.05560908  0.02665597
   0.78990440  0.08241728  0.33599465
   0.90006620  0.54830583  0.33205685
   0.30775343  0.72114080  0.31384192
 
 position of ions in cartesian coordinates  (Angst):
   5.76288277  2.30924686  2.83537559
   2.86967634  5.28077310  7.57776284
   2.88930927  2.30924686  7.54371070
   2.80087781  8.29684250  7.56023374
   4.32609602  3.74603361  5.18954314
   4.27963197  6.71835706  9.95828427
   1.45252253  3.74603361  5.18954314
   7.12937013  6.75160261  9.92493133
   5.76288277  0.87246011  6.36662692
   5.69174789  6.73721995  6.43825219
   5.76916391  3.77765426  8.71775174
   2.88930927  0.87246011  4.01245936
   5.72359221  8.13134235  9.99329861
   2.88930927 -0.69883718  5.25540249
   2.89467013  5.07658229  5.29904649
   2.88930927  2.44375740  5.25540249
   2.89988889  8.27650937  5.23460864
   4.46060656  3.74603361  2.90123493
   4.16108302  6.79896084  7.87925712
   2.78167965  8.15221319  9.81324948
   5.76288277 -0.69883718  5.12368380
   5.75558673  5.08881120  5.14153173
   5.76288277  2.44375740  5.12368380
   5.65928624  8.30361354  5.09436350
   4.16418625  3.80528554  7.47417838
   4.14744201  9.69766099  7.40034081
   4.46060656  0.87246011  2.76951624
   1.40583293  9.49891462  7.09125328
   7.33757395  3.77182074  7.43789026
   1.31801199  0.87246011  2.76951624
   1.57747575  6.73862438  7.65106102
   1.31801199  3.74603361  2.90123493
   4.44913845 -0.05818785  2.16465027
   6.59433342 -1.43377909  5.09818478
   1.35527122 -0.06709860  2.17965068
   2.87242244 -1.67143072  4.72072832
   2.74351259  8.84004701 10.49968444
   5.73760057  8.39328289 10.93889619
   5.02885425  9.49304781  7.78250222
 


--------------------------------------------------------------------------------------------------------


 k-point  1 :   0.0000 0.0000 0.0000  plane waves:   33139
 k-point  2 :   0.2500 0.0000-0.0000  plane waves:   33075
 k-point  3 :   0.5000 0.0000-0.0000  plane waves:   33034
 k-point  4 :   0.0000 0.2500-0.0000  plane waves:   33096
 k-point  5 :   0.2500 0.2500-0.0000  plane waves:   33096
 k-point  6 :   0.5000 0.2500 0.0000  plane waves:   33037
 k-point  7 :  -0.2500 0.2500-0.0000  plane waves:   33037
 k-point  8 :   0.0000 0.5000-0.0000  plane waves:   33016
 k-point  9 :   0.2500 0.5000-0.0000  plane waves:   33093
 k-point 10 :   0.5000 0.5000-0.0000  plane waves:   33016

 maximum and minimum number of plane-waves per node :      1061     1010

 maximum number of plane-waves:     33139
 maximum index in each direction: 
   IXMAX=   11   IYMAX=   10   IZMAX=   72
   IXMIN=  -12   IYMIN=  -11   IZMIN=  -72


 real space projection operators:
  total allocation   :      16344.81 KBytes
  max/ min on nodes  :        752.51        248.49


 parallel 3D FFT for wavefunctions:
    minimum data exchange during FFTs selected (reduces bandwidth)
 parallel 3D FFT for charge:
    minimum data exchange during FFTs selected (reduces bandwidth)


 total amount of memory used by VASP MPI-rank0    82027. kBytes
=======================================================================

   base      :      30000. kBytes
   nonlr-proj:       5346. kBytes
   fftplans  :       4286. kBytes
   grid      :      11974. kBytes
   one-center:         62. kBytes
   wavefun   :      30359. kBytes
 
     INWAV:  cpu time    0.0003: real time    0.0003
 Broyden mixing: mesh for mixing (old mesh)
   NGX = 23   NGY = 21   NGZ =145
  (NGX  = 96   NGY  = 96   NGZ  =576)
  gives a total of  70035 points

 initial charge density was supplied:
 charge density of overlapping atoms calculated
 number of electron     283.0000000 magnetization      17.6000000
 keeping initial charge density in first step


--------------------------------------------------------------------------------------------------------


 Maximum index for non-local projection operator          417
 Maximum index for augmentation-charges          717 (set IRDMAX)


--------------------------------------------------------------------------------------------------------


 First call to EWALD:  gamma=   0.166
 Maximum number of real-space cells 5x 5x 1
 Maximum number of reciprocal cells 2x 2x 9

    FEWALD:  cpu time    0.0076: real time    0.0076


--------------------------------------- Iteration      1(   1)  ---------------------------------------


    POTLOK:  cpu time    0.5429: real time    0.5639
    SETDIJ:  cpu time    0.0674: real time    0.0677
     EDDAV:  cpu time   40.8130: real time   41.2315
       DOS:  cpu time    0.0267: real time    0.0267
    --------------------------------------------
      LOOP:  cpu time   41.4501: real time   41.8899

 eigenvalue-minimisations  :  8568
 total energy-change (2. order) : 0.3072630E+04  (-0.1521159E+05)
 number of electron     283.0000000 magnetization      17.6000000
 augmentation part      283.0000000 magnetization      17.6000000

 Free energy of the ion-electron system (eV)
  ---------------------------------------------------
  alpha Z        PSCENC =       367.19046233
  Ewald energy   TEWEN  =    350284.11635738
  -Hartree energ DENC   =   -379132.30021195
  -exchange      EXHF   =         0.00000000
  -V(xc)+E(xc)   XCENC  =      1403.51627970
  PAW double counting   =     26684.04616855   -27256.18289806
  entropy T*S    EENTRO =        -0.01428077
  eigenvalues    EBANDS =     -2315.43753598
  atomic energy  EATOM  =     33037.69599157
  Solvation  Ediel_sol  =         0.00000000
  ---------------------------------------------------
  free energy    TOTEN  =      3072.63033277 eV

  energy without entropy =     3072.64461353  energy(sigma->0) =     3072.63509302


--------------------------------------------------------------------------------------------------------




--------------------------------------- Iteration      1(   2)  ---------------------------------------


     EDDAV:  cpu time   38.8260: real time   39.4143
       DOS:  cpu time    0.0272: real time    0.0272
    --------------------------------------------
      LOOP:  cpu time   38.8532: real time   39.4415

 eigenvalue-minimisations  :  8004
 total energy-change (2. order) :-0.2855585E+04  (-0.2689043E+04)
 number of electron     283.0000000 magnetization      17.6000000
 augmentation part      283.0000000 magnetization      17.6000000

 Free energy of the ion-electron system (eV)
  ---------------------------------------------------
  alpha Z        PSCENC =       367.19046233
  Ewald energy   TEWEN  =    350284.11635738
  -Hartree energ DENC   =   -379132.30021195
  -exchange      EXHF   =         0.00000000
  -V(xc)+E(xc)   XCENC  =      1403.51627970
  PAW double counting   =     26684.04616855   -27256.18289806
  entropy T*S    EENTRO =         0.00571380
  eigenvalues    EBANDS =     -5171.04286940
  atomic energy  EATOM  =     33037.69599157
  Solvation  Ediel_sol  =         0.00000000
  ---------------------------------------------------
  free energy    TOTEN  =       217.04499391 eV

  energy without entropy =      217.03928011  energy(sigma->0) =      217.04308931


--------------------------------------------------------------------------------------------------------




--------------------------------------- Iteration      1(   3)  ---------------------------------------


     EDDAV:  cpu time   40.9093: real time   41.3390
       DOS:  cpu time    0.0277: real time    0.0277
    --------------------------------------------
      LOOP:  cpu time   40.9370: real time   41.3667

 eigenvalue-minimisations  :  8588
 total energy-change (2. order) :-0.4993296E+03  (-0.4915898E+03)
 number of electron     283.0000000 magnetization      17.6000000
 augmentation part      283.0000000 magnetization      17.6000000

 Free energy of the ion-electron system (eV)
  ---------------------------------------------------
  alpha Z        PSCENC =       367.19046233
  Ewald energy   TEWEN  =    350284.11635738
  -Hartree energ DENC   =   -379132.30021195
  -exchange      EXHF   =         0.00000000
  -V(xc)+E(xc)   XCENC  =      1403.51627970
  PAW double counting   =     26684.04616855   -27256.18289806
  entropy T*S    EENTRO =         0.04378393
  eigenvalues    EBANDS =     -5670.41054567
  atomic energy  EATOM  =     33037.69599157
  Solvation  Ediel_sol  =         0.00000000
  ---------------------------------------------------
  free energy    TOTEN  =      -282.28461222 eV

  energy without entropy =     -282.32839616  energy(sigma->0) =     -282.29920687


--------------------------------------------------------------------------------------------------------




--------------------------------------- Iteration      1(   4)  ---------------------------------------


     EDDAV:  cpu time   40.5241: real time   40.7022
       DOS:  cpu time    0.0269: real time    0.0269
    --------------------------------------------
      LOOP:  cpu time   40.5510: real time   40.7291

 eigenvalue-minimisations  :  8576
 total energy-change (2. order) :-0.2196647E+02  (-0.2179494E+02)
 number of electron     283.0000000 magnetization      17.6000000
 augmentation part      283.0000000 magnetization      17.6000000

 Free energy of the ion-electron system (eV)
  ---------------------------------------------------
  alpha Z        PSCENC =       367.19046233
  Ewald energy   TEWEN  =    350284.11635738
  -Hartree energ DENC   =   -379132.30021195
  -exchange      EXHF   =         0.00000000
  -V(xc)+E(xc)   XCENC  =      1403.51627970
  PAW double counting   =     26684.04616855   -27256.18289806
  entropy T*S    EENTRO =         0.04963693
  eigenvalues    EBANDS =     -5692.38287152
  atomic energy  EATOM  =     33037.69599157
  Solvation  Ediel_sol  =         0.00000000
  ---------------------------------------------------
  free energy    TOTEN  =      -304.25108509 eV

  energy without entropy =     -304.30072201  energy(sigma->0) =     -304.26763073


--------------------------------------------------------------------------------------------------------




--------------------------------------- Iteration      1(   5)  ---------------------------------------


     EDDAV:  cpu time   40.9904: real time   41.5199
       DOS:  cpu time    0.0279: real time    0.0279
    CHARGE:  cpu time    3.0473: real time    3.0547
    MIXING:  cpu time    0.0169: real time    0.0187
    --------------------------------------------
      LOOP:  cpu time   44.0826: real time   44.6211

 eigenvalue-minimisations  :  8624
 total energy-change (2. order) :-0.5105613E+00  (-0.5094983E+00)
 number of electron     282.9999984 magnetization      17.6554053
 augmentation part       97.0685676 magnetization      10.3088818

 Broyden mixing:
  rms(total) = 0.70485E+01    rms(broyden)= 0.70464E+01
  rms(prec ) = 0.71471E+01
  weight for this iteration     100.00

 Free energy of the ion-electron system (eV)
  ---------------------------------------------------
  alpha Z        PSCENC =       367.19046233
  Ewald energy   TEWEN  =    350284.11635738
  -Hartree energ DENC   =   -379132.30021195
  -exchange      EXHF   =         0.00000000
  -V(xc)+E(xc)   XCENC  =      1403.51627970
  PAW double counting   =     26684.04616855   -27256.18289806
  entropy T*S    EENTRO =         0.04998464
  eigenvalues    EBANDS =     -5692.89378051
  atomic energy  EATOM  =     33037.69599157
  Solvation  Ediel_sol  =         0.00000000
  ---------------------------------------------------
  free energy    TOTEN  =      -304.76164635 eV

  energy without entropy =     -304.81163100  energy(sigma->0) =     -304.77830790


--------------------------------------------------------------------------------------------------------




--------------------------------------- Iteration      1(   6)  ---------------------------------------


    POTLOK:  cpu time    0.4945: real time    0.5256
    SETDIJ:  cpu time    0.0425: real time    0.0425
    EDDIAG:  cpu time    7.6188: real time    7.6289
  RMM-DIIS:  cpu time   25.9160: real time   26.3910
    ORTHCH:  cpu time    0.3921: real time    0.3931
       DOS:  cpu time    0.0260: real time    0.0260
    CHARGE:  cpu time    2.9131: real time    2.9162
    MIXING:  cpu time    0.0136: real time    0.0251
    --------------------------------------------
      LOOP:  cpu time   37.4167: real time   37.9485

 eigenvalue-minimisations  :  8529
 total energy-change (2. order) : 0.1911026E+02  (-0.5968610E+02)
 number of electron     282.9999973 magnetization      17.6155111
 augmentation part      104.2884092 magnetization      12.8826884

 Broyden mixing:
  rms(total) = 0.92868E+01    rms(broyden)= 0.92860E+01
  rms(prec ) = 0.95139E+01
  weight for this iteration     100.00

 eigenvalues of (default mixing * dielectric matrix)
  average eigenvalue GAMMA=   0.2421
  0.2421

 Free energy of the ion-electron system (eV)
  ---------------------------------------------------
  alpha Z        PSCENC =       367.19046233
  Ewald energy   TEWEN  =    350284.11635738
  -Hartree energ DENC   =   -378988.55729208
  -exchange      EXHF   =         0.00000000
  -V(xc)+E(xc)   XCENC  =      1412.76487417
  PAW double counting   =     28358.67910382   -28874.32368047
  entropy T*S    EENTRO =         0.02009477
  eigenvalues    EBANDS =     -5883.23730112
  atomic energy  EATOM  =     33037.69599157
  Solvation  Ediel_sol  =         0.00000000
  ---------------------------------------------------
  free energy    TOTEN  =      -285.65138964 eV

  energy without entropy =     -285.67148441  energy(sigma->0) =     -285.65808790


--------------------------------------------------------------------------------------------------------




--------------------------------------- Iteration      1(   7)  ---------------------------------------


    POTLOK:  cpu time    0.4691: real time    0.5043
    SETDIJ:  cpu time    0.0411: real time    0.0411
    EDDIAG:  cpu time    7.5962: real time    7.6049
  RMM-DIIS:  cpu time   24.8313: real time   24.8729
    ORTHCH:  cpu time    0.3872: real time    0.3881
       DOS:  cpu time    0.0251: real time    0.0251
    CHARGE:  cpu time    3.0275: real time    3.0658
    MIXING:  cpu time    0.0100: real time    0.0132
    --------------------------------------------
      LOOP:  cpu time   36.3874: real time   36.5154

 eigenvalue-minimisations  :  8347
 total energy-change (2. order) : 0.4559609E+01  (-0.3847954E+01)
 number of electron     282.9999978 magnetization      17.5879805
 augmentation part      101.2781088 magnetization      11.6192095

 Broyden mixing:
  rms(total) = 0.72471E+01    rms(broyden)= 0.72462E+01
  rms(prec ) = 0.75819E+01
  weight for this iteration     100.00

 eigenvalues of (default mixing * dielectric matrix)
  average eigenvalue GAMMA=   0.3100
  0.3100  0.3100

 Free energy of the ion-electron system (eV)
  ---------------------------------------------------
  alpha Z        PSCENC =       367.19046233
  Ewald energy   TEWEN  =    350284.11635738
  -Hartree energ DENC   =   -379170.99888565
  -exchange      EXHF   =         0.00000000
  -V(xc)+E(xc)   XCENC  =      1413.79999049
  PAW double counting   =     29302.50071477   -29851.40665504
  entropy T*S    EENTRO =        -0.03890757
  eigenvalues    EBANDS =     -5663.95084863
  atomic energy  EATOM  =     33037.69599157
  Solvation  Ediel_sol  =         0.00000000
  ---------------------------------------------------
  free energy    TOTEN  =      -281.09178035 eV

  energy without entropy =     -281.05287278  energy(sigma->0) =     -281.07881116


--------------------------------------------------------------------------------------------------------




--------------------------------------- Iteration      1(   8)  ---------------------------------------


    POTLOK:  cpu time    0.4535: real time    0.4846
    SETDIJ:  cpu time    0.0406: real time    0.0406
    EDDIAG:  cpu time    7.5755: real time    7.5941
  RMM-DIIS:  cpu time   22.9538: real time   23.2835
    ORTHCH:  cpu time    0.3859: real time    0.3859
       DOS:  cpu time    0.0257: real time    0.0258
    CHARGE:  cpu time    2.8792: real time    2.8830
    MIXING:  cpu time    0.0103: real time    0.0123
    --------------------------------------------
      LOOP:  cpu time   34.3246: real time   34.7099

 eigenvalue-minimisations  :  7554
 total energy-change (2. order) :-0.2616113E+01  (-0.5341929E+01)
 number of electron     282.9999976 magnetization      17.4115602
 augmentation part      101.2538028 magnetization      15.0367890

 Broyden mixing:
  rms(total) = 0.80753E+01    rms(broyden)= 0.80747E+01
  rms(prec ) = 0.84626E+01
  weight for this iteration     100.00

 eigenvalues of (default mixing * dielectric matrix)
  average eigenvalue GAMMA=   0.4055
  0.5337  0.5337  0.1491

 Free energy of the ion-electron system (eV)
  ---------------------------------------------------
  alpha Z        PSCENC =       367.19046233
  Ewald energy   TEWEN  =    350284.11635738
  -Hartree energ DENC   =   -379248.75911252
  -exchange      EXHF   =         0.00000000
  -V(xc)+E(xc)   XCENC  =      1414.15949787
  PAW double counting   =     30033.61493713   -30601.39525061
  entropy T*S    EENTRO =         0.00279734
  eigenvalues    EBANDS =     -5570.33357364
  atomic energy  EATOM  =     33037.69599157
  Solvation  Ediel_sol  =         0.00000000
  ---------------------------------------------------
  free energy    TOTEN  =      -283.70789316 eV

  energy without entropy =     -283.71069050  energy(sigma->0) =     -283.70882561


--------------------------------------------------------------------------------------------------------




--------------------------------------- Iteration      1(   9)  ---------------------------------------


    POTLOK:  cpu time    0.4672: real time    0.4990
    SETDIJ:  cpu time    0.0412: real time    0.0412
    EDDIAG:  cpu time    7.6038: real time    7.7837
  RMM-DIIS:  cpu time   23.3517: real time   23.4127
    ORTHCH:  cpu time    0.3878: real time    0.3878
       DOS:  cpu time    0.0266: real time    0.0266
    CHARGE:  cpu time    3.0543: real time    3.0816
    MIXING:  cpu time    0.0100: real time    0.0100
    --------------------------------------------
      LOOP:  cpu time   34.9426: real time   35.2426

 eigenvalue-minimisations  :  7822
 total energy-change (2. order) : 0.1928247E+02  (-0.4383628E+01)
 number of electron     282.9999973 magnetization      17.2539197
 augmentation part      102.2535403 magnetization      12.6994173

 Broyden mixing:
  rms(total) = 0.45268E+01    rms(broyden)= 0.45256E+01
  rms(prec ) = 0.46962E+01
  weight for this iteration     100.00

 eigenvalues of (default mixing * dielectric matrix)
  average eigenvalue GAMMA=   0.4862
  0.6887  0.6887  0.4162  0.1511

 Free energy of the ion-electron system (eV)
  ---------------------------------------------------
  alpha Z        PSCENC =       367.19046233
  Ewald energy   TEWEN  =    350284.11635738
  -Hartree energ DENC   =   -379187.73957733
  -exchange      EXHF   =         0.00000000
  -V(xc)+E(xc)   XCENC  =      1413.73938766
  PAW double counting   =     30960.87314255   -31546.16729262
  entropy T*S    EENTRO =        -0.01164777
  eigenvalues    EBANDS =     -5594.12224430
  atomic energy  EATOM  =     33037.69599157
  Solvation  Ediel_sol  =         0.00000000
  ---------------------------------------------------
  free energy    TOTEN  =      -264.42542053 eV

  energy without entropy =     -264.41377276  energy(sigma->0) =     -264.42153794


--------------------------------------------------------------------------------------------------------




--------------------------------------- Iteration      1(  10)  ---------------------------------------


    POTLOK:  cpu time    0.4668: real time    0.4978
    SETDIJ:  cpu time    0.0409: real time    0.0409
    EDDIAG:  cpu time    7.7956: real time    8.1791
  RMM-DIIS:  cpu time   23.8768: real time   23.9091
    ORTHCH:  cpu time    0.3876: real time    0.3876
       DOS:  cpu time    0.0258: real time    0.0258
    CHARGE:  cpu time    3.0070: real time    3.0111
    MIXING:  cpu time    0.0106: real time    0.0106
    --------------------------------------------
      LOOP:  cpu time   35.6111: real time   36.0620

 eigenvalue-minimisations  :  8017
 total energy-change (2. order) :-0.5492557E+01  (-0.3358181E+01)
 number of electron     282.9999983 magnetization      17.0880915
 augmentation part       98.6510721 magnetization      12.5722282

 Broyden mixing:
  rms(total) = 0.60804E+01    rms(broyden)= 0.60794E+01
  rms(prec ) = 0.62095E+01
  weight for this iteration     100.00

 eigenvalues of (default mixing * dielectric matrix)
  average eigenvalue GAMMA=   0.5290
  1.2121  0.5507  0.5507  0.1657  0.1657

 Free energy of the ion-electron system (eV)
  ---------------------------------------------------
  alpha Z        PSCENC =       367.19046233
  Ewald energy   TEWEN  =    350284.11635738
  -Hartree energ DENC   =   -379294.05293854
  -exchange      EXHF   =         0.00000000
  -V(xc)+E(xc)   XCENC  =      1414.65490259
  PAW double counting   =     31730.73748724   -32323.50768409
  entropy T*S    EENTRO =        -0.02523776
  eigenvalues    EBANDS =     -5486.72731870
  atomic energy  EATOM  =     33037.69599157
  Solvation  Ediel_sol  =         0.00000000
  ---------------------------------------------------
  free energy    TOTEN  =      -269.91797799 eV

  energy without entropy =     -269.89274023  energy(sigma->0) =     -269.90956540


--------------------------------------------------------------------------------------------------------




--------------------------------------- Iteration      1(  11)  ---------------------------------------


    POTLOK:  cpu time    0.4987: real time    0.4990
    SETDIJ:  cpu time    0.0414: real time    0.0414
    EDDIAG:  cpu time    7.5837: real time    7.5923
  RMM-DIIS:  cpu time   23.7476: real time   24.2441
    ORTHCH:  cpu time    0.3861: real time    0.3870
       DOS:  cpu time    0.0255: real time    0.0255
    CHARGE:  cpu time    2.9693: real time    2.9723
    MIXING:  cpu time    0.0101: real time    0.0101
    --------------------------------------------
      LOOP:  cpu time   35.2625: real time   35.7717

 eigenvalue-minimisations  :  7770
 total energy-change (2. order) : 0.7722733E+00  (-0.2995233E+01)
 number of electron     282.9999977 magnetization      16.9340300
 augmentation part      100.2091793 magnetization      10.9459087

 Broyden mixing:
  rms(total) = 0.49034E+01    rms(broyden)= 0.49027E+01
  rms(prec ) = 0.54120E+01
  weight for this iteration     100.00

 eigenvalues of (default mixing * dielectric matrix)
  average eigenvalue GAMMA=   0.5305
  1.3743  0.5907  0.5907  0.2875  0.1451  0.1946

 Free energy of the ion-electron system (eV)
  ---------------------------------------------------
  alpha Z        PSCENC =       367.19046233
  Ewald energy   TEWEN  =    350284.11635738
  -Hartree energ DENC   =   -379359.57458014
  -exchange      EXHF   =         0.00000000
  -V(xc)+E(xc)   XCENC  =      1416.71937501
  PAW double counting   =     32458.96478949   -33063.26201775
  entropy T*S    EENTRO =        -0.01547843
  eigenvalues    EBANDS =     -5410.98060414
  atomic energy  EATOM  =     33037.69599157
  Solvation  Ediel_sol  =         0.00000000
  ---------------------------------------------------
  free energy    TOTEN  =      -269.14570469 eV

  energy without entropy =     -269.13022626  energy(sigma->0) =     -269.14054521


--------------------------------------------------------------------------------------------------------




--------------------------------------- Iteration      1(  12)  ---------------------------------------


    POTLOK:  cpu time    0.4653: real time    0.4974
    SETDIJ:  cpu time    0.0411: real time    0.0411
    EDDIAG:  cpu time    7.6142: real time    7.6219
  RMM-DIIS:  cpu time   23.0490: real time   23.0809
    ORTHCH:  cpu time    0.3885: real time    0.3886
       DOS:  cpu time    0.0269: real time    0.0269
    CHARGE:  cpu time    3.0129: real time    3.0261
    MIXING:  cpu time    0.0104: real time    0.0104
    --------------------------------------------
      LOOP:  cpu time   34.6082: real time   34.6933

 eigenvalue-minimisations  :  7695
 total energy-change (2. order) : 0.1197353E+02  (-0.9691064E+00)
 number of electron     282.9999974 magnetization      16.8646325
 augmentation part      100.0313128 magnetization      12.5055717

 Broyden mixing:
  rms(total) = 0.37806E+01    rms(broyden)= 0.37795E+01
  rms(prec ) = 0.39905E+01
  weight for this iteration     100.00

 eigenvalues of (default mixing * dielectric matrix)
  average eigenvalue GAMMA=   0.5744
  1.7599  0.6460  0.6460  0.3198  0.3198  0.1903  0.1392

 Free energy of the ion-electron system (eV)
  ---------------------------------------------------
  alpha Z        PSCENC =       367.19046233
  Ewald energy   TEWEN  =    350284.11635738
  -Hartree energ DENC   =   -379357.86150272
  -exchange      EXHF   =         0.00000000
  -V(xc)+E(xc)   XCENC  =      1416.19551616
  PAW double counting   =     32937.02539614   -33547.06409919
  entropy T*S    EENTRO =        -0.00037306
  eigenvalues    EBANDS =     -5394.46991904
  atomic energy  EATOM  =     33037.69599157
  Solvation  Ediel_sol  =         0.00000000
  ---------------------------------------------------
  free energy    TOTEN  =      -257.17217043 eV

  energy without entropy =     -257.17179737  energy(sigma->0) =     -257.17204608


--------------------------------------------------------------------------------------------------------




--------------------------------------- Iteration      1(  13)  ---------------------------------------


    POTLOK:  cpu time    0.4644: real time    0.4961
    SETDIJ:  cpu time    0.0412: real time    0.0412
    EDDIAG:  cpu time    7.5571: real time    7.6204
  RMM-DIIS:  cpu time   24.5050: real time   24.8732
    ORTHCH:  cpu time    0.3821: real time    0.3830
       DOS:  cpu time    0.0261: real time    0.0261
    CHARGE:  cpu time    2.9967: real time    2.9996
    MIXING:  cpu time    0.0103: real time    0.0103
    --------------------------------------------
      LOOP:  cpu time   35.9828: real time   36.4497

 eigenvalue-minimisations  :  8107
 total energy-change (2. order) : 0.3406555E+01  (-0.6360335E+00)
 number of electron     282.9999978 magnetization      16.7990688
 augmentation part       99.9542685 magnetization      12.0755737

 Broyden mixing:
  rms(total) = 0.28672E+01    rms(broyden)= 0.28658E+01
  rms(prec ) = 0.30183E+01
  weight for this iteration     100.00

 eigenvalues of (default mixing * dielectric matrix)
  average eigenvalue GAMMA=   0.5542
  1.8820  0.7078  0.7078  0.3146  0.3146  0.2065  0.1678  0.1323

 Free energy of the ion-electron system (eV)
  ---------------------------------------------------
  alpha Z        PSCENC =       367.19046233
  Ewald energy   TEWEN  =    350284.11635738
  -Hartree energ DENC   =   -379368.99413375
  -exchange      EXHF   =         0.00000000
  -V(xc)+E(xc)   XCENC  =      1416.10699441
  PAW double counting   =     33009.17727835   -33619.31804401
  entropy T*S    EENTRO =         0.00057551
  eigenvalues    EBANDS =     -5379.74109672
  atomic energy  EATOM  =     33037.69599157
  Solvation  Ediel_sol  =         0.00000000
  ---------------------------------------------------
  free energy    TOTEN  =      -253.76561495 eV

  energy without entropy =     -253.76619046  energy(sigma->0) =     -253.76580679


--------------------------------------------------------------------------------------------------------




--------------------------------------- Iteration      1(  14)  ---------------------------------------


    POTLOK:  cpu time    0.4645: real time    0.4958
    SETDIJ:  cpu time    0.0413: real time    0.0413
    EDDIAG:  cpu time    7.6083: real time    7.6182
  RMM-DIIS:  cpu time   22.9535: real time   23.0873
    ORTHCH:  cpu time    0.3857: real time    0.3865
       DOS:  cpu time    0.0264: real time    0.0264
    CHARGE:  cpu time    2.9901: real time    2.9932
    MIXING:  cpu time    0.0105: real time    0.0105
    --------------------------------------------
      LOOP:  cpu time   34.4802: real time   34.6591

 eigenvalue-minimisations  :  7659
 total energy-change (2. order) : 0.8095944E+00  (-0.2522403E+00)
 number of electron     282.9999976 magnetization      16.7950084
 augmentation part      100.0655333 magnetization      11.5587977

 Broyden mixing:
  rms(total) = 0.16419E+01    rms(broyden)= 0.16408E+01
  rms(prec ) = 0.16558E+01
  weight for this iteration     100.00

 eigenvalues of (default mixing * dielectric matrix)
  average eigenvalue GAMMA=   0.5041
  1.8137  0.7374  0.7374  0.2735  0.2661  0.2661  0.1557  0.1557  0.1317

 Free energy of the ion-electron system (eV)
  ---------------------------------------------------
  alpha Z        PSCENC =       367.19046233
  Ewald energy   TEWEN  =    350284.11635738
  -Hartree energ DENC   =   -379364.20326546
  -exchange      EXHF   =         0.00000000
  -V(xc)+E(xc)   XCENC  =      1416.34052883
  PAW double counting   =     33067.23376397   -33677.15410906
  entropy T*S    EENTRO =        -0.04575519
  eigenvalues    EBANDS =     -5384.12999489
  atomic energy  EATOM  =     33037.69599157
  Solvation  Ediel_sol  =         0.00000000
  ---------------------------------------------------
  free energy    TOTEN  =      -252.95602052 eV

  energy without entropy =     -252.91026533  energy(sigma->0) =     -252.94076879


--------------------------------------------------------------------------------------------------------




--------------------------------------- Iteration      1(  15)  ---------------------------------------


    POTLOK:  cpu time    0.4953: real time    0.4963
    SETDIJ:  cpu time    0.0414: real time    0.0414
    EDDIAG:  cpu time    8.2571: real time    8.6289
  RMM-DIIS:  cpu time   23.3191: real time   23.3546
    ORTHCH:  cpu time    0.3874: real time    0.3883
       DOS:  cpu time    0.0258: real time    0.0258
    CHARGE:  cpu time    3.0340: real time    3.0371
    MIXING:  cpu time    0.0121: real time    0.0121
    --------------------------------------------
      LOOP:  cpu time   35.5721: real time   35.9845

 eigenvalue-minimisations  :  7825
 total energy-change (2. order) :-0.1719780E+01  (-0.5189475E-01)
 number of electron     282.9999976 magnetization      16.7865167
 augmentation part      100.0054434 magnetization      11.6175019

 Broyden mixing:
  rms(total) = 0.17114E+01    rms(broyden)= 0.17110E+01
  rms(prec ) = 0.17338E+01
  weight for this iteration     100.00

 eigenvalues of (default mixing * dielectric matrix)
  average eigenvalue GAMMA=   0.4608
  1.8205  0.7370  0.7370  0.2968  0.2968  0.2190  0.1614  0.1334  0.1030  0.1030

 Free energy of the ion-electron system (eV)
  ---------------------------------------------------
  alpha Z        PSCENC =       367.19046233
  Ewald energy   TEWEN  =    350284.11635738
  -Hartree energ DENC   =   -379362.40197592
  -exchange      EXHF   =         0.00000000
  -V(xc)+E(xc)   XCENC  =      1416.20582152
  PAW double counting   =     33042.59845049   -33651.51806189
  entropy T*S    EENTRO =        -0.00636090
  eigenvalues    EBANDS =     -5388.55648488
  atomic energy  EATOM  =     33037.69599157
  Solvation  Ediel_sol  =         0.00000000
  ---------------------------------------------------
  free energy    TOTEN  =      -254.67580032 eV

  energy without entropy =     -254.66943941  energy(sigma->0) =     -254.67368001


--------------------------------------------------------------------------------------------------------




--------------------------------------- Iteration      1(  16)  ---------------------------------------


    POTLOK:  cpu time    0.4634: real time    0.4956
    SETDIJ:  cpu time    0.0411: real time    0.0411
    EDDIAG:  cpu time    7.6176: real time    7.6256
  RMM-DIIS:  cpu time   21.9237: real time   22.0341
    ORTHCH:  cpu time    0.3870: real time    0.3880
       DOS:  cpu time    0.0243: real time    0.0244
    CHARGE:  cpu time    3.7893: real time    4.0396
    MIXING:  cpu time    0.0116: real time    0.0125
    --------------------------------------------
      LOOP:  cpu time   34.2580: real time   34.6609

 eigenvalue-minimisations  :  7293
 total energy-change (2. order) :-0.7467835E+00  (-0.2171346E-01)
 number of electron     282.9999977 magnetization      16.7789716
 augmentation part       99.9970436 magnetization      11.7580373

 Broyden mixing:
  rms(total) = 0.17414E+01    rms(broyden)= 0.17411E+01
  rms(prec ) = 0.17649E+01
  weight for this iteration     100.00

 eigenvalues of (default mixing * dielectric matrix)
  average eigenvalue GAMMA=   0.4486
  1.8203  0.7398  0.7398  0.2862  0.2734  0.2734  0.1774  0.1774  0.1325  0.1570
  0.1570

 Free energy of the ion-electron system (eV)
  ---------------------------------------------------
  alpha Z        PSCENC =       367.19046233
  Ewald energy   TEWEN  =    350284.11635738
  -Hartree energ DENC   =   -379361.20369279
  -exchange      EXHF   =         0.00000000
  -V(xc)+E(xc)   XCENC  =      1416.17222457
  PAW double counting   =     33051.39116831   -33659.72102231
  entropy T*S    EENTRO =         0.01789161
  eigenvalues    EBANDS =     -5391.08196451
  atomic energy  EATOM  =     33037.69599157
  Solvation  Ediel_sol  =         0.00000000
  ---------------------------------------------------
  free energy    TOTEN  =      -255.42258384 eV

  energy without entropy =     -255.44047545  energy(sigma->0) =     -255.42854771


--------------------------------------------------------------------------------------------------------




--------------------------------------- Iteration      1(  17)  ---------------------------------------


    POTLOK:  cpu time    0.4662: real time    0.6007
    SETDIJ:  cpu time    0.0412: real time    0.0412
    EDDIAG:  cpu time    7.5802: real time    7.5888
  RMM-DIIS:  cpu time   21.8379: real time   21.8620
    ORTHCH:  cpu time    0.3877: real time    0.3881
       DOS:  cpu time    0.0250: real time    0.0251
    CHARGE:  cpu time    3.0137: real time    3.0177
    MIXING:  cpu time    0.0117: real time    0.0117
    --------------------------------------------
      LOOP:  cpu time   33.3637: real time   33.5353

 eigenvalue-minimisations  :  7257
 total energy-change (2. order) :-0.3019315E+00  (-0.8090414E-02)
 number of electron     282.9999977 magnetization      16.7663095
 augmentation part      100.0010720 magnetization      11.8108988

 Broyden mixing:
  rms(total) = 0.17263E+01    rms(broyden)= 0.17262E+01
  rms(prec ) = 0.17500E+01
  weight for this iteration     100.00

 eigenvalues of (default mixing * dielectric matrix)
  average eigenvalue GAMMA=   0.4526
  1.8206  0.7403  0.7403  0.2578  0.2578  0.3072  0.3072  0.2470  0.2470  0.1917
  0.1817  0.1327

 Free energy of the ion-electron system (eV)
  ---------------------------------------------------
  alpha Z        PSCENC =       367.19046233
  Ewald energy   TEWEN  =    350284.11635738
  -Hartree energ DENC   =   -379362.76331243
  -exchange      EXHF   =         0.00000000
  -V(xc)+E(xc)   XCENC  =      1416.20740153
  PAW double counting   =     33052.81555165   -33660.63946861
  entropy T*S    EENTRO =         0.02854352
  eigenvalues    EBANDS =     -5390.37604233
  atomic energy  EATOM  =     33037.69599157
  Solvation  Ediel_sol  =         0.00000000
  ---------------------------------------------------
  free energy    TOTEN  =      -255.72451538 eV

  energy without entropy =     -255.75305891  energy(sigma->0) =     -255.73402989


--------------------------------------------------------------------------------------------------------




--------------------------------------- Iteration      1(  18)  ---------------------------------------


    POTLOK:  cpu time    0.4643: real time    0.4956
    SETDIJ:  cpu time    0.0411: real time    0.0411
    EDDIAG:  cpu time    7.7149: real time    7.8041
  RMM-DIIS:  cpu time   22.0592: real time   22.4344
    ORTHCH:  cpu time    0.3887: real time    0.3887
       DOS:  cpu time    0.0248: real time    0.0248
    CHARGE:  cpu time    2.9871: real time    2.9903
    MIXING:  cpu time    0.0119: real time    0.0119
    --------------------------------------------
      LOOP:  cpu time   33.6920: real time   34.1909

 eigenvalue-minimisations  :  7135
 total energy-change (2. order) :-0.2147265E+00  (-0.5398186E-02)
 number of electron     282.9999977 magnetization      16.7465788
 augmentation part      100.0018199 magnetization      11.7871154

 Broyden mixing:
  rms(total) = 0.16818E+01    rms(broyden)= 0.16817E+01
  rms(prec ) = 0.17064E+01
  weight for this iteration     100.00

 eigenvalues of (default mixing * dielectric matrix)
  average eigenvalue GAMMA=   0.4929
  1.8286  0.7377  0.7377  0.4471  0.4471  0.3584  0.3584  0.3273  0.3273  0.3356
  0.1847  0.1847  0.1327

 Free energy of the ion-electron system (eV)
  ---------------------------------------------------
  alpha Z        PSCENC =       367.19046233
  Ewald energy   TEWEN  =    350284.11635738
  -Hartree energ DENC   =   -379363.07723532
  -exchange      EXHF   =         0.00000000
  -V(xc)+E(xc)   XCENC  =      1416.26628678
  PAW double counting   =     33056.85478384   -33664.52806205
  entropy T*S    EENTRO =         0.02584820
  eigenvalues    EBANDS =     -5390.48367465
  atomic energy  EATOM  =     33037.69599157
  Solvation  Ediel_sol  =         0.00000000
  ---------------------------------------------------
  free energy    TOTEN  =      -255.93924191 eV

  energy without entropy =     -255.96509012  energy(sigma->0) =     -255.94785798


--------------------------------------------------------------------------------------------------------




--------------------------------------- Iteration      1(  19)  ---------------------------------------


    POTLOK:  cpu time    0.4636: real time    0.4956
    SETDIJ:  cpu time    0.0411: real time    0.0411
    EDDIAG:  cpu time    7.5831: real time    7.5911
  RMM-DIIS:  cpu time   21.4797: real time   21.5198
    ORTHCH:  cpu time    0.3875: real time    0.3885
       DOS:  cpu time    0.0242: real time    0.0242
    CHARGE:  cpu time    3.0464: real time    3.0792
    MIXING:  cpu time    0.0121: real time    0.0121
    --------------------------------------------
      LOOP:  cpu time   33.0376: real time   33.1516

 eigenvalue-minimisations  :  7139
 total energy-change (2. order) :-0.2930347E+00  (-0.7463245E-02)
 number of electron     282.9999977 magnetization      16.6607442
 augmentation part      100.0134015 magnetization      11.6994556

 Broyden mixing:
  rms(total) = 0.16106E+01    rms(broyden)= 0.16105E+01
  rms(prec ) = 0.16358E+01
  weight for this iteration     100.00

 eigenvalues of (default mixing * dielectric matrix)
  average eigenvalue GAMMA=   0.5555
  1.7716  0.6596  0.6596  0.7431  0.7431  0.5912  0.5912  0.3957  0.3957  0.3621
  0.3621  0.1850  0.1850  0.1327

 Free energy of the ion-electron system (eV)
  ---------------------------------------------------
  alpha Z        PSCENC =       367.19046233
  Ewald energy   TEWEN  =    350284.11635738
  -Hartree energ DENC   =   -379362.88796287
  -exchange      EXHF   =         0.00000000
  -V(xc)+E(xc)   XCENC  =      1416.30291478
  PAW double counting   =     33061.91646141   -33669.46247076
  entropy T*S    EENTRO =         0.01948605
  eigenvalues    EBANDS =     -5391.12351654
  atomic energy  EATOM  =     33037.69599157
  Solvation  Ediel_sol  =         0.00000000
  ---------------------------------------------------
  free energy    TOTEN  =      -256.23227666 eV

  energy without entropy =     -256.25176271  energy(sigma->0) =     -256.23877201


--------------------------------------------------------------------------------------------------------




--------------------------------------- Iteration      1(  20)  ---------------------------------------


    POTLOK:  cpu time    0.4643: real time    0.4958
    SETDIJ:  cpu time    0.0412: real time    0.0412
    EDDIAG:  cpu time    7.6308: real time    7.6615
  RMM-DIIS:  cpu time   22.3940: real time   22.7952
    ORTHCH:  cpu time    0.3878: real time    0.3888
       DOS:  cpu time    0.0241: real time    0.0241
    CHARGE:  cpu time    2.9845: real time    2.9877
    MIXING:  cpu time    0.0133: real time    0.0133
    --------------------------------------------
      LOOP:  cpu time   33.9399: real time   34.4077

 eigenvalue-minimisations  :  7178
 total energy-change (2. order) :-0.2617671E+00  (-0.5813595E-01)
 number of electron     282.9999977 magnetization      16.3042151
 augmentation part      100.0877391 magnetization      11.3494357

 Broyden mixing:
  rms(total) = 0.13887E+01    rms(broyden)= 0.13885E+01
  rms(prec ) = 0.14149E+01
  weight for this iteration     100.00

 eigenvalues of (default mixing * dielectric matrix)
  average eigenvalue GAMMA=   0.6227
  1.4169  1.0338  1.0338  0.6454  0.6454  1.0440  0.7335  0.5039  0.5039  0.5275
  0.3746  0.3746  0.1850  0.1850  0.1327

 Free energy of the ion-electron system (eV)
  ---------------------------------------------------
  alpha Z        PSCENC =       367.19046233
  Ewald energy   TEWEN  =    350284.11635738
  -Hartree energ DENC   =   -379363.06921406
  -exchange      EXHF   =         0.00000000
  -V(xc)+E(xc)   XCENC  =      1416.34781341
  PAW double counting   =     33070.60816565   -33677.69181009
  entropy T*S    EENTRO =         0.01403891
  eigenvalues    EBANDS =     -5391.70584888
  atomic energy  EATOM  =     33037.69599157
  Solvation  Ediel_sol  =         0.00000000
  ---------------------------------------------------
  free energy    TOTEN  =      -256.49404378 eV

  energy without entropy =     -256.50808270  energy(sigma->0) =     -256.49872342


--------------------------------------------------------------------------------------------------------




--------------------------------------- Iteration      1(  21)  ---------------------------------------


    POTLOK:  cpu time    0.4635: real time    0.4952
    SETDIJ:  cpu time    0.0410: real time    0.0410
    EDDIAG:  cpu time    7.5921: real time    7.6063
  RMM-DIIS:  cpu time   21.6749: real time   21.7586
    ORTHCH:  cpu time    0.3850: real time    0.3860
       DOS:  cpu time    0.0258: real time    0.0258
    CHARGE:  cpu time    2.9773: real time    2.9801
    MIXING:  cpu time    0.0129: real time    0.0129
    --------------------------------------------
      LOOP:  cpu time   33.1725: real time   33.3060

 eigenvalue-minimisations  :  7192
 total energy-change (2. order) : 0.4546789E+01  (-0.5223970E+00)
 number of electron     282.9999977 magnetization      16.1891257
 augmentation part      100.3202512 magnetization      11.5168387

 Broyden mixing:
  rms(total) = 0.14545E+01    rms(broyden)= 0.14540E+01
  rms(prec ) = 0.14849E+01
  weight for this iteration     100.00

 eigenvalues of (default mixing * dielectric matrix)
  average eigenvalue GAMMA=   0.6134
  1.4905  1.0562  1.0562  1.1385  0.6354  0.6354  0.5214  0.5214  0.5647  0.5647
  0.3769  0.3769  0.3732  0.1850  0.1850  0.1327

 Free energy of the ion-electron system (eV)
  ---------------------------------------------------
  alpha Z        PSCENC =       367.19046233
  Ewald energy   TEWEN  =    350284.11635738
  -Hartree energ DENC   =   -379373.52068631
  -exchange      EXHF   =         0.00000000
  -V(xc)+E(xc)   XCENC  =      1418.65947082
  PAW double counting   =     33155.54095182   -33760.11173090
  entropy T*S    EENTRO =         0.00120862
  eigenvalues    EBANDS =     -5381.51928009
  atomic energy  EATOM  =     33037.69599157
  Solvation  Ediel_sol  =         0.00000000
  ---------------------------------------------------
  free energy    TOTEN  =      -251.94725477 eV

  energy without entropy =     -251.94846339  energy(sigma->0) =     -251.94765764


--------------------------------------------------------------------------------------------------------




--------------------------------------- Iteration      1(  22)  ---------------------------------------


    POTLOK:  cpu time    0.4951: real time    0.4966
    SETDIJ:  cpu time    0.0410: real time    0.0411
    EDDIAG:  cpu time    8.0889: real time    8.4181
  RMM-DIIS:  cpu time   22.6764: real time   22.7010
    ORTHCH:  cpu time    0.3876: real time    0.3885
       DOS:  cpu time    0.0263: real time    0.0263
    CHARGE:  cpu time    3.0042: real time    3.0132
    MIXING:  cpu time    0.0133: real time    0.0133
    --------------------------------------------
      LOOP:  cpu time   34.7329: real time   35.0981

 eigenvalue-minimisations  :  7550
 total energy-change (2. order) : 0.2629720E+01  (-0.9863769E-01)
 number of electron     282.9999977 magnetization      16.1594401
 augmentation part      100.3884531 magnetization      11.5180800

 Broyden mixing:
  rms(total) = 0.15643E+01    rms(broyden)= 0.15642E+01
  rms(prec ) = 0.15957E+01
  weight for this iteration     100.00

 eigenvalues of (default mixing * dielectric matrix)
  average eigenvalue GAMMA=   0.6113
  1.4767  1.2121  1.0494  1.0494  0.6310  0.6310  0.5732  0.5732  0.4892  0.4892
  0.4841  0.4841  0.3734  0.3734  0.1850  0.1850  0.1327

 Free energy of the ion-electron system (eV)
  ---------------------------------------------------
  alpha Z        PSCENC =       367.19046233
  Ewald energy   TEWEN  =    350284.11635738
  -Hartree energ DENC   =   -379383.15578286
  -exchange      EXHF   =         0.00000000
  -V(xc)+E(xc)   XCENC  =      1420.05827396
  PAW double counting   =     33210.65005290   -33815.99569079
  entropy T*S    EENTRO =         0.00237117
  eigenvalues    EBANDS =     -5369.87957006
  atomic energy  EATOM  =     33037.69599157
  Solvation  Ediel_sol  =         0.00000000
  ---------------------------------------------------
  free energy    TOTEN  =      -249.31753441 eV

  energy without entropy =     -249.31990558  energy(sigma->0) =     -249.31832480


--------------------------------------------------------------------------------------------------------




--------------------------------------- Iteration      1(  23)  ---------------------------------------


    POTLOK:  cpu time    0.4641: real time    0.4951
    SETDIJ:  cpu time    0.0402: real time    0.0410
    EDDIAG:  cpu time    7.5498: real time    7.5579
  RMM-DIIS:  cpu time   25.1036: real time   25.6309
    ORTHCH:  cpu time    0.3851: real time    0.3859
       DOS:  cpu time    0.0257: real time    0.0258
    CHARGE:  cpu time    2.9861: real time    2.9892
    MIXING:  cpu time    0.0136: real time    0.0136
    --------------------------------------------
      LOOP:  cpu time   36.5683: real time   37.1393

 eigenvalue-minimisations  :  8315
 total energy-change (2. order) : 0.1035221E+00  (-0.1260040E-01)
 number of electron     282.9999977 magnetization      16.1482750
 augmentation part      100.4029043 magnetization      11.4447652

 Broyden mixing:
  rms(total) = 0.14090E+01    rms(broyden)= 0.14089E+01
  rms(prec ) = 0.14293E+01
  weight for this iteration     100.00

 eigenvalues of (default mixing * dielectric matrix)
  average eigenvalue GAMMA=   0.5811
  1.5262  1.1619  1.0493  1.0493  0.6301  0.6301  0.5769  0.5769  0.4603  0.4603
  0.4851  0.4851  0.3728  0.3728  0.1850  0.1850  0.1327  0.1206

 Free energy of the ion-electron system (eV)
  ---------------------------------------------------
  alpha Z        PSCENC =       367.19046233
  Ewald energy   TEWEN  =    350284.11635738
  -Hartree energ DENC   =   -379386.17861113
  -exchange      EXHF   =         0.00000000
  -V(xc)+E(xc)   XCENC  =      1420.17636427
  PAW double counting   =     33224.53221470   -33830.18653716
  entropy T*S    EENTRO =        -0.01356039
  eigenvalues    EBANDS =     -5366.54669391
  atomic energy  EATOM  =     33037.69599157
  Solvation  Ediel_sol  =         0.00000000
  ---------------------------------------------------
  free energy    TOTEN  =      -249.21401234 eV

  energy without entropy =     -249.20045195  energy(sigma->0) =     -249.20949221


--------------------------------------------------------------------------------------------------------




--------------------------------------- Iteration      1(  24)  ---------------------------------------


    POTLOK:  cpu time    0.4944: real time    0.4960
    SETDIJ:  cpu time    0.0410: real time    0.0410
    EDDIAG:  cpu time    7.6117: real time    7.6195
  RMM-DIIS:  cpu time   23.0265: real time   23.0678
    ORTHCH:  cpu time    0.3873: real time    0.3874
       DOS:  cpu time    0.0248: real time    0.0248
    CHARGE:  cpu time    2.9888: real time    2.9921
    MIXING:  cpu time    0.0139: real time    0.0140
    --------------------------------------------
      LOOP:  cpu time   34.5883: real time   34.6425

 eigenvalue-minimisations  :  7679
 total energy-change (2. order) :-0.1470941E+00  (-0.2660344E-02)
 number of electron     282.9999977 magnetization      16.1298454
 augmentation part      100.4997622 magnetization      11.8900483

 Broyden mixing:
  rms(total) = 0.14356E+01    rms(broyden)= 0.14353E+01
  rms(prec ) = 0.14506E+01
  weight for this iteration     100.00

 eigenvalues of (default mixing * dielectric matrix)
  average eigenvalue GAMMA=   0.5690
  1.5824  1.0415  1.0415  0.6293  0.6293  0.8702  0.8702  0.4545  0.4545  0.5146
  0.5146  0.4344  0.4344  0.3800  0.3800  0.1850  0.1850  0.1327  0.0770

 Free energy of the ion-electron system (eV)
  ---------------------------------------------------
  alpha Z        PSCENC =       367.19046233
  Ewald energy   TEWEN  =    350284.11635738
  -Hartree energ DENC   =   -379387.28418433
  -exchange      EXHF   =         0.00000000
  -V(xc)+E(xc)   XCENC  =      1420.19829898
  PAW double counting   =     33230.65259219   -33836.44997729
  entropy T*S    EENTRO =        -0.02012830
  eigenvalues    EBANDS =     -5365.46051900
  atomic energy  EATOM  =     33037.69599157
  Solvation  Ediel_sol  =         0.00000000
  ---------------------------------------------------
  free energy    TOTEN  =      -249.36110648 eV

  energy without entropy =     -249.34097818  energy(sigma->0) =     -249.35439705


--------------------------------------------------------------------------------------------------------




--------------------------------------- Iteration      1(  25)  ---------------------------------------


    POTLOK:  cpu time    0.4635: real time    0.4954
    SETDIJ:  cpu time    0.0410: real time    0.0410
    EDDIAG:  cpu time    7.5960: real time    7.6603
  RMM-DIIS:  cpu time   22.3718: real time   22.6669
    ORTHCH:  cpu time    0.3851: real time    0.3851
       DOS:  cpu time    0.0254: real time    0.0254
    CHARGE:  cpu time    2.9884: real time    2.9915
    MIXING:  cpu time    0.0159: real time    0.0159
    --------------------------------------------
      LOOP:  cpu time   33.8871: real time   34.2816

 eigenvalue-minimisations  :  7155
 total energy-change (2. order) : 0.7022132E+00  (-0.1341824E-01)
 number of electron     282.9999977 magnetization      16.1300612
 augmentation part      100.5602246 magnetization      12.1911529

 Broyden mixing:
  rms(total) = 0.16442E+01    rms(broyden)= 0.16441E+01
  rms(prec ) = 0.16604E+01
  weight for this iteration     100.00

 eigenvalues of (default mixing * dielectric matrix)
  average eigenvalue GAMMA=   0.5487
  1.6048  1.0473  1.0473  0.6295  0.6295  0.8616  0.8616  0.5169  0.5169  0.4418
  0.4418  0.4458  0.4458  0.3790  0.3790  0.1850  0.1850  0.1327  0.1114  0.1114

 Free energy of the ion-electron system (eV)
  ---------------------------------------------------
  alpha Z        PSCENC =       367.19046233
  Ewald energy   TEWEN  =    350284.11635738
  -Hartree energ DENC   =   -379385.56848985
  -exchange      EXHF   =         0.00000000
  -V(xc)+E(xc)   XCENC  =      1420.67306102
  PAW double counting   =     33234.22785811   -33839.83446047
  entropy T*S    EENTRO =         0.00206475
  eigenvalues    EBANDS =     -5367.16173806
  atomic energy  EATOM  =     33037.69599157
  Solvation  Ediel_sol  =         0.00000000
  ---------------------------------------------------
  free energy    TOTEN  =      -248.65889323 eV

  energy without entropy =     -248.66095798  energy(sigma->0) =     -248.65958148


--------------------------------------------------------------------------------------------------------




--------------------------------------- Iteration      1(  26)  ---------------------------------------


    POTLOK:  cpu time    0.4636: real time    0.4955
    SETDIJ:  cpu time    0.0412: real time    0.0412
    EDDIAG:  cpu time    7.6191: real time    7.6267
  RMM-DIIS:  cpu time   22.6467: real time   22.7460
    ORTHCH:  cpu time    0.3881: real time    0.3883
       DOS:  cpu time    0.0260: real time    0.0261
    CHARGE:  cpu time    2.9995: real time    3.0024
    MIXING:  cpu time    0.0146: real time    0.0173
    --------------------------------------------
      LOOP:  cpu time   34.1989: real time   34.3435

 eigenvalue-minimisations  :  7434
 total energy-change (2. order) : 0.1819955E+00  (-0.3196312E-02)
 number of electron     282.9999977 magnetization      16.1207141
 augmentation part      100.5465306 magnetization      12.1737246

 Broyden mixing:
  rms(total) = 0.16453E+01    rms(broyden)= 0.16453E+01
  rms(prec ) = 0.16613E+01
  weight for this iteration     100.00

 eigenvalues of (default mixing * dielectric matrix)
  average eigenvalue GAMMA=   0.5439
  1.5395  1.0476  1.0476  0.6275  0.6275  0.9202  0.8062  0.4442  0.4442  0.5259
  0.5259  0.4707  0.4707  0.3779  0.3779  0.1850  0.1850  0.1327  0.2429  0.2429
  0.1800

 Free energy of the ion-electron system (eV)
  ---------------------------------------------------
  alpha Z        PSCENC =       367.19046233
  Ewald energy   TEWEN  =    350284.11635738
  -Hartree energ DENC   =   -379386.51208296
  -exchange      EXHF   =         0.00000000
  -V(xc)+E(xc)   XCENC  =      1420.79235436
  PAW double counting   =     33234.07590800   -33839.56380426
  entropy T*S    EENTRO =         0.00208846
  eigenvalues    EBANDS =     -5366.27417258
  atomic energy  EATOM  =     33037.69599157
  Solvation  Ediel_sol  =         0.00000000
  ---------------------------------------------------
  free energy    TOTEN  =      -248.47689770 eV

  energy without entropy =     -248.47898616  energy(sigma->0) =     -248.47759385


--------------------------------------------------------------------------------------------------------




--------------------------------------- Iteration      1(  27)  ---------------------------------------


    POTLOK:  cpu time    0.4661: real time    0.5088
    SETDIJ:  cpu time    0.0411: real time    0.0411
    EDDIAG:  cpu time    7.6454: real time    7.6763
  RMM-DIIS:  cpu time   22.2504: real time   22.7211
    ORTHCH:  cpu time    0.3879: real time    0.3879
       DOS:  cpu time    0.0256: real time    0.0257
    CHARGE:  cpu time    3.0314: real time    3.0347
    MIXING:  cpu time    0.0156: real time    0.0156
    --------------------------------------------
      LOOP:  cpu time   33.8635: real time   34.4111

 eigenvalue-minimisations  :  7192
 total energy-change (2. order) : 0.3172831E+00  (-0.3522500E-02)
 number of electron     282.9999977 magnetization      16.1195032
 augmentation part      100.5573974 magnetization      12.1609188

 Broyden mixing:
  rms(total) = 0.16803E+01    rms(broyden)= 0.16803E+01
  rms(prec ) = 0.16966E+01
  weight for this iteration     100.00

 eigenvalues of (default mixing * dielectric matrix)
  average eigenvalue GAMMA=   0.5614
  1.4441  1.0632  1.0632  1.0882  0.6345  0.6345  0.6171  0.6171  0.6903  0.5297
  0.5297  0.4765  0.4765  0.3908  0.3908  0.3764  0.3764  0.1327  0.1850  0.1850
  0.2222  0.2268

 Free energy of the ion-electron system (eV)
  ---------------------------------------------------
  alpha Z        PSCENC =       367.19046233
  Ewald energy   TEWEN  =    350284.11635738
  -Hartree energ DENC   =   -379385.88962600
  -exchange      EXHF   =         0.00000000
  -V(xc)+E(xc)   XCENC  =      1420.97205014
  PAW double counting   =     33231.18190511   -33836.50328048
  entropy T*S    EENTRO =         0.00179900
  eigenvalues    EBANDS =     -5366.92527367
  atomic energy  EATOM  =     33037.69599157
  Solvation  Ediel_sol  =         0.00000000
  ---------------------------------------------------
  free energy    TOTEN  =      -248.15961463 eV

  energy without entropy =     -248.16141363  energy(sigma->0) =     -248.16021430


--------------------------------------------------------------------------------------------------------




--------------------------------------- Iteration      1(  28)  ---------------------------------------


    POTLOK:  cpu time    0.4639: real time    0.4957
    SETDIJ:  cpu time    0.0411: real time    0.0411
    EDDIAG:  cpu time    7.6223: real time    7.6373
  RMM-DIIS:  cpu time   21.5326: real time   21.6173
    ORTHCH:  cpu time    0.3871: real time    0.3880
       DOS:  cpu time    0.0256: real time    0.0256
    CHARGE:  cpu time    2.9963: real time    2.9995
    MIXING:  cpu time    0.0162: real time    0.0162
    --------------------------------------------
      LOOP:  cpu time   33.0850: real time   33.2207

 eigenvalue-minimisations  :  7145
 total energy-change (2. order) :-0.9372172E+00  (-0.1283139E-01)
 number of electron     282.9999977 magnetization      16.1518356
 augmentation part      100.5855847 magnetization      12.2097957

 Broyden mixing:
  rms(total) = 0.17056E+01    rms(broyden)= 0.17056E+01
  rms(prec ) = 0.17233E+01
  weight for this iteration     100.00

 eigenvalues of (default mixing * dielectric matrix)
  average eigenvalue GAMMA=   0.6094
  1.0502  1.0502  1.2796  1.2796  1.0349  1.0349  0.6498  0.6498  0.5715  0.5715
  0.5341  0.5341  0.5917  0.5496  0.5496  0.3791  0.3791  0.1327  0.1850  0.1850
  0.2964  0.2964  0.2314

 Free energy of the ion-electron system (eV)
  ---------------------------------------------------
  alpha Z        PSCENC =       367.19046233
  Ewald energy   TEWEN  =    350284.11635738
  -Hartree energ DENC   =   -379384.55998859
  -exchange      EXHF   =         0.00000000
  -V(xc)+E(xc)   XCENC  =      1420.59386813
  PAW double counting   =     33221.08722495   -33826.60259743
  entropy T*S    EENTRO =         0.00076235
  eigenvalues    EBANDS =     -5368.61891253
  atomic energy  EATOM  =     33037.69599157
  Solvation  Ediel_sol  =         0.00000000
  ---------------------------------------------------
  free energy    TOTEN  =      -249.09683184 eV

  energy without entropy =     -249.09759419  energy(sigma->0) =     -249.09708596


--------------------------------------------------------------------------------------------------------




--------------------------------------- Iteration      1(  29)  ---------------------------------------


    POTLOK:  cpu time    0.4641: real time    0.4962
    SETDIJ:  cpu time    0.0356: real time    0.0410
    EDDIAG:  cpu time    7.9160: real time    8.3088
  RMM-DIIS:  cpu time   21.4862: real time   21.5163
    ORTHCH:  cpu time    0.3886: real time    0.3886
       DOS:  cpu time    0.0249: real time    0.0249
    CHARGE:  cpu time    3.0434: real time    3.0539
    MIXING:  cpu time    0.0163: real time    0.0163
    --------------------------------------------
      LOOP:  cpu time   33.3752: real time   33.8460

 eigenvalue-minimisations  :  7153
 total energy-change (2. order) :-0.3664024E+01  (-0.1262849E+00)
 number of electron     282.9999978 magnetization      16.2097148
 augmentation part      100.7108515 magnetization      12.2218202

 Broyden mixing:
  rms(total) = 0.17866E+01    rms(broyden)= 0.17865E+01
  rms(prec ) = 0.18096E+01
  weight for this iteration     100.00

 eigenvalues of (default mixing * dielectric matrix)
  average eigenvalue GAMMA=   0.6376
  1.7055  1.3348  1.3348  1.0610  1.0610  0.6464  0.6464  0.6561  0.6561  0.7974
  0.5585  0.5585  0.6356  0.5384  0.5384  0.4381  0.3784  0.3784  0.1327  0.1850
  0.1850  0.3222  0.3222  0.2320

 Free energy of the ion-electron system (eV)
  ---------------------------------------------------
  alpha Z        PSCENC =       367.19046233
  Ewald energy   TEWEN  =    350284.11635738
  -Hartree energ DENC   =   -379377.48737081
  -exchange      EXHF   =         0.00000000
  -V(xc)+E(xc)   XCENC  =      1418.77745781
  PAW double counting   =     33180.09225170   -33786.00038881
  entropy T*S    EENTRO =         0.00855812
  eigenvalues    EBANDS =     -5377.15417466
  atomic energy  EATOM  =     33037.69599157
  Solvation  Ediel_sol  =         0.00000000
  ---------------------------------------------------
  free energy    TOTEN  =      -252.76085538 eV

  energy without entropy =     -252.76941350  energy(sigma->0) =     -252.76370808


--------------------------------------------------------------------------------------------------------




--------------------------------------- Iteration      1(  30)  ---------------------------------------


    POTLOK:  cpu time    0.4647: real time    0.4950
    SETDIJ:  cpu time    0.0412: real time    0.0412
    EDDIAG:  cpu time    7.6264: real time    7.6352
  RMM-DIIS:  cpu time   22.0912: real time   22.4663
    ORTHCH:  cpu time    0.6337: real time    0.6781
       DOS:  cpu time    0.0264: real time    0.0264
    CHARGE:  cpu time    2.9994: real time    3.0140
    MIXING:  cpu time    0.0188: real time    0.0188
    --------------------------------------------
      LOOP:  cpu time   33.9017: real time   34.3749

 eigenvalue-minimisations  :  7182
 total energy-change (2. order) :-0.2660187E+01  (-0.1651461E+00)
 number of electron     282.9999979 magnetization      16.2139205
 augmentation part      100.9251658 magnetization      12.0726826

 Broyden mixing:
  rms(total) = 0.21776E+01    rms(broyden)= 0.21773E+01
  rms(prec ) = 0.22185E+01
  weight for this iteration     100.00

 eigenvalues of (default mixing * dielectric matrix)
  average eigenvalue GAMMA=   0.6128
  1.7405  1.3306  1.3306  1.0674  1.0674  0.6463  0.6463  0.6498  0.6498  0.6990
  0.6990  0.5543  0.5543  0.5326  0.5326  0.4216  0.3775  0.3775  0.1327  0.1850
  0.1850  0.3262  0.3262  0.2320  0.0550

 Free energy of the ion-electron system (eV)
  ---------------------------------------------------
  alpha Z        PSCENC =       367.19046233
  Ewald energy   TEWEN  =    350284.11635738
  -Hartree energ DENC   =   -379374.74155751
  -exchange      EXHF   =         0.00000000
  -V(xc)+E(xc)   XCENC  =      1417.48773698
  PAW double counting   =     33168.91909593   -33775.22593348
  entropy T*S    EENTRO =        -0.00986115
  eigenvalues    EBANDS =     -5380.85333465
  atomic energy  EATOM  =     33037.69599157
  Solvation  Ediel_sol  =         0.00000000
  ---------------------------------------------------
  free energy    TOTEN  =      -255.42104260 eV

  energy without entropy =     -255.41118145  energy(sigma->0) =     -255.41775555


--------------------------------------------------------------------------------------------------------




--------------------------------------- Iteration      1(  31)  ---------------------------------------


    POTLOK:  cpu time    0.4645: real time    0.4955
    SETDIJ:  cpu time    0.0411: real time    0.0411
    EDDIAG:  cpu time    7.5880: real time    7.5964
  RMM-DIIS:  cpu time   23.9866: real time   24.0184
    ORTHCH:  cpu time    0.3866: real time    0.3876
       DOS:  cpu time    0.0249: real time    0.0249
    CHARGE:  cpu time    3.0138: real time    3.0171
    MIXING:  cpu time    0.0178: real time    0.0178
    --------------------------------------------
      LOOP:  cpu time   35.5233: real time   35.5987

 eigenvalue-minimisations  :  8016
 total energy-change (2. order) :-0.1335264E+00  (-0.2199309E-01)
 number of electron     282.9999979 magnetization      16.2156610
 augmentation part      100.9026432 magnetization      12.1483933

 Broyden mixing:
  rms(total) = 0.21554E+01    rms(broyden)= 0.21553E+01
  rms(prec ) = 0.21951E+01
  weight for this iteration     100.00

 eigenvalues of (default mixing * dielectric matrix)
  average eigenvalue GAMMA=   0.5985
  1.7428  1.3420  1.3420  1.0695  1.0695  0.6463  0.6463  0.6545  0.6545  0.6901
  0.6901  0.5564  0.5564  0.5341  0.5341  0.4116  0.3768  0.3768  0.3303  0.3303
  0.1327  0.1850  0.1850  0.2320  0.1674  0.1037

 Free energy of the ion-electron system (eV)
  ---------------------------------------------------
  alpha Z        PSCENC =       367.19046233
  Ewald energy   TEWEN  =    350284.11635738
  -Hartree energ DENC   =   -379376.50915568
  -exchange      EXHF   =         0.00000000
  -V(xc)+E(xc)   XCENC  =      1417.43882401
  PAW double counting   =     33179.26197705   -33785.74278399
  entropy T*S    EENTRO =        -0.01297182
  eigenvalues    EBANDS =     -5378.99326980
  atomic energy  EATOM  =     33037.69599157
  Solvation  Ediel_sol  =         0.00000000
  ---------------------------------------------------
  free energy    TOTEN  =      -255.55456896 eV

  energy without entropy =     -255.54159713  energy(sigma->0) =     -255.55024502


--------------------------------------------------------------------------------------------------------




--------------------------------------- Iteration      1(  32)  ---------------------------------------


    POTLOK:  cpu time    0.4639: real time    0.4957
    SETDIJ:  cpu time    0.0410: real time    0.0410
    EDDIAG:  cpu time    7.6266: real time    7.7346
  RMM-DIIS:  cpu time   25.7998: real time   26.2165
    ORTHCH:  cpu time    0.3869: real time    0.3879
       DOS:  cpu time    0.0260: real time    0.0260
    CHARGE:  cpu time    2.9617: real time    2.9648
    MIXING:  cpu time    0.0182: real time    0.0182
    --------------------------------------------
      LOOP:  cpu time   37.3239: real time   37.8846

 eigenvalue-minimisations  :  8535
 total energy-change (2. order) :-0.6562027E-01  (-0.3006201E-02)
 number of electron     282.9999979 magnetization      16.2130059
 augmentation part      100.8944925 magnetization      12.1580782

 Broyden mixing:
  rms(total) = 0.21697E+01    rms(broyden)= 0.21697E+01
  rms(prec ) = 0.22091E+01
  weight for this iteration     100.00

 eigenvalues of (default mixing * dielectric matrix)
  average eigenvalue GAMMA=   0.6028
  1.7642  1.3247  1.3247  1.0750  1.0750  0.6457  0.6457  0.6549  0.6549  0.4207
  0.4207  0.6474  0.6474  0.5572  0.5572  0.5633  0.5633  0.4528  0.3787  0.3787
  0.1327  0.1850  0.1850  0.3172  0.3172  0.2321  0.1535

 Free energy of the ion-electron system (eV)
  ---------------------------------------------------
  alpha Z        PSCENC =       367.19046233
  Ewald energy   TEWEN  =    350284.11635738
  -Hartree energ DENC   =   -379376.31038875
  -exchange      EXHF   =         0.00000000
  -V(xc)+E(xc)   XCENC  =      1417.43281896
  PAW double counting   =     33178.73195243   -33785.19104932
  entropy T*S    EENTRO =        -0.01246566
  eigenvalues    EBANDS =     -5379.27386817
  atomic energy  EATOM  =     33037.69599157
  Solvation  Ediel_sol  =         0.00000000
  ---------------------------------------------------
  free energy    TOTEN  =      -255.62018923 eV

  energy without entropy =     -255.60772356  energy(sigma->0) =     -255.61603400


--------------------------------------------------------------------------------------------------------




--------------------------------------- Iteration      1(  33)  ---------------------------------------


    POTLOK:  cpu time    0.4634: real time    0.4953
    SETDIJ:  cpu time    0.0412: real time    0.0412
    EDDIAG:  cpu time    7.5823: real time    7.5965
  RMM-DIIS:  cpu time   22.0912: real time   22.1498
    ORTHCH:  cpu time    0.3877: real time    0.3878
       DOS:  cpu time    0.0259: real time    0.0259
    CHARGE:  cpu time    3.0180: real time    3.0211
    MIXING:  cpu time    0.0190: real time    0.0191
    --------------------------------------------
      LOOP:  cpu time   33.6288: real time   33.7366

 eigenvalue-minimisations  :  7327
 total energy-change (2. order) : 0.1850548E+00  (-0.2594712E-02)
 number of electron     282.9999979 magnetization      16.1997686
 augmentation part      100.8873928 magnetization      12.1851509

 Broyden mixing:
  rms(total) = 0.21327E+01    rms(broyden)= 0.21327E+01
  rms(prec ) = 0.21707E+01
  weight for this iteration     100.00

 eigenvalues of (default mixing * dielectric matrix)
  average eigenvalue GAMMA=   0.6061
  1.7953  1.3057  1.3057  1.0558  1.0558  0.6438  0.6438  0.6791  0.6791  0.6404
  0.6404  0.6792  0.6792  0.5574  0.5574  0.2321  0.5262  0.5262  0.4289  0.3790
  0.3790  0.1327  0.1850  0.1850  0.3206  0.3206  0.3011  0.1371

 Free energy of the ion-electron system (eV)
  ---------------------------------------------------
  alpha Z        PSCENC =       367.19046233
  Ewald energy   TEWEN  =    350284.11635738
  -Hartree energ DENC   =   -379376.80470695
  -exchange      EXHF   =         0.00000000
  -V(xc)+E(xc)   XCENC  =      1417.42892851
  PAW double counting   =     33178.65248888   -33785.08856028
  entropy T*S    EENTRO =        -0.00835492
  eigenvalues    EBANDS =     -5378.61774090
  atomic energy  EATOM  =     33037.69599157
  Solvation  Ediel_sol  =         0.00000000
  ---------------------------------------------------
  free energy    TOTEN  =      -255.43513439 eV

  energy without entropy =     -255.42677947  energy(sigma->0) =     -255.43234941


--------------------------------------------------------------------------------------------------------




--------------------------------------- Iteration      1(  34)  ---------------------------------------


    POTLOK:  cpu time    0.4646: real time    0.4956
    SETDIJ:  cpu time    0.0412: real time    0.0412
    EDDIAG:  cpu time    7.9264: real time    8.2821
  RMM-DIIS:  cpu time   21.8753: real time   22.0119
    ORTHCH:  cpu time    0.3875: real time    0.3875
       DOS:  cpu time    0.0261: real time    0.0262
    CHARGE:  cpu time    2.9666: real time    2.9762
    MIXING:  cpu time    0.0197: real time    0.0196
    --------------------------------------------
      LOOP:  cpu time   33.7076: real time   34.2404

 eigenvalue-minimisations  :  7253
 total energy-change (2. order) : 0.5993288E+00  (-0.2189006E-01)
 number of electron     282.9999979 magnetization      16.2031118
 augmentation part      100.7858687 magnetization      12.4215729

 Broyden mixing:
  rms(total) = 0.19716E+01    rms(broyden)= 0.19716E+01
  rms(prec ) = 0.20022E+01
  weight for this iteration     100.00

 eigenvalues of (default mixing * dielectric matrix)
  average eigenvalue GAMMA=   0.6198
  1.8154  1.3987  1.3987  1.0482  1.0482  0.8308  0.8308  0.6457  0.6457  0.6480
  0.6480  0.6709  0.6709  0.5501  0.5501  0.2321  0.5249  0.5249  0.4361  0.4361
  0.4055  0.3766  0.3766  0.1327  0.1850  0.1850  0.3063  0.3063  0.1472

 Free energy of the ion-electron system (eV)
  ---------------------------------------------------
  alpha Z        PSCENC =       367.19046233
  Ewald energy   TEWEN  =    350284.11635738
  -Hartree energ DENC   =   -379386.37017602
  -exchange      EXHF   =         0.00000000
  -V(xc)+E(xc)   XCENC  =      1417.42125965
  PAW double counting   =     33196.57064647   -33803.10479467
  entropy T*S    EENTRO =         0.02632198
  eigenvalues    EBANDS =     -5368.38187427
  atomic energy  EATOM  =     33037.69599157
  Solvation  Ediel_sol  =         0.00000000
  ---------------------------------------------------
  free energy    TOTEN  =      -254.83580558 eV

  energy without entropy =     -254.86212756  energy(sigma->0) =     -254.84457958


--------------------------------------------------------------------------------------------------------




--------------------------------------- Iteration      1(  35)  ---------------------------------------


    POTLOK:  cpu time    0.4642: real time    0.4960
    SETDIJ:  cpu time    0.0413: real time    0.0413
    EDDIAG:  cpu time    7.6167: real time    7.6536
  RMM-DIIS:  cpu time   22.0038: real time   22.1121
    ORTHCH:  cpu time    0.4013: real time    0.4025
       DOS:  cpu time    0.0259: real time    0.0259
    CHARGE:  cpu time    3.0658: real time    3.2010
    MIXING:  cpu time    0.0805: real time    0.0819
    --------------------------------------------
      LOOP:  cpu time   33.6997: real time   34.0144

 eigenvalue-minimisations  :  7304
 total energy-change (2. order) : 0.2748770E+00  (-0.1995846E-01)
 number of electron     282.9999979 magnetization      16.2054242
 augmentation part      100.5972512 magnetization      11.7953177

 Broyden mixing:
  rms(total) = 0.12501E+01    rms(broyden)= 0.12499E+01
  rms(prec ) = 0.12641E+01
  weight for this iteration     100.00

 eigenvalues of (default mixing * dielectric matrix)
  average eigenvalue GAMMA=   0.6260
  1.7399  1.4891  1.4891  1.0741  1.0741  0.8863  0.8863  0.6462  0.6462  0.6933
  0.6933  0.6946  0.6946  0.5624  0.5624  0.2321  0.4922  0.4922  0.4815  0.4815
  0.4427  0.3785  0.3785  0.1327  0.1850  0.1850  0.3114  0.3114  0.2975  0.1473

 Free energy of the ion-electron system (eV)
  ---------------------------------------------------
  alpha Z        PSCENC =       367.19046233
  Ewald energy   TEWEN  =    350284.11635738
  -Hartree energ DENC   =   -379391.65410514
  -exchange      EXHF   =         0.00000000
  -V(xc)+E(xc)   XCENC  =      1417.22816588
  PAW double counting   =     33201.70903354   -33808.42312356
  entropy T*S    EENTRO =        -0.03955053
  eigenvalues    EBANDS =     -5362.38416009
  atomic energy  EATOM  =     33037.69599157
  Solvation  Ediel_sol  =         0.00000000
  ---------------------------------------------------
  free energy    TOTEN  =      -254.56092862 eV

  energy without entropy =     -254.52137808  energy(sigma->0) =     -254.54774511


--------------------------------------------------------------------------------------------------------




--------------------------------------- Iteration      1(  36)  ---------------------------------------


    POTLOK:  cpu time    0.6607: real time    0.7595
    SETDIJ:  cpu time    0.1487: real time    0.1488
    EDDIAG:  cpu time    7.5807: real time    7.7248
  RMM-DIIS:  cpu time   21.6653: real time   21.6958
    ORTHCH:  cpu time    0.3855: real time    0.3856
       DOS:  cpu time    0.0266: real time    0.0266
    CHARGE:  cpu time    2.9426: real time    2.9453
    MIXING:  cpu time    0.0211: real time    0.0211
    --------------------------------------------
      LOOP:  cpu time   33.4312: real time   33.7074

 eigenvalue-minimisations  :  7267
 total energy-change (2. order) :-0.7645178E+00  (-0.3045503E-01)
 number of electron     282.9999978 magnetization      16.2049686
 augmentation part      100.6336248 magnetization      11.6274038

 Broyden mixing:
  rms(total) = 0.12460E+01    rms(broyden)= 0.12458E+01
  rms(prec ) = 0.12602E+01
  weight for this iteration     100.00

 eigenvalues of (default mixing * dielectric matrix)
  average eigenvalue GAMMA=   0.6278
  1.5005  1.5005  1.8222  0.9481  0.9481  1.1563  1.1563  0.6462  0.6462  0.7171
  0.7171  0.2321  0.5764  0.5764  0.6135  0.6135  0.5182  0.5182  0.4978  0.4978
  0.4499  0.3792  0.3792  0.1327  0.1850  0.1850  0.3193  0.3193  0.2811  0.2811
  0.1469

 Free energy of the ion-electron system (eV)
  ---------------------------------------------------
  alpha Z        PSCENC =       367.19046233
  Ewald energy   TEWEN  =    350284.11635738
  -Hartree energ DENC   =   -379381.23795292
  -exchange      EXHF   =         0.00000000
  -V(xc)+E(xc)   XCENC  =      1416.88427505
  PAW double counting   =     33179.43045278   -33785.83865611
  entropy T*S    EENTRO =        -0.04512815
  eigenvalues    EBANDS =     -5373.52124835
  atomic energy  EATOM  =     33037.69599157
  Solvation  Ediel_sol  =         0.00000000
  ---------------------------------------------------
  free energy    TOTEN  =      -255.32544643 eV

  energy without entropy =     -255.28031828  energy(sigma->0) =     -255.31040371


--------------------------------------------------------------------------------------------------------




--------------------------------------- Iteration      1(  37)  ---------------------------------------


    POTLOK:  cpu time    0.4639: real time    0.4958
    SETDIJ:  cpu time    0.0412: real time    0.0412
    EDDIAG:  cpu time    7.5902: real time    7.6030
  RMM-DIIS:  cpu time   22.4399: real time   22.8033
    ORTHCH:  cpu time    0.3826: real time    0.3826
       DOS:  cpu time    0.0262: real time    0.0262
    CHARGE:  cpu time    2.9814: real time    2.9845
    MIXING:  cpu time    0.0219: real time    0.0219
    --------------------------------------------
      LOOP:  cpu time   33.9473: real time   34.3586

 eigenvalue-minimisations  :  7298
 total energy-change (2. order) :-0.4855877E+00  (-0.1354144E-01)
 number of electron     282.9999978 magnetization      16.2073901
 augmentation part      100.5955159 magnetization      11.4286397

 Broyden mixing:
  rms(total) = 0.13891E+01    rms(broyden)= 0.13889E+01
  rms(prec ) = 0.14057E+01
  weight for this iteration     100.00

 eigenvalues of (default mixing * dielectric matrix)
  average eigenvalue GAMMA=   0.6090
  1.8195  1.4988  1.4988  1.1599  1.1599  0.9509  0.9509  0.6462  0.6462  0.7183
  0.7183  0.5745  0.5745  0.6167  0.6167  0.2321  0.5186  0.5186  0.4965  0.4965
  0.4516  0.3793  0.3793  0.1327  0.1850  0.1850  0.3179  0.3179  0.2767  0.2767
  0.0270  0.1468

 Free energy of the ion-electron system (eV)
  ---------------------------------------------------
  alpha Z        PSCENC =       367.19046233
  Ewald energy   TEWEN  =    350284.11635738
  -Hartree energ DENC   =   -379382.51670954
  -exchange      EXHF   =         0.00000000
  -V(xc)+E(xc)   XCENC  =      1416.77444724
  PAW double counting   =     33180.38093381   -33786.89910648
  entropy T*S    EENTRO =        -0.05671926
  eigenvalues    EBANDS =     -5372.49669115
  atomic energy  EATOM  =     33037.69599157
  Solvation  Ediel_sol  =         0.00000000
  ---------------------------------------------------
  free energy    TOTEN  =      -255.81103410 eV

  energy without entropy =     -255.75431484  energy(sigma->0) =     -255.79212768


--------------------------------------------------------------------------------------------------------




--------------------------------------- Iteration      1(  38)  ---------------------------------------


    POTLOK:  cpu time    0.4641: real time    0.4966
    SETDIJ:  cpu time    0.0411: real time    0.0411
    EDDIAG:  cpu time    7.6151: real time    7.6229
  RMM-DIIS:  cpu time   23.0462: real time   23.0717
    ORTHCH:  cpu time    0.3877: real time    0.3878
       DOS:  cpu time    0.0255: real time    0.0256
    CHARGE:  cpu time    3.0024: real time    3.0187
    MIXING:  cpu time    0.0224: real time    0.0224
    --------------------------------------------
      LOOP:  cpu time   34.6046: real time   34.6869

 eigenvalue-minimisations  :  7698
 total energy-change (2. order) :-0.3441497E+00  (-0.3879778E-02)
 number of electron     282.9999977 magnetization      16.1876066
 augmentation part      100.5632203 magnetization      11.3753553

 Broyden mixing:
  rms(total) = 0.17893E+01    rms(broyden)= 0.17891E+01
  rms(prec ) = 0.18160E+01
  weight for this iteration     100.00

 eigenvalues of (default mixing * dielectric matrix)
  average eigenvalue GAMMA=   0.6279
  1.6205  1.6205  1.7385  0.9613  0.9613  1.0886  1.0886  0.6461  0.6461  0.7769
  0.7769  0.8741  0.6154  0.6154  0.5674  0.5674  0.2321  0.5083  0.5083  0.5203
  0.4937  0.4937  0.3814  0.3814  0.1327  0.1850  0.1850  0.3455  0.3455  0.3057
  0.3057  0.0830  0.1469

 Free energy of the ion-electron system (eV)
  ---------------------------------------------------
  alpha Z        PSCENC =       367.19046233
  Ewald energy   TEWEN  =    350284.11635738
  -Hartree energ DENC   =   -379381.53042145
  -exchange      EXHF   =         0.00000000
  -V(xc)+E(xc)   XCENC  =      1416.76891860
  PAW double counting   =     33179.01850552   -33785.76889151
  entropy T*S    EENTRO =        -0.02761941
  eigenvalues    EBANDS =     -5373.61848678
  atomic energy  EATOM  =     33037.69599157
  Solvation  Ediel_sol  =         0.00000000
  ---------------------------------------------------
  free energy    TOTEN  =      -256.15518375 eV

  energy without entropy =     -256.12756434  energy(sigma->0) =     -256.14597728


--------------------------------------------------------------------------------------------------------




--------------------------------------- Iteration      1(  39)  ---------------------------------------


    POTLOK:  cpu time    0.4962: real time    0.4964
    SETDIJ:  cpu time    0.0412: real time    0.0412
    EDDIAG:  cpu time    7.6311: real time    7.7441
  RMM-DIIS:  cpu time   22.2096: real time   22.6165
    ORTHCH:  cpu time    0.3879: real time    0.3889
       DOS:  cpu time    0.0263: real time    0.0263
    CHARGE:  cpu time    3.0263: real time    3.0293
    MIXING:  cpu time    0.0237: real time    0.0237
    --------------------------------------------
      LOOP:  cpu time   33.8421: real time   34.3663

 eigenvalue-minimisations  :  7269
 total energy-change (2. order) :-0.2565271E+00  (-0.1040185E-01)
 number of electron     282.9999977 magnetization      16.1701265
 augmentation part      100.5581956 magnetization      11.4177502

 Broyden mixing:
  rms(total) = 0.17996E+01    rms(broyden)= 0.17996E+01
  rms(prec ) = 0.18268E+01
  weight for this iteration     100.00

 eigenvalues of (default mixing * dielectric matrix)
  average eigenvalue GAMMA=   0.6365
  1.7586  1.7586  1.7581  0.9556  0.9556  1.0979  1.0979  0.6461  0.6461  0.8547
  0.8547  0.6441  0.6441  0.2321  0.6023  0.6023  0.6502  0.6502  0.5099  0.5099
  0.5207  0.5207  0.1327  0.1850  0.1850  0.4073  0.3790  0.3790  0.3059  0.3059
  0.3267  0.3267  0.0908  0.1469

 Free energy of the ion-electron system (eV)
  ---------------------------------------------------
  alpha Z        PSCENC =       367.19046233
  Ewald energy   TEWEN  =    350284.11635738
  -Hartree energ DENC   =   -379391.69223182
  -exchange      EXHF   =         0.00000000
  -V(xc)+E(xc)   XCENC  =      1416.73455406
  PAW double counting   =     33185.86747893   -33793.05244542
  entropy T*S    EENTRO =        -0.02173929
  eigenvalues    EBANDS =     -5363.25013858
  atomic energy  EATOM  =     33037.69599157
  Solvation  Ediel_sol  =         0.00000000
  ---------------------------------------------------
  free energy    TOTEN  =      -256.41171085 eV

  energy without entropy =     -256.38997155  energy(sigma->0) =     -256.40446442


--------------------------------------------------------------------------------------------------------




--------------------------------------- Iteration      1(  40)  ---------------------------------------


    POTLOK:  cpu time    0.4649: real time    0.4966
    SETDIJ:  cpu time    0.0403: real time    0.0411
    EDDIAG:  cpu time    7.6236: real time    7.6327
  RMM-DIIS:  cpu time   21.8020: real time   21.9086
    ORTHCH:  cpu time    0.3858: real time    0.3870
       DOS:  cpu time    0.0246: real time    0.0247
    CHARGE:  cpu time    2.9933: real time    3.0056
    MIXING:  cpu time    0.0249: real time    0.0249
    --------------------------------------------
      LOOP:  cpu time   33.3595: real time   33.5211

 eigenvalue-minimisations  :  7287
 total energy-change (2. order) :-0.3409693E+00  (-0.1773662E-01)
 number of electron     282.9999977 magnetization      16.1646092
 augmentation part      100.3924036 magnetization      10.7452774

 Broyden mixing:
  rms(total) = 0.12888E+01    rms(broyden)= 0.12885E+01
  rms(prec ) = 0.13155E+01
  weight for this iteration     100.00

 eigenvalues of (default mixing * dielectric matrix)
  average eigenvalue GAMMA=   0.6271
  1.7814  1.7814  1.7908  1.1786  1.1786  0.9373  0.9373  0.8526  0.8526  0.6460
  0.6460  0.6402  0.6402  0.6195  0.6195  0.2321  0.6192  0.6192  0.5065  0.5065
  0.5005  0.5005  0.3790  0.3790  0.1327  0.1850  0.1850  0.3196  0.3196  0.3075
  0.3075  0.3040  0.3040  0.0914  0.1469

 Free energy of the ion-electron system (eV)
  ---------------------------------------------------
  alpha Z        PSCENC =       367.19046233
  Ewald energy   TEWEN  =    350284.11635738
  -Hartree energ DENC   =   -379403.51497202
  -exchange      EXHF   =         0.00000000
  -V(xc)+E(xc)   XCENC  =      1416.55646170
  PAW double counting   =     33189.96944760   -33797.50492489
  entropy T*S    EENTRO =         0.02710422
  eigenvalues    EBANDS =     -5351.28860808
  atomic energy  EATOM  =     33037.69599157
  Solvation  Ediel_sol  =         0.00000000
  ---------------------------------------------------
  free energy    TOTEN  =      -256.75268019 eV

  energy without entropy =     -256.77978440  energy(sigma->0) =     -256.76171492


--------------------------------------------------------------------------------------------------------




--------------------------------------- Iteration      1(  41)  ---------------------------------------


    POTLOK:  cpu time    0.4649: real time    0.4964
    SETDIJ:  cpu time    0.0413: real time    0.0413
    EDDIAG:  cpu time    8.1692: real time    8.3805
  RMM-DIIS:  cpu time   22.4344: real time   22.5620
    ORTHCH:  cpu time    0.3878: real time    0.3878
       DOS:  cpu time    0.0257: real time    0.0257
    CHARGE:  cpu time    3.0403: real time    3.0506
    MIXING:  cpu time    0.0251: real time    0.0251
    --------------------------------------------
      LOOP:  cpu time   34.5888: real time   34.9695

 eigenvalue-minimisations  :  7436
 total energy-change (2. order) :-0.2832790E+00  (-0.5351771E-02)
 number of electron     282.9999977 magnetization      16.1620922
 augmentation part      100.3583731 magnetization      10.6873746

 Broyden mixing:
  rms(total) = 0.12629E+01    rms(broyden)= 0.12629E+01
  rms(prec ) = 0.12889E+01
  weight for this iteration     100.00

 eigenvalues of (default mixing * dielectric matrix)
  average eigenvalue GAMMA=   0.6209
  1.7932  1.7932  1.8114  1.1762  1.1762  0.9247  0.9247  0.8364  0.8364  0.6460
  0.6460  0.6492  0.6492  0.6219  0.6219  0.2321  0.5998  0.5998  0.5144  0.5144
  0.5158  0.5158  0.3794  0.3794  0.3879  0.1327  0.1850  0.1850  0.3220  0.3220
  0.3053  0.3053  0.3060  0.3060  0.0916  0.1469

 Free energy of the ion-electron system (eV)
  ---------------------------------------------------
  alpha Z        PSCENC =       367.19046233
  Ewald energy   TEWEN  =    350284.11635738
  -Hartree energ DENC   =   -379404.38381210
  -exchange      EXHF   =         0.00000000
  -V(xc)+E(xc)   XCENC  =      1416.49607598
  PAW double counting   =     33187.93643493   -33795.05734121
  entropy T*S    EENTRO =         0.03432116
  eigenvalues    EBANDS =     -5351.06444922
  atomic energy  EATOM  =     33037.69599157
  Solvation  Ediel_sol  =         0.00000000
  ---------------------------------------------------
  free energy    TOTEN  =      -257.03595919 eV

  energy without entropy =     -257.07028034  energy(sigma->0) =     -257.04739957


--------------------------------------------------------------------------------------------------------




--------------------------------------- Iteration      1(  42)  ---------------------------------------


    POTLOK:  cpu time    0.4967: real time    0.4970
    SETDIJ:  cpu time    0.0413: real time    0.0413
    EDDIAG:  cpu time    7.6141: real time    7.6237
  RMM-DIIS:  cpu time   23.4813: real time   23.5487
    ORTHCH:  cpu time    0.4079: real time    0.4193
       DOS:  cpu time    0.0244: real time    0.0245
    CHARGE:  cpu time    3.5772: real time    3.8582
    MIXING:  cpu time    0.0464: real time    0.0642
    --------------------------------------------
      LOOP:  cpu time   35.6893: real time   36.0767

 eigenvalue-minimisations  :  7873
 total energy-change (2. order) :-0.5298877E-01  (-0.1170514E-02)
 number of electron     282.9999977 magnetization      16.1596216
 augmentation part      100.3582254 magnetization      10.6925136

 Broyden mixing:
  rms(total) = 0.12638E+01    rms(broyden)= 0.12638E+01
  rms(prec ) = 0.12900E+01
  weight for this iteration     100.00

 eigenvalues of (default mixing * dielectric matrix)
  average eigenvalue GAMMA=   0.6304
  1.8236  1.8236  1.7283  0.9018  0.9018  1.1424  1.1424  0.6460  0.6460  0.8514
  0.8514  0.5785  0.5785  0.6426  0.6426  0.7737  0.2321  0.5973  0.5973  0.5073
  0.5073  0.5241  0.4846  0.4846  0.4656  0.4656  0.1327  0.1850  0.1850  0.3806
  0.3806  0.3344  0.3344  0.3060  0.3060  0.0916  0.1469

 Free energy of the ion-electron system (eV)
  ---------------------------------------------------
  alpha Z        PSCENC =       367.19046233
  Ewald energy   TEWEN  =    350284.11635738
  -Hartree energ DENC   =   -379404.64892793
  -exchange      EXHF   =         0.00000000
  -V(xc)+E(xc)   XCENC  =      1416.47599660
  PAW double counting   =     33187.82737355   -33794.86188116
  entropy T*S    EENTRO =         0.03364100
  eigenvalues    EBANDS =     -5350.91796129
  atomic energy  EATOM  =     33037.69599157
  Solvation  Ediel_sol  =         0.00000000
  ---------------------------------------------------
  free energy    TOTEN  =      -257.08894796 eV

  energy without entropy =     -257.12258895  energy(sigma->0) =     -257.10016162


--------------------------------------------------------------------------------------------------------




--------------------------------------- Iteration      1(  43)  ---------------------------------------


    POTLOK:  cpu time    0.5091: real time    0.6389
    SETDIJ:  cpu time    0.0420: real time    0.0420
    EDDIAG:  cpu time    7.5750: real time    7.6063
  RMM-DIIS:  cpu time   21.4133: real time   21.4430
    ORTHCH:  cpu time    0.3856: real time    0.3856
       DOS:  cpu time    0.0250: real time    0.0250
    CHARGE:  cpu time    3.0190: real time    3.0222
    MIXING:  cpu time    0.0267: real time    0.0267
    --------------------------------------------
      LOOP:  cpu time   32.9957: real time   33.1898

 eigenvalue-minimisations  :  7102
 total energy-change (2. order) :-0.1465584E+00  (-0.1425346E-02)
 number of electron     282.9999977 magnetization      16.1477153
 augmentation part      100.3594942 magnetization      10.6970500

 Broyden mixing:
  rms(total) = 0.12537E+01    rms(broyden)= 0.12537E+01
  rms(prec ) = 0.12805E+01
  weight for this iteration     100.00

 eigenvalues of (default mixing * dielectric matrix)
  average eigenvalue GAMMA=   0.6674
  1.9789  1.9789  1.6434  1.6434  0.9842  0.9842  0.9169  0.9169  0.9001  0.9001
  0.6460  0.6460  0.8169  0.8169  0.6210  0.6210  0.6352  0.6352  0.2321  0.6077
  0.4965  0.4965  0.5134  0.5134  0.4909  0.4909  0.4601  0.1327  0.1850  0.1850
  0.3801  0.3801  0.3060  0.3060  0.3307  0.3307  0.0916  0.1469

 Free energy of the ion-electron system (eV)
  ---------------------------------------------------
  alpha Z        PSCENC =       367.19046233
  Ewald energy   TEWEN  =    350284.11635738
  -Hartree energ DENC   =   -379406.11182068
  -exchange      EXHF   =         0.00000000
  -V(xc)+E(xc)   XCENC  =      1416.39585715
  PAW double counting   =     33183.31412869   -33790.39428703
  entropy T*S    EENTRO =         0.03822420
  eigenvalues    EBANDS =     -5349.48041996
  atomic energy  EATOM  =     33037.69599157
  Solvation  Ediel_sol  =         0.00000000
  ---------------------------------------------------
  free energy    TOTEN  =      -257.23550635 eV

  energy without entropy =     -257.27373055  energy(sigma->0) =     -257.24824775


--------------------------------------------------------------------------------------------------------




--------------------------------------- Iteration      1(  44)  ---------------------------------------


    POTLOK:  cpu time    0.4648: real time    0.4958
    SETDIJ:  cpu time    0.0411: real time    0.0411
    EDDIAG:  cpu time    7.6239: real time    7.6350
  RMM-DIIS:  cpu time   22.4265: real time   22.8972
    ORTHCH:  cpu time    0.3861: real time    0.3861
       DOS:  cpu time    0.0259: real time    0.0259
    CHARGE:  cpu time    2.9972: real time    3.0008
    MIXING:  cpu time    0.0273: real time    0.0273
    --------------------------------------------
      LOOP:  cpu time   33.9927: real time   34.5092

 eigenvalue-minimisations  :  7197
 total energy-change (2. order) :-0.6353086E+00  (-0.1611393E-01)
 number of electron     282.9999976 magnetization      16.1660991
 augmentation part      100.4642620 magnetization      10.5935429

 Broyden mixing:
  rms(total) = 0.13426E+01    rms(broyden)= 0.13424E+01
  rms(prec ) = 0.13945E+01
  weight for this iteration     100.00

 eigenvalues of (default mixing * dielectric matrix)
  average eigenvalue GAMMA=   0.6521
  2.0049  2.0049  1.4853  1.4853  1.0265  1.0265  0.9276  0.9276  0.8861  0.8861
  0.6460  0.6460  0.8594  0.8594  0.6183  0.6183  0.6450  0.6450  0.2321  0.6397
  0.4953  0.4953  0.5147  0.5147  0.4945  0.4945  0.4528  0.3800  0.3800  0.3302
  0.3302  0.3060  0.3060  0.1850  0.1850  0.1327  0.0916  0.1469  0.1276

 Free energy of the ion-electron system (eV)
  ---------------------------------------------------
  alpha Z        PSCENC =       367.19046233
  Ewald energy   TEWEN  =    350284.11635738
  -Hartree energ DENC   =   -379411.37842794
  -exchange      EXHF   =         0.00000000
  -V(xc)+E(xc)   XCENC  =      1416.05148736
  PAW double counting   =     33162.24834800   -33769.99138139
  entropy T*S    EENTRO =        -0.01524728
  eigenvalues    EBANDS =     -5343.78840493
  atomic energy  EATOM  =     33037.69599157
  Solvation  Ediel_sol  =         0.00000000
  ---------------------------------------------------
  free energy    TOTEN  =      -257.87081492 eV

  energy without entropy =     -257.85556763  energy(sigma->0) =     -257.86573249


--------------------------------------------------------------------------------------------------------




--------------------------------------- Iteration      1(  45)  ---------------------------------------


    POTLOK:  cpu time    0.4655: real time    0.4963
    SETDIJ:  cpu time    0.0413: real time    0.0413
    EDDIAG:  cpu time    7.5831: real time    7.5920
  RMM-DIIS:  cpu time   21.7256: real time   21.7643
    ORTHCH:  cpu time    0.3879: real time    0.3880
       DOS:  cpu time    0.0262: real time    0.0262
    CHARGE:  cpu time    3.0372: real time    3.0468
    MIXING:  cpu time    0.0291: real time    0.0291
    --------------------------------------------
      LOOP:  cpu time   33.2960: real time   33.3840

 eigenvalue-minimisations  :  7217
 total energy-change (2. order) :-0.4482430E+00  (-0.7043934E-02)
 number of electron     282.9999975 magnetization      16.1626023
 augmentation part      100.5602551 magnetization      10.2637320

 Broyden mixing:
  rms(total) = 0.16583E+01    rms(broyden)= 0.16578E+01
  rms(prec ) = 0.17483E+01
  weight for this iteration     100.00

 eigenvalues of (default mixing * dielectric matrix)
  average eigenvalue GAMMA=   0.6450
  2.0339  2.0339  1.5272  1.5272  1.0384  1.0384  0.9340  0.9340  0.8776  0.8776
  0.6460  0.6460  0.8374  0.8374  0.6165  0.6165  0.6520  0.6520  0.2321  0.6217
  0.4951  0.4951  0.5148  0.5148  0.5002  0.5002  0.4396  0.1327  0.1850  0.1850
  0.3800  0.3800  0.3060  0.3060  0.3309  0.3309  0.3050  0.0802  0.0916  0.1469

 Free energy of the ion-electron system (eV)
  ---------------------------------------------------
  alpha Z        PSCENC =       367.19046233
  Ewald energy   TEWEN  =    350284.11635738
  -Hartree energ DENC   =   -379412.26943905
  -exchange      EXHF   =         0.00000000
  -V(xc)+E(xc)   XCENC  =      1415.94256218
  PAW double counting   =     33156.35899023   -33764.22879248
  entropy T*S    EENTRO =         0.00282796
  eigenvalues    EBANDS =     -5343.12801802
  atomic energy  EATOM  =     33037.69599157
  Solvation  Ediel_sol  =         0.00000000
  ---------------------------------------------------
  free energy    TOTEN  =      -258.31905789 eV

  energy without entropy =     -258.32188585  energy(sigma->0) =     -258.32000054


--------------------------------------------------------------------------------------------------------




--------------------------------------- Iteration      1(  46)  ---------------------------------------


    POTLOK:  cpu time    0.4970: real time    0.4972
    SETDIJ:  cpu time    0.0411: real time    0.0411
    EDDIAG:  cpu time    7.7091: real time    7.8295
  RMM-DIIS:  cpu time   22.3355: real time   22.7604
    ORTHCH:  cpu time    0.3869: real time    0.3880
       DOS:  cpu time    0.0251: real time    0.0251
    CHARGE:  cpu time    3.0045: real time    3.0076
    MIXING:  cpu time    0.0290: real time    0.0290
    --------------------------------------------
      LOOP:  cpu time   34.0284: real time   34.5781

 eigenvalue-minimisations  :  7198
 total energy-change (2. order) :-0.2761475E+00  (-0.8530922E-02)
 number of electron     282.9999975 magnetization      16.1563426
 augmentation part      100.5317545 magnetization      10.2127805

 Broyden mixing:
  rms(total) = 0.16311E+01    rms(broyden)= 0.16310E+01
  rms(prec ) = 0.17218E+01
  weight for this iteration     100.00

 eigenvalues of (default mixing * dielectric matrix)
  average eigenvalue GAMMA=   0.6407
  2.0647  2.0647  1.4927  1.4927  1.0375  1.0375  0.9382  0.9382  1.1360  0.8708
  0.8708  0.6460  0.6460  0.6151  0.6151  0.6673  0.6673  0.6403  0.6403  0.2321
  0.4927  0.4927  0.5147  0.5147  0.5012  0.5012  0.4222  0.3798  0.3798  0.3336
  0.3336  0.3059  0.3059  0.1327  0.1850  0.1850  0.3091  0.1620  0.0916  0.2636
  0.1469

 Free energy of the ion-electron system (eV)
  ---------------------------------------------------
  alpha Z        PSCENC =       367.19046233
  Ewald energy   TEWEN  =    350284.11635738
  -Hartree energ DENC   =   -379413.14587072
  -exchange      EXHF   =         0.00000000
  -V(xc)+E(xc)   XCENC  =      1415.98946419
  PAW double counting   =     33152.12467631   -33759.89145009
  entropy T*S    EENTRO =         0.00000327
  eigenvalues    EBANDS =     -5342.67483964
  atomic energy  EATOM  =     33037.69599157
  Solvation  Ediel_sol  =         0.00000000
  ---------------------------------------------------
  free energy    TOTEN  =      -258.59520539 eV

  energy without entropy =     -258.59520866  energy(sigma->0) =     -258.59520648


--------------------------------------------------------------------------------------------------------




--------------------------------------- Iteration      1(  47)  ---------------------------------------


    POTLOK:  cpu time    0.4653: real time    0.4967
    SETDIJ:  cpu time    0.0401: real time    0.0410
    EDDIAG:  cpu time    7.5830: real time    7.5908
  RMM-DIIS:  cpu time   22.1545: real time   22.2075
    ORTHCH:  cpu time    0.3877: real time    0.3877
       DOS:  cpu time    0.0263: real time    0.0263
    CHARGE:  cpu time    3.0417: real time    3.0588
    MIXING:  cpu time    0.0300: real time    0.0300
    --------------------------------------------
      LOOP:  cpu time   33.7283: real time   33.8388

 eigenvalue-minimisations  :  7392
 total energy-change (2. order) :-0.1638661E+00  (-0.3038774E-02)
 number of electron     282.9999975 magnetization      16.1545471
 augmentation part      100.5525583 magnetization      10.2242664

 Broyden mixing:
  rms(total) = 0.16110E+01    rms(broyden)= 0.16110E+01
  rms(prec ) = 0.17031E+01
  weight for this iteration     100.00

 eigenvalues of (default mixing * dielectric matrix)
  average eigenvalue GAMMA=   0.6525
  2.1158  2.1158  1.7386  1.7386  1.0890  1.0890  0.9485  0.9485  0.6460  0.6460
  0.8218  0.8218  0.8713  0.8713  0.6476  0.6476  0.6050  0.6050  0.2321  0.4861
  0.4861  0.4808  0.4808  0.5051  0.5051  0.4901  0.4901  0.4781  0.4781  0.1327
  0.1850  0.1850  0.3800  0.3800  0.3060  0.3060  0.3306  0.3306  0.3390  0.2101
  0.0916  0.1469

 Free energy of the ion-electron system (eV)
  ---------------------------------------------------
  alpha Z        PSCENC =       367.19046233
  Ewald energy   TEWEN  =    350284.11635738
  -Hartree energ DENC   =   -379416.12446387
  -exchange      EXHF   =         0.00000000
  -V(xc)+E(xc)   XCENC  =      1415.94105544
  PAW double counting   =     33150.41055408   -33758.24203394
  entropy T*S    EENTRO =        -0.00790333
  eigenvalues    EBANDS =     -5339.73909115
  atomic energy  EATOM  =     33037.69599157
  Solvation  Ediel_sol  =         0.00000000
  ---------------------------------------------------
  free energy    TOTEN  =      -258.75907149 eV

  energy without entropy =     -258.75116816  energy(sigma->0) =     -258.75643705


--------------------------------------------------------------------------------------------------------




--------------------------------------- Iteration      1(  48)  ---------------------------------------


    POTLOK:  cpu time    0.4648: real time    0.4970
    SETDIJ:  cpu time    0.0412: real time    0.0412
    EDDIAG:  cpu time    8.0418: real time    8.4232
  RMM-DIIS:  cpu time   22.2472: real time   22.2846
    ORTHCH:  cpu time    0.3878: real time    0.3879
       DOS:  cpu time    0.0254: real time    0.0254
    CHARGE:  cpu time    3.0057: real time    3.0158
    MIXING:  cpu time    0.0308: real time    0.0308
    --------------------------------------------
      LOOP:  cpu time   34.2448: real time   34.7060

 eigenvalue-minimisations  :  7435
 total energy-change (2. order) :-0.3497883E+00  (-0.6383506E-02)
 number of electron     282.9999975 magnetization      16.1665320
 augmentation part      100.5321244 magnetization      10.3070308

 Broyden mixing:
  rms(total) = 0.16164E+01    rms(broyden)= 0.16164E+01
  rms(prec ) = 0.17065E+01
  weight for this iteration     100.00

 eigenvalues of (default mixing * dielectric matrix)
  average eigenvalue GAMMA=   0.6628
  2.1814  2.1814  1.8062  1.8062  1.1463  1.1463  0.9509  0.9509  0.6460  0.6460
  0.7445  0.7445  0.7934  0.7934  0.7534  0.7534  0.6155  0.6155  0.6370  0.6370
  0.5225  0.5225  0.2321  0.5753  0.5150  0.5150  0.4974  0.4974  0.2241  0.4436
  0.3800  0.3800  0.1327  0.1850  0.1850  0.3060  0.3060  0.3339  0.3339  0.3128
  0.3128  0.0916  0.1469

 Free energy of the ion-electron system (eV)
  ---------------------------------------------------
  alpha Z        PSCENC =       367.19046233
  Ewald energy   TEWEN  =    350284.11635738
  -Hartree energ DENC   =   -379422.97174348
  -exchange      EXHF   =         0.00000000
  -V(xc)+E(xc)   XCENC  =      1415.86477777
  PAW double counting   =     33141.30882456   -33749.01363918
  entropy T*S    EENTRO =         0.00989226
  eigenvalues    EBANDS =     -5333.30978297
  atomic energy  EATOM  =     33037.69599157
  Solvation  Ediel_sol  =         0.00000000
  ---------------------------------------------------
  free energy    TOTEN  =      -259.10885977 eV

  energy without entropy =     -259.11875203  energy(sigma->0) =     -259.11215719


--------------------------------------------------------------------------------------------------------




--------------------------------------- Iteration      1(  49)  ---------------------------------------


    POTLOK:  cpu time    0.4647: real time    0.4959
    SETDIJ:  cpu time    0.0410: real time    0.0410
    EDDIAG:  cpu time    7.5886: real time    7.5980
  RMM-DIIS:  cpu time   22.2258: real time   22.3484
    ORTHCH:  cpu time    0.3872: real time    0.3874
       DOS:  cpu time    0.0263: real time    0.0262
    CHARGE:  cpu time    3.1927: real time    3.2239
    MIXING:  cpu time    0.0313: real time    0.0338
    --------------------------------------------
      LOOP:  cpu time   33.9576: real time   34.1545

 eigenvalue-minimisations  :  7340
 total energy-change (2. order) :-0.6983522E+00  (-0.9470696E-02)
 number of electron     282.9999975 magnetization      16.1692090
 augmentation part      100.7859293 magnetization      10.1317871

 Broyden mixing:
  rms(total) = 0.21488E+01    rms(broyden)= 0.21483E+01
  rms(prec ) = 0.22973E+01
  weight for this iteration     100.00

 eigenvalues of (default mixing * dielectric matrix)
  average eigenvalue GAMMA=   0.6479
  2.1794  2.1794  1.8134  1.8134  1.1452  1.1452  0.9510  0.9510  0.6460  0.6460
  0.7424  0.7424  0.7906  0.7906  0.7522  0.7522  0.6158  0.6158  0.6357  0.6357
  0.5227  0.5227  0.2321  0.5757  0.5149  0.5149  0.4966  0.4966  0.4433  0.3800
  0.3800  0.1327  0.1850  0.1850  0.3060  0.3060  0.3339  0.3339  0.3132  0.3132
  0.2238  0.0916  0.0134  0.1469

 Free energy of the ion-electron system (eV)
  ---------------------------------------------------
  alpha Z        PSCENC =       367.19046233
  Ewald energy   TEWEN  =    350284.11635738
  -Hartree energ DENC   =   -379427.75128115
  -exchange      EXHF   =         0.00000000
  -V(xc)+E(xc)   XCENC  =      1415.71355618
  PAW double counting   =     33126.68939670   -33734.41752870
  entropy T*S    EENTRO =        -0.01918904
  eigenvalues    EBANDS =     -5329.02497728
  atomic energy  EATOM  =     33037.69599157
  Solvation  Ediel_sol  =         0.00000000
  ---------------------------------------------------
  free energy    TOTEN  =      -259.80721200 eV

  energy without entropy =     -259.78802297  energy(sigma->0) =     -259.80081566


--------------------------------------------------------------------------------------------------------




--------------------------------------- Iteration      1(  50)  ---------------------------------------


    POTLOK:  cpu time    0.5303: real time    0.6115
    SETDIJ:  cpu time    0.0411: real time    0.0411
    EDDIAG:  cpu time    7.9429: real time    8.4772
  RMM-DIIS:  cpu time   22.1927: real time   22.2845
    ORTHCH:  cpu time    0.3884: real time    0.3895
       DOS:  cpu time    0.0259: real time    0.0259
    CHARGE:  cpu time    3.0026: real time    3.0057
    MIXING:  cpu time    0.0309: real time    0.0309
    --------------------------------------------
      LOOP:  cpu time   34.1546: real time   34.8662

 eigenvalue-minimisations  :  7375
 total energy-change (2. order) :-0.5587584E+00  (-0.1326161E-01)
 number of electron     282.9999974 magnetization      16.1841778
 augmentation part      100.8288531 magnetization      10.0616952

 Broyden mixing:
  rms(total) = 0.23368E+01    rms(broyden)= 0.23367E+01
  rms(prec ) = 0.24994E+01
  weight for this iteration     100.00

 eigenvalues of (default mixing * dielectric matrix)
  average eigenvalue GAMMA=   0.5764
  1.7694  1.7694  1.0233  1.0233  1.0530  1.0530  0.7092  0.7092  0.9996  0.9041
  0.7850  0.7850  0.2448  0.2448  0.5551  0.5551  0.6471  0.6471  0.6091  0.6091
  0.1029  0.5640  0.5640  0.4812  0.4812  0.0303  0.4735  0.4735  0.4658  0.0833
  0.0833  0.3701  0.3701  0.2939  0.2939  0.1451  0.2688  0.2688  0.2742  0.2742

 Free energy of the ion-electron system (eV)
  ---------------------------------------------------
  alpha Z        PSCENC =       367.19046233
  Ewald energy   TEWEN  =    350284.11635738
  -Hartree energ DENC   =   -379429.01038123
  -exchange      EXHF   =         0.00000000
  -V(xc)+E(xc)   XCENC  =      1415.71596417
  PAW double counting   =     33129.67854734   -33738.07816606
  entropy T*S    EENTRO =        -0.00017027
  eigenvalues    EBANDS =     -5327.67457563
  atomic energy  EATOM  =     33037.69599157
  Solvation  Ediel_sol  =         0.00000000
  ---------------------------------------------------
  free energy    TOTEN  =      -260.36597040 eV

  energy without entropy =     -260.36580012  energy(sigma->0) =     -260.36591364


--------------------------------------------------------------------------------------------------------




--------------------------------------- Iteration      1(  51)  ---------------------------------------


    POTLOK:  cpu time    0.4645: real time    0.4969
    SETDIJ:  cpu time    0.0411: real time    0.0411
    EDDIAG:  cpu time    7.5858: real time    7.7109
  RMM-DIIS:  cpu time   22.1063: real time   22.5453
    ORTHCH:  cpu time    0.3860: real time    0.3869
       DOS:  cpu time    0.0255: real time    0.0255
    CHARGE:  cpu time    3.0055: real time    3.0085
    MIXING:  cpu time    0.0292: real time    0.0292
    --------------------------------------------
      LOOP:  cpu time   33.6439: real time   34.2443

 eigenvalue-minimisations  :  7163
 total energy-change (2. order) : 0.4992372E-02  (-0.6762506E-02)
 number of electron     282.9999975 magnetization      16.1861245
 augmentation part      100.8022244 magnetization      10.0629836

 Broyden mixing:
  rms(total) = 0.23592E+01    rms(broyden)= 0.23592E+01
  rms(prec ) = 0.25201E+01
  weight for this iteration     100.00

 eigenvalues of (default mixing * dielectric matrix)
  average eigenvalue GAMMA=   0.5696
  1.8794  1.8794  1.0109  1.0109  0.7549  0.7549  0.9997  0.8567  0.8567  0.7763
  0.7763  0.7949  0.7114  0.7114  0.2833  0.5419  0.5419  0.2180  0.5787  0.5787
  0.5404  0.5404  0.0913  0.5677  0.5677  0.4949  0.4949  0.1052  0.1052  0.4634
  0.4634  0.0711  0.2339  0.2339  0.1334  0.3115  0.3115  0.2717  0.2717  0.3102
  0.2527

 Free energy of the ion-electron system (eV)
  ---------------------------------------------------
  alpha Z        PSCENC =       367.19046233
  Ewald energy   TEWEN  =    350284.11635738
  -Hartree energ DENC   =   -379422.98728545
  -exchange      EXHF   =         0.00000000
  -V(xc)+E(xc)   XCENC  =      1415.65971514
  PAW double counting   =     33114.04062029   -33722.54783559
  entropy T*S    EENTRO =         0.00334406
  eigenvalues    EBANDS =     -5333.53234776
  atomic energy  EATOM  =     33037.69599157
  Solvation  Ediel_sol  =         0.00000000
  ---------------------------------------------------
  free energy    TOTEN  =      -260.36097803 eV

  energy without entropy =     -260.36432209  energy(sigma->0) =     -260.36209271


--------------------------------------------------------------------------------------------------------




--------------------------------------- Iteration      1(  52)  ---------------------------------------


    POTLOK:  cpu time    0.4645: real time    0.4965
    SETDIJ:  cpu time    0.0411: real time    0.0411
    EDDIAG:  cpu time    7.6189: real time    7.6267
  RMM-DIIS:  cpu time   24.4453: real time   24.4833
    ORTHCH:  cpu time    0.3879: real time    0.3889
       DOS:  cpu time    0.0263: real time    0.0263
    CHARGE:  cpu time    3.0666: real time    3.0729
    MIXING:  cpu time    0.0299: real time    0.0300
    --------------------------------------------
      LOOP:  cpu time   36.0804: real time   36.1657

 eigenvalue-minimisations  :  8163
 total energy-change (2. order) : 0.2798831E-01  (-0.8838129E-03)
 number of electron     282.9999974 magnetization      16.1877019
 augmentation part      100.7921891 magnetization      10.0573945

 Broyden mixing:
  rms(total) = 0.23606E+01    rms(broyden)= 0.23606E+01
  rms(prec ) = 0.25210E+01
  weight for this iteration     100.00

 eigenvalues of (default mixing * dielectric matrix)
  average eigenvalue GAMMA=   0.5635
  1.9315  1.9315  1.0537  1.0537  0.7921  0.7921  0.9168  0.9168  0.9721  0.6756
  0.6756  0.2865  0.6911  0.6911  0.7519  0.2157  0.5170  0.5170  0.5231  0.5231
  0.5751  0.5751  0.5804  0.5804  0.0918  0.5013  0.5013  0.4652  0.4652  0.1565
  0.1565  0.2411  0.2411  0.0699  0.3266  0.3266  0.2679  0.2679  0.2827  0.2827
  0.1424  0.1424

 Free energy of the ion-electron system (eV)
  ---------------------------------------------------
  alpha Z        PSCENC =       367.19046233
  Ewald energy   TEWEN  =    350284.11635738
  -Hartree energ DENC   =   -379423.12013912
  -exchange      EXHF   =         0.00000000
  -V(xc)+E(xc)   XCENC  =      1415.65757336
  PAW double counting   =     33114.20823224   -33722.69784113
  entropy T*S    EENTRO =         0.00449552
  eigenvalues    EBANDS =     -5333.38812186
  atomic energy  EATOM  =     33037.69599157
  Solvation  Ediel_sol  =         0.00000000
  ---------------------------------------------------
  free energy    TOTEN  =      -260.33298972 eV

  energy without entropy =     -260.33748524  energy(sigma->0) =     -260.33448822


--------------------------------------------------------------------------------------------------------




--------------------------------------- Iteration      1(  53)  ---------------------------------------


    POTLOK:  cpu time    0.4654: real time    0.5342
    SETDIJ:  cpu time    0.0411: real time    0.0411
    EDDIAG:  cpu time    7.5759: real time    7.5947
  RMM-DIIS:  cpu time   22.7281: real time   23.1578
    ORTHCH:  cpu time    0.3867: real time    0.3867
       DOS:  cpu time    0.0262: real time    0.0262
    CHARGE:  cpu time    3.0123: real time    3.0163
    MIXING:  cpu time    0.0311: real time    0.0311
    --------------------------------------------
      LOOP:  cpu time   34.2668: real time   34.7882

 eigenvalue-minimisations  :  7354
 total energy-change (2. order) : 0.2372885E-01  (-0.1171841E-03)
 number of electron     282.9999974 magnetization      16.1889284
 augmentation part      100.7871049 magnetization      10.0491115

 Broyden mixing:
  rms(total) = 0.23582E+01    rms(broyden)= 0.23582E+01
  rms(prec ) = 0.25184E+01
  weight for this iteration     100.00

 eigenvalues of (default mixing * dielectric matrix)
  average eigenvalue GAMMA=   0.5647
  1.9326  1.9326  1.0517  1.0517  0.8302  0.8302  0.9173  0.9173  0.9889  0.6373
  0.6373  0.7953  0.5475  0.5475  0.6844  0.6844  0.2399  0.2399  0.2254  0.1406
  0.5429  0.5429  0.5721  0.5721  0.0430  0.5582  0.5582  0.4996  0.4996  0.3399
  0.3399  0.4744  0.4744  0.1810  0.1810  0.3376  0.3376  0.1449  0.1522  0.3075
  0.3075  0.2417  0.2417

 Free energy of the ion-electron system (eV)
  ---------------------------------------------------
  alpha Z        PSCENC =       367.19046233
  Ewald energy   TEWEN  =    350284.11635738
  -Hartree energ DENC   =   -379423.42376010
  -exchange      EXHF   =         0.00000000
  -V(xc)+E(xc)   XCENC  =      1415.65107838
  PAW double counting   =     33114.43419489   -33722.92135899
  entropy T*S    EENTRO =         0.00441827
  eigenvalues    EBANDS =     -5333.05664460
  atomic energy  EATOM  =     33037.69599157
  Solvation  Ediel_sol  =         0.00000000
  ---------------------------------------------------
  free energy    TOTEN  =      -260.30926087 eV

  energy without entropy =     -260.31367913  energy(sigma->0) =     -260.31073362


--------------------------------------------------------------------------------------------------------




--------------------------------------- Iteration      1(  54)  ---------------------------------------


    POTLOK:  cpu time    0.4952: real time    0.4958
    SETDIJ:  cpu time    0.0412: real time    0.0412
    EDDIAG:  cpu time    7.6198: real time    7.6355
  RMM-DIIS:  cpu time   21.4840: real time   21.5308
    ORTHCH:  cpu time    0.3870: real time    0.3870
       DOS:  cpu time    0.0244: real time    0.0244
    CHARGE:  cpu time    3.0310: real time    3.0450
    MIXING:  cpu time    0.0321: real time    0.0321
    --------------------------------------------
      LOOP:  cpu time   33.1148: real time   33.1918

 eigenvalue-minimisations  :  7080
 total energy-change (2. order) :-0.1677994E-01  (-0.1047221E-03)
 number of electron     282.9999974 magnetization      16.2047951
 augmentation part      100.7923847 magnetization      10.0305620

 Broyden mixing:
  rms(total) = 0.23521E+01    rms(broyden)= 0.23521E+01
  rms(prec ) = 0.25129E+01
  weight for this iteration     100.00

 eigenvalues of (default mixing * dielectric matrix)
  average eigenvalue GAMMA=   0.5720
  1.8938  1.8938  1.0525  1.0525  0.8393  0.8393  0.9448  0.9448  1.0073  0.6437
  0.6437  0.5990  0.5990  0.3063  0.3063  0.8379  0.6939  0.6939  0.2436  0.2436
  0.5479  0.5479  0.1024  0.5695  0.5695  0.3752  0.3752  0.5241  0.5241  0.5514
  0.5514  0.0662  0.1390  0.2168  0.2168  0.2340  0.2340  0.4328  0.4328  0.2584
  0.3296  0.3296  0.3808  0.3808

 Free energy of the ion-electron system (eV)
  ---------------------------------------------------
  alpha Z        PSCENC =       367.19046233
  Ewald energy   TEWEN  =    350284.11635738
  -Hartree energ DENC   =   -379423.93852556
  -exchange      EXHF   =         0.00000000
  -V(xc)+E(xc)   XCENC  =      1415.63480860
  PAW double counting   =     33114.14466572   -33722.63098217
  entropy T*S    EENTRO =         0.00203655
  eigenvalues    EBANDS =     -5332.54085524
  atomic energy  EATOM  =     33037.69599157
  Solvation  Ediel_sol  =         0.00000000
  ---------------------------------------------------
  free energy    TOTEN  =      -260.32604081 eV

  energy without entropy =     -260.32807736  energy(sigma->0) =     -260.32671966


--------------------------------------------------------------------------------------------------------




--------------------------------------- Iteration      1(  55)  ---------------------------------------


    POTLOK:  cpu time    0.4653: real time    0.4970
    SETDIJ:  cpu time    0.0411: real time    0.0411
    EDDIAG:  cpu time    8.1340: real time    8.4764
  RMM-DIIS:  cpu time   21.7859: real time   21.8106
    ORTHCH:  cpu time    0.3881: real time    0.3881
       DOS:  cpu time    0.0258: real time    0.0259
    CHARGE:  cpu time    3.0378: real time    3.0412
    MIXING:  cpu time    0.0310: real time    0.0310
    --------------------------------------------
      LOOP:  cpu time   33.9090: real time   34.3113

 eigenvalue-minimisations  :  7240
 total energy-change (2. order) :-0.5855731E+00  (-0.4470837E-02)
 number of electron     282.9999974 magnetization      16.2181739
 augmentation part      100.7957442 magnetization       9.7660014

 Broyden mixing:
  rms(total) = 0.23485E+01    rms(broyden)= 0.23484E+01
  rms(prec ) = 0.25113E+01
  weight for this iteration     100.00

 eigenvalues of (default mixing * dielectric matrix)
  average eigenvalue GAMMA=   0.5528
  1.0992  1.0992  0.8999  0.8999  1.0932  1.0932  0.8067  0.8067  1.0176  0.9635
  0.6470  0.6470  0.2901  0.2901  0.6052  0.6052  0.6475  0.6475  0.3546  0.3546
  0.6691  0.6691  0.1077  0.1077  0.0460  0.5661  0.5661  0.5733  0.5241  0.5241
  0.4239  0.4239  0.4163  0.4163  0.0741  0.2333  0.2333  0.2653  0.2653  0.1397

 Free energy of the ion-electron system (eV)
  ---------------------------------------------------
  alpha Z        PSCENC =       367.19046233
  Ewald energy   TEWEN  =    350284.11635738
  -Hartree energ DENC   =   -379427.96559872
  -exchange      EXHF   =         0.00000000
  -V(xc)+E(xc)   XCENC  =      1415.58056135
  PAW double counting   =     33105.36492676   -33713.65711432
  entropy T*S    EENTRO =        -0.01285122
  eigenvalues    EBANDS =     -5329.22434906
  atomic energy  EATOM  =     33037.69599157
  Solvation  Ediel_sol  =         0.00000000
  ---------------------------------------------------
  free energy    TOTEN  =      -260.91161393 eV

  energy without entropy =     -260.89876271  energy(sigma->0) =     -260.90733019


--------------------------------------------------------------------------------------------------------




--------------------------------------- Iteration      1(  56)  ---------------------------------------


    POTLOK:  cpu time    0.4643: real time    0.4975
    SETDIJ:  cpu time    0.0411: real time    0.0411
    EDDIAG:  cpu time    7.6217: real time    7.6396
  RMM-DIIS:  cpu time   22.2448: real time   22.6265
    ORTHCH:  cpu time    0.4000: real time    0.4539
       DOS:  cpu time    0.0262: real time    0.0262
    CHARGE:  cpu time    3.0446: real time    3.1807
    MIXING:  cpu time    0.0292: real time    0.0292
    --------------------------------------------
      LOOP:  cpu time   33.8719: real time   34.4948

 eigenvalue-minimisations  :  7306
 total energy-change (2. order) :-0.2157886E+01  (-0.8707564E-01)
 number of electron     282.9999974 magnetization      16.2295992
 augmentation part      100.6994250 magnetization       9.9705359

 Broyden mixing:
  rms(total) = 0.22555E+01    rms(broyden)= 0.22554E+01
  rms(prec ) = 0.24313E+01
  weight for this iteration     100.00

 eigenvalues of (default mixing * dielectric matrix)
  average eigenvalue GAMMA=   0.5379
  1.0032  1.0032  1.0634  1.0634  1.0610  1.0610  1.0387  0.6264  0.6264  0.9464
  0.6174  0.6174  0.3154  0.3154  0.6007  0.6007  0.6366  0.6366  0.6717  0.6717
  0.3744  0.3744  0.5805  0.5805  0.5945  0.5193  0.5193  0.1151  0.1151  0.0565
  0.4209  0.4209  0.3940  0.3940  0.2169  0.2169  0.0824  0.1318  0.2620  0.2620
  0.2480

 Free energy of the ion-electron system (eV)
  ---------------------------------------------------
  alpha Z        PSCENC =       367.19046233
  Ewald energy   TEWEN  =    350284.11635738
  -Hartree energ DENC   =   -379445.85818646
  -exchange      EXHF   =         0.00000000
  -V(xc)+E(xc)   XCENC  =      1415.36451885
  PAW double counting   =     33080.84355494   -33689.80082431
  entropy T*S    EENTRO =         0.00404340
  eigenvalues    EBANDS =     -5312.62541782
  atomic energy  EATOM  =     33037.69599157
  Solvation  Ediel_sol  =         0.00000000
  ---------------------------------------------------
  free energy    TOTEN  =      -263.06950014 eV

  energy without entropy =     -263.07354354  energy(sigma->0) =     -263.07084794


--------------------------------------------------------------------------------------------------------




--------------------------------------- Iteration      1(  57)  ---------------------------------------


    POTLOK:  cpu time    0.4657: real time    0.4964
    SETDIJ:  cpu time    0.0413: real time    0.0413
    EDDIAG:  cpu time    7.5926: real time    7.6017
  RMM-DIIS:  cpu time   24.8185: real time   24.8670
    ORTHCH:  cpu time    0.3878: real time    0.3888
       DOS:  cpu time    0.0246: real time    0.0246
    CHARGE:  cpu time    3.0402: real time    3.0432
    MIXING:  cpu time    0.0303: real time    0.0303
    --------------------------------------------
      LOOP:  cpu time   36.4011: real time   36.4932

 eigenvalue-minimisations  :  8366
 total energy-change (2. order) : 0.7391435E+00  (-0.7425606E-02)
 number of electron     282.9999974 magnetization      16.2253382
 augmentation part      100.6864113 magnetization       9.7256411

 Broyden mixing:
  rms(total) = 0.22092E+01    rms(broyden)= 0.22092E+01
  rms(prec ) = 0.23850E+01
  weight for this iteration     100.00

 eigenvalues of (default mixing * dielectric matrix)
  average eigenvalue GAMMA=   0.5467
  1.1176  1.1176  0.9842  0.9842  0.9848  0.9848  0.7428  0.7428  0.9941  0.9941
  0.5090  0.5090  0.7262  0.7262  0.2919  0.2919  0.5816  0.5816  0.6731  0.6731
  0.3310  0.3310  0.5852  0.5852  0.5124  0.5124  0.5485  0.5485  0.0615  0.0946
  0.0946  0.5526  0.4710  0.4710  0.0742  0.4111  0.4111  0.2338  0.2338  0.2973
  0.2495  0.1389

 Free energy of the ion-electron system (eV)
  ---------------------------------------------------
  alpha Z        PSCENC =       367.19046233
  Ewald energy   TEWEN  =    350284.11635738
  -Hartree energ DENC   =   -379444.90907036
  -exchange      EXHF   =         0.00000000
  -V(xc)+E(xc)   XCENC  =      1415.31917102
  PAW double counting   =     33095.67051177   -33704.51885434
  entropy T*S    EENTRO =        -0.01801298
  eigenvalues    EBANDS =     -5312.87691302
  atomic energy  EATOM  =     33037.69599157
  Solvation  Ediel_sol  =         0.00000000
  ---------------------------------------------------
  free energy    TOTEN  =      -262.33035664 eV

  energy without entropy =     -262.31234366  energy(sigma->0) =     -262.32435232


--------------------------------------------------------------------------------------------------------




--------------------------------------- Iteration      1(  58)  ---------------------------------------


    POTLOK:  cpu time    0.4646: real time    0.4971
    SETDIJ:  cpu time    0.0412: real time    0.0412
    EDDIAG:  cpu time    7.6011: real time    7.6671
  RMM-DIIS:  cpu time   22.5138: real time   22.8371
    ORTHCH:  cpu time    0.3865: real time    0.3875
       DOS:  cpu time    0.0259: real time    0.0259
    CHARGE:  cpu time    2.9973: real time    3.0002
    MIXING:  cpu time    0.0313: real time    0.0313
    --------------------------------------------
      LOOP:  cpu time   34.0616: real time   34.4874

 eigenvalue-minimisations  :  7307
 total energy-change (2. order) : 0.7403590E+00  (-0.7498217E-02)
 number of electron     282.9999974 magnetization      16.2154403
 augmentation part      100.6811939 magnetization       9.6128391

 Broyden mixing:
  rms(total) = 0.21819E+01    rms(broyden)= 0.21819E+01
  rms(prec ) = 0.23555E+01
  weight for this iteration     100.00

 eigenvalues of (default mixing * dielectric matrix)
  average eigenvalue GAMMA=   0.5551
  1.1408  1.1408  1.1414  1.1414  0.9143  0.9143  1.1250  0.5063  0.5063  0.7051
  0.7051  0.3033  0.3033  0.8984  0.7422  0.7422  0.5806  0.5806  0.3645  0.3645
  0.6069  0.6069  0.6636  0.6636  0.6389  0.5955  0.5955  0.5370  0.5370  0.1197
  0.1197  0.0563  0.4175  0.4175  0.4392  0.4392  0.0693  0.4138  0.1470  0.2739
  0.2398  0.2265  0.2265

 Free energy of the ion-electron system (eV)
  ---------------------------------------------------
  alpha Z        PSCENC =       367.19046233
  Ewald energy   TEWEN  =    350284.11635738
  -Hartree energ DENC   =   -379446.44002174
  -exchange      EXHF   =         0.00000000
  -V(xc)+E(xc)   XCENC  =      1415.34090497
  PAW double counting   =     33110.36295553   -33719.10235574
  entropy T*S    EENTRO =        -0.02144942
  eigenvalues    EBANDS =     -5310.73284249
  atomic energy  EATOM  =     33037.69599157
  Solvation  Ediel_sol  =         0.00000000
  ---------------------------------------------------
  free energy    TOTEN  =      -261.58999760 eV

  energy without entropy =     -261.56854818  energy(sigma->0) =     -261.58284780


--------------------------------------------------------------------------------------------------------




--------------------------------------- Iteration      1(  59)  ---------------------------------------


    POTLOK:  cpu time    0.4949: real time    0.4964
    SETDIJ:  cpu time    0.0412: real time    0.0412
    EDDIAG:  cpu time    7.5891: real time    7.5970
  RMM-DIIS:  cpu time   22.8587: real time   22.9318
    ORTHCH:  cpu time    0.3874: real time    0.3875
       DOS:  cpu time    0.0257: real time    0.0257
    CHARGE:  cpu time    3.0600: real time    3.0919
    MIXING:  cpu time    0.0320: real time    0.0320
    --------------------------------------------
      LOOP:  cpu time   34.4891: real time   34.6036

 eigenvalue-minimisations  :  7628
 total energy-change (2. order) : 0.3532066E-01  (-0.4587930E-02)
 number of electron     282.9999974 magnetization      16.2172376
 augmentation part      100.6925953 magnetization       9.4626763

 Broyden mixing:
  rms(total) = 0.22029E+01    rms(broyden)= 0.22029E+01
  rms(prec ) = 0.23774E+01
  weight for this iteration     100.00

 eigenvalues of (default mixing * dielectric matrix)
  average eigenvalue GAMMA=   0.5712
  1.1788  1.1788  1.2253  1.2253  1.2610  0.9956  0.9956  0.5419  0.5419  0.6886
  0.6886  0.8513  0.8513  0.8865  0.2902  0.2902  0.6272  0.6272  0.6103  0.6103
  0.3880  0.3880  0.1274  0.1274  0.0530  0.5781  0.5781  0.6443  0.6443  0.6153
  0.4909  0.4909  0.5101  0.5101  0.4065  0.4065  0.4223  0.4223  0.0728  0.1620
  0.1783  0.2454  0.2518  0.2518

 Free energy of the ion-electron system (eV)
  ---------------------------------------------------
  alpha Z        PSCENC =       367.19046233
  Ewald energy   TEWEN  =    350284.11635738
  -Hartree energ DENC   =   -379451.61738168
  -exchange      EXHF   =         0.00000000
  -V(xc)+E(xc)   XCENC  =      1415.37801517
  PAW double counting   =     33110.64811508   -33719.01446516
  entropy T*S    EENTRO =        -0.01796917
  eigenvalues    EBANDS =     -5305.93380246
  atomic energy  EATOM  =     33037.69599157
  Solvation  Ediel_sol  =         0.00000000
  ---------------------------------------------------
  free energy    TOTEN  =      -261.55467694 eV

  energy without entropy =     -261.53670777  energy(sigma->0) =     -261.54868722


--------------------------------------------------------------------------------------------------------




--------------------------------------- Iteration      1(  60)  ---------------------------------------


    POTLOK:  cpu time    0.4671: real time    0.4986
    SETDIJ:  cpu time    0.0411: real time    0.0411
    EDDIAG:  cpu time    7.5800: real time    7.5967
  RMM-DIIS:  cpu time   22.9181: real time   23.3038
    ORTHCH:  cpu time    0.3851: real time    0.3861
       DOS:  cpu time    0.0249: real time    0.0248
    --------------------------------------------
      LOOP:  cpu time   31.4162: real time   31.8512

 eigenvalue-minimisations  :  7574
 total energy-change (2. order) :-0.2598612E+00  (-0.6380079E-02)
 number of electron     282.9999974 magnetization      16.2172376
 augmentation part      100.6925953 magnetization       9.4626763

 Free energy of the ion-electron system (eV)
  ---------------------------------------------------
  alpha Z        PSCENC =       367.19046233
  Ewald energy   TEWEN  =    350284.11635738
  -Hartree energ DENC   =   -379459.91062144
  -exchange      EXHF   =         0.00000000
  -V(xc)+E(xc)   XCENC  =      1415.39546678
  PAW double counting   =     33107.23609152   -33715.30348052
  entropy T*S    EENTRO =        -0.01201999
  eigenvalues    EBANDS =     -5298.22278574
  atomic energy  EATOM  =     33037.69599157
  Solvation  Ediel_sol  =         0.00000000
  ---------------------------------------------------
  free energy    TOTEN  =      -261.81453811 eV

  energy without entropy =     -261.80251812  energy(sigma->0) =     -261.81053144


--------------------------------------------------------------------------------------------------------




 average (electrostatic) potential at core
  the test charge radii are     0.9577  0.7215  0.5201
  (the norm of the test charge is              1.0000)
       1 -78.4637       2 -76.0340       3 -77.3932       4 -75.2973       5 -77.3062
       6 -75.5354       7 -77.3646       8 -76.1417       9 -77.2983      10 -74.5890
      11 -74.9690      12 -76.0944      13 -76.2430      14 -77.4366      15 -76.8553
      16 -77.3890      17 -75.7223      18 -78.0278      19 -75.6991      20 -76.6850
      21 -77.1221      22 -76.8805      23 -77.6771      24 -75.5485      25 -76.7286
      26 -75.4700      27 -78.3273      28 -74.4279      29 -76.6293      30 -78.3633
      31 -75.6807      32 -77.8635      33 -41.8913      34 -40.4234      35 -41.8347
      36 -41.0821      37 -40.8731      38 -40.2770      39 -39.3646
 
 
 
 E-fermi :  -1.2982     XC(G=0):  -3.0424     alpha+bet : -3.3905


 spin component 1

 k-point     1 :       0.0000    0.0000    0.0000
  band No.  band energies     occupation 
      1     -52.9050      1.00000
      2     -52.8857      1.00000
      3     -52.8662      1.00000
      4     -52.7098      1.00000
      5     -52.6890      1.00000
      6     -52.6166      1.00000
      7     -52.5642      1.00000
      8     -52.4452      1.00000
      9     -51.8704      1.00000
     10     -51.7877      1.00000
     11     -51.7692      1.00000
     12     -51.7064      1.00000
     13     -51.5537      1.00000
     14     -51.4697      1.00000
     15     -51.1651      1.00000
     16     -50.7490      1.00000
     17     -50.6659      1.00000
     18     -50.6507      1.00000
     19     -50.6176      1.00000
     20     -50.3158      1.00000
     21     -50.3042      1.00000
     22     -50.2235      1.00000
     23     -49.6006      1.00000
     24     -49.1814      1.00000
     25     -48.8153      1.00000
     26     -48.8133      1.00000
     27     -48.8060      1.00000
     28     -48.7677      1.00000
     29     -47.8568      1.00000
     30     -47.8118      1.00000
     31     -47.5519      1.00000
     32     -47.4945      1.00000
     33     -46.6509      1.00000
     34     -46.5471      1.00000
     35     -46.4974      1.00000
     36     -45.8860      1.00000
     37     -21.8760      1.00000
     38     -21.3519      1.00000
     39     -21.3108      1.00000
     40     -20.8013      1.00000
     41     -20.7666      1.00000
     42     -20.6987      1.00000
     43     -20.5942      1.00000
     44     -20.4303      1.00000
     45     -20.1655      1.00000
     46     -20.0432      1.00000
     47     -19.9677      1.00000
     48     -19.7031      1.00000
     49     -19.5904      1.00000
     50     -19.4110      1.00000
     51     -19.3363      1.00000
     52     -19.0188      1.00000
     53     -18.5862      1.00000
     54     -18.4607      1.00000
     55     -18.3612      1.00000
     56     -17.2393      1.00000
     57     -10.2093      1.00000
     58      -9.6705      1.00000
     59      -9.4251      1.00000
     60      -9.0468      1.00000
     61      -8.8438      1.00000
     62      -8.7184      1.00000
     63      -8.6011      1.00000
     64      -8.5633      1.00000
     65      -8.4706      1.00000
     66      -8.2973      1.00000
     67      -8.0674      1.00000
     68      -8.0378      1.00000
     69      -7.9869      1.00000
     70      -7.7972      1.00000
     71      -7.7773      1.00000
     72      -7.7530      1.00000
     73      -7.5638      1.00000
     74      -7.4802      1.00000
     75      -7.3799      1.00000
     76      -7.3211      1.00000
     77      -7.1111      1.00000
     78      -7.0885      1.00000
     79      -7.0140      1.00000
     80      -6.9731      1.00000
     81      -6.8812      1.00000
     82      -6.8492      1.00000
     83      -6.7267      1.00000
     84      -6.6249      1.00000
     85      -6.5552      1.00000
     86      -6.5103      1.00000
     87      -6.4509      1.00000
     88      -6.3580      1.00000
     89      -6.2739      1.00000
     90      -6.1934      1.00000
     91      -6.0935      1.00000
     92      -6.0817      1.00000
     93      -6.0552      1.00000
     94      -6.0036      1.00000
     95      -5.9480      1.00000
     96      -5.8835      1.00000
     97      -5.7889      1.00000
     98      -5.6819      1.00000
     99      -5.6508      1.00000
    100      -5.5762      1.00000
    101      -5.5655      1.00000
    102      -5.3573      1.00000
    103      -5.2771      1.00000
    104      -5.1089      1.00000
    105      -5.0757      1.00000
    106      -4.9846      1.00000
    107      -4.9542      1.00000
    108      -4.8843      1.00000
    109      -4.8324      1.00000
    110      -4.7162      1.00000
    111      -4.6662      1.00000
    112      -4.6137      1.00000
    113      -4.5699      1.00000
    114      -4.5000      1.00000
    115      -4.3995      1.00000
    116      -4.3682      1.00000
    117      -4.2938      1.00000
    118      -4.2518      1.00000
    119      -4.1903      1.00000
    120      -4.1266      1.00000
    121      -4.1090      1.00000
    122      -4.0692      1.00000
    123      -3.9988      1.00000
    124      -3.9724      1.00000
    125      -3.8347      1.00000
    126      -3.7261      1.00000
    127      -3.6897      1.00000
    128      -3.6759      1.00000
    129      -3.6008      1.00000
    130      -3.5163      1.00000
    131      -3.4366      1.00000
    132      -3.3023      1.00000
    133      -3.2928      1.00000
    134      -3.1755      1.00000
    135      -3.0717      1.00000
    136      -3.0578      1.00000
    137      -3.0156      1.00000
    138      -2.9210      1.00000
    139      -2.8645      1.00000
    140      -2.7858      1.00000
    141      -2.7656      1.00000
    142      -2.7464      1.00000
    143      -2.6258      1.00000
    144      -2.4763      1.00000
    145      -2.2860      1.00000
    146      -2.2294      1.00000
    147      -2.0055      1.00000
    148      -1.7855      1.00153
    149      -1.6261      1.02123
    150      -1.4311      0.94691
    151      -1.2535      0.31613
    152      -0.9751     -0.02235
    153      -0.4964     -0.00000
    154      -0.0532     -0.00000
    155       0.3656     -0.00000
    156       0.7482     -0.00000
    157       0.9374     -0.00000
    158       0.9919     -0.00000
    159       1.1405     -0.00000
    160       1.2144     -0.00000
    161       1.4167     -0.00000
    162       1.4616     -0.00000
    163       1.5321     -0.00000
    164       1.6842     -0.00000
    165       1.8583     -0.00000
    166       2.0992     -0.00000
    167       2.1333     -0.00000
    168       2.2962     -0.00000
    169       2.3437     -0.00000
    170       2.5485     -0.00000
    171       2.6495     -0.00000
    172       2.7773     -0.00000
    173       2.8562     -0.00000
    174       3.1613     -0.00000
    175       3.3142     -0.00000
    176       3.4695     -0.00000
    177       3.5572     -0.00000
    178       3.8542     -0.00000

 k-point     2 :       0.2500    0.0000   -0.0000
  band No.  band energies     occupation 
      1     -52.9050      1.00000
      2     -52.8857      1.00000
      3     -52.8661      1.00000
      4     -52.7098      1.00000
      5     -52.6890      1.00000
      6     -52.6166      1.00000
      7     -52.5642      1.00000
      8     -52.4452      1.00000
      9     -51.8704      1.00000
     10     -51.7877      1.00000
     11     -51.7692      1.00000
     12     -51.7064      1.00000
     13     -51.5537      1.00000
     14     -51.4697      1.00000
     15     -51.1651      1.00000
     16     -50.7490      1.00000
     17     -50.6659      1.00000
     18     -50.6508      1.00000
     19     -50.6176      1.00000
     20     -50.3158      1.00000
     21     -50.3042      1.00000
     22     -50.2235      1.00000
     23     -49.6005      1.00000
     24     -49.1814      1.00000
     25     -48.8147      1.00000
     26     -48.8132      1.00000
     27     -48.8057      1.00000
     28     -48.7685      1.00000
     29     -47.8555      1.00000
     30     -47.8133      1.00000
     31     -47.5519      1.00000
     32     -47.4944      1.00000
     33     -46.6502      1.00000
     34     -46.5473      1.00000
     35     -46.4981      1.00000
     36     -45.8862      1.00000
     37     -21.8539      1.00000
     38     -21.3477      1.00000
     39     -21.2558      1.00000
     40     -20.8793      1.00000
     41     -20.7757      1.00000
     42     -20.6850      1.00000
     43     -20.5959      1.00000
     44     -20.4251      1.00000
     45     -20.1641      1.00000
     46     -20.0112      1.00000
     47     -19.9702      1.00000
     48     -19.7571      1.00000
     49     -19.5850      1.00000
     50     -19.4119      1.00000
     51     -19.3373      1.00000
     52     -18.9917      1.00000
     53     -18.6470      1.00000
     54     -18.4524      1.00000
     55     -18.3623      1.00000
     56     -17.2434      1.00000
     57     -10.1913      1.00000
     58      -9.6635      1.00000
     59      -9.3312      1.00000
     60      -9.0457      1.00000
     61      -8.8403      1.00000
     62      -8.6935      1.00000
     63      -8.6040      1.00000
     64      -8.5528      1.00000
     65      -8.4934      1.00000
     66      -8.3106      1.00000
     67      -8.0708      1.00000
     68      -7.9899      1.00000
     69      -7.9102      1.00000
     70      -7.7479      1.00000
     71      -7.6997      1.00000
     72      -7.6459      1.00000
     73      -7.5535      1.00000
     74      -7.4389      1.00000
     75      -7.3721      1.00000
     76      -7.3312      1.00000
     77      -7.1264      1.00000
     78      -7.0947      1.00000
     79      -6.9910      1.00000
     80      -6.9022      1.00000
     81      -6.8559      1.00000
     82      -6.7975      1.00000
     83      -6.6891      1.00000
     84      -6.6697      1.00000
     85      -6.5736      1.00000
     86      -6.5183      1.00000
     87      -6.4470      1.00000
     88      -6.3463      1.00000
     89      -6.2891      1.00000
     90      -6.2342      1.00000
     91      -6.1520      1.00000
     92      -6.1180      1.00000
     93      -6.0478      1.00000
     94      -5.9222      1.00000
     95      -5.8951      1.00000
     96      -5.7845      1.00000
     97      -5.7194      1.00000
     98      -5.6889      1.00000
     99      -5.6238      1.00000
    100      -5.5811      1.00000
    101      -5.4936      1.00000
    102      -5.3722      1.00000
    103      -5.3237      1.00000
    104      -5.1975      1.00000
    105      -5.1607      1.00000
    106      -5.0999      1.00000
    107      -4.9761      1.00000
    108      -4.8993      1.00000
    109      -4.8552      1.00000
    110      -4.7473      1.00000
    111      -4.7133      1.00000
    112      -4.6665      1.00000
    113      -4.6032      1.00000
    114      -4.4940      1.00000
    115      -4.4389      1.00000
    116      -4.3539      1.00000
    117      -4.3219      1.00000
    118      -4.2222      1.00000
    119      -4.1909      1.00000
    120      -4.1568      1.00000
    121      -4.0893      1.00000
    122      -4.0405      1.00000
    123      -3.9671      1.00000
    124      -3.9443      1.00000
    125      -3.8519      1.00000
    126      -3.7903      1.00000
    127      -3.7412      1.00000
    128      -3.7019      1.00000
    129      -3.6071      1.00000
    130      -3.5669      1.00000
    131      -3.4560      1.00000
    132      -3.3799      1.00000
    133      -3.3067      1.00000
    134      -3.2443      1.00000
    135      -3.1949      1.00000
    136      -3.1570      1.00000
    137      -3.0314      1.00000
    138      -3.0088      1.00000
    139      -2.9792      1.00000
    140      -2.8823      1.00000
    141      -2.8200      1.00000
    142      -2.7942      1.00000
    143      -2.6466      1.00000
    144      -2.5415      1.00000
    145      -2.3617      1.00000
    146      -2.2561      1.00000
    147      -2.1513      1.00000
    148      -1.8456      1.00038
    149      -1.6910      1.00896
    150      -1.5113      1.03067
    151      -1.2512      0.30736
    152      -0.6519     -0.00002
    153      -0.4748     -0.00000
    154      -0.0475     -0.00000
    155       0.3657     -0.00000
    156       0.9611     -0.00000
    157       1.0165     -0.00000
    158       1.1593     -0.00000
    159       1.2069     -0.00000
    160       1.2941     -0.00000
    161       1.3223     -0.00000
    162       1.4372     -0.00000
    163       1.4608     -0.00000
    164       1.5913     -0.00000
    165       1.7164     -0.00000
    166       1.8230     -0.00000
    167       2.0356     -0.00000
    168       2.3141     -0.00000
    169       2.4956     -0.00000
    170       2.5848     -0.00000
    171       2.6763     -0.00000
    172       2.8036     -0.00000
    173       3.0631     -0.00000
    174       3.1921     -0.00000
    175       3.3186     -0.00000
    176       3.4084     -0.00000
    177       3.4897     -0.00000
    178       3.7683     -0.00000

 k-point     3 :       0.5000    0.0000   -0.0000
  band No.  band energies     occupation 
      1     -52.9050      1.00000
      2     -52.8857      1.00000
      3     -52.8661      1.00000
      4     -52.7098      1.00000
      5     -52.6890      1.00000
      6     -52.6166      1.00000
      7     -52.5641      1.00000
      8     -52.4451      1.00000
      9     -51.8704      1.00000
     10     -51.7877      1.00000
     11     -51.7692      1.00000
     12     -51.7064      1.00000
     13     -51.5537      1.00000
     14     -51.4697      1.00000
     15     -51.1650      1.00000
     16     -50.7490      1.00000
     17     -50.6659      1.00000
     18     -50.6508      1.00000
     19     -50.6176      1.00000
     20     -50.3158      1.00000
     21     -50.3042      1.00000
     22     -50.2235      1.00000
     23     -49.6005      1.00000
     24     -49.1814      1.00000
     25     -48.8139      1.00000
     26     -48.8136      1.00000
     27     -48.8053      1.00000
     28     -48.7693      1.00000
     29     -47.8541      1.00000
     30     -47.8149      1.00000
     31     -47.5518      1.00000
     32     -47.4944      1.00000
     33     -46.6494      1.00000
     34     -46.5474      1.00000
     35     -46.4988      1.00000
     36     -45.8863      1.00000
     37     -21.8312      1.00000
     38     -21.3466      1.00000
     39     -21.1542      1.00000
     40     -20.9966      1.00000
     41     -20.7898      1.00000
     42     -20.6712      1.00000
     43     -20.5973      1.00000
     44     -20.4207      1.00000
     45     -20.1626      1.00000
     46     -19.9730      1.00000
     47     -19.9554      1.00000
     48     -19.8305      1.00000
     49     -19.5830      1.00000
     50     -19.4127      1.00000
     51     -19.3400      1.00000
     52     -18.9474      1.00000
     53     -18.7195      1.00000
     54     -18.4482      1.00000
     55     -18.3634      1.00000
     56     -17.2474      1.00000
     57     -10.1741      1.00000
     58      -9.6564      1.00000
     59      -9.1971      1.00000
     60      -9.0514      1.00000
     61      -8.8693      1.00000
     62      -8.6636      1.00000
     63      -8.6228      1.00000
     64      -8.5698      1.00000
     65      -8.4795      1.00000
     66      -8.2880      1.00000
     67      -8.0395      1.00000
     68      -7.9936      1.00000
     69      -7.9227      1.00000
     70      -7.7048      1.00000
     71      -7.6134      1.00000
     72      -7.5211      1.00000
     73      -7.5063      1.00000
     74      -7.4785      1.00000
     75      -7.3726      1.00000
     76      -7.1370      1.00000
     77      -7.1202      1.00000
     78      -7.0118      1.00000
     79      -6.9991      1.00000
     80      -6.9568      1.00000
     81      -6.8229      1.00000
     82      -6.7604      1.00000
     83      -6.6872      1.00000
     84      -6.6401      1.00000
     85      -6.5479      1.00000
     86      -6.5330      1.00000
     87      -6.4541      1.00000
     88      -6.3374      1.00000
     89      -6.3138      1.00000
     90      -6.2299      1.00000
     91      -6.1762      1.00000
     92      -6.1637      1.00000
     93      -6.0762      1.00000
     94      -5.9389      1.00000
     95      -5.8483      1.00000
     96      -5.7580      1.00000
     97      -5.7552      1.00000
     98      -5.7036      1.00000
     99      -5.6329      1.00000
    100      -5.5783      1.00000
    101      -5.4749      1.00000
    102      -5.3202      1.00000
    103      -5.2939      1.00000
    104      -5.2479      1.00000
    105      -5.1495      1.00000
    106      -5.0952      1.00000
    107      -5.0198      1.00000
    108      -4.9744      1.00000
    109      -4.8665      1.00000
    110      -4.7580      1.00000
    111      -4.7304      1.00000
    112      -4.6813      1.00000
    113      -4.6463      1.00000
    114      -4.4950      1.00000
    115      -4.4211      1.00000
    116      -4.3743      1.00000
    117      -4.3549      1.00000
    118      -4.2889      1.00000
    119      -4.2092      1.00000
    120      -4.1902      1.00000
    121      -4.1187      1.00000
    122      -4.0966      1.00000
    123      -3.9812      1.00000
    124      -3.8967      1.00000
    125      -3.8790      1.00000
    126      -3.8345      1.00000
    127      -3.7618      1.00000
    128      -3.7432      1.00000
    129      -3.6353      1.00000
    130      -3.5686      1.00000
    131      -3.5196      1.00000
    132      -3.4825      1.00000
    133      -3.3522      1.00000
    134      -3.3256      1.00000
    135      -3.2370      1.00000
    136      -3.1923      1.00000
    137      -3.1627      1.00000
    138      -3.0797      1.00000
    139      -3.0020      1.00000
    140      -2.9505      1.00000
    141      -2.9120      1.00000
    142      -2.8568      1.00000
    143      -2.6546      1.00000
    144      -2.5147      1.00000
    145      -2.4128      1.00000
    146      -2.3448      1.00000
    147      -2.2367      1.00000
    148      -1.9507      1.00002
    149      -1.8079      1.00093
    150      -1.4631      0.99609
    151      -1.2436      0.27834
    152      -0.4577     -0.00000
    153      -0.1081     -0.00000
    154      -0.0446     -0.00000
    155       0.3657     -0.00000
    156       0.5021     -0.00000
    157       1.0412     -0.00000
    158       1.1152     -0.00000
    159       1.2813     -0.00000
    160       1.3060     -0.00000
    161       1.3588     -0.00000
    162       1.3813     -0.00000
    163       1.4173     -0.00000
    164       1.7208     -0.00000
    165       1.7924     -0.00000
    166       1.8643     -0.00000
    167       2.0069     -0.00000
    168       2.4855     -0.00000
    169       2.6173     -0.00000
    170       2.6639     -0.00000
    171       2.8190     -0.00000
    172       3.0331     -0.00000
    173       3.1311     -0.00000
    174       3.3340     -0.00000
    175       3.3734     -0.00000
    176       3.4125     -0.00000
    177       3.5794     -0.00000
    178       3.9232     -0.00000

 k-point     4 :       0.0000    0.2500   -0.0000
  band No.  band energies     occupation 
      1     -52.9050      1.00000
      2     -52.8859      1.00000
      3     -52.8659      1.00000
      4     -52.7095      1.00000
      5     -52.6890      1.00000
      6     -52.6166      1.00000
      7     -52.5642      1.00000
      8     -52.4452      1.00000
      9     -51.8704      1.00000
     10     -51.7877      1.00000
     11     -51.7693      1.00000
     12     -51.7063      1.00000
     13     -51.5537      1.00000
     14     -51.4697      1.00000
     15     -51.1651      1.00000
     16     -50.7489      1.00000
     17     -50.6659      1.00000
     18     -50.6507      1.00000
     19     -50.6176      1.00000
     20     -50.3158      1.00000
     21     -50.3042      1.00000
     22     -50.2235      1.00000
     23     -49.6004      1.00000
     24     -49.1810      1.00000
     25     -48.8156      1.00000
     26     -48.8133      1.00000
     27     -48.8060      1.00000
     28     -48.7679      1.00000
     29     -47.8568      1.00000
     30     -47.8118      1.00000
     31     -47.5526      1.00000
     32     -47.4945      1.00000
     33     -46.6502      1.00000
     34     -46.5472      1.00000
     35     -46.4981      1.00000
     36     -45.8862      1.00000
     37     -21.8252      1.00000
     38     -21.3902      1.00000
     39     -21.2348      1.00000
     40     -20.7958      1.00000
     41     -20.7522      1.00000
     42     -20.6547      1.00000
     43     -20.6473      1.00000
     44     -20.4575      1.00000
     45     -20.1984      1.00000
     46     -20.0088      1.00000
     47     -19.9947      1.00000
     48     -19.7085      1.00000
     49     -19.6408      1.00000
     50     -19.4373      1.00000
     51     -19.3191      1.00000
     52     -18.9875      1.00000
     53     -18.6133      1.00000
     54     -18.4966      1.00000
     55     -18.3799      1.00000
     56     -17.2466      1.00000
     57     -10.1454      1.00000
     58      -9.7306      1.00000
     59      -9.2952      1.00000
     60      -9.0098      1.00000
     61      -8.7556      1.00000
     62      -8.6731      1.00000
     63      -8.5688      1.00000
     64      -8.5084      1.00000
     65      -8.3964      1.00000
     66      -8.2583      1.00000
     67      -8.1225      1.00000
     68      -7.9891      1.00000
     69      -7.8480      1.00000
     70      -7.7472      1.00000
     71      -7.6969      1.00000
     72      -7.6540      1.00000
     73      -7.6082      1.00000
     74      -7.5001      1.00000
     75      -7.3892      1.00000
     76      -7.3101      1.00000
     77      -7.1360      1.00000
     78      -7.0705      1.00000
     79      -7.0270      1.00000
     80      -6.9598      1.00000
     81      -6.9120      1.00000
     82      -6.7828      1.00000
     83      -6.6921      1.00000
     84      -6.6452      1.00000
     85      -6.5628      1.00000
     86      -6.4994      1.00000
     87      -6.4161      1.00000
     88      -6.3156      1.00000
     89      -6.2654      1.00000
     90      -6.1878      1.00000
     91      -6.1626      1.00000
     92      -6.1094      1.00000
     93      -6.0282      1.00000
     94      -5.9395      1.00000
     95      -5.8381      1.00000
     96      -5.7866      1.00000
     97      -5.7468      1.00000
     98      -5.6153      1.00000
     99      -5.5936      1.00000
    100      -5.5094      1.00000
    101      -5.4215      1.00000
    102      -5.4140      1.00000
    103      -5.3394      1.00000
    104      -5.2331      1.00000
    105      -5.1738      1.00000
    106      -5.0610      1.00000
    107      -5.0382      1.00000
    108      -4.9562      1.00000
    109      -4.8694      1.00000
    110      -4.8152      1.00000
    111      -4.7491      1.00000
    112      -4.7126      1.00000
    113      -4.6316      1.00000
    114      -4.5495      1.00000
    115      -4.4951      1.00000
    116      -4.4444      1.00000
    117      -4.4171      1.00000
    118      -4.2781      1.00000
    119      -4.2471      1.00000
    120      -4.1824      1.00000
    121      -4.1136      1.00000
    122      -4.0748      1.00000
    123      -3.9996      1.00000
    124      -3.9073      1.00000
    125      -3.8199      1.00000
    126      -3.8053      1.00000
    127      -3.6878      1.00000
    128      -3.6355      1.00000
    129      -3.6148      1.00000
    130      -3.5104      1.00000
    131      -3.4652      1.00000
    132      -3.4363      1.00000
    133      -3.3219      1.00000
    134      -3.2797      1.00000
    135      -3.2020      1.00000
    136      -3.1020      1.00000
    137      -3.0305      1.00000
    138      -3.0044      1.00000
    139      -2.9043      1.00000
    140      -2.8732      1.00000
    141      -2.7794      1.00000
    142      -2.7332      1.00000
    143      -2.5771      1.00000
    144      -2.5106      1.00000
    145      -2.2998      1.00000
    146      -2.2144      1.00000
    147      -2.0592      1.00000
    148      -1.9842      1.00001
    149      -1.7190      1.00563
    150      -1.4975      1.02478
    151      -1.3937      0.85769
    152      -0.7691     -0.00059
    153      -0.6335     -0.00001
    154      -0.1580     -0.00000
    155       0.2069     -0.00000
    156       0.7530     -0.00000
    157       1.0638     -0.00000
    158       1.1655     -0.00000
    159       1.2454     -0.00000
    160       1.2804     -0.00000
    161       1.3827     -0.00000
    162       1.4775     -0.00000
    163       1.5749     -0.00000
    164       1.6361     -0.00000
    165       1.7716     -0.00000
    166       1.8180     -0.00000
    167       1.9842     -0.00000
    168       2.1720     -0.00000
    169       2.3896     -0.00000
    170       2.5449     -0.00000
    171       2.6042     -0.00000
    172       2.7400     -0.00000
    173       2.9905     -0.00000
    174       3.1787     -0.00000
    175       3.3155     -0.00000
    176       3.4175     -0.00000
    177       3.5045     -0.00000
    178       3.5759     -0.00000

 k-point     5 :       0.2500    0.2500   -0.0000
  band No.  band energies     occupation 
      1     -52.9050      1.00000
      2     -52.8858      1.00000
      3     -52.8660      1.00000
      4     -52.7095      1.00000
      5     -52.6890      1.00000
      6     -52.6166      1.00000
      7     -52.5642      1.00000
      8     -52.4452      1.00000
      9     -51.8704      1.00000
     10     -51.7877      1.00000
     11     -51.7693      1.00000
     12     -51.7063      1.00000
     13     -51.5537      1.00000
     14     -51.4697      1.00000
     15     -51.1651      1.00000
     16     -50.7489      1.00000
     17     -50.6659      1.00000
     18     -50.6507      1.00000
     19     -50.6176      1.00000
     20     -50.3158      1.00000
     21     -50.3042      1.00000
     22     -50.2235      1.00000
     23     -49.6004      1.00000
     24     -49.1810      1.00000
     25     -48.8150      1.00000
     26     -48.8133      1.00000
     27     -48.8057      1.00000
     28     -48.7687      1.00000
     29     -47.8555      1.00000
     30     -47.8133      1.00000
     31     -47.5526      1.00000
     32     -47.4946      1.00000
     33     -46.6509      1.00000
     34     -46.5472      1.00000
     35     -46.4974      1.00000
     36     -45.8861      1.00000
     37     -21.8248      1.00000
     38     -21.3889      1.00000
     39     -21.2357      1.00000
     40     -20.8041      1.00000
     41     -20.7515      1.00000
     42     -20.6570      1.00000
     43     -20.6342      1.00000
     44     -20.4661      1.00000
     45     -20.1925      1.00000
     46     -20.0054      1.00000
     47     -19.9944      1.00000
     48     -19.7148      1.00000
     49     -19.6367      1.00000
     50     -19.4376      1.00000
     51     -19.3282      1.00000
     52     -18.9695      1.00000
     53     -18.6020      1.00000
     54     -18.5312      1.00000
     55     -18.3664      1.00000
     56     -17.2503      1.00000
     57     -10.1435      1.00000
     58      -9.7276      1.00000
     59      -9.2980      1.00000
     60      -9.0119      1.00000
     61      -8.8047      1.00000
     62      -8.6756      1.00000
     63      -8.5799      1.00000
     64      -8.4612      1.00000
     65      -8.3631      1.00000
     66      -8.2396      1.00000
     67      -8.1058      1.00000
     68      -7.9787      1.00000
     69      -7.8590      1.00000
     70      -7.8268      1.00000
     71      -7.6920      1.00000
     72      -7.6310      1.00000
     73      -7.5797      1.00000
     74      -7.4811      1.00000
     75      -7.3301      1.00000
     76      -7.3114      1.00000
     77      -7.1612      1.00000
     78      -7.0768      1.00000
     79      -7.0338      1.00000
     80      -6.9553      1.00000
     81      -6.8541      1.00000
     82      -6.7808      1.00000
     83      -6.7010      1.00000
     84      -6.6398      1.00000
     85      -6.5943      1.00000
     86      -6.4932      1.00000
     87      -6.3995      1.00000
     88      -6.3536      1.00000
     89      -6.2819      1.00000
     90      -6.2026      1.00000
     91      -6.1290      1.00000
     92      -6.0664      1.00000
     93      -6.0432      1.00000
     94      -5.9289      1.00000
     95      -5.8604      1.00000
     96      -5.8313      1.00000
     97      -5.7988      1.00000
     98      -5.7102      1.00000
     99      -5.6021      1.00000
    100      -5.5503      1.00000
    101      -5.4548      1.00000
    102      -5.3983      1.00000
    103      -5.3037      1.00000
    104      -5.2534      1.00000
    105      -5.1289      1.00000
    106      -5.1011      1.00000
    107      -5.0011      1.00000
    108      -4.9566      1.00000
    109      -4.8315      1.00000
    110      -4.8133      1.00000
    111      -4.7649      1.00000
    112      -4.7113      1.00000
    113      -4.6325      1.00000
    114      -4.5543      1.00000
    115      -4.4822      1.00000
    116      -4.4288      1.00000
    117      -4.3600      1.00000
    118      -4.2728      1.00000
    119      -4.2377      1.00000
    120      -4.1368      1.00000
    121      -4.0911      1.00000
    122      -4.0468      1.00000
    123      -4.0093      1.00000
    124      -3.9435      1.00000
    125      -3.8748      1.00000
    126      -3.8471      1.00000
    127      -3.7278      1.00000
    128      -3.6551      1.00000
    129      -3.6110      1.00000
    130      -3.5234      1.00000
    131      -3.4956      1.00000
    132      -3.4569      1.00000
    133      -3.3557      1.00000
    134      -3.2659      1.00000
    135      -3.1445      1.00000
    136      -3.0950      1.00000
    137      -2.9995      1.00000
    138      -2.9896      1.00000
    139      -2.9275      1.00000
    140      -2.8675      1.00000
    141      -2.7726      1.00000
    142      -2.7269      1.00000
    143      -2.5624      1.00000
    144      -2.5167      1.00000
    145      -2.3956      1.00000
    146      -2.2009      1.00000
    147      -2.0709      1.00000
    148      -1.8905      1.00012
    149      -1.6655      1.01306
    150      -1.5833      1.03079
    151      -1.2356      0.24913
    152      -0.7719     -0.00063
    153      -0.6829     -0.00006
    154      -0.1535     -0.00000
    155       0.1762     -0.00000
    156       0.9697     -0.00000
    157       1.0639     -0.00000
    158       1.1687     -0.00000
    159       1.2427     -0.00000
    160       1.3307     -0.00000
    161       1.4245     -0.00000
    162       1.4803     -0.00000
    163       1.5454     -0.00000
    164       1.6395     -0.00000
    165       1.7312     -0.00000
    166       1.7722     -0.00000
    167       1.8910     -0.00000
    168       2.0998     -0.00000
    169       2.3218     -0.00000
    170       2.5374     -0.00000
    171       2.6149     -0.00000
    172       2.8633     -0.00000
    173       3.1156     -0.00000
    174       3.2757     -0.00000
    175       3.3707     -0.00000
    176       3.4463     -0.00000
    177       3.5728     -0.00000
    178       3.9568     -0.00000

 k-point     6 :       0.5000    0.2500    0.0000
  band No.  band energies     occupation 
      1     -52.9050      1.00000
      2     -52.8858      1.00000
      3     -52.8659      1.00000
      4     -52.7095      1.00000
      5     -52.6890      1.00000
      6     -52.6166      1.00000
      7     -52.5642      1.00000
      8     -52.4452      1.00000
      9     -51.8704      1.00000
     10     -51.7877      1.00000
     11     -51.7693      1.00000
     12     -51.7063      1.00000
     13     -51.5537      1.00000
     14     -51.4697      1.00000
     15     -51.1651      1.00000
     16     -50.7489      1.00000
     17     -50.6659      1.00000
     18     -50.6508      1.00000
     19     -50.6176      1.00000
     20     -50.3158      1.00000
     21     -50.3042      1.00000
     22     -50.2235      1.00000
     23     -49.6004      1.00000
     24     -49.1810      1.00000
     25     -48.8142      1.00000
     26     -48.8135      1.00000
     27     -48.8053      1.00000
     28     -48.7695      1.00000
     29     -47.8541      1.00000
     30     -47.8149      1.00000
     31     -47.5526      1.00000
     32     -47.4945      1.00000
     33     -46.6502      1.00000
     34     -46.5473      1.00000
     35     -46.4981      1.00000
     36     -45.8862      1.00000
     37     -21.8007      1.00000
     38     -21.3906      1.00000
     39     -21.1481      1.00000
     40     -20.9021      1.00000
     41     -20.7644      1.00000
     42     -20.6604      1.00000
     43     -20.6421      1.00000
     44     -20.4427      1.00000
     45     -20.1919      1.00000
     46     -19.9975      1.00000
     47     -19.9528      1.00000
     48     -19.7885      1.00000
     49     -19.6414      1.00000
     50     -19.4278      1.00000
     51     -19.3307      1.00000
     52     -18.9175      1.00000
     53     -18.6885      1.00000
     54     -18.5396      1.00000
     55     -18.3488      1.00000
     56     -17.2539      1.00000
     57     -10.1215      1.00000
     58      -9.7230      1.00000
     59      -9.1962      1.00000
     60      -9.0156      1.00000
     61      -8.8313      1.00000
     62      -8.6479      1.00000
     63      -8.5643      1.00000
     64      -8.4747      1.00000
     65      -8.3247      1.00000
     66      -8.2295      1.00000
     67      -8.0925      1.00000
     68      -7.9735      1.00000
     69      -7.8356      1.00000
     70      -7.7397      1.00000
     71      -7.6406      1.00000
     72      -7.6036      1.00000
     73      -7.4905      1.00000
     74      -7.4294      1.00000
     75      -7.3373      1.00000
     76      -7.2904      1.00000
     77      -7.1209      1.00000
     78      -7.0432      1.00000
     79      -7.0035      1.00000
     80      -6.9356      1.00000
     81      -6.8401      1.00000
     82      -6.7667      1.00000
     83      -6.7255      1.00000
     84      -6.6418      1.00000
     85      -6.5554      1.00000
     86      -6.4620      1.00000
     87      -6.4215      1.00000
     88      -6.3281      1.00000
     89      -6.2292      1.00000
     90      -6.2172      1.00000
     91      -6.1676      1.00000
     92      -6.0991      1.00000
     93      -6.0081      1.00000
     94      -5.9584      1.00000
     95      -5.9022      1.00000
     96      -5.8438      1.00000
     97      -5.7860      1.00000
     98      -5.6845      1.00000
     99      -5.6044      1.00000
    100      -5.5498      1.00000
    101      -5.4576      1.00000
    102      -5.3951      1.00000
    103      -5.3284      1.00000
    104      -5.2052      1.00000
    105      -5.1450      1.00000
    106      -5.0752      1.00000
    107      -5.0319      1.00000
    108      -4.9781      1.00000
    109      -4.9175      1.00000
    110      -4.8329      1.00000
    111      -4.7852      1.00000
    112      -4.7355      1.00000
    113      -4.6709      1.00000
    114      -4.5960      1.00000
    115      -4.5330      1.00000
    116      -4.4940      1.00000
    117      -4.3929      1.00000
    118      -4.2993      1.00000
    119      -4.2665      1.00000
    120      -4.1656      1.00000
    121      -4.1134      1.00000
    122      -4.0519      1.00000
    123      -3.9996      1.00000
    124      -3.9445      1.00000
    125      -3.8841      1.00000
    126      -3.8426      1.00000
    127      -3.7734      1.00000
    128      -3.6734      1.00000
    129      -3.6154      1.00000
    130      -3.5611      1.00000
    131      -3.5211      1.00000
    132      -3.4054      1.00000
    133      -3.3775      1.00000
    134      -3.3256      1.00000
    135      -3.2662      1.00000
    136      -3.2378      1.00000
    137      -3.1560      1.00000
    138      -3.0263      1.00000
    139      -2.9772      1.00000
    140      -2.8889      1.00000
    141      -2.8169      1.00000
    142      -2.7503      1.00000
    143      -2.6215      1.00000
    144      -2.5529      1.00000
    145      -2.4578      1.00000
    146      -2.3029      1.00000
    147      -2.1995      1.00000
    148      -2.0150      1.00000
    149      -1.6834      1.01006
    150      -1.5327      1.03501
    151      -1.2727      0.39318
    152      -0.6981     -0.00009
    153      -0.4591     -0.00000
    154       0.0612     -0.00000
    155       0.2050     -0.00000
    156       0.9392     -0.00000
    157       1.1211     -0.00000
    158       1.1688     -0.00000
    159       1.2831     -0.00000
    160       1.2859     -0.00000
    161       1.3309     -0.00000
    162       1.3644     -0.00000
    163       1.4796     -0.00000
    164       1.5959     -0.00000
    165       1.6647     -0.00000
    166       1.7117     -0.00000
    167       1.8660     -0.00000
    168       1.9575     -0.00000
    169       2.4172     -0.00000
    170       2.5201     -0.00000
    171       2.6330     -0.00000
    172       2.7495     -0.00000
    173       3.0917     -0.00000
    174       3.2346     -0.00000
    175       3.3344     -0.00000
    176       3.4237     -0.00000
    177       3.4685     -0.00000
    178       3.7824     -0.00000

 k-point     7 :      -0.2500    0.2500   -0.0000
  band No.  band energies     occupation 
      1     -52.9050      1.00000
      2     -52.8859      1.00000
      3     -52.8659      1.00000
      4     -52.7095      1.00000
      5     -52.6890      1.00000
      6     -52.6166      1.00000
      7     -52.5641      1.00000
      8     -52.4451      1.00000
      9     -51.8704      1.00000
     10     -51.7877      1.00000
     11     -51.7693      1.00000
     12     -51.7063      1.00000
     13     -51.5537      1.00000
     14     -51.4697      1.00000
     15     -51.1651      1.00000
     16     -50.7489      1.00000
     17     -50.6659      1.00000
     18     -50.6507      1.00000
     19     -50.6176      1.00000
     20     -50.3158      1.00000
     21     -50.3042      1.00000
     22     -50.2235      1.00000
     23     -49.6004      1.00000
     24     -49.1810      1.00000
     25     -48.8151      1.00000
     26     -48.8133      1.00000
     27     -48.8057      1.00000
     28     -48.7687      1.00000
     29     -47.8555      1.00000
     30     -47.8133      1.00000
     31     -47.5526      1.00000
     32     -47.4945      1.00000
     33     -46.6494      1.00000
     34     -46.5473      1.00000
     35     -46.4988      1.00000
     36     -45.8863      1.00000
     37     -21.8011      1.00000
     38     -21.3917      1.00000
     39     -21.1476      1.00000
     40     -20.8967      1.00000
     41     -20.7638      1.00000
     42     -20.6699      1.00000
     43     -20.6394      1.00000
     44     -20.4359      1.00000
     45     -20.1980      1.00000
     46     -19.9974      1.00000
     47     -19.9595      1.00000
     48     -19.7811      1.00000
     49     -19.6438      1.00000
     50     -19.4274      1.00000
     51     -19.3211      1.00000
     52     -18.9440      1.00000
     53     -18.6798      1.00000
     54     -18.5216      1.00000
     55     -18.3578      1.00000
     56     -17.2502      1.00000
     57     -10.1233      1.00000
     58      -9.7266      1.00000
     59      -9.1950      1.00000
     60      -9.0154      1.00000
     61      -8.7773      1.00000
     62      -8.6461      1.00000
     63      -8.5588      1.00000
     64      -8.5233      1.00000
     65      -8.3167      1.00000
     66      -8.2804      1.00000
     67      -8.0903      1.00000
     68      -7.9734      1.00000
     69      -7.9081      1.00000
     70      -7.7046      1.00000
     71      -7.6433      1.00000
     72      -7.5249      1.00000
     73      -7.4871      1.00000
     74      -7.4547      1.00000
     75      -7.3053      1.00000
     76      -7.2683      1.00000
     77      -7.1328      1.00000
     78      -7.1109      1.00000
     79      -7.0556      1.00000
     80      -7.0028      1.00000
     81      -6.8815      1.00000
     82      -6.7561      1.00000
     83      -6.6890      1.00000
     84      -6.6055      1.00000
     85      -6.5657      1.00000
     86      -6.4824      1.00000
     87      -6.4083      1.00000
     88      -6.3162      1.00000
     89      -6.2542      1.00000
     90      -6.2130      1.00000
     91      -6.1772      1.00000
     92      -6.0560      1.00000
     93      -5.9729      1.00000
     94      -5.9453      1.00000
     95      -5.8880      1.00000
     96      -5.8169      1.00000
     97      -5.7482      1.00000
     98      -5.6803      1.00000
     99      -5.5938      1.00000
    100      -5.4686      1.00000
    101      -5.4196      1.00000
    102      -5.3590      1.00000
    103      -5.3267      1.00000
    104      -5.2647      1.00000
    105      -5.1998      1.00000
    106      -5.0815      1.00000
    107      -5.0342      1.00000
    108      -4.9666      1.00000
    109      -4.8982      1.00000
    110      -4.8177      1.00000
    111      -4.7831      1.00000
    112      -4.7420      1.00000
    113      -4.6696      1.00000
    114      -4.6027      1.00000
    115      -4.5594      1.00000
    116      -4.4749      1.00000
    117      -4.4153      1.00000
    118      -4.3135      1.00000
    119      -4.2895      1.00000
    120      -4.2364      1.00000
    121      -4.1291      1.00000
    122      -4.0502      1.00000
    123      -4.0022      1.00000
    124      -3.9105      1.00000
    125      -3.8743      1.00000
    126      -3.8068      1.00000
    127      -3.7141      1.00000
    128      -3.6444      1.00000
    129      -3.5994      1.00000
    130      -3.5599      1.00000
    131      -3.4779      1.00000
    132      -3.4456      1.00000
    133      -3.4130      1.00000
    134      -3.3861      1.00000
    135      -3.2868      1.00000
    136      -3.1691      1.00000
    137      -3.1140      1.00000
    138      -3.0565      1.00000
    139      -2.9787      1.00000
    140      -2.8895      1.00000
    141      -2.8700      1.00000
    142      -2.7324      1.00000
    143      -2.6473      1.00000
    144      -2.5549      1.00000
    145      -2.4057      1.00000
    146      -2.3132      1.00000
    147      -2.1732      1.00000
    148      -2.0368      1.00000
    149      -1.7016      1.00756
    150      -1.5450      1.03544
    151      -1.3938      0.85797
    152      -0.6977     -0.00009
    153      -0.3729     -0.00000
    154       0.0166     -0.00000
    155       0.2105     -0.00000
    156       0.9500     -0.00000
    157       0.9788     -0.00000
    158       1.0984     -0.00000
    159       1.1996     -0.00000
    160       1.2297     -0.00000
    161       1.3219     -0.00000
    162       1.4201     -0.00000
    163       1.5208     -0.00000
    164       1.5952     -0.00000
    165       1.7229     -0.00000
    166       1.7657     -0.00000
    167       1.9270     -0.00000
    168       2.0696     -0.00000
    169       2.4389     -0.00000
    170       2.5724     -0.00000
    171       2.6537     -0.00000
    172       2.9113     -0.00000
    173       3.0440     -0.00000
    174       3.1762     -0.00000
    175       3.2701     -0.00000
    176       3.3822     -0.00000
    177       3.4323     -0.00000
    178       3.5782     -0.00000

 k-point     8 :       0.0000    0.5000   -0.0000
  band No.  band energies     occupation 
      1     -52.9050      1.00000
      2     -52.8862      1.00000
      3     -52.8656      1.00000
      4     -52.7092      1.00000
      5     -52.6889      1.00000
      6     -52.6166      1.00000
      7     -52.5642      1.00000
      8     -52.4451      1.00000
      9     -51.8703      1.00000
     10     -51.7877      1.00000
     11     -51.7693      1.00000
     12     -51.7063      1.00000
     13     -51.5537      1.00000
     14     -51.4698      1.00000
     15     -51.1651      1.00000
     16     -50.7488      1.00000
     17     -50.6659      1.00000
     18     -50.6507      1.00000
     19     -50.6176      1.00000
     20     -50.3158      1.00000
     21     -50.3042      1.00000
     22     -50.2235      1.00000
     23     -49.6003      1.00000
     24     -49.1806      1.00000
     25     -48.8159      1.00000
     26     -48.8134      1.00000
     27     -48.8061      1.00000
     28     -48.7680      1.00000
     29     -47.8569      1.00000
     30     -47.8118      1.00000
     31     -47.5533      1.00000
     32     -47.4945      1.00000
     33     -46.6494      1.00000
     34     -46.5472      1.00000
     35     -46.4988      1.00000
     36     -45.8863      1.00000
     37     -21.7623      1.00000
     38     -21.4439      1.00000
     39     -21.1191      1.00000
     40     -20.8218      1.00000
     41     -20.7391      1.00000
     42     -20.7052      1.00000
     43     -20.6014      1.00000
     44     -20.4843      1.00000
     45     -20.2396      1.00000
     46     -20.0233      1.00000
     47     -19.9565      1.00000
     48     -19.7514      1.00000
     49     -19.6688      1.00000
     50     -19.4640      1.00000
     51     -19.3021      1.00000
     52     -18.9307      1.00000
     53     -18.6950      1.00000
     54     -18.4991      1.00000
     55     -18.4028      1.00000
     56     -17.2538      1.00000
     57     -10.0487      1.00000
     58      -9.8225      1.00000
     59      -9.1601      1.00000
     60      -8.9872      1.00000
     61      -8.6885      1.00000
     62      -8.6210      1.00000
     63      -8.5059      1.00000
     64      -8.4859      1.00000
     65      -8.2875      1.00000
     66      -8.1733      1.00000
     67      -8.1314      1.00000
     68      -7.9570      1.00000
     69      -7.8395      1.00000
     70      -7.6880      1.00000
     71      -7.6481      1.00000
     72      -7.6001      1.00000
     73      -7.5102      1.00000
     74      -7.4156      1.00000
     75      -7.3924      1.00000
     76      -7.3087      1.00000
     77      -7.1711      1.00000
     78      -7.0789      1.00000
     79      -6.9992      1.00000
     80      -6.9734      1.00000
     81      -6.8999      1.00000
     82      -6.7185      1.00000
     83      -6.7124      1.00000
     84      -6.6615      1.00000
     85      -6.5640      1.00000
     86      -6.4910      1.00000
     87      -6.4579      1.00000
     88      -6.3342      1.00000
     89      -6.2559      1.00000
     90      -6.1322      1.00000
     91      -6.1218      1.00000
     92      -6.0834      1.00000
     93      -6.0564      1.00000
     94      -5.8984      1.00000
     95      -5.8534      1.00000
     96      -5.7618      1.00000
     97      -5.6932      1.00000
     98      -5.5776      1.00000
     99      -5.5262      1.00000
    100      -5.4608      1.00000
    101      -5.3942      1.00000
    102      -5.3278      1.00000
    103      -5.3021      1.00000
    104      -5.2381      1.00000
    105      -5.2017      1.00000
    106      -5.1056      1.00000
    107      -5.0672      1.00000
    108      -5.0265      1.00000
    109      -4.9838      1.00000
    110      -4.9238      1.00000
    111      -4.7981      1.00000
    112      -4.7776      1.00000
    113      -4.7162      1.00000
    114      -4.6832      1.00000
    115      -4.5885      1.00000
    116      -4.5604      1.00000
    117      -4.4625      1.00000
    118      -4.4279      1.00000
    119      -4.3846      1.00000
    120      -4.2578      1.00000
    121      -4.2060      1.00000
    122      -4.0482      1.00000
    123      -4.0105      1.00000
    124      -3.9267      1.00000
    125      -3.8741      1.00000
    126      -3.7941      1.00000
    127      -3.7378      1.00000
    128      -3.7281      1.00000
    129      -3.6265      1.00000
    130      -3.5468      1.00000
    131      -3.5185      1.00000
    132      -3.4221      1.00000
    133      -3.3203      1.00000
    134      -3.2847      1.00000
    135      -3.2240      1.00000
    136      -3.1752      1.00000
    137      -3.0634      1.00000
    138      -3.0104      1.00000
    139      -2.9440      1.00000
    140      -2.9067      1.00000
    141      -2.7683      1.00000
    142      -2.6417      1.00000
    143      -2.5738      1.00000
    144      -2.4685      1.00000
    145      -2.3947      1.00000
    146      -2.3355      1.00000
    147      -2.1415      1.00000
    148      -2.0991      1.00000
    149      -1.7510      1.00311
    150      -1.5642      1.03398
    151      -1.4887      1.01951
    152      -0.9408     -0.01494
    153      -0.5277     -0.00000
    154       0.0689     -0.00000
    155       0.1990     -0.00000
    156       0.6944     -0.00000
    157       0.8018     -0.00000
    158       1.0673     -0.00000
    159       1.1300     -0.00000
    160       1.1996     -0.00000
    161       1.2866     -0.00000
    162       1.4340     -0.00000
    163       1.4970     -0.00000
    164       1.5679     -0.00000
    165       1.8427     -0.00000
    166       1.8918     -0.00000
    167       1.9665     -0.00000
    168       2.2481     -0.00000
    169       2.4718     -0.00000
    170       2.5755     -0.00000
    171       2.6901     -0.00000
    172       2.8441     -0.00000
    173       3.0409     -0.00000
    174       3.2834     -0.00000
    175       3.3600     -0.00000
    176       3.3942     -0.00000
    177       3.4784     -0.00000
    178       3.8434     -0.00000

 k-point     9 :       0.2500    0.5000   -0.0000
  band No.  band energies     occupation 
      1     -52.9050      1.00000
      2     -52.8861      1.00000
      3     -52.8657      1.00000
      4     -52.7092      1.00000
      5     -52.6890      1.00000
      6     -52.6166      1.00000
      7     -52.5642      1.00000
      8     -52.4452      1.00000
      9     -51.8703      1.00000
     10     -51.7877      1.00000
     11     -51.7693      1.00000
     12     -51.7063      1.00000
     13     -51.5537      1.00000
     14     -51.4698      1.00000
     15     -51.1651      1.00000
     16     -50.7488      1.00000
     17     -50.6659      1.00000
     18     -50.6507      1.00000
     19     -50.6176      1.00000
     20     -50.3158      1.00000
     21     -50.3042      1.00000
     22     -50.2235      1.00000
     23     -49.6003      1.00000
     24     -49.1806      1.00000
     25     -48.8154      1.00000
     26     -48.8133      1.00000
     27     -48.8057      1.00000
     28     -48.7688      1.00000
     29     -47.8555      1.00000
     30     -47.8133      1.00000
     31     -47.5533      1.00000
     32     -47.4946      1.00000
     33     -46.6502      1.00000
     34     -46.5473      1.00000
     35     -46.4981      1.00000
     36     -45.8862      1.00000
     37     -21.7620      1.00000
     38     -21.4430      1.00000
     39     -21.1226      1.00000
     40     -20.8054      1.00000
     41     -20.7440      1.00000
     42     -20.7158      1.00000
     43     -20.6050      1.00000
     44     -20.4851      1.00000
     45     -20.2328      1.00000
     46     -20.0236      1.00000
     47     -19.9532      1.00000
     48     -19.7381      1.00000
     49     -19.6886      1.00000
     50     -19.4596      1.00000
     51     -19.3118      1.00000
     52     -18.9081      1.00000
     53     -18.6810      1.00000
     54     -18.5503      1.00000
     55     -18.3797      1.00000
     56     -17.2572      1.00000
     57     -10.0494      1.00000
     58      -9.8160      1.00000
     59      -9.1686      1.00000
     60      -8.9866      1.00000
     61      -8.7213      1.00000
     62      -8.6259      1.00000
     63      -8.5172      1.00000
     64      -8.4231      1.00000
     65      -8.3020      1.00000
     66      -8.2162      1.00000
     67      -8.0552      1.00000
     68      -7.9846      1.00000
     69      -7.7795      1.00000
     70      -7.7078      1.00000
     71      -7.6408      1.00000
     72      -7.5633      1.00000
     73      -7.5108      1.00000
     74      -7.4523      1.00000
     75      -7.3745      1.00000
     76      -7.2882      1.00000
     77      -7.1458      1.00000
     78      -7.0717      1.00000
     79      -7.0286      1.00000
     80      -6.9713      1.00000
     81      -6.8393      1.00000
     82      -6.7940      1.00000
     83      -6.7519      1.00000
     84      -6.6650      1.00000
     85      -6.5853      1.00000
     86      -6.4486      1.00000
     87      -6.3876      1.00000
     88      -6.2845      1.00000
     89      -6.2450      1.00000
     90      -6.1868      1.00000
     91      -6.1558      1.00000
     92      -6.0745      1.00000
     93      -5.9769      1.00000
     94      -5.9205      1.00000
     95      -5.8660      1.00000
     96      -5.7886      1.00000
     97      -5.7260      1.00000
     98      -5.6763      1.00000
     99      -5.5985      1.00000
    100      -5.5146      1.00000
    101      -5.4855      1.00000
    102      -5.3860      1.00000
    103      -5.3043      1.00000
    104      -5.2510      1.00000
    105      -5.1741      1.00000
    106      -5.1319      1.00000
    107      -5.0659      1.00000
    108      -4.9893      1.00000
    109      -4.9312      1.00000
    110      -4.8629      1.00000
    111      -4.8124      1.00000
    112      -4.7252      1.00000
    113      -4.6781      1.00000
    114      -4.6240      1.00000
    115      -4.5832      1.00000
    116      -4.5314      1.00000
    117      -4.4802      1.00000
    118      -4.4254      1.00000
    119      -4.3696      1.00000
    120      -4.3144      1.00000
    121      -4.1947      1.00000
    122      -4.0893      1.00000
    123      -4.0020      1.00000
    124      -3.9715      1.00000
    125      -3.8469      1.00000
    126      -3.7702      1.00000
    127      -3.7226      1.00000
    128      -3.6724      1.00000
    129      -3.6353      1.00000
    130      -3.5237      1.00000
    131      -3.4957      1.00000
    132      -3.4264      1.00000
    133      -3.3776      1.00000
    134      -3.3222      1.00000
    135      -3.2599      1.00000
    136      -3.1221      1.00000
    137      -3.0729      1.00000
    138      -3.0079      1.00000
    139      -2.9391      1.00000
    140      -2.8238      1.00000
    141      -2.7917      1.00000
    142      -2.7401      1.00000
    143      -2.6399      1.00000
    144      -2.5531      1.00000
    145      -2.3515      1.00000
    146      -2.3030      1.00000
    147      -2.1577      1.00000
    148      -2.0496      1.00000
    149      -1.6694      1.01237
    150      -1.6067      1.02571
    151      -1.3601      0.74865
    152      -0.9459     -0.01596
    153      -0.6105     -0.00001
    154      -0.0035     -0.00000
    155       0.2241     -0.00000
    156       0.9492     -0.00000
    157       1.0086     -0.00000
    158       1.1407     -0.00000
    159       1.1984     -0.00000
    160       1.2452     -0.00000
    161       1.2622     -0.00000
    162       1.3845     -0.00000
    163       1.4671     -0.00000
    164       1.5754     -0.00000
    165       1.6686     -0.00000
    166       1.7193     -0.00000
    167       1.7674     -0.00000
    168       1.8672     -0.00000
    169       2.1890     -0.00000
    170       2.4349     -0.00000
    171       2.5534     -0.00000
    172       2.6490     -0.00000
    173       2.8628     -0.00000
    174       3.1123     -0.00000
    175       3.3846     -0.00000
    176       3.4281     -0.00000
    177       3.4874     -0.00000
    178       3.7865     -0.00000

 k-point    10 :       0.5000    0.5000   -0.0000
  band No.  band energies     occupation 
      1     -52.9050      1.00000
      2     -52.8860      1.00000
      3     -52.8658      1.00000
      4     -52.7092      1.00000
      5     -52.6890      1.00000
      6     -52.6166      1.00000
      7     -52.5642      1.00000
      8     -52.4452      1.00000
      9     -51.8703      1.00000
     10     -51.7877      1.00000
     11     -51.7693      1.00000
     12     -51.7063      1.00000
     13     -51.5537      1.00000
     14     -51.4698      1.00000
     15     -51.1651      1.00000
     16     -50.7487      1.00000
     17     -50.6659      1.00000
     18     -50.6507      1.00000
     19     -50.6176      1.00000
     20     -50.3158      1.00000
     21     -50.3042      1.00000
     22     -50.2235      1.00000
     23     -49.6002      1.00000
     24     -49.1806      1.00000
     25     -48.8146      1.00000
     26     -48.8135      1.00000
     27     -48.8052      1.00000
     28     -48.7696      1.00000
     29     -47.8540      1.00000
     30     -47.8149      1.00000
     31     -47.5533      1.00000
     32     -47.4947      1.00000
     33     -46.6509      1.00000
     34     -46.5473      1.00000
     35     -46.4974      1.00000
     36     -45.8861      1.00000
     37     -21.7612      1.00000
     38     -21.4427      1.00000
     39     -21.1201      1.00000
     40     -20.8398      1.00000
     41     -20.7382      1.00000
     42     -20.6766      1.00000
     43     -20.6084      1.00000
     44     -20.5009      1.00000
     45     -20.2263      1.00000
     46     -20.0238      1.00000
     47     -19.9448      1.00000
     48     -19.7680      1.00000
     49     -19.6622      1.00000
     50     -19.4631      1.00000
     51     -19.3211      1.00000
     52     -18.8777      1.00000
     53     -18.6979      1.00000
     54     -18.5593      1.00000
     55     -18.3759      1.00000
     56     -17.2608      1.00000
     57     -10.0493      1.00000
     58      -9.8110      1.00000
     59      -9.1721      1.00000
     60      -8.9921      1.00000
     61      -8.7596      1.00000
     62      -8.6271      1.00000
     63      -8.5051      1.00000
     64      -8.3804      1.00000
     65      -8.3207      1.00000
     66      -8.2153      1.00000
     67      -8.0793      1.00000
     68      -7.9254      1.00000
     69      -7.8163      1.00000
     70      -7.6622      1.00000
     71      -7.6067      1.00000
     72      -7.5473      1.00000
     73      -7.4987      1.00000
     74      -7.4231      1.00000
     75      -7.4100      1.00000
     76      -7.2743      1.00000
     77      -7.1405      1.00000
     78      -7.1148      1.00000
     79      -6.9651      1.00000
     80      -6.9386      1.00000
     81      -6.8961      1.00000
     82      -6.7966      1.00000
     83      -6.7517      1.00000
     84      -6.6412      1.00000
     85      -6.6037      1.00000
     86      -6.4911      1.00000
     87      -6.4284      1.00000
     88      -6.2895      1.00000
     89      -6.2076      1.00000
     90      -6.1487      1.00000
     91      -6.0639      1.00000
     92      -6.0434      1.00000
     93      -5.9898      1.00000
     94      -5.9506      1.00000
     95      -5.9302      1.00000
     96      -5.8486      1.00000
     97      -5.7801      1.00000
     98      -5.7026      1.00000
     99      -5.6142      1.00000
    100      -5.5460      1.00000
    101      -5.4374      1.00000
    102      -5.3771      1.00000
    103      -5.3251      1.00000
    104      -5.2693      1.00000
    105      -5.2035      1.00000
    106      -5.1824      1.00000
    107      -5.0746      1.00000
    108      -5.0185      1.00000
    109      -4.9483      1.00000
    110      -4.9216      1.00000
    111      -4.7891      1.00000
    112      -4.7399      1.00000
    113      -4.6930      1.00000
    114      -4.5679      1.00000
    115      -4.5498      1.00000
    116      -4.4774      1.00000
    117      -4.4560      1.00000
    118      -4.3416      1.00000
    119      -4.3274      1.00000
    120      -4.2866      1.00000
    121      -4.2028      1.00000
    122      -4.1600      1.00000
    123      -4.0137      1.00000
    124      -3.9467      1.00000
    125      -3.8728      1.00000
    126      -3.8303      1.00000
    127      -3.7653      1.00000
    128      -3.6714      1.00000
    129      -3.6227      1.00000
    130      -3.5016      1.00000
    131      -3.4837      1.00000
    132      -3.4420      1.00000
    133      -3.3389      1.00000
    134      -3.2861      1.00000
    135      -3.2367      1.00000
    136      -3.1812      1.00000
    137      -3.0761      1.00000
    138      -3.0181      1.00000
    139      -2.9583      1.00000
    140      -2.8277      1.00000
    141      -2.7750      1.00000
    142      -2.7348      1.00000
    143      -2.6254      1.00000
    144      -2.5134      1.00000
    145      -2.3852      1.00000
    146      -2.2809      1.00000
    147      -2.1827      1.00000
    148      -2.0828      1.00000
    149      -1.6865      1.00961
    150      -1.5652      1.03385
    151      -1.2374      0.25544
    152      -0.9235     -0.01179
    153      -0.6562     -0.00003
    154      -0.0439     -0.00000
    155       0.3063     -0.00000
    156       0.7524     -0.00000
    157       1.1778     -0.00000
    158       1.1937     -0.00000
    159       1.2365     -0.00000
    160       1.2762     -0.00000
    161       1.2937     -0.00000
    162       1.3482     -0.00000
    163       1.3781     -0.00000
    164       1.5406     -0.00000
    165       1.5573     -0.00000
    166       1.8790     -0.00000
    167       1.9860     -0.00000
    168       2.0089     -0.00000
    169       2.3107     -0.00000
    170       2.5049     -0.00000
    171       2.6391     -0.00000
    172       2.7379     -0.00000
    173       3.2484     -0.00000
    174       3.3713     -0.00000
    175       3.4181     -0.00000
    176       3.5098     -0.00000
    177       3.7196     -0.00000
    178       3.9758     -0.00000

 spin component 2

 k-point     1 :       0.0000    0.0000    0.0000
  band No.  band energies     occupation 
      1     -52.7420      1.00000
      2     -52.7159      1.00000
      3     -52.7120      1.00000
      4     -52.6812      1.00000
      5     -52.4331      1.00000
      6     -52.3776      1.00000
      7     -51.8010      1.00000
      8     -51.4921      1.00000
      9     -51.4305      1.00000
     10     -51.1496      1.00000
     11     -50.8308      1.00000
     12     -50.6703      1.00000
     13     -50.6662      1.00000
     14     -50.5553      1.00000
     15     -49.4914      1.00000
     16     -48.6163      1.00000
     17     -48.5911      1.00000
     18     -48.4227      1.00000
     19     -48.2654      1.00000
     20     -47.8722      1.00000
     21     -47.8155      1.00000
     22     -47.8045      1.00000
     23     -47.4425      1.00000
     24     -47.4160      1.00000
     25     -47.3921      1.00000
     26     -47.2297      1.00000
     27     -46.9740      1.00000
     28     -46.9498      1.00000
     29     -46.8831      1.00000
     30     -46.4039      1.00000
     31     -45.8117      1.00000
     32     -45.7871      1.00000
     33     -45.7729      1.00000
     34     -45.4112      1.00000
     35     -45.4064      1.00000
     36     -45.3249      1.00000
     37     -21.8677      1.00000
     38     -21.3636      1.00000
     39     -21.3329      1.00000
     40     -20.7388      1.00000
     41     -20.7157      1.00000
     42     -20.6487      1.00000
     43     -20.5338      1.00000
     44     -20.3091      1.00000
     45     -20.1655      1.00000
     46     -19.9870      1.00000
     47     -19.9659      1.00000
     48     -19.6504      1.00000
     49     -19.5273      1.00000
     50     -19.3643      1.00000
     51     -19.3108      1.00000
     52     -18.9746      1.00000
     53     -18.5852      1.00000
     54     -18.3518      1.00000
     55     -18.2873      1.00000
     56     -16.9699      1.00000
     57      -9.9874      1.00000
     58      -9.4755      1.00000
     59      -9.4421      1.00000
     60      -8.9110      1.00000
     61      -8.8370      1.00000
     62      -8.5964      1.00000
     63      -8.3252      1.00000
     64      -8.2897      1.00000
     65      -8.0819      1.00000
     66      -8.0658      1.00000
     67      -8.0011      1.00000
     68      -7.8806      1.00000
     69      -7.7841      1.00000
     70      -7.5879      1.00000
     71      -7.4806      1.00000
     72      -7.2985      1.00000
     73      -7.2597      1.00000
     74      -7.1205      1.00000
     75      -7.0851      1.00000
     76      -7.0280      1.00000
     77      -6.9527      1.00000
     78      -6.8798      1.00000
     79      -6.7549      1.00000
     80      -6.6482      1.00000
     81      -6.4785      1.00000
     82      -6.3925      1.00000
     83      -6.2526      1.00000
     84      -6.1792      1.00000
     85      -6.1053      1.00000
     86      -5.8853      1.00000
     87      -5.8722      1.00000
     88      -5.8433      1.00000
     89      -5.7857      1.00000
     90      -5.7016      1.00000
     91      -5.5805      1.00000
     92      -5.5436      1.00000
     93      -5.5126      1.00000
     94      -5.4690      1.00000
     95      -5.3882      1.00000
     96      -5.3513      1.00000
     97      -5.3228      1.00000
     98      -5.2732      1.00000
     99      -5.2237      1.00000
    100      -5.2019      1.00000
    101      -5.0631      1.00000
    102      -5.0103      1.00000
    103      -4.9436      1.00000
    104      -4.8622      1.00000
    105      -4.7690      1.00000
    106      -4.6888      1.00000
    107      -4.5910      1.00000
    108      -4.5820      1.00000
    109      -4.5321      1.00000
    110      -4.4371      1.00000
    111      -4.4106      1.00000
    112      -4.3098      1.00000
    113      -4.2694      1.00000
    114      -4.1608      1.00000
    115      -4.0503      1.00000
    116      -3.9905      1.00000
    117      -3.8773      1.00000
    118      -3.8053      1.00000
    119      -3.7467      1.00000
    120      -3.7261      1.00000
    121      -3.6055      1.00000
    122      -3.5637      1.00000
    123      -3.3219      1.00000
    124      -3.0798      1.00000
    125      -3.0423      1.00000
    126      -3.0062      1.00000
    127      -2.8745      1.00000
    128      -2.8404      1.00000
    129      -2.7768      1.00000
    130      -2.5884      1.00000
    131      -2.3146      1.00000
    132      -1.3535      0.72444
    133      -1.2469      0.29083
    134      -0.9401     -0.01482
    135      -0.7548     -0.00042
    136      -0.4971     -0.00000
    137      -0.3114     -0.00000
    138       0.1705     -0.00000
    139       0.2611     -0.00000
    140       0.5319     -0.00000
    141       0.7796     -0.00000
    142       0.9715     -0.00000
    143       1.0342     -0.00000
    144       1.0849     -0.00000
    145       1.1431     -0.00000
    146       1.3247     -0.00000
    147       1.3961     -0.00000
    148       1.4320     -0.00000
    149       1.5200     -0.00000
    150       1.5655     -0.00000
    151       1.8112     -0.00000
    152       1.8517     -0.00000
    153       1.9456     -0.00000
    154       2.0237     -0.00000
    155       2.0898     -0.00000
    156       2.1876     -0.00000
    157       2.2834     -0.00000
    158       2.3558     -0.00000
    159       2.4048     -0.00000
    160       2.5180     -0.00000
    161       2.5476     -0.00000
    162       2.6352     -0.00000
    163       2.7087     -0.00000
    164       2.8884     -0.00000
    165       2.9349     -0.00000
    166       3.0096     -0.00000
    167       3.1096     -0.00000
    168       3.1716     -0.00000
    169       3.2832     -0.00000
    170       3.3773     -0.00000
    171       3.4981     -0.00000
    172       3.6045     -0.00000
    173       3.6215     -0.00000
    174       3.7029     -0.00000
    175       3.9432     -0.00000
    176       4.0511     -0.00000
    177       4.1113     -0.00000
    178       4.3051      0.00000

 k-point     2 :       0.2500    0.0000   -0.0000
  band No.  band energies     occupation 
      1     -52.7419      1.00000
      2     -52.7149      1.00000
      3     -52.7122      1.00000
      4     -52.6816      1.00000
      5     -52.4326      1.00000
      6     -52.3785      1.00000
      7     -51.8010      1.00000
      8     -51.4920      1.00000
      9     -51.4304      1.00000
     10     -51.1494      1.00000
     11     -50.8308      1.00000
     12     -50.6704      1.00000
     13     -50.6663      1.00000
     14     -50.5553      1.00000
     15     -49.4914      1.00000
     16     -48.6163      1.00000
     17     -48.5911      1.00000
     18     -48.4227      1.00000
     19     -48.2654      1.00000
     20     -47.8721      1.00000
     21     -47.8155      1.00000
     22     -47.8046      1.00000
     23     -47.4425      1.00000
     24     -47.4160      1.00000
     25     -47.3921      1.00000
     26     -47.2297      1.00000
     27     -46.9740      1.00000
     28     -46.9498      1.00000
     29     -46.8831      1.00000
     30     -46.4039      1.00000
     31     -45.8117      1.00000
     32     -45.7871      1.00000
     33     -45.7729      1.00000
     34     -45.4112      1.00000
     35     -45.4064      1.00000
     36     -45.3249      1.00000
     37     -21.8460      1.00000
     38     -21.3619      1.00000
     39     -21.2849      1.00000
     40     -20.7727      1.00000
     41     -20.7245      1.00000
     42     -20.6638      1.00000
     43     -20.5445      1.00000
     44     -20.3047      1.00000
     45     -20.1630      1.00000
     46     -19.9871      1.00000
     47     -19.9300      1.00000
     48     -19.6979      1.00000
     49     -19.5345      1.00000
     50     -19.3668      1.00000
     51     -19.3120      1.00000
     52     -18.9446      1.00000
     53     -18.6321      1.00000
     54     -18.3515      1.00000
     55     -18.2941      1.00000
     56     -16.9760      1.00000
     57      -9.9580      1.00000
     58      -9.4711      1.00000
     59      -9.3051      1.00000
     60      -8.8724      1.00000
     61      -8.8008      1.00000
     62      -8.5737      1.00000
     63      -8.2899      1.00000
     64      -8.1858      1.00000
     65      -8.0675      1.00000
     66      -7.9866      1.00000
     67      -7.9610      1.00000
     68      -7.8504      1.00000
     69      -7.7456      1.00000
     70      -7.6018      1.00000
     71      -7.5335      1.00000
     72      -7.3846      1.00000
     73      -7.3455      1.00000
     74      -7.1226      1.00000
     75      -7.0357      1.00000
     76      -6.9742      1.00000
     77      -6.9077      1.00000
     78      -6.7339      1.00000
     79      -6.6284      1.00000
     80      -6.5687      1.00000
     81      -6.4944      1.00000
     82      -6.3818      1.00000
     83      -6.2673      1.00000
     84      -6.2273      1.00000
     85      -6.1288      1.00000
     86      -6.0870      1.00000
     87      -5.9946      1.00000
     88      -5.8881      1.00000
     89      -5.8107      1.00000
     90      -5.7033      1.00000
     91      -5.6442      1.00000
     92      -5.5586      1.00000
     93      -5.5430      1.00000
     94      -5.4373      1.00000
     95      -5.3945      1.00000
     96      -5.3402      1.00000
     97      -5.3221      1.00000
     98      -5.2651      1.00000
     99      -5.2406      1.00000
    100      -5.0971      1.00000
    101      -5.0322      1.00000
    102      -4.9855      1.00000
    103      -4.9077      1.00000
    104      -4.8371      1.00000
    105      -4.7846      1.00000
    106      -4.7075      1.00000
    107      -4.6519      1.00000
    108      -4.5715      1.00000
    109      -4.5369      1.00000
    110      -4.4919      1.00000
    111      -4.4378      1.00000
    112      -4.3708      1.00000
    113      -4.2780      1.00000
    114      -4.2484      1.00000
    115      -4.1926      1.00000
    116      -4.1496      1.00000
    117      -3.9371      1.00000
    118      -3.8522      1.00000
    119      -3.7318      1.00000
    120      -3.6854      1.00000
    121      -3.6083      1.00000
    122      -3.5673      1.00000
    123      -3.2998      1.00000
    124      -3.1787      1.00000
    125      -3.1313      1.00000
    126      -3.1157      1.00000
    127      -3.0334      1.00000
    128      -2.9427      1.00000
    129      -2.8579      1.00000
    130      -2.5821      1.00000
    131      -2.1934      1.00000
    132      -1.4802      1.01315
    133      -1.3207      0.59467
    134      -1.0854     -0.03055
    135      -0.7647     -0.00053
    136      -0.5086     -0.00000
    137      -0.0699     -0.00000
    138       0.1975     -0.00000
    139       0.3094     -0.00000
    140       0.6634     -0.00000
    141       0.7723     -0.00000
    142       0.9053     -0.00000
    143       1.0305     -0.00000
    144       1.1268     -0.00000
    145       1.2304     -0.00000
    146       1.2780     -0.00000
    147       1.3557     -0.00000
    148       1.3712     -0.00000
    149       1.4914     -0.00000
    150       1.5677     -0.00000
    151       1.6527     -0.00000
    152       1.8693     -0.00000
    153       1.9040     -0.00000
    154       2.0215     -0.00000
    155       2.0963     -0.00000
    156       2.2427     -0.00000
    157       2.3075     -0.00000
    158       2.3698     -0.00000
    159       2.4215     -0.00000
    160       2.4675     -0.00000
    161       2.5587     -0.00000
    162       2.6051     -0.00000
    163       2.6396     -0.00000
    164       2.7496     -0.00000
    165       2.8809     -0.00000
    166       2.9363     -0.00000
    167       3.0866     -0.00000
    168       3.1742     -0.00000
    169       3.2828     -0.00000
    170       3.3870     -0.00000
    171       3.4207     -0.00000
    172       3.5588     -0.00000
    173       3.5995     -0.00000
    174       3.8147     -0.00000
    175       3.9063     -0.00000
    176       3.9527     -0.00000
    177       4.1181     -0.00000
    178       4.2324      0.00000

 k-point     3 :       0.5000    0.0000   -0.0000
  band No.  band energies     occupation 
      1     -52.7418      1.00000
      2     -52.7135      1.00000
      3     -52.7129      1.00000
      4     -52.6820      1.00000
      5     -52.4320      1.00000
      6     -52.3795      1.00000
      7     -51.8010      1.00000
      8     -51.4920      1.00000
      9     -51.4304      1.00000
     10     -51.1492      1.00000
     11     -50.8308      1.00000
     12     -50.6704      1.00000
     13     -50.6663      1.00000
     14     -50.5554      1.00000
     15     -49.4914      1.00000
     16     -48.6163      1.00000
     17     -48.5911      1.00000
     18     -48.4227      1.00000
     19     -48.2654      1.00000
     20     -47.8721      1.00000
     21     -47.8156      1.00000
     22     -47.8046      1.00000
     23     -47.4425      1.00000
     24     -47.4161      1.00000
     25     -47.3921      1.00000
     26     -47.2297      1.00000
     27     -46.9740      1.00000
     28     -46.9498      1.00000
     29     -46.8831      1.00000
     30     -46.4038      1.00000
     31     -45.8117      1.00000
     32     -45.7871      1.00000
     33     -45.7729      1.00000
     34     -45.4112      1.00000
     35     -45.4064      1.00000
     36     -45.3249      1.00000
     37     -21.8237      1.00000
     38     -21.3617      1.00000
     39     -21.2182      1.00000
     40     -20.8527      1.00000
     41     -20.7123      1.00000
     42     -20.6688      1.00000
     43     -20.5583      1.00000
     44     -20.3002      1.00000
     45     -20.1605      1.00000
     46     -19.9874      1.00000
     47     -19.8608      1.00000
     48     -19.7792      1.00000
     49     -19.5408      1.00000
     50     -19.3702      1.00000
     51     -19.3131      1.00000
     52     -18.8974      1.00000
     53     -18.6963      1.00000
     54     -18.3509      1.00000
     55     -18.3005      1.00000
     56     -16.9819      1.00000
     57      -9.9276      1.00000
     58      -9.4677      1.00000
     59      -9.1351      1.00000
     60      -8.8325      1.00000
     61      -8.7752      1.00000
     62      -8.5765      1.00000
     63      -8.1937      1.00000
     64      -8.1368      1.00000
     65      -8.0939      1.00000
     66      -7.9591      1.00000
     67      -7.8195      1.00000
     68      -7.7767      1.00000
     69      -7.6678      1.00000
     70      -7.6313      1.00000
     71      -7.6116      1.00000
     72      -7.4417      1.00000
     73      -7.3445      1.00000
     74      -7.1582      1.00000
     75      -6.9494      1.00000
     76      -6.9061      1.00000
     77      -6.8917      1.00000
     78      -6.7743      1.00000
     79      -6.5605      1.00000
     80      -6.5316      1.00000
     81      -6.4742      1.00000
     82      -6.3937      1.00000
     83      -6.3010      1.00000
     84      -6.2533      1.00000
     85      -6.1728      1.00000
     86      -6.1047      1.00000
     87      -6.0913      1.00000
     88      -5.8935      1.00000
     89      -5.8331      1.00000
     90      -5.7784      1.00000
     91      -5.6965      1.00000
     92      -5.5442      1.00000
     93      -5.5263      1.00000
     94      -5.5075      1.00000
     95      -5.3689      1.00000
     96      -5.3408      1.00000
     97      -5.3131      1.00000
     98      -5.2489      1.00000
     99      -5.1457      1.00000
    100      -5.1000      1.00000
    101      -5.0238      1.00000
    102      -4.9637      1.00000
    103      -4.9231      1.00000
    104      -4.8455      1.00000
    105      -4.7750      1.00000
    106      -4.7446      1.00000
    107      -4.6694      1.00000
    108      -4.6281      1.00000
    109      -4.5675      1.00000
    110      -4.4816      1.00000
    111      -4.4300      1.00000
    112      -4.4231      1.00000
    113      -4.3357      1.00000
    114      -4.3113      1.00000
    115      -4.2884      1.00000
    116      -4.2251      1.00000
    117      -3.9893      1.00000
    118      -3.9286      1.00000
    119      -3.7714      1.00000
    120      -3.7182      1.00000
    121      -3.6626      1.00000
    122      -3.5799      1.00000
    123      -3.4173      1.00000
    124      -3.3756      1.00000
    125      -3.2059      1.00000
    126      -3.1423      1.00000
    127      -3.0607      1.00000
    128      -2.9661      1.00000
    129      -2.8900      1.00000
    130      -2.4477      1.00000
    131      -2.0856      1.00000
    132      -1.7182      1.00570
    133      -1.4257      0.93631
    134      -1.1921      0.11379
    135      -0.7701     -0.00060
    136      -0.5216     -0.00000
    137       0.0749     -0.00000
    138       0.2888     -0.00000
    139       0.5342     -0.00000
    140       0.7459     -0.00000
    141       0.7478     -0.00000
    142       0.8247     -0.00000
    143       0.9892     -0.00000
    144       1.0954     -0.00000
    145       1.2139     -0.00000
    146       1.2881     -0.00000
    147       1.2950     -0.00000
    148       1.3405     -0.00000
    149       1.4140     -0.00000
    150       1.5279     -0.00000
    151       1.6719     -0.00000
    152       1.8352     -0.00000
    153       1.8509     -0.00000
    154       1.9727     -0.00000
    155       2.0882     -0.00000
    156       2.2223     -0.00000
    157       2.3132     -0.00000
    158       2.3510     -0.00000
    159       2.4396     -0.00000
    160       2.4557     -0.00000
    161       2.4931     -0.00000
    162       2.5853     -0.00000
    163       2.6179     -0.00000
    164       2.6488     -0.00000
    165       2.8263     -0.00000
    166       2.9217     -0.00000
    167       3.0074     -0.00000
    168       3.1504     -0.00000
    169       3.3788     -0.00000
    170       3.4298     -0.00000
    171       3.4937     -0.00000
    172       3.5297     -0.00000
    173       3.5456     -0.00000
    174       3.8114     -0.00000
    175       3.8944     -0.00000
    176       3.9472     -0.00000
    177       4.1610     -0.00000
    178       4.4699      0.00000

 k-point     4 :       0.0000    0.2500   -0.0000
  band No.  band energies     occupation 
      1     -52.7420      1.00000
      2     -52.7158      1.00000
      3     -52.7119      1.00000
      4     -52.6810      1.00000
      5     -52.4331      1.00000
      6     -52.3776      1.00000
      7     -51.8010      1.00000
      8     -51.4918      1.00000
      9     -51.4304      1.00000
     10     -51.1494      1.00000
     11     -50.8308      1.00000
     12     -50.6704      1.00000
     13     -50.6663      1.00000
     14     -50.5554      1.00000
     15     -49.4914      1.00000
     16     -48.6168      1.00000
     17     -48.5912      1.00000
     18     -48.4227      1.00000
     19     -48.2654      1.00000
     20     -47.8722      1.00000
     21     -47.8155      1.00000
     22     -47.8049      1.00000
     23     -47.4425      1.00000
     24     -47.4160      1.00000
     25     -47.3922      1.00000
     26     -47.2297      1.00000
     27     -46.9740      1.00000
     28     -46.9498      1.00000
     29     -46.8831      1.00000
     30     -46.4039      1.00000
     31     -45.8117      1.00000
     32     -45.7871      1.00000
     33     -45.7729      1.00000
     34     -45.4112      1.00000
     35     -45.4064      1.00000
     36     -45.3249      1.00000
     37     -21.8131      1.00000
     38     -21.4081      1.00000
     39     -21.2625      1.00000
     40     -20.7450      1.00000
     41     -20.6967      1.00000
     42     -20.6336      1.00000
     43     -20.5089      1.00000
     44     -20.3674      1.00000
     45     -20.1943      1.00000
     46     -20.0252      1.00000
     47     -19.9221      1.00000
     48     -19.6782      1.00000
     49     -19.5541      1.00000
     50     -19.3510      1.00000
     51     -19.3456      1.00000
     52     -18.9374      1.00000
     53     -18.6129      1.00000
     54     -18.3863      1.00000
     55     -18.3114      1.00000
     56     -16.9778      1.00000
     57      -9.9157      1.00000
     58      -9.5316      1.00000
     59      -9.2568      1.00000
     60      -8.8517      1.00000
     61      -8.7148      1.00000
     62      -8.4774      1.00000
     63      -8.2610      1.00000
     64      -8.1490      1.00000
     65      -8.0371      1.00000
     66      -7.9840      1.00000
     67      -7.9711      1.00000
     68      -7.8548      1.00000
     69      -7.6951      1.00000
     70      -7.6196      1.00000
     71      -7.5131      1.00000
     72      -7.2931      1.00000
     73      -7.2807      1.00000
     74      -7.2266      1.00000
     75      -7.0826      1.00000
     76      -6.9667      1.00000
     77      -6.8726      1.00000
     78      -6.7049      1.00000
     79      -6.6851      1.00000
     80      -6.5401      1.00000
     81      -6.4757      1.00000
     82      -6.3888      1.00000
     83      -6.3444      1.00000
     84      -6.2726      1.00000
     85      -6.1617      1.00000
     86      -5.9890      1.00000
     87      -5.9455      1.00000
     88      -5.8496      1.00000
     89      -5.7576      1.00000
     90      -5.7032      1.00000
     91      -5.6461      1.00000
     92      -5.6067      1.00000
     93      -5.5673      1.00000
     94      -5.5003      1.00000
     95      -5.4384      1.00000
     96      -5.3816      1.00000
     97      -5.3249      1.00000
     98      -5.2664      1.00000
     99      -5.2187      1.00000
    100      -5.1614      1.00000
    101      -5.1048      1.00000
    102      -5.0693      1.00000
    103      -4.9681      1.00000
    104      -4.8510      1.00000
    105      -4.7689      1.00000
    106      -4.7165      1.00000
    107      -4.6863      1.00000
    108      -4.6189      1.00000
    109      -4.5604      1.00000
    110      -4.4951      1.00000
    111      -4.4340      1.00000
    112      -4.3720      1.00000
    113      -4.2705      1.00000
    114      -4.1838      1.00000
    115      -4.1502      1.00000
    116      -4.0850      1.00000
    117      -3.9590      1.00000
    118      -3.8732      1.00000
    119      -3.8059      1.00000
    120      -3.7230      1.00000
    121      -3.5929      1.00000
    122      -3.5254      1.00000
    123      -3.3806      1.00000
    124      -3.3414      1.00000
    125      -3.1242      1.00000
    126      -3.0364      1.00000
    127      -2.9870      1.00000
    128      -2.7950      1.00000
    129      -2.7172      1.00000
    130      -2.4940      1.00000
    131      -2.3806      1.00000
    132      -1.4008      0.87719
    133      -1.3130      0.56283
    134      -1.0025     -0.02860
    135      -0.8959     -0.00770
    136      -0.7657     -0.00054
    137      -0.0888     -0.00000
    138       0.1212     -0.00000
    139       0.3785     -0.00000
    140       0.4599     -0.00000
    141       0.5734     -0.00000
    142       0.9295     -0.00000
    143       1.0442     -0.00000
    144       1.0987     -0.00000
    145       1.2006     -0.00000
    146       1.2787     -0.00000
    147       1.3152     -0.00000
    148       1.4086     -0.00000
    149       1.4561     -0.00000
    150       1.5850     -0.00000
    151       1.7101     -0.00000
    152       1.8112     -0.00000
    153       1.8475     -0.00000
    154       2.0452     -0.00000
    155       2.1074     -0.00000
    156       2.1977     -0.00000
    157       2.2838     -0.00000
    158       2.3286     -0.00000
    159       2.4498     -0.00000
    160       2.4849     -0.00000
    161       2.6093     -0.00000
    162       2.6692     -0.00000
    163       2.7140     -0.00000
    164       2.7827     -0.00000
    165       2.8408     -0.00000
    166       2.9313     -0.00000
    167       3.0001     -0.00000
    168       3.0471     -0.00000
    169       3.3058     -0.00000
    170       3.3594     -0.00000
    171       3.3992     -0.00000
    172       3.5351     -0.00000
    173       3.6060     -0.00000
    174       3.6894     -0.00000
    175       3.8163     -0.00000
    176       3.9551     -0.00000
    177       4.0634     -0.00000
    178       4.1419     -0.00000

 k-point     5 :       0.2500    0.2500   -0.0000
  band No.  band energies     occupation 
      1     -52.7419      1.00000
      2     -52.7148      1.00000
      3     -52.7121      1.00000
      4     -52.6815      1.00000
      5     -52.4326      1.00000
      6     -52.3785      1.00000
      7     -51.8010      1.00000
      8     -51.4918      1.00000
      9     -51.4305      1.00000
     10     -51.1496      1.00000
     11     -50.8308      1.00000
     12     -50.6702      1.00000
     13     -50.6662      1.00000
     14     -50.5552      1.00000
     15     -49.4914      1.00000
     16     -48.6167      1.00000
     17     -48.5912      1.00000
     18     -48.4227      1.00000
     19     -48.2654      1.00000
     20     -47.8721      1.00000
     21     -47.8155      1.00000
     22     -47.8049      1.00000
     23     -47.4425      1.00000
     24     -47.4161      1.00000
     25     -47.3923      1.00000
     26     -47.2297      1.00000
     27     -46.9740      1.00000
     28     -46.9498      1.00000
     29     -46.8831      1.00000
     30     -46.4039      1.00000
     31     -45.8117      1.00000
     32     -45.7871      1.00000
     33     -45.7729      1.00000
     34     -45.4112      1.00000
     35     -45.4064      1.00000
     36     -45.3249      1.00000
     37     -21.8115      1.00000
     38     -21.4102      1.00000
     39     -21.2613      1.00000
     40     -20.7470      1.00000
     41     -20.6997      1.00000
     42     -20.6308      1.00000
     43     -20.5084      1.00000
     44     -20.3675      1.00000
     45     -20.1880      1.00000
     46     -20.0254      1.00000
     47     -19.9249      1.00000
     48     -19.6760      1.00000
     49     -19.5542      1.00000
     50     -19.3601      1.00000
     51     -19.3495      1.00000
     52     -18.9208      1.00000
     53     -18.6062      1.00000
     54     -18.4096      1.00000
     55     -18.3018      1.00000
     56     -16.9819      1.00000
     57      -9.9135      1.00000
     58      -9.5326      1.00000
     59      -9.2247      1.00000
     60      -8.8662      1.00000
     61      -8.7158      1.00000
     62      -8.4613      1.00000
     63      -8.2323      1.00000
     64      -8.1255      1.00000
     65      -8.0260      1.00000
     66      -7.9589      1.00000
     67      -7.9366      1.00000
     68      -7.8390      1.00000
     69      -7.7400      1.00000
     70      -7.5955      1.00000
     71      -7.4932      1.00000
     72      -7.3783      1.00000
     73      -7.3324      1.00000
     74      -7.3012      1.00000
     75      -7.1068      1.00000
     76      -6.9359      1.00000
     77      -6.9026      1.00000
     78      -6.8091      1.00000
     79      -6.5835      1.00000
     80      -6.5247      1.00000
     81      -6.5033      1.00000
     82      -6.3540      1.00000
     83      -6.3017      1.00000
     84      -6.1679      1.00000
     85      -6.1420      1.00000
     86      -6.0628      1.00000
     87      -5.9944      1.00000
     88      -5.9394      1.00000
     89      -5.8792      1.00000
     90      -5.7786      1.00000
     91      -5.6767      1.00000
     92      -5.6056      1.00000
     93      -5.5556      1.00000
     94      -5.4370      1.00000
     95      -5.4201      1.00000
     96      -5.3605      1.00000
     97      -5.2843      1.00000
     98      -5.2577      1.00000
     99      -5.2207      1.00000
    100      -5.0762      1.00000
    101      -5.0435      1.00000
    102      -4.9935      1.00000
    103      -4.9156      1.00000
    104      -4.8788      1.00000
    105      -4.8051      1.00000
    106      -4.7584      1.00000
    107      -4.7031      1.00000
    108      -4.6364      1.00000
    109      -4.5281      1.00000
    110      -4.4698      1.00000
    111      -4.4027      1.00000
    112      -4.3519      1.00000
    113      -4.2367      1.00000
    114      -4.2062      1.00000
    115      -4.1387      1.00000
    116      -4.0543      1.00000
    117      -3.9627      1.00000
    118      -3.8495      1.00000
    119      -3.7862      1.00000
    120      -3.7346      1.00000
    121      -3.6320      1.00000
    122      -3.5348      1.00000
    123      -3.3345      1.00000
    124      -3.2815      1.00000
    125      -3.2071      1.00000
    126      -3.0615      1.00000
    127      -3.0213      1.00000
    128      -2.9117      1.00000
    129      -2.8239      1.00000
    130      -2.7280      1.00000
    131      -2.1640      1.00000
    132      -1.3733      0.79430
    133      -1.2396      0.26359
    134      -0.9535     -0.01755
    135      -0.8983     -0.00801
    136      -0.7769     -0.00071
    137      -0.1066     -0.00000
    138       0.1523     -0.00000
    139       0.3731     -0.00000
    140       0.5042     -0.00000
    141       0.6288     -0.00000
    142       1.0007     -0.00000
    143       1.0290     -0.00000
    144       1.1161     -0.00000
    145       1.1902     -0.00000
    146       1.2896     -0.00000
    147       1.3118     -0.00000
    148       1.3355     -0.00000
    149       1.4565     -0.00000
    150       1.6447     -0.00000
    151       1.7625     -0.00000
    152       1.7931     -0.00000
    153       1.8966     -0.00000
    154       1.9454     -0.00000
    155       2.0836     -0.00000
    156       2.1884     -0.00000
    157       2.2801     -0.00000
    158       2.3439     -0.00000
    159       2.4291     -0.00000
    160       2.5096     -0.00000
    161       2.5823     -0.00000
    162       2.6405     -0.00000
    163       2.7291     -0.00000
    164       2.7612     -0.00000
    165       2.7996     -0.00000
    166       2.9851     -0.00000
    167       3.0446     -0.00000
    168       3.1170     -0.00000
    169       3.2794     -0.00000
    170       3.3336     -0.00000
    171       3.4175     -0.00000
    172       3.5420     -0.00000
    173       3.6266     -0.00000
    174       3.7983     -0.00000
    175       3.8420     -0.00000
    176       4.0361     -0.00000
    177       4.0995     -0.00000
    178       4.3110      0.00000

 k-point     6 :       0.5000    0.2500    0.0000
  band No.  band energies     occupation 
      1     -52.7418      1.00000
      2     -52.7133      1.00000
      3     -52.7129      1.00000
      4     -52.6819      1.00000
      5     -52.4320      1.00000
      6     -52.3795      1.00000
      7     -51.8010      1.00000
      8     -51.4917      1.00000
      9     -51.4304      1.00000
     10     -51.1494      1.00000
     11     -50.8308      1.00000
     12     -50.6703      1.00000
     13     -50.6663      1.00000
     14     -50.5553      1.00000
     15     -49.4914      1.00000
     16     -48.6167      1.00000
     17     -48.5912      1.00000
     18     -48.4227      1.00000
     19     -48.2654      1.00000
     20     -47.8721      1.00000
     21     -47.8155      1.00000
     22     -47.8049      1.00000
     23     -47.4425      1.00000
     24     -47.4161      1.00000
     25     -47.3923      1.00000
     26     -47.2297      1.00000
     27     -46.9740      1.00000
     28     -46.9498      1.00000
     29     -46.8831      1.00000
     30     -46.4039      1.00000
     31     -45.8117      1.00000
     32     -45.7871      1.00000
     33     -45.7729      1.00000
     34     -45.4112      1.00000
     35     -45.4064      1.00000
     36     -45.3249      1.00000
     37     -21.7872      1.00000
     38     -21.4129      1.00000
     39     -21.1966      1.00000
     40     -20.7694      1.00000
     41     -20.7114      1.00000
     42     -20.6861      1.00000
     43     -20.5205      1.00000
     44     -20.3453      1.00000
     45     -20.1860      1.00000
     46     -20.0249      1.00000
     47     -19.8667      1.00000
     48     -19.7352      1.00000
     49     -19.5845      1.00000
     50     -19.3642      1.00000
     51     -19.3370      1.00000
     52     -18.8659      1.00000
     53     -18.6716      1.00000
     54     -18.4417      1.00000
     55     -18.2823      1.00000
     56     -16.9874      1.00000
     57      -9.8796      1.00000
     58      -9.5323      1.00000
     59      -9.0350      1.00000
     60      -8.8298      1.00000
     61      -8.6960      1.00000
     62      -8.4549      1.00000
     63      -8.1463      1.00000
     64      -8.1081      1.00000
     65      -8.0237      1.00000
     66      -7.9106      1.00000
     67      -7.8120      1.00000
     68      -7.7737      1.00000
     69      -7.7168      1.00000
     70      -7.6346      1.00000
     71      -7.5215      1.00000
     72      -7.3873      1.00000
     73      -7.3491      1.00000
     74      -7.2603      1.00000
     75      -7.0529      1.00000
     76      -6.9341      1.00000
     77      -6.8467      1.00000
     78      -6.7962      1.00000
     79      -6.6179      1.00000
     80      -6.5462      1.00000
     81      -6.4558      1.00000
     82      -6.3529      1.00000
     83      -6.3004      1.00000
     84      -6.2492      1.00000
     85      -6.2027      1.00000
     86      -6.1648      1.00000
     87      -6.0422      1.00000
     88      -5.9314      1.00000
     89      -5.8703      1.00000
     90      -5.7891      1.00000
     91      -5.6710      1.00000
     92      -5.6253      1.00000
     93      -5.5088      1.00000
     94      -5.4513      1.00000
     95      -5.3693      1.00000
     96      -5.3348      1.00000
     97      -5.3118      1.00000
     98      -5.2336      1.00000
     99      -5.2116      1.00000
    100      -5.1379      1.00000
    101      -5.0869      1.00000
    102      -5.0092      1.00000
    103      -4.9220      1.00000
    104      -4.8750      1.00000
    105      -4.8336      1.00000
    106      -4.7505      1.00000
    107      -4.6876      1.00000
    108      -4.6492      1.00000
    109      -4.5565      1.00000
    110      -4.4927      1.00000
    111      -4.4326      1.00000
    112      -4.3823      1.00000
    113      -4.3421      1.00000
    114      -4.2594      1.00000
    115      -4.1568      1.00000
    116      -4.1221      1.00000
    117      -4.0799      1.00000
    118      -3.9335      1.00000
    119      -3.8274      1.00000
    120      -3.7181      1.00000
    121      -3.7040      1.00000
    122      -3.5143      1.00000
    123      -3.3688      1.00000
    124      -3.3260      1.00000
    125      -3.2887      1.00000
    126      -3.2236      1.00000
    127      -3.1074      1.00000
    128      -3.0350      1.00000
    129      -2.8934      1.00000
    130      -2.5654      1.00000
    131      -2.0555      1.00000
    132      -1.5610      1.03437
    133      -1.2756      0.40527
    134      -1.0659     -0.03478
    135      -0.8978     -0.00795
    136      -0.8120     -0.00157
    137      -0.0173     -0.00000
    138       0.2109     -0.00000
    139       0.5176     -0.00000
    140       0.6200     -0.00000
    141       0.7528     -0.00000
    142       0.8957     -0.00000
    143       1.0505     -0.00000
    144       1.1347     -0.00000
    145       1.1984     -0.00000
    146       1.2234     -0.00000
    147       1.2660     -0.00000
    148       1.3661     -0.00000
    149       1.4148     -0.00000
    150       1.5843     -0.00000
    151       1.6777     -0.00000
    152       1.7535     -0.00000
    153       1.8202     -0.00000
    154       1.9145     -0.00000
    155       2.0804     -0.00000
    156       2.2032     -0.00000
    157       2.3109     -0.00000
    158       2.3601     -0.00000
    159       2.4282     -0.00000
    160       2.4610     -0.00000
    161       2.5338     -0.00000
    162       2.5681     -0.00000
    163       2.6304     -0.00000
    164       2.7376     -0.00000
    165       2.7826     -0.00000
    166       2.8729     -0.00000
    167       2.9331     -0.00000
    168       3.1598     -0.00000
    169       3.4000     -0.00000
    170       3.4036     -0.00000
    171       3.5285     -0.00000
    172       3.5659     -0.00000
    173       3.6694     -0.00000
    174       3.7535     -0.00000
    175       3.8188     -0.00000
    176       4.1138     -0.00000
    177       4.2346      0.00000
    178       4.3718      0.00000

 k-point     7 :      -0.2500    0.2500   -0.0000
  band No.  band energies     occupation 
      1     -52.7419      1.00000
      2     -52.7148      1.00000
      3     -52.7122      1.00000
      4     -52.6815      1.00000
      5     -52.4326      1.00000
      6     -52.3785      1.00000
      7     -51.8010      1.00000
      8     -51.4917      1.00000
      9     -51.4304      1.00000
     10     -51.1492      1.00000
     11     -50.8308      1.00000
     12     -50.6705      1.00000
     13     -50.6663      1.00000
     14     -50.5554      1.00000
     15     -49.4914      1.00000
     16     -48.6168      1.00000
     17     -48.5912      1.00000
     18     -48.4227      1.00000
     19     -48.2654      1.00000
     20     -47.8721      1.00000
     21     -47.8155      1.00000
     22     -47.8049      1.00000
     23     -47.4425      1.00000
     24     -47.4161      1.00000
     25     -47.3922      1.00000
     26     -47.2297      1.00000
     27     -46.9740      1.00000
     28     -46.9498      1.00000
     29     -46.8831      1.00000
     30     -46.4039      1.00000
     31     -45.8117      1.00000
     32     -45.7871      1.00000
     33     -45.7729      1.00000
     34     -45.4112      1.00000
     35     -45.4064      1.00000
     36     -45.3249      1.00000
     37     -21.7890      1.00000
     38     -21.4108      1.00000
     39     -21.1979      1.00000
     40     -20.7626      1.00000
     41     -20.7185      1.00000
     42     -20.6833      1.00000
     43     -20.5211      1.00000
     44     -20.3452      1.00000
     45     -20.1926      1.00000
     46     -20.0247      1.00000
     47     -19.8605      1.00000
     48     -19.7415      1.00000
     49     -19.5833      1.00000
     50     -19.3531      1.00000
     51     -19.3349      1.00000
     52     -18.8902      1.00000
     53     -18.6690      1.00000
     54     -18.4240      1.00000
     55     -18.2883      1.00000
     56     -16.9832      1.00000
     57      -9.8818      1.00000
     58      -9.5315      1.00000
     59      -9.0801      1.00000
     60      -8.8148      1.00000
     61      -8.6989      1.00000
     62      -8.4762      1.00000
     63      -8.1897      1.00000
     64      -8.0491      1.00000
     65      -8.0047      1.00000
     66      -7.9280      1.00000
     67      -7.8670      1.00000
     68      -7.8162      1.00000
     69      -7.7331      1.00000
     70      -7.6085      1.00000
     71      -7.5249      1.00000
     72      -7.3940      1.00000
     73      -7.3259      1.00000
     74      -7.2449      1.00000
     75      -7.0165      1.00000
     76      -6.9628      1.00000
     77      -6.8125      1.00000
     78      -6.7058      1.00000
     79      -6.5585      1.00000
     80      -6.5026      1.00000
     81      -6.4197      1.00000
     82      -6.3716      1.00000
     83      -6.3047      1.00000
     84      -6.2707      1.00000
     85      -6.2219      1.00000
     86      -6.1528      1.00000
     87      -5.9774      1.00000
     88      -5.9263      1.00000
     89      -5.7952      1.00000
     90      -5.7841      1.00000
     91      -5.6434      1.00000
     92      -5.5957      1.00000
     93      -5.5800      1.00000
     94      -5.4938      1.00000
     95      -5.4217      1.00000
     96      -5.3659      1.00000
     97      -5.3443      1.00000
     98      -5.2722      1.00000
     99      -5.2235      1.00000
    100      -5.1757      1.00000
    101      -5.0675      1.00000
    102      -5.0396      1.00000
    103      -4.9753      1.00000
    104      -4.8783      1.00000
    105      -4.8382      1.00000
    106      -4.7651      1.00000
    107      -4.7349      1.00000
    108      -4.6341      1.00000
    109      -4.5956      1.00000
    110      -4.4846      1.00000
    111      -4.4692      1.00000
    112      -4.4020      1.00000
    113      -4.3473      1.00000
    114      -4.2740      1.00000
    115      -4.2428      1.00000
    116      -4.1476      1.00000
    117      -4.0349      1.00000
    118      -3.9133      1.00000
    119      -3.7401      1.00000
    120      -3.6772      1.00000
    121      -3.5792      1.00000
    122      -3.5060      1.00000
    123      -3.4401      1.00000
    124      -3.4044      1.00000
    125      -3.1945      1.00000
    126      -3.1382      1.00000
    127      -3.0636      1.00000
    128      -2.9371      1.00000
    129      -2.8798      1.00000
    130      -2.4624      1.00000
    131      -2.2236      1.00000
    132      -1.5430      1.03546
    133      -1.3561      0.73415
    134      -1.1528      0.03116
    135      -0.8856     -0.00649
    136      -0.7899     -0.00096
    137       0.0298     -0.00000
    138       0.1504     -0.00000
    139       0.5142     -0.00000
    140       0.5971     -0.00000
    141       0.6573     -0.00000
    142       0.8804     -0.00000
    143       1.0197     -0.00000
    144       1.1539     -0.00000
    145       1.2065     -0.00000
    146       1.2429     -0.00000
    147       1.2822     -0.00000
    148       1.3583     -0.00000
    149       1.4410     -0.00000
    150       1.5283     -0.00000
    151       1.6192     -0.00000
    152       1.8056     -0.00000
    153       1.8356     -0.00000
    154       1.9743     -0.00000
    155       2.0762     -0.00000
    156       2.2159     -0.00000
    157       2.3282     -0.00000
    158       2.3845     -0.00000
    159       2.4284     -0.00000
    160       2.4882     -0.00000
    161       2.4915     -0.00000
    162       2.5442     -0.00000
    163       2.6329     -0.00000
    164       2.7315     -0.00000
    165       2.7900     -0.00000
    166       2.8853     -0.00000
    167       2.9807     -0.00000
    168       3.1180     -0.00000
    169       3.3775     -0.00000
    170       3.4153     -0.00000
    171       3.4924     -0.00000
    172       3.5698     -0.00000
    173       3.6780     -0.00000
    174       3.7882     -0.00000
    175       3.8488     -0.00000
    176       4.1374     -0.00000
    177       4.2116      0.00000
    178       4.2671      0.00000

 k-point     8 :       0.0000    0.5000   -0.0000
  band No.  band energies     occupation 
      1     -52.7420      1.00000
      2     -52.7156      1.00000
      3     -52.7118      1.00000
      4     -52.6809      1.00000
      5     -52.4331      1.00000
      6     -52.3776      1.00000
      7     -51.8010      1.00000
      8     -51.4914      1.00000
      9     -51.4304      1.00000
     10     -51.1492      1.00000
     11     -50.8308      1.00000
     12     -50.6705      1.00000
     13     -50.6664      1.00000
     14     -50.5555      1.00000
     15     -49.4914      1.00000
     16     -48.6172      1.00000
     17     -48.5912      1.00000
     18     -48.4227      1.00000
     19     -48.2654      1.00000
     20     -47.8722      1.00000
     21     -47.8155      1.00000
     22     -47.8052      1.00000
     23     -47.4425      1.00000
     24     -47.4160      1.00000
     25     -47.3924      1.00000
     26     -47.2297      1.00000
     27     -46.9740      1.00000
     28     -46.9498      1.00000
     29     -46.8831      1.00000
     30     -46.4039      1.00000
     31     -45.8117      1.00000
     32     -45.7871      1.00000
     33     -45.7729      1.00000
     34     -45.4112      1.00000
     35     -45.4064      1.00000
     36     -45.3249      1.00000
     37     -21.7416      1.00000
     38     -21.4712      1.00000
     39     -21.1646      1.00000
     40     -20.8155      1.00000
     41     -20.6499      1.00000
     42     -20.5541      1.00000
     43     -20.5075      1.00000
     44     -20.4458      1.00000
     45     -20.2291      1.00000
     46     -20.0684      1.00000
     47     -19.8459      1.00000
     48     -19.7503      1.00000
     49     -19.5680      1.00000
     50     -19.3839      1.00000
     51     -19.3335      1.00000
     52     -18.8699      1.00000
     53     -18.6845      1.00000
     54     -18.4079      1.00000
     55     -18.3348      1.00000
     56     -16.9855      1.00000
     57      -9.8074      1.00000
     58      -9.6239      1.00000
     59      -9.0315      1.00000
     60      -8.7963      1.00000
     61      -8.6030      1.00000
     62      -8.3609      1.00000
     63      -8.2457      1.00000
     64      -8.0587      1.00000
     65      -7.9398      1.00000
     66      -7.9017      1.00000
     67      -7.8626      1.00000
     68      -7.8456      1.00000
     69      -7.6660      1.00000
     70      -7.4834      1.00000
     71      -7.3988      1.00000
     72      -7.3761      1.00000
     73      -7.2401      1.00000
     74      -7.2187      1.00000
     75      -7.2010      1.00000
     76      -6.9093      1.00000
     77      -6.8446      1.00000
     78      -6.7115      1.00000
     79      -6.5875      1.00000
     80      -6.5838      1.00000
     81      -6.4802      1.00000
     82      -6.4148      1.00000
     83      -6.3345      1.00000
     84      -6.2827      1.00000
     85      -6.1798      1.00000
     86      -6.0056      1.00000
     87      -5.9565      1.00000
     88      -5.9249      1.00000
     89      -5.8404      1.00000
     90      -5.8025      1.00000
     91      -5.7122      1.00000
     92      -5.6169      1.00000
     93      -5.5824      1.00000
     94      -5.5264      1.00000
     95      -5.5153      1.00000
     96      -5.4609      1.00000
     97      -5.3920      1.00000
     98      -5.3709      1.00000
     99      -5.2055      1.00000
    100      -5.1599      1.00000
    101      -5.1431      1.00000
    102      -5.0633      1.00000
    103      -4.9335      1.00000
    104      -4.8861      1.00000
    105      -4.7546      1.00000
    106      -4.6952      1.00000
    107      -4.6611      1.00000
    108      -4.6321      1.00000
    109      -4.5782      1.00000
    110      -4.5282      1.00000
    111      -4.4952      1.00000
    112      -4.4097      1.00000
    113      -4.3163      1.00000
    114      -4.2893      1.00000
    115      -4.1986      1.00000
    116      -4.1283      1.00000
    117      -4.1003      1.00000
    118      -4.0003      1.00000
    119      -3.7828      1.00000
    120      -3.7253      1.00000
    121      -3.6910      1.00000
    122      -3.6166      1.00000
    123      -3.4962      1.00000
    124      -3.4147      1.00000
    125      -3.0997      1.00000
    126      -3.0473      1.00000
    127      -3.0129      1.00000
    128      -2.7795      1.00000
    129      -2.6574      1.00000
    130      -2.4640      1.00000
    131      -2.3450      1.00000
    132      -1.5055      1.02854
    133      -1.3480      0.70382
    134      -1.1074     -0.01964
    135      -1.0670     -0.03465
    136      -0.9263     -0.01226
    137      -0.1078     -0.00000
    138       0.2028     -0.00000
    139       0.2951     -0.00000
    140       0.4667     -0.00000
    141       0.6829     -0.00000
    142       0.9377     -0.00000
    143       1.0376     -0.00000
    144       1.0713     -0.00000
    145       1.1868     -0.00000
    146       1.1953     -0.00000
    147       1.2426     -0.00000
    148       1.4089     -0.00000
    149       1.4367     -0.00000
    150       1.4822     -0.00000
    151       1.6731     -0.00000
    152       1.6918     -0.00000
    153       1.7327     -0.00000
    154       2.0125     -0.00000
    155       2.0988     -0.00000
    156       2.1964     -0.00000
    157       2.3293     -0.00000
    158       2.3373     -0.00000
    159       2.4052     -0.00000
    160       2.4469     -0.00000
    161       2.5291     -0.00000
    162       2.5544     -0.00000
    163       2.6529     -0.00000
    164       2.7473     -0.00000
    165       2.7682     -0.00000
    166       2.9172     -0.00000
    167       3.0349     -0.00000
    168       3.1360     -0.00000
    169       3.3762     -0.00000
    170       3.3803     -0.00000
    171       3.5050     -0.00000
    172       3.5523     -0.00000
    173       3.6658     -0.00000
    174       3.7808     -0.00000
    175       3.9238     -0.00000
    176       3.9802     -0.00000
    177       4.3020      0.00000
    178       4.4829      0.00000

 k-point     9 :       0.2500    0.5000   -0.0000
  band No.  band energies     occupation 
      1     -52.7419      1.00000
      2     -52.7147      1.00000
      3     -52.7121      1.00000
      4     -52.6814      1.00000
      5     -52.4326      1.00000
      6     -52.3785      1.00000
      7     -51.8010      1.00000
      8     -51.4915      1.00000
      9     -51.4304      1.00000
     10     -51.1494      1.00000
     11     -50.8308      1.00000
     12     -50.6704      1.00000
     13     -50.6663      1.00000
     14     -50.5553      1.00000
     15     -49.4914      1.00000
     16     -48.6172      1.00000
     17     -48.5912      1.00000
     18     -48.4227      1.00000
     19     -48.2654      1.00000
     20     -47.8721      1.00000
     21     -47.8155      1.00000
     22     -47.8052      1.00000
     23     -47.4425      1.00000
     24     -47.4161      1.00000
     25     -47.3924      1.00000
     26     -47.2297      1.00000
     27     -46.9740      1.00000
     28     -46.9498      1.00000
     29     -46.8831      1.00000
     30     -46.4039      1.00000
     31     -45.8117      1.00000
     32     -45.7871      1.00000
     33     -45.7729      1.00000
     34     -45.4112      1.00000
     35     -45.4064      1.00000
     36     -45.3249      1.00000
     37     -21.7396      1.00000
     38     -21.4734      1.00000
     39     -21.1649      1.00000
     40     -20.8079      1.00000
     41     -20.6537      1.00000
     42     -20.5784      1.00000
     43     -20.4875      1.00000
     44     -20.4472      1.00000
     45     -20.2220      1.00000
     46     -20.0688      1.00000
     47     -19.8564      1.00000
     48     -19.7314      1.00000
     49     -19.5806      1.00000
     50     -19.3823      1.00000
     51     -19.3449      1.00000
     52     -18.8492      1.00000
     53     -18.6727      1.00000
     54     -18.4503      1.00000
     55     -18.3153      1.00000
     56     -16.9892      1.00000
     57      -9.8051      1.00000
     58      -9.6244      1.00000
     59      -8.9771      1.00000
     60      -8.8113      1.00000
     61      -8.6065      1.00000
     62      -8.3401      1.00000
     63      -8.1930      1.00000
     64      -8.0219      1.00000
     65      -7.9663      1.00000
     66      -7.8769      1.00000
     67      -7.8483      1.00000
     68      -7.8055      1.00000
     69      -7.7180      1.00000
     70      -7.5365      1.00000
     71      -7.4356      1.00000
     72      -7.4089      1.00000
     73      -7.3267      1.00000
     74      -7.2814      1.00000
     75      -7.1686      1.00000
     76      -7.0064      1.00000
     77      -6.7969      1.00000
     78      -6.7069      1.00000
     79      -6.5916      1.00000
     80      -6.4670      1.00000
     81      -6.4347      1.00000
     82      -6.3814      1.00000
     83      -6.3093      1.00000
     84      -6.2691      1.00000
     85      -6.1775      1.00000
     86      -6.1020      1.00000
     87      -6.0281      1.00000
     88      -5.8974      1.00000
     89      -5.8613      1.00000
     90      -5.8197      1.00000
     91      -5.7733      1.00000
     92      -5.6631      1.00000
     93      -5.6367      1.00000
     94      -5.5408      1.00000
     95      -5.5062      1.00000
     96      -5.4028      1.00000
     97      -5.3274      1.00000
     98      -5.2898      1.00000
     99      -5.2253      1.00000
    100      -5.1430      1.00000
    101      -5.0817      1.00000
    102      -5.0200      1.00000
    103      -4.9190      1.00000
    104      -4.8985      1.00000
    105      -4.7787      1.00000
    106      -4.7389      1.00000
    107      -4.7288      1.00000
    108      -4.6236      1.00000
    109      -4.5441      1.00000
    110      -4.4768      1.00000
    111      -4.4467      1.00000
    112      -4.4197      1.00000
    113      -4.3459      1.00000
    114      -4.2574      1.00000
    115      -4.2065      1.00000
    116      -4.1356      1.00000
    117      -4.0829      1.00000
    118      -3.9898      1.00000
    119      -3.8060      1.00000
    120      -3.6950      1.00000
    121      -3.6149      1.00000
    122      -3.5632      1.00000
    123      -3.4742      1.00000
    124      -3.4137      1.00000
    125      -3.1920      1.00000
    126      -3.0766      1.00000
    127      -3.0541      1.00000
    128      -2.8826      1.00000
    129      -2.8481      1.00000
    130      -2.5666      1.00000
    131      -2.1986      1.00000
    132      -1.4227      0.93005
    133      -1.2730      0.39433
    134      -1.1333      0.00402
    135      -0.9936     -0.02662
    136      -0.9572     -0.01833
    137      -0.1272     -0.00000
    138       0.2276     -0.00000
    139       0.2832     -0.00000
    140       0.5647     -0.00000
    141       0.6640     -0.00000
    142       0.9419     -0.00000
    143       1.0754     -0.00000
    144       1.1395     -0.00000
    145       1.1835     -0.00000
    146       1.2002     -0.00000
    147       1.2651     -0.00000
    148       1.3560     -0.00000
    149       1.4085     -0.00000
    150       1.5398     -0.00000
    151       1.6421     -0.00000
    152       1.6946     -0.00000
    153       1.8218     -0.00000
    154       1.9195     -0.00000
    155       2.0863     -0.00000
    156       2.1632     -0.00000
    157       2.3243     -0.00000
    158       2.3865     -0.00000
    159       2.4345     -0.00000
    160       2.4737     -0.00000
    161       2.5190     -0.00000
    162       2.5641     -0.00000
    163       2.6544     -0.00000
    164       2.6919     -0.00000
    165       2.7383     -0.00000
    166       2.8648     -0.00000
    167       2.9679     -0.00000
    168       3.1106     -0.00000
    169       3.3453     -0.00000
    170       3.4275     -0.00000
    171       3.4804     -0.00000
    172       3.5740     -0.00000
    173       3.6341     -0.00000
    174       3.7960     -0.00000
    175       3.8813     -0.00000
    176       4.1005     -0.00000
    177       4.1638      0.00000
    178       4.3160      0.00000

 k-point    10 :       0.5000    0.5000   -0.0000
  band No.  band energies     occupation 
      1     -52.7419      1.00000
      2     -52.7131      1.00000
      3     -52.7129      1.00000
      4     -52.6818      1.00000
      5     -52.4321      1.00000
      6     -52.3795      1.00000
      7     -51.8010      1.00000
      8     -51.4915      1.00000
      9     -51.4305      1.00000
     10     -51.1496      1.00000
     11     -50.8308      1.00000
     12     -50.6702      1.00000
     13     -50.6662      1.00000
     14     -50.5552      1.00000
     15     -49.4914      1.00000
     16     -48.6172      1.00000
     17     -48.5912      1.00000
     18     -48.4227      1.00000
     19     -48.2654      1.00000
     20     -47.8721      1.00000
     21     -47.8155      1.00000
     22     -47.8053      1.00000
     23     -47.4425      1.00000
     24     -47.4161      1.00000
     25     -47.3924      1.00000
     26     -47.2297      1.00000
     27     -46.9740      1.00000
     28     -46.9498      1.00000
     29     -46.8831      1.00000
     30     -46.4039      1.00000
     31     -45.8117      1.00000
     32     -45.7871      1.00000
     33     -45.7729      1.00000
     34     -45.4112      1.00000
     35     -45.4064      1.00000
     36     -45.3249      1.00000
     37     -21.7368      1.00000
     38     -21.4763      1.00000
     39     -21.1617      1.00000
     40     -20.8209      1.00000
     41     -20.6571      1.00000
     42     -20.5486      1.00000
     43     -20.4949      1.00000
     44     -20.4573      1.00000
     45     -20.2151      1.00000
     46     -20.0691      1.00000
     47     -19.8580      1.00000
     48     -19.7382      1.00000
     49     -19.5676      1.00000
     50     -19.3891      1.00000
     51     -19.3561      1.00000
     52     -18.8218      1.00000
     53     -18.6789      1.00000
     54     -18.4623      1.00000
     55     -18.3151      1.00000
     56     -16.9932      1.00000
     57      -9.8015      1.00000
     58      -9.6260      1.00000
     59      -8.9150      1.00000
     60      -8.8261      1.00000
     61      -8.6062      1.00000
     62      -8.3195      1.00000
     63      -8.1362      1.00000
     64      -8.0020      1.00000
     65      -7.9928      1.00000
     66      -7.8948      1.00000
     67      -7.8631      1.00000
     68      -7.7891      1.00000
     69      -7.7638      1.00000
     70      -7.5637      1.00000
     71      -7.4654      1.00000
     72      -7.3823      1.00000
     73      -7.3505      1.00000
     74      -7.3018      1.00000
     75      -7.0393      1.00000
     76      -7.0027      1.00000
     77      -6.8564      1.00000
     78      -6.7547      1.00000
     79      -6.6755      1.00000
     80      -6.5115      1.00000
     81      -6.3942      1.00000
     82      -6.3781      1.00000
     83      -6.3546      1.00000
     84      -6.2573      1.00000
     85      -6.1938      1.00000
     86      -6.1207      1.00000
     87      -6.0053      1.00000
     88      -5.9962      1.00000
     89      -5.8307      1.00000
     90      -5.8068      1.00000
     91      -5.7495      1.00000
     92      -5.6764      1.00000
     93      -5.6047      1.00000
     94      -5.5560      1.00000
     95      -5.4903      1.00000
     96      -5.3592      1.00000
     97      -5.3037      1.00000
     98      -5.2571      1.00000
     99      -5.1890      1.00000
    100      -5.0917      1.00000
    101      -5.0486      1.00000
    102      -4.9899      1.00000
    103      -4.9538      1.00000
    104      -4.9115      1.00000
    105      -4.8040      1.00000
    106      -4.7934      1.00000
    107      -4.7023      1.00000
    108      -4.6817      1.00000
    109      -4.5753      1.00000
    110      -4.5072      1.00000
    111      -4.4217      1.00000
    112      -4.3328      1.00000
    113      -4.2823      1.00000
    114      -4.2431      1.00000
    115      -4.1758      1.00000
    116      -4.1050      1.00000
    117      -4.0851      1.00000
    118      -3.9987      1.00000
    119      -3.8101      1.00000
    120      -3.7308      1.00000
    121      -3.5887      1.00000
    122      -3.5101      1.00000
    123      -3.4446      1.00000
    124      -3.3480      1.00000
    125      -3.2532      1.00000
    126      -3.1883      1.00000
    127      -3.1313      1.00000
    128      -3.0251      1.00000
    129      -2.8474      1.00000
    130      -2.7137      1.00000
    131      -2.0338      1.00000
    132      -1.4519      0.98155
    133      -1.2334      0.24112
    134      -1.1151     -0.01392
    135      -1.0151     -0.03121
    136      -0.8947     -0.00756
    137      -0.1564     -0.00000
    138       0.2620     -0.00000
    139       0.3079     -0.00000
    140       0.6724     -0.00000
    141       0.7756     -0.00000
    142       0.9508     -0.00000
    143       1.0738     -0.00000
    144       1.1229     -0.00000
    145       1.1726     -0.00000
    146       1.2109     -0.00000
    147       1.2211     -0.00000
    148       1.3347     -0.00000
    149       1.3521     -0.00000
    150       1.5158     -0.00000
    151       1.6339     -0.00000
    152       1.7403     -0.00000
    153       1.8280     -0.00000
    154       1.9587     -0.00000
    155       2.0307     -0.00000
    156       2.1828     -0.00000
    157       2.3057     -0.00000
    158       2.3389     -0.00000
    159       2.3851     -0.00000
    160       2.4605     -0.00000
    161       2.4953     -0.00000
    162       2.5353     -0.00000
    163       2.6593     -0.00000
    164       2.7323     -0.00000
    165       2.7846     -0.00000
    166       2.8073     -0.00000
    167       2.9857     -0.00000
    168       3.1894     -0.00000
    169       3.3244     -0.00000
    170       3.3974     -0.00000
    171       3.5226     -0.00000
    172       3.5895     -0.00000
    173       3.6754     -0.00000
    174       3.7736     -0.00000
    175       3.9283     -0.00000
    176       3.9686     -0.00000
    177       4.2421      0.00000
    178       4.4232      0.00000


--------------------------------------------------------------------------------------------------------


 soft charge-density along one line, spin component           1
         0         1         2         3         4         5         6         7         8         9
 total charge-density along one line
 
 soft charge-density along one line, spin component           2
         0         1         2         3         4         5         6         7         8         9
 total charge-density along one line
 
 pseudopotential strength for first ion, spin component:           1
-49.941   0.157  -0.234  11.332  -0.073   0.108  -0.000  -0.028
  0.157 -49.882  -0.073  -0.073  11.315   0.037   0.002  -0.029
 -0.234  -0.073 -49.605   0.108   0.037  11.174  -0.022   0.002
 11.332  -0.073   0.108   4.180   0.018  -0.029   0.000   0.008
 -0.073  11.315   0.037   0.018   4.194  -0.006  -0.001   0.010
  0.108   0.037  11.174  -0.029  -0.006   4.220   0.009  -0.001
 -0.000   0.002  -0.022   0.000  -0.001   0.009  -8.088  -0.425
 -0.028  -0.029   0.002   0.008   0.010  -0.001  -0.425 -10.736
  0.018  -0.026   0.001  -0.007   0.008  -0.000   0.549   0.134
  0.002   0.004  -0.035  -0.001  -0.001   0.009   0.612  -0.645
  0.037  -0.004   0.003  -0.012   0.001  -0.001  -0.061  -0.470
 -0.000   0.002  -0.022   0.000  -0.001   0.009  -8.435  -0.440
 -0.027  -0.028   0.002   0.008   0.010  -0.001  -0.440 -11.168
  0.017  -0.026   0.001  -0.007   0.008  -0.000   0.563   0.137
  0.002   0.004  -0.034  -0.001  -0.001   0.009   0.630  -0.652
  0.036  -0.004   0.003  -0.012   0.001  -0.001  -0.064  -0.474
  0.012   0.011  -0.001  -0.001   0.001  -0.000   0.061  -0.042
  0.024   0.023  -0.002  -0.001   0.003  -0.001   0.120  -0.083
 pseudopotential strength for first ion, spin component:           2
-48.801  -0.228   0.220  10.801   0.106  -0.103  -0.002  -0.022
 -0.228 -47.897   0.260   0.106  10.401  -0.116   0.001  -0.023
  0.220   0.260 -49.197  -0.103  -0.116  10.981  -0.016   0.001
 10.801   0.106  -0.103   4.357  -0.030   0.026   0.001   0.006
  0.106  10.401  -0.116  -0.030   4.458   0.032   0.000   0.007
 -0.103  -0.116  10.981   0.026   0.032   4.312   0.005   0.000
 -0.002   0.001  -0.016   0.001   0.000   0.005  -7.533   0.067
 -0.022  -0.023   0.001   0.006   0.007   0.000   0.067  -6.854
  0.010  -0.021   0.001  -0.003   0.005  -0.000  -0.076  -0.217
  0.001  -0.003  -0.032   0.000   0.001   0.008   0.022   1.316
  0.025  -0.005  -0.001  -0.006   0.001   0.001  -0.087   1.101
 -0.002   0.001  -0.015   0.001   0.000   0.005  -7.903   0.065
 -0.022  -0.023   0.001   0.006   0.007   0.000   0.065  -7.232
  0.010  -0.021   0.001  -0.003   0.005  -0.000  -0.075  -0.221
  0.001  -0.002  -0.032   0.000   0.001   0.008   0.027   1.345
  0.025  -0.005  -0.001  -0.006   0.001   0.001  -0.089   1.124
  0.008   0.009   0.001   0.000   0.002  -0.001  -0.059   0.060
  0.015   0.018   0.002   0.000   0.005  -0.001  -0.116   0.119
 total augmentation occupancy for first ion, spin component:           1
  1.986  -0.000  -0.000  -0.056  -0.001  -0.000   0.000  -0.001   0.002   0.000   0.004  -0.001   0.002  -0.002  -0.000  -0.005
 -0.000   1.987   0.000  -0.001  -0.051   0.001  -0.000  -0.003  -0.005   0.001  -0.001   0.000   0.004   0.006  -0.001   0.001
 -0.000   0.000   1.986  -0.000   0.001  -0.055   0.000   0.000   0.000  -0.003   0.000   0.001  -0.000   0.000   0.004  -0.001
 -0.056  -0.001  -0.000   0.236   0.012   0.001   0.002   0.036   0.037  -0.004  -0.049  -0.002  -0.026  -0.038   0.001   0.030
 -0.001  -0.051   0.001   0.012   0.103  -0.001   0.004  -0.015  -0.030  -0.006   0.027  -0.003   0.018   0.034   0.002  -0.020
 -0.000   0.001  -0.055   0.001  -0.001   0.207   0.012  -0.019   0.000   0.077  -0.012   0.018   0.010  -0.000  -0.051   0.006
  0.000  -0.000   0.000   0.002   0.004   0.012   4.843   0.612  -0.801  -1.162   0.406  -5.636  -0.364   0.546   0.513  -0.224
 -0.001  -0.003   0.000   0.036  -0.015  -0.019   0.612   6.598   0.289  -0.961  -0.659  -0.471  -4.088  -0.172   0.380   0.236
  0.002  -0.005   0.000   0.037  -0.030   0.000  -0.801   0.289  10.981  -0.399   1.015   0.660  -0.142  -8.798   0.152  -0.996
  0.000   0.001  -0.003  -0.004  -0.006   0.077  -1.162  -0.961  -0.399   7.895  -0.549   0.657   0.408   0.227  -4.477   0.303
  0.004  -0.001   0.000  -0.049   0.027  -0.012   0.406  -0.659   1.015  -0.549  10.244  -0.296   0.159  -1.021   0.243  -6.456
 -0.001   0.000   0.001  -0.002  -0.003   0.018  -5.636  -0.471   0.660   0.657  -0.296   7.022   0.302  -0.470  -0.212   0.167
  0.002   0.004  -0.000  -0.026   0.018   0.010  -0.364  -4.088  -0.142   0.408   0.159   0.302   3.027   0.083  -0.167  -0.015
 -0.002   0.006   0.000  -0.038   0.034  -0.000   0.546  -0.172  -8.798   0.227  -1.021  -0.470   0.083   7.855  -0.081   0.992
 -0.000  -0.001   0.004   0.001   0.002  -0.051   0.513   0.380   0.152  -4.477   0.243  -0.212  -0.167  -0.081   3.049  -0.129
 -0.005   0.001  -0.001   0.030  -0.020   0.006  -0.224   0.236  -0.996   0.303  -6.456   0.167  -0.015   0.992  -0.129   4.778
 -0.028  -0.042   0.004   0.024   0.009  -0.001   0.026  -0.071   1.065   0.405   0.444  -0.054   0.172  -1.209  -0.193  -0.448
  0.015   0.022  -0.002   0.002  -0.004   0.000  -0.041  -0.116   0.150  -0.201   0.033   0.052   0.049  -0.053   0.091   0.011
 total augmentation occupancy for first ion, spin component:           2
 -0.001   0.000  -0.000  -0.005   0.001  -0.001  -0.001   0.001  -0.001  -0.001  -0.003   0.001  -0.001   0.001   0.001   0.003
  0.000  -0.001   0.000   0.001  -0.004   0.000  -0.001  -0.002  -0.002  -0.002   0.000   0.001   0.001   0.001   0.002  -0.000
 -0.000   0.000  -0.002  -0.000  -0.000  -0.006   0.001  -0.002  -0.000   0.002  -0.002  -0.001   0.002   0.000  -0.002   0.002
 -0.005   0.001  -0.000   0.010  -0.000   0.002  -0.002   0.011   0.022   0.000   0.011   0.002  -0.008  -0.014   0.002  -0.009
  0.001  -0.004  -0.000  -0.000   0.008   0.002   0.001   0.005  -0.013  -0.004   0.006  -0.000  -0.001   0.011   0.005  -0.004
 -0.001   0.000  -0.006   0.002   0.002   0.005   0.000   0.004   0.009   0.016   0.002   0.001   0.000  -0.006  -0.009  -0.001
 -0.001  -0.001   0.001  -0.002   0.001   0.000   0.144   0.563  -0.832  -1.133   0.135   0.179  -0.317   0.563   0.637  -0.067
  0.001  -0.002  -0.002   0.011   0.005   0.004   0.563   3.932  -0.103   1.552   1.449  -0.466  -2.220   0.033  -0.819  -0.849
 -0.001  -0.002  -0.000   0.022  -0.013   0.009  -0.832  -0.103   7.881   0.452   0.653   0.653   0.016  -5.138  -0.249  -0.542
 -0.001  -0.002   0.002   0.000  -0.004   0.016  -1.133   1.552   0.452   1.146   0.794   0.856  -0.810  -0.311  -0.688  -0.480
 -0.003   0.000  -0.002   0.011   0.006   0.002   0.135   1.449   0.653   0.794   1.167  -0.110  -0.792  -0.506  -0.445  -0.758
  0.001   0.001  -0.001   0.002  -0.000   0.001   0.179  -0.466   0.653   0.856  -0.110  -0.357   0.274  -0.449  -0.482   0.055
 -0.001   0.001   0.002  -0.008  -0.001   0.000  -0.317  -2.220   0.016  -0.810  -0.792   0.274   1.298   0.010   0.459   0.491
  0.001   0.001   0.000  -0.014   0.011  -0.006   0.563   0.033  -5.138  -0.311  -0.506  -0.449   0.010   3.444   0.191   0.424
  0.001   0.002  -0.002   0.002   0.005  -0.009   0.637  -0.819  -0.249  -0.688  -0.445  -0.482   0.459   0.191   0.389   0.288
  0.003  -0.000   0.002  -0.009  -0.004  -0.001  -0.067  -0.849  -0.542  -0.480  -0.758   0.055   0.491   0.424   0.288   0.460
 -0.001  -0.001   0.002   0.002  -0.000  -0.011   0.195   0.353   0.255  -0.505   0.811  -0.265  -0.168  -0.298   0.214  -0.426
  0.001   0.000  -0.001  -0.000  -0.000   0.006  -0.144  -0.201   0.122   0.238  -0.354   0.171   0.096  -0.013  -0.091   0.163


------------------------ aborting loop because EDIFF is reached ----------------------------------------


 


 total charge     
 
# of ion       s       p       d       tot
------------------------------------------
    1        0.281   6.310   6.396  12.987
    2        0.277   6.298   4.755  11.329
    3        0.292   6.324   4.861  11.478
    4        0.277   6.296   4.671  11.243
    5        0.294   6.328   4.881  11.502
    6        0.299   6.342   4.243  10.885
    7        0.291   6.325   4.851  11.468
    8        0.290   6.332   4.529  11.152
    9        0.256   6.254   5.106  11.616
   10        0.219   6.193   4.875  11.286
   11        0.234   6.223   4.937  11.394
   12        0.249   6.249   5.003  11.500
   13        1.564   3.488   0.000   5.052
   14        1.561   3.486   0.000   5.047
   15        1.562   3.453   0.000   5.014
   16        1.559   3.499   0.000   5.057
   17        1.557   3.410   0.000   4.967
   18        1.563   3.595   0.000   5.158
   19        1.555   3.412   0.000   4.966
   20        1.552   3.536   0.000   5.088
   21        1.569   3.570   0.000   5.139
   22        1.562   3.446   0.000   5.008
   23        1.560   3.533   0.000   5.093
   24        1.556   3.360   0.000   4.916
   25        1.559   3.483   0.000   5.042
   26        1.557   3.351   0.000   4.907
   27        1.554   3.546   0.000   5.100
   28        1.571   2.927   0.000   4.498
   29        1.559   3.466   0.000   5.025
   30        1.555   3.574   0.000   5.129
   31        1.556   3.360   0.000   4.916
   32        1.562   3.561   0.000   5.124
   33        0.499   0.056   0.000   0.555
   34        0.500   0.060   0.000   0.560
   35        0.497   0.056   0.000   0.553
   36        0.508   0.056   0.000   0.563
   37        0.612   0.120   0.000   0.732
   38        0.606   0.117   0.000   0.723
   39        0.597   0.116   0.000   0.712
--------------------------------------------------
tot         38.269 145.109  59.107 242.485
 


 magnetization (x)
 
# of ion       s       p       d       tot
------------------------------------------
    1        0.017   0.013   1.828   1.859
    2        0.029   0.031   3.871   3.931
    3       -0.027  -0.023  -3.726  -3.776
    4       -0.026  -0.021  -3.726  -3.773
    5        0.033   0.034   3.881   3.948
    6        0.012   0.018   2.732   2.762
    7       -0.025  -0.024  -3.723  -3.773
    8       -0.020  -0.025  -3.427  -3.472
    9        0.027   0.055   4.420   4.503
   10        0.030   0.042   4.457   4.528
   11        0.027   0.050   4.450   4.527
   12        0.028   0.055   4.456   4.539
   13       -0.000   0.056   0.000   0.056
   14        0.011   0.048   0.000   0.060
   15        0.008   0.018   0.000   0.026
   16       -0.002  -0.013   0.000  -0.015
   17       -0.001   0.060   0.000   0.059
   18        0.007   0.038   0.000   0.045
   19        0.002  -0.025   0.000  -0.023
   20       -0.005   0.034   0.000   0.029
   21        0.003   0.034   0.000   0.037
   22       -0.001  -0.041   0.000  -0.042
   23        0.009   0.068   0.000   0.077
   24        0.009   0.072   0.000   0.081
   25        0.007   0.061   0.000   0.068
   26       -0.002   0.181   0.000   0.179
   27        0.006   0.022   0.000   0.028
   28        0.002   0.289   0.000   0.292
   29       -0.002  -0.012   0.000  -0.013
   30        0.004  -0.002   0.000   0.001
   31        0.001   0.026   0.000   0.027
   32       -0.001   0.014   0.000   0.013
   33        0.009   0.001   0.000   0.010
   34        0.009   0.001   0.000   0.009
   35        0.009   0.000   0.000   0.009
   36        0.008   0.000   0.000   0.008
   37       -0.002   0.000   0.000  -0.002
   38       -0.000   0.001   0.000   0.001
   39       -0.003   0.003   0.000  -0.000
--------------------------------------------------
tot          0.188   1.141  15.494  16.823
 
    CHARGE:  cpu time    3.0143: real time    3.0175
    FORLOC:  cpu time    0.0758: real time    0.0759
    FORNL :  cpu time   10.5843: real time   10.6141
    FORCOR:  cpu time    0.5498: real time    0.5508
    FORHAR:  cpu time    0.0970: real time    0.0984
    MIXING:  cpu time    0.0316: real time    0.0316
    OFIELD:  cpu time    0.0008: real time    0.0008

 VOLUME and BASIS-vectors are now :
 -----------------------------------------------------------------------------
  energy-cutoff  :      520.00
  volume of cell :     1228.02
      direct lattice vectors                 reciprocal lattice vectors
     2.873573495 -2.873573495  4.708335110     0.000000000 -0.094445153  0.154747888
     5.747146990  0.000000000  0.000000000     0.173999378  0.047222576 -0.077373944
     0.000000000 33.065691007 20.180529009     0.000000000  0.022035073  0.013448363

  length of vectors
     6.219587508  5.747146990 38.737496987     0.181292017  0.196195011  0.025814781


 FORCES acting on ions
    electron-ion (+dipol)            ewald-force                    non-local-force                 convergence-correction
 -----------------------------------------------------------------------------------------------
   -.419E+01 0.421E+04 0.258E+04   0.408E+01 -.426E+04 -.262E+04   -.814E-01 -.315E-02 0.183E+01   0.319E+00 0.574E+02 0.369E+02
   -.153E+02 -.160E+04 -.930E+03   0.166E+02 0.146E+04 0.845E+03   0.855E+00 -.202E+01 -.244E+01   -.198E+01 0.139E+03 0.883E+02
   -.101E+02 0.124E+04 0.770E+03   0.906E+01 -.139E+04 -.847E+03   0.802E-01 -.287E+01 -.532E+00   0.870E+00 0.158E+03 0.778E+02
   -.922E+00 -.438E+04 -.268E+04   0.133E+02 0.431E+04 0.265E+04   0.169E+01 -.329E+01 0.129E+01   -.137E+02 0.706E+02 0.247E+02
   0.388E+01 0.126E+04 0.763E+03   0.533E+01 -.139E+04 -.856E+03   0.450E+00 -.175E+01 -.174E+01   -.964E+01 0.138E+03 0.947E+02
   -.161E+02 -.425E+04 -.255E+04   0.191E+02 0.420E+04 0.249E+04   -.412E+00 0.187E+01 -.482E+01   -.225E+01 0.543E+02 0.599E+02
   -.289E+01 0.125E+04 0.776E+03   -.620E+01 -.138E+04 -.867E+03   -.482E+00 -.141E+01 -.219E+01   0.955E+01 0.138E+03 0.940E+02
   0.226E+02 -.426E+04 -.258E+04   -.249E+02 0.421E+04 0.254E+04   0.621E+00 0.179E+01 -.146E+01   0.172E+01 0.548E+02 0.415E+02
   0.871E+01 0.346E+04 0.212E+04   -.638E+01 -.355E+04 -.217E+04   -.862E+00 0.188E+01 0.105E+01   -.134E+01 0.936E+02 0.471E+02
   0.166E+02 -.228E+04 -.140E+04   -.209E+02 0.216E+04 0.133E+04   -.189E+01 -.309E+01 -.201E+01   0.590E+01 0.130E+03 0.737E+02
   0.117E+02 -.825E+03 -.523E+03   -.109E+02 0.682E+03 0.436E+03   -.530E-01 -.228E+01 -.686E+00   -.767E+00 0.146E+03 0.888E+02
   -.503E+01 0.472E+04 0.283E+04   0.372E+01 -.475E+04 -.286E+04   0.225E+00 0.104E+01 -.103E+01   0.967E+00 0.317E+02 0.275E+02
   0.153E+02 -.269E+04 -.140E+04   -.116E+02 0.270E+04 0.136E+04   0.150E+01 -.994E+01 0.343E+02   -.548E+01 -.691E+01 0.625E+01
   -.107E+02 0.249E+04 0.150E+04   0.129E+02 -.248E+04 -.146E+04   -.238E+01 -.193E+02 -.181E+02   -.174E+00 0.427E+01 -.159E+02
   0.319E+01 -.209E+03 0.240E+00   -.192E+01 0.153E+03 -.385E+02   -.433E+00 -.109E+02 -.478E+01   -.981E+00 0.664E+02 0.428E+02
   -.918E+00 0.132E+04 0.734E+03   0.140E+01 -.138E+04 -.762E+03   -.582E-01 0.809E+01 -.380E+01   -.508E+00 0.516E+02 0.321E+02
   0.118E+02 -.123E+04 -.825E+03   -.617E+01 0.116E+04 0.796E+03   0.897E+00 0.925E+01 -.287E+01   -.686E+01 0.590E+02 0.325E+02
   0.177E+03 0.121E+04 0.783E+03   -.171E+03 -.128E+04 -.812E+03   0.846E+01 -.311E+00 -.344E+01   -.154E+02 0.691E+02 0.323E+02
   -.158E+03 -.149E+04 -.830E+03   0.168E+03 0.144E+04 0.795E+03   -.735E+01 -.306E+01 -.188E+01   -.256E+01 0.457E+02 0.367E+02
   -.167E+02 -.262E+04 -.153E+04   0.152E+02 0.261E+04 0.150E+04   -.336E+01 0.103E+02 0.233E+02   0.505E+01 -.445E+01 0.522E+01
   0.291E+02 0.251E+04 0.157E+04   -.509E+02 -.251E+04 -.157E+04   0.253E+02 -.114E+02 0.822E+01   -.286E-01 0.456E+00 -.186E+01
   -.685E+01 -.183E+03 -.477E+02   0.621E+01 0.125E+03 0.376E+01   -.140E+00 -.123E+02 0.332E+00   0.868E+00 0.694E+02 0.433E+02
   0.218E+00 0.137E+04 0.693E+03   -.120E+01 -.143E+04 -.742E+03   0.347E+00 0.802E+01 0.243E+01   0.773E+00 0.523E+02 0.460E+02
   -.552E+01 -.120E+04 -.879E+03   0.129E+00 0.113E+04 0.845E+03   -.634E+00 0.908E+01 0.209E+01   0.630E+01 0.592E+02 0.321E+02
   -.153E+03 -.703E+02 -.741E+02   0.162E+03 0.399E+01 0.311E+02   -.807E+01 -.332E+01 0.166E+01   -.145E+01 0.686E+02 0.409E+02
   -.120E+03 -.254E+04 -.162E+04   0.988E+02 0.256E+04 0.162E+04   0.226E+02 -.194E+02 0.382E+01   -.273E+01 0.361E+01 -.228E+01
   0.384E+02 0.253E+04 0.153E+04   -.209E+02 -.250E+04 -.152E+04   -.407E+00 -.181E+02 -.119E+02   -.180E+02 -.157E+02 0.332E+01
   0.172E+03 -.242E+04 -.164E+04   -.185E+03 0.242E+04 0.166E+04   0.107E+02 -.910E+01 -.132E+02   0.206E+01 0.104E+02 -.708E+01
   0.152E+03 -.446E+02 -.551E+02   -.161E+03 -.221E+02 0.125E+02   0.785E+01 -.316E+01 0.208E+01   0.143E+01 0.690E+02 0.401E+02
   -.393E+02 0.253E+04 0.154E+04   0.208E+02 -.250E+04 -.153E+04   0.978E+00 -.185E+02 -.115E+02   0.185E+02 -.155E+02 0.348E+01
   0.153E+03 -.139E+04 -.794E+03   -.162E+03 0.134E+04 0.764E+03   0.718E+01 -.198E+01 -.717E+00   0.218E+01 0.511E+02 0.317E+02
   -.178E+03 0.121E+04 0.784E+03   0.171E+03 -.128E+04 -.813E+03   -.848E+01 -.196E+00 -.374E+01   0.154E+02 0.687E+02 0.327E+02
   0.173E+01 0.497E+03 0.305E+03   -.413E+00 -.494E+03 -.303E+03   0.120E+00 0.420E+01 0.268E+01   -.812E+00 -.311E+01 -.139E+01
   -.327E+02 0.474E+03 0.270E+03   0.324E+02 -.471E+03 -.269E+03   -.370E+01 0.327E+01 0.138E+00   0.681E+00 -.211E+01 -.124E+01
   -.289E+01 0.497E+03 0.305E+03   0.162E+01 -.493E+03 -.304E+03   -.238E+00 0.426E+01 0.263E+01   0.816E+00 -.334E+01 -.151E+01
   -.100E+01 0.496E+03 0.299E+03   0.140E+01 -.494E+03 -.297E+03   0.328E-02 0.430E+01 0.234E+01   -.202E-01 -.211E+01 -.223E+01
   0.118E+01 -.506E+03 -.325E+03   -.189E+01 0.515E+03 0.331E+03   0.302E+00 -.592E+01 -.583E+01   0.434E+00 -.230E+01 -.821E+00
   0.160E+01 -.480E+03 -.338E+03   -.714E+00 0.485E+03 0.346E+03   -.883E-01 -.221E+01 -.778E+01   -.774E+00 -.253E+01 -.573E+00
   -.727E+02 -.397E+03 -.291E+03   0.815E+02 0.394E+03 0.295E+03   -.721E+01 0.150E+01 -.317E+01   -.493E+00 0.116E+01 -.911E+00
 -----------------------------------------------------------------------------------------------
   -.317E+02 -.181E+04 -.116E+04   0.298E-12 -.335E-11 0.284E-12   0.438E+02 -.969E+02 -.196E+02   -.121E+02 0.190E+04 0.118E+04
 
 
 POSITION                                       TOTAL-FORCE (eV/Angst)
 -----------------------------------------------------------------------------------
      5.76288      2.30925      2.83538         0.132835     -1.502482     -1.049348
      2.86968      5.28077      7.57776         0.137165      0.994441      0.594138
      2.88931      2.30925      7.54371        -0.054500      1.394210      0.244005
      2.80088      8.29684      7.56023         0.359299     -0.244016      0.104806
      4.32610      3.74603      5.18954         0.028899      0.942075      0.357068
      4.27963      6.71836      9.95828         0.311712      0.451787     -1.182879
      1.45252      3.74603      5.18954        -0.013870      1.014460      0.424377
      7.12937      6.75160      9.92493        -0.000666      0.189709      0.357751
      5.76288      0.87246      6.36663         0.139561     -0.963083     -0.541570
      5.69175      6.73722      6.43825        -0.313044      0.375242      0.325128
      5.76916      3.77765      8.71775        -0.010235      0.490658      0.315987
      2.88931      0.87246      4.01246        -0.115201     -0.067807      0.469123
      5.72359      8.13134      9.99330        -0.258317     -0.496083     -0.268119
      2.88931     -0.69884      5.25540        -0.346010     -3.970277     -2.074661
      2.89467      5.07658      5.29905        -0.138051     -0.644593     -0.225473
      2.88931      2.44376      5.25540        -0.086194     -0.175011      0.069271
      2.89989      8.27651      5.23461        -0.319351      0.260678      0.087369
      4.46061      3.74603      2.90123        -0.018944     -0.003403      0.194741
      4.16108      6.79896      7.87926         0.047939     -0.417650     -0.402575
      2.78168      8.15221      9.81325         0.214380     -0.672256     -0.225976
      5.76288     -0.69884      5.12368         3.411588     -3.103162     -0.052273
      5.75559      5.08881      5.14153         0.092195     -0.650509     -0.382063
      5.76288      2.44376      5.12368         0.137033     -0.253735     -0.392249
      5.65929      8.30361      5.09436         0.276888     -0.064588     -0.026946
      4.16419      3.80529      7.47418        -0.118560     -0.968452     -0.418586
      4.14744      9.69766      7.40034        -0.924612      0.619570     -1.490403
      4.46061      0.87246      2.76952        -0.795386     -3.667130     -2.436685
      1.40583      9.49891      7.09125        -0.669752      0.241991      1.401653
      7.33757      3.77182      7.43789         0.100367     -0.864751     -0.404756
      1.31801      0.87246      2.76952         0.972206     -3.969408     -2.250403
      1.57748      6.73862      7.65106        -0.210144     -0.183589      0.803855
      1.31801      3.74603      2.90123        -0.078349     -0.048064      0.028221
      4.44914     -0.05819      2.16465         0.625691      3.941119      2.413892
      6.59433     -1.43378      5.09818        -3.340813      3.701767      0.449111
      1.35527     -0.06710      2.17965        -0.687421      4.280960      2.173864
      2.87242     -1.67143      4.72073         0.386836      3.860964      2.296533
      2.74351      8.84005     10.49968         0.023666      0.171952      0.168208
      5.73760      8.39328     10.93890         0.023475      0.213300      0.238401
      5.02885      9.49305      7.78250         1.077686     -0.214834      0.307466
 -----------------------------------------------------------------------------------
    total drift:                               -0.102330     -0.468583      0.321637


--------------------------------------------------------------------------------------------------------



  FREE ENERGIE OF THE ION-ELECTRON SYSTEM (eV)
  ---------------------------------------------------
  free  energy   TOTEN  =      -261.81453811 eV

  energy  without entropy=     -261.80251812  energy(sigma->0) =     -261.81053144
 


--------------------------------------------------------------------------------------------------------


    POTLOK:  cpu time    0.5143: real time    0.5143


--------------------------------------------------------------------------------------------------------


 stress matrix after NEB project (eV)
      0.00000      0.00000      0.00000
      0.00000      0.00000      0.00000
      0.00000      0.00000      0.00000
  FORCES: max atom, RMS     1.860128    0.657750
  FORCE total and by dimension    4.107650    1.490403
  Stress total and by dimension    0.000000    0.000000


--------------------------------------------------------------------------------------------------------


    WAVPRE:  cpu time    0.0837: real time    0.1213
    FEWALD:  cpu time    0.0019: real time    0.0019

 real space projection operators:
  total allocation   :      16347.45 KBytes
  max/ min on nodes  :        750.35        252.98

    ORTHCH:  cpu time    3.8537: real time    3.8600
     LOOP+:  cpu time 2114.0871: real time 2134.7573


--------------------------------------- Iteration      2(   1)  ---------------------------------------


    POTLOK:  cpu time    0.4691: real time    0.4927
    SETDIJ:  cpu time    0.0407: real time    0.0414
     EDDAV:  cpu time   40.8459: real time   41.4151
       DOS:  cpu time    0.0265: real time    0.0265
    CHARGE:  cpu time    3.0284: real time    3.0327
    MIXING:  cpu time    0.0096: real time    0.0096
    --------------------------------------------
      LOOP:  cpu time   44.4204: real time   45.0182

 eigenvalue-minimisations  :  8596
 total energy-change (2. order) : 0.1608082E+01  (-0.1861033E+02)
 number of electron     282.9999974 magnetization      16.3458964
 augmentation part      100.7641927 magnetization       9.1354627

  free energy =  -0.259946595206E+03  energy without entropy=  -0.259961144135E+03


--------------------------------------------------------------------------------------------------------




--------------------------------------- Iteration      2(   2)  ---------------------------------------


    POTLOK:  cpu time    0.4653: real time    0.4980
    SETDIJ:  cpu time    0.0413: real time    0.0413
    EDDIAG:  cpu time    7.6003: real time    7.6159
  RMM-DIIS:  cpu time   25.8466: real time   25.9852
    ORTHCH:  cpu time    0.3903: real time    0.3904
       DOS:  cpu time    0.0259: real time    0.0259
    CHARGE:  cpu time    3.3393: real time    3.7211
    MIXING:  cpu time    0.0091: real time    0.0091
    --------------------------------------------
      LOOP:  cpu time   37.7181: real time   38.2869

 eigenvalue-minimisations  :  8633
 total energy-change (2. order) :-0.1003736E+03  (-0.1093964E+02)
 number of electron     282.9999974 magnetization      16.3267960
 augmentation part      103.3121411 magnetization      11.9304806

 eigenvalues of (default mixing * dielectric matrix)
  average eigenvalue GAMMA=   0.1577
  0.1577

  free energy =  -0.360320225598E+03  energy without entropy=  -0.360320256420E+03


--------------------------------------------------------------------------------------------------------




--------------------------------------- Iteration      2(   3)  ---------------------------------------


    POTLOK:  cpu time    0.4651: real time    0.4980
    SETDIJ:  cpu time    0.0410: real time    0.0410
    EDDIAG:  cpu time    7.6170: real time    7.6251
  RMM-DIIS:  cpu time   23.4207: real time   23.4458
    ORTHCH:  cpu time    0.3871: real time    0.3880
       DOS:  cpu time    0.0264: real time    0.0264
    CHARGE:  cpu time    3.0368: real time    3.0397
    MIXING:  cpu time    0.0093: real time    0.0093
    --------------------------------------------
      LOOP:  cpu time   35.0034: real time   35.0733

 eigenvalue-minimisations  :  7867
 total energy-change (2. order) : 0.9775793E+02  (-0.3197775E+01)
 number of electron     282.9999974 magnetization      16.3496852
 augmentation part       98.9347173 magnetization       9.8695401

 eigenvalues of (default mixing * dielectric matrix)
  average eigenvalue GAMMA=   0.2370
  0.3237  0.1503

  free energy =  -0.262562295901E+03  energy without entropy=  -0.262555690069E+03


--------------------------------------------------------------------------------------------------------




--------------------------------------- Iteration      2(   4)  ---------------------------------------


    POTLOK:  cpu time    0.4651: real time    0.4981
    SETDIJ:  cpu time    0.0412: real time    0.0412
    EDDIAG:  cpu time    7.5958: real time    7.6217
  RMM-DIIS:  cpu time   23.0840: real time   23.5107
    ORTHCH:  cpu time    0.3880: real time    0.3880
       DOS:  cpu time    0.0263: real time    0.0263
    CHARGE:  cpu time    3.0291: real time    3.0331
    MIXING:  cpu time    0.0096: real time    0.0096
    --------------------------------------------
      LOOP:  cpu time   34.6390: real time   35.1287

 eigenvalue-minimisations  :  7485
 total energy-change (2. order) : 0.3337891E+01  (-0.1853734E+01)
 number of electron     282.9999973 magnetization      16.3798640
 augmentation part      100.1656470 magnetization      10.0987636

 eigenvalues of (default mixing * dielectric matrix)
  average eigenvalue GAMMA=   0.2988
  0.5404  0.1780  0.1780

  free energy =  -0.259224404547E+03  energy without entropy=  -0.259181547099E+03


--------------------------------------------------------------------------------------------------------




--------------------------------------- Iteration      2(   5)  ---------------------------------------


    POTLOK:  cpu time    0.4642: real time    0.4957
    SETDIJ:  cpu time    0.0411: real time    0.0411
    EDDIAG:  cpu time    7.5757: real time    7.5846
  RMM-DIIS:  cpu time   25.2220: real time   25.3365
    ORTHCH:  cpu time    0.3864: real time    0.3865
       DOS:  cpu time    0.0256: real time    0.0256
    CHARGE:  cpu time    3.0109: real time    3.0174
    MIXING:  cpu time    0.0098: real time    0.0098
    --------------------------------------------
      LOOP:  cpu time   36.7356: real time   36.8971

 eigenvalue-minimisations  :  8467
 total energy-change (2. order) :-0.7226351E+00  (-0.3151266E+00)
 number of electron     282.9999973 magnetization      16.4369211
 augmentation part      100.0135685 magnetization       9.8556713

 eigenvalues of (default mixing * dielectric matrix)
  average eigenvalue GAMMA=   0.3609
  0.5077  0.5077  0.2141  0.2141

  free energy =  -0.259947039599E+03  energy without entropy=  -0.259931767034E+03


--------------------------------------------------------------------------------------------------------




--------------------------------------- Iteration      2(   6)  ---------------------------------------


    POTLOK:  cpu time    0.4649: real time    0.4969
    SETDIJ:  cpu time    0.0410: real time    0.0410
    EDDIAG:  cpu time    7.7015: real time    7.7930
  RMM-DIIS:  cpu time   24.0307: real time   24.3710
    ORTHCH:  cpu time    0.3881: real time    0.3881
       DOS:  cpu time    0.0255: real time    0.0255
    CHARGE:  cpu time    3.0516: real time    3.0555
    MIXING:  cpu time    0.0100: real time    0.0100
    --------------------------------------------
      LOOP:  cpu time   35.7133: real time   36.1810

 eigenvalue-minimisations  :  7909
 total energy-change (2. order) : 0.2340870E-01  (-0.8230273E-01)
 number of electron     282.9999974 magnetization      16.4533142
 augmentation part      100.0722614 magnetization       9.9796395

 eigenvalues of (default mixing * dielectric matrix)
  average eigenvalue GAMMA=   0.3211
  0.5140  0.5140  0.2646  0.1677  0.1450

  free energy =  -0.259923630903E+03  energy without entropy=  -0.259917482871E+03


--------------------------------------------------------------------------------------------------------




--------------------------------------- Iteration      2(   7)  ---------------------------------------


    POTLOK:  cpu time    0.4958: real time    0.5026
    SETDIJ:  cpu time    0.0410: real time    0.0410
    EDDIAG:  cpu time    7.6209: real time    7.6298
  RMM-DIIS:  cpu time   22.7953: real time   22.8852
    ORTHCH:  cpu time    0.3984: real time    0.4037
       DOS:  cpu time    0.0246: real time    0.0246
    CHARGE:  cpu time    3.3471: real time    3.6804
    MIXING:  cpu time    0.0101: real time    0.0101
    --------------------------------------------
      LOOP:  cpu time   34.7333: real time   35.1774

 eigenvalue-minimisations  :  7541
 total energy-change (2. order) :-0.8279718E+00  (-0.2344516E-01)
 number of electron     282.9999974 magnetization      16.4956780
 augmentation part      100.0761712 magnetization      10.0324131

 eigenvalues of (default mixing * dielectric matrix)
  average eigenvalue GAMMA=   0.4304
  0.6171  0.6171  0.4685  0.4685  0.2057  0.2057

  free energy =  -0.260751602712E+03  energy without entropy=  -0.260763275360E+03


--------------------------------------------------------------------------------------------------------




--------------------------------------- Iteration      2(   8)  ---------------------------------------


    POTLOK:  cpu time    0.4822: real time    0.5199
    SETDIJ:  cpu time    0.0410: real time    0.0410
    EDDIAG:  cpu time    7.5876: real time    7.5964
  RMM-DIIS:  cpu time   21.7465: real time   21.7772
    ORTHCH:  cpu time    0.3881: real time    0.3881
       DOS:  cpu time    0.0245: real time    0.0245
    CHARGE:  cpu time    3.0557: real time    3.0600
    MIXING:  cpu time    0.0102: real time    0.0102
    --------------------------------------------
      LOOP:  cpu time   33.3357: real time   33.4173

 eigenvalue-minimisations  :  7260
 total energy-change (2. order) :-0.3807482E+00  (-0.2650847E-01)
 number of electron     282.9999974 magnetization      16.6112996
 augmentation part      100.1192795 magnetization      10.2020266

 eigenvalues of (default mixing * dielectric matrix)
  average eigenvalue GAMMA=   0.5921
  1.0024  1.0024  0.6633  0.6633  0.2025  0.2025  0.4083

  free energy =  -0.261132350902E+03  energy without entropy=  -0.261140755162E+03


--------------------------------------------------------------------------------------------------------




--------------------------------------- Iteration      2(   9)  ---------------------------------------


    POTLOK:  cpu time    0.4660: real time    0.4979
    SETDIJ:  cpu time    0.0412: real time    0.0412
    EDDIAG:  cpu time    7.6228: real time    7.6345
  RMM-DIIS:  cpu time   22.7017: real time   23.1183
    ORTHCH:  cpu time    0.3865: real time    0.3876
       DOS:  cpu time    0.0246: real time    0.0246
    CHARGE:  cpu time    3.0063: real time    3.0093
    MIXING:  cpu time    0.0105: real time    0.0105
    --------------------------------------------
      LOOP:  cpu time   34.2595: real time   34.7238

 eigenvalue-minimisations  :  7328
 total energy-change (2. order) : 0.1240157E+00  (-0.5299031E-01)
 number of electron     282.9999974 magnetization      16.7674579
 augmentation part      100.2068958 magnetization      10.3702409

 eigenvalues of (default mixing * dielectric matrix)
  average eigenvalue GAMMA=   0.6644
  1.0405  1.0405  1.1003  0.6488  0.6488  0.2026  0.2026  0.4314

  free energy =  -0.261008335189E+03  energy without entropy=  -0.261028880448E+03


--------------------------------------------------------------------------------------------------------




--------------------------------------- Iteration      2(  10)  ---------------------------------------


    POTLOK:  cpu time    0.4647: real time    0.4971
    SETDIJ:  cpu time    0.0408: real time    0.0408
    EDDIAG:  cpu time    7.5996: real time    7.6076
  RMM-DIIS:  cpu time   22.6259: real time   22.6593
    ORTHCH:  cpu time    0.3866: real time    0.3876
       DOS:  cpu time    0.0259: real time    0.0259
    CHARGE:  cpu time    3.0595: real time    3.0660
    MIXING:  cpu time    0.0105: real time    0.0105
    --------------------------------------------
      LOOP:  cpu time   34.2137: real time   34.2949

 eigenvalue-minimisations  :  7565
 total energy-change (2. order) : 0.5531076E+00  (-0.5152679E-01)
 number of electron     282.9999974 magnetization      16.7911290
 augmentation part      100.2955232 magnetization      10.5306258

 eigenvalues of (default mixing * dielectric matrix)
  average eigenvalue GAMMA=   0.6125
  1.2282  1.0328  1.0328  0.6270  0.6270  0.4357  0.2026  0.2026  0.1237

  free energy =  -0.260455227557E+03  energy without entropy=  -0.260454263146E+03


--------------------------------------------------------------------------------------------------------




--------------------------------------- Iteration      2(  11)  ---------------------------------------


    POTLOK:  cpu time    0.4649: real time    0.4973
    SETDIJ:  cpu time    0.0409: real time    0.0409
    EDDIAG:  cpu time    7.6230: real time    7.6818
  RMM-DIIS:  cpu time   25.4767: real time   25.8395
    ORTHCH:  cpu time    0.3890: real time    0.3890
       DOS:  cpu time    0.0251: real time    0.0252
    CHARGE:  cpu time    3.0204: real time    3.0244
    MIXING:  cpu time    0.0110: real time    0.0110
    --------------------------------------------
      LOOP:  cpu time   37.0512: real time   37.5092

 eigenvalue-minimisations  :  8395
 total energy-change (2. order) :-0.6567607E-01  (-0.6223317E-02)
 number of electron     282.9999974 magnetization      16.8533964
 augmentation part      100.3771071 magnetization      10.6692408

 eigenvalues of (default mixing * dielectric matrix)
  average eigenvalue GAMMA=   0.6455
  1.2833  1.0836  1.0836  0.7182  0.7182  0.5909  0.2026  0.2026  0.4230  0.1484

  free energy =  -0.260520903623E+03  energy without entropy=  -0.260505420595E+03


--------------------------------------------------------------------------------------------------------




--------------------------------------- Iteration      2(  12)  ---------------------------------------


    POTLOK:  cpu time    0.4958: real time    0.4965
    SETDIJ:  cpu time    0.0412: real time    0.0412
    EDDIAG:  cpu time    7.5445: real time    7.5595
  RMM-DIIS:  cpu time   23.5625: real time   23.6514
    ORTHCH:  cpu time    0.3868: real time    0.3868
       DOS:  cpu time    0.0246: real time    0.0247
    CHARGE:  cpu time    2.9847: real time    3.0005
    MIXING:  cpu time    0.0202: real time    0.0203
    --------------------------------------------
      LOOP:  cpu time   35.0600: real time   35.1806

 eigenvalue-minimisations  :  7924
 total energy-change (2. order) :-0.3620170E+00  (-0.9587494E-02)
 number of electron     282.9999974 magnetization      16.8542864
 augmentation part      100.5897227 magnetization      10.7895337

 eigenvalues of (default mixing * dielectric matrix)
  average eigenvalue GAMMA=   0.5920
  1.2897  1.0828  1.0828  0.7156  0.7156  0.6038  0.2026  0.2026  0.4225  0.1700
  0.0235

  free energy =  -0.260882920640E+03  energy without entropy=  -0.260859338106E+03


--------------------------------------------------------------------------------------------------------




--------------------------------------- Iteration      2(  13)  ---------------------------------------


    POTLOK:  cpu time    0.4806: real time    0.5348
    SETDIJ:  cpu time    0.0410: real time    0.0410
    EDDIAG:  cpu time    7.7654: real time    8.1071
  RMM-DIIS:  cpu time   22.6602: real time   22.6911
    ORTHCH:  cpu time    0.3844: real time    0.3854
       DOS:  cpu time    0.0251: real time    0.0252
    CHARGE:  cpu time    2.9670: real time    2.9700
    MIXING:  cpu time    0.0113: real time    0.0113
    --------------------------------------------
      LOOP:  cpu time   34.3350: real time   34.7659

 eigenvalue-minimisations  :  7589
 total energy-change (2. order) :-0.1814078E+00  (-0.4824933E-02)
 number of electron     282.9999974 magnetization      16.8539871
 augmentation part      100.6553354 magnetization      10.7320959

 eigenvalues of (default mixing * dielectric matrix)
  average eigenvalue GAMMA=   0.5469
  1.2439  1.0880  1.0880  0.7231  0.7231  0.5987  0.4227  0.2026  0.2026  0.1858
  0.0685  0.0154

  free energy =  -0.261064328424E+03  energy without entropy=  -0.261073248655E+03


--------------------------------------------------------------------------------------------------------




--------------------------------------- Iteration      2(  14)  ---------------------------------------


    POTLOK:  cpu time    0.4655: real time    0.4981
    SETDIJ:  cpu time    0.0412: real time    0.0412
    EDDIAG:  cpu time    7.5945: real time    7.6027
  RMM-DIIS:  cpu time   22.0209: real time   22.4750
    ORTHCH:  cpu time    0.3875: real time    0.3875
       DOS:  cpu time    0.0250: real time    0.0250
    CHARGE:  cpu time    3.0316: real time    3.0357
    MIXING:  cpu time    0.0117: real time    0.0117
    --------------------------------------------
      LOOP:  cpu time   33.5779: real time   34.0770

 eigenvalue-minimisations  :  7127
 total energy-change (2. order) :-0.3943595E-01  (-0.2101003E-02)
 number of electron     282.9999974 magnetization      16.8522545
 augmentation part      100.6497172 magnetization      10.7461495

 eigenvalues of (default mixing * dielectric matrix)
  average eigenvalue GAMMA=   0.5130
  1.2637  1.0860  1.0860  0.7220  0.7220  0.5959  0.4228  0.2026  0.2026  0.1677
  0.1104  0.0438  0.0438

  free energy =  -0.261103764377E+03  energy without entropy=  -0.261120066104E+03


--------------------------------------------------------------------------------------------------------




--------------------------------------- Iteration      2(  15)  ---------------------------------------


    POTLOK:  cpu time    0.4970: real time    0.4977
    SETDIJ:  cpu time    0.0406: real time    0.0406
    EDDIAG:  cpu time    7.6298: real time    7.6387
  RMM-DIIS:  cpu time   22.7989: real time   22.8520
    ORTHCH:  cpu time    0.3872: real time    0.3881
       DOS:  cpu time    0.0255: real time    0.0255
    CHARGE:  cpu time    3.0252: real time    3.0285
    MIXING:  cpu time    0.0118: real time    0.0118
    --------------------------------------------
      LOOP:  cpu time   34.4159: real time   34.4828

 eigenvalue-minimisations  :  7622
 total energy-change (2. order) :-0.8505345E-01  (-0.5532793E-03)
 number of electron     282.9999974 magnetization      16.8523311
 augmentation part      100.6562723 magnetization      10.7667797

 eigenvalues of (default mixing * dielectric matrix)
  average eigenvalue GAMMA=   0.4963
  1.2624  1.0849  1.0849  0.7215  0.7215  0.5991  0.4225  0.2026  0.2026  0.1765
  0.1765  0.1300  0.1300  0.0337

  free energy =  -0.261188817828E+03  energy without entropy=  -0.261203130186E+03


--------------------------------------------------------------------------------------------------------




--------------------------------------- Iteration      2(  16)  ---------------------------------------


    POTLOK:  cpu time    0.4659: real time    0.4984
    SETDIJ:  cpu time    0.0413: real time    0.0412
    EDDIAG:  cpu time    7.6294: real time    7.6822
  RMM-DIIS:  cpu time   25.0108: real time   25.3434
    ORTHCH:  cpu time    0.3868: real time    0.3878
       DOS:  cpu time    0.0247: real time    0.0247
    CHARGE:  cpu time    3.0211: real time    3.0242
    MIXING:  cpu time    0.0123: real time    0.0123
    --------------------------------------------
      LOOP:  cpu time   36.5922: real time   37.0143

 eigenvalue-minimisations  :  8143
 total energy-change (2. order) : 0.4525028E-02  (-0.4351369E-04)
 number of electron     282.9999974 magnetization      16.8524773
 augmentation part      100.6558777 magnetization      10.7692969

 eigenvalues of (default mixing * dielectric matrix)
  average eigenvalue GAMMA=   0.4761
  1.2556  1.0839  1.0839  0.7225  0.7225  0.6012  0.4223  0.2026  0.2026  0.2233
  0.2233  0.1347  0.1347  0.0957  0.0332

  free energy =  -0.261184292800E+03  energy without entropy=  -0.261198846026E+03


--------------------------------------------------------------------------------------------------------




--------------------------------------- Iteration      2(  17)  ---------------------------------------


    POTLOK:  cpu time    0.4655: real time    0.5005
    SETDIJ:  cpu time    0.0413: real time    0.0413
    EDDIAG:  cpu time    7.6286: real time    7.6360
  RMM-DIIS:  cpu time   20.4290: real time   20.4633
    ORTHCH:  cpu time    0.4336: real time    0.4585
       DOS:  cpu time    0.0259: real time    0.0259
    CHARGE:  cpu time    3.0190: real time    3.0231
    MIXING:  cpu time    0.0125: real time    0.0126
    --------------------------------------------
      LOOP:  cpu time   32.0555: real time   32.1614

 eigenvalue-minimisations  :  6723
 total energy-change (2. order) : 0.3989949E-01  (-0.2649217E-04)
 number of electron     282.9999974 magnetization      16.8545766
 augmentation part      100.6526184 magnetization      10.7685018

 eigenvalues of (default mixing * dielectric matrix)
  average eigenvalue GAMMA=   0.5062
  1.1652  1.0777  1.0777  0.7493  0.7493  0.4106  0.4106  0.6024  0.4227  0.3036
  0.3036  0.2026  0.2026  0.2336  0.1550  0.0332

  free energy =  -0.261144393313E+03  energy without entropy=  -0.261159957860E+03


--------------------------------------------------------------------------------------------------------




--------------------------------------- Iteration      2(  18)  ---------------------------------------


    POTLOK:  cpu time    0.4678: real time    0.4996
    SETDIJ:  cpu time    0.0413: real time    0.0413
    EDDIAG:  cpu time    7.5940: real time    7.6174
  RMM-DIIS:  cpu time   22.7888: real time   23.2182
    ORTHCH:  cpu time    0.3876: real time    0.3886
       DOS:  cpu time    0.0258: real time    0.0259
    CHARGE:  cpu time    3.0242: real time    3.0272
    MIXING:  cpu time    0.0131: real time    0.0131
    --------------------------------------------
      LOOP:  cpu time   34.3426: real time   34.8313

 eigenvalue-minimisations  :  7421
 total energy-change (2. order) : 0.2683066E+00  (-0.1059457E-02)
 number of electron     282.9999975 magnetization      16.8799189
 augmentation part      100.6435058 magnetization      10.7427124

 eigenvalues of (default mixing * dielectric matrix)
  average eigenvalue GAMMA=   0.5426
  1.1035  1.1035  1.1461  0.5818  0.5818  0.7524  0.7524  0.6215  0.4527  0.4527
  0.4223  0.2026  0.2026  0.3319  0.3319  0.1506  0.0332

  free energy =  -0.260876086724E+03  energy without entropy=  -0.260891486815E+03


--------------------------------------------------------------------------------------------------------




--------------------------------------- Iteration      2(  19)  ---------------------------------------


    POTLOK:  cpu time    0.4647: real time    0.4968
    SETDIJ:  cpu time    0.0411: real time    0.0411
    EDDIAG:  cpu time    7.6153: real time    7.6293
  RMM-DIIS:  cpu time   22.6086: real time   22.7020
    ORTHCH:  cpu time    0.3859: real time    0.3869
       DOS:  cpu time    0.0262: real time    0.0263
    CHARGE:  cpu time    3.0510: real time    3.0724
    MIXING:  cpu time    0.0136: real time    0.0136
    --------------------------------------------
      LOOP:  cpu time   34.2065: real time   34.3684

 eigenvalue-minimisations  :  7592
 total energy-change (2. order) : 0.4212983E+00  (-0.3581613E-02)
 number of electron     282.9999975 magnetization      16.8835319
 augmentation part      100.6172365 magnetization      10.5246886

 eigenvalues of (default mixing * dielectric matrix)
  average eigenvalue GAMMA=   0.5196
  1.1162  1.1162  1.0882  0.5840  0.5840  0.7636  0.7636  0.6293  0.4586  0.4586
  0.4234  0.2026  0.2026  0.3037  0.3037  0.1747  0.1475  0.0332

  free energy =  -0.260454788399E+03  energy without entropy=  -0.260432831026E+03


--------------------------------------------------------------------------------------------------------




--------------------------------------- Iteration      2(  20)  ---------------------------------------


    POTLOK:  cpu time    0.4656: real time    0.4978
    SETDIJ:  cpu time    0.0412: real time    0.0412
    EDDIAG:  cpu time    8.1054: real time    8.4645
  RMM-DIIS:  cpu time   22.4368: real time   22.4813
    ORTHCH:  cpu time    0.3899: real time    0.3908
       DOS:  cpu time    0.0259: real time    0.0259
    CHARGE:  cpu time    3.0438: real time    3.0470
    MIXING:  cpu time    0.0140: real time    0.0140
    --------------------------------------------
      LOOP:  cpu time   34.5227: real time   34.9627

 eigenvalue-minimisations  :  7482
 total energy-change (2. order) :-0.1286712E+00  (-0.6401115E-03)
 number of electron     282.9999975 magnetization      16.8840772
 augmentation part      100.6481356 magnetization      10.3907862

 eigenvalues of (default mixing * dielectric matrix)
  average eigenvalue GAMMA=   0.5099
  1.1167  1.1167  1.0843  0.5982  0.5982  0.7575  0.7575  0.6407  0.4810  0.4810
  0.4230  0.3308  0.3308  0.2026  0.2026  0.2502  0.1500  0.1337  0.0332

  free energy =  -0.260583459613E+03  energy without entropy=  -0.260562402965E+03


--------------------------------------------------------------------------------------------------------




--------------------------------------- Iteration      2(  21)  ---------------------------------------


    POTLOK:  cpu time    0.4967: real time    0.4983
    SETDIJ:  cpu time    0.0400: real time    0.0400
    EDDIAG:  cpu time    7.6313: real time    7.6395
  RMM-DIIS:  cpu time   23.1295: real time   23.5402
    ORTHCH:  cpu time    0.3871: real time    0.3871
       DOS:  cpu time    0.0248: real time    0.0255
    CHARGE:  cpu time    3.0003: real time    3.0034
    MIXING:  cpu time    0.0146: real time    0.0146
    --------------------------------------------
      LOOP:  cpu time   34.7243: real time   35.1488

 eigenvalue-minimisations  :  7494
 total energy-change (2. order) : 0.4076732E-01  (-0.1486625E-03)
 number of electron     282.9999975 magnetization      16.8846176
 augmentation part      100.6409201 magnetization      10.4066176

 eigenvalues of (default mixing * dielectric matrix)
  average eigenvalue GAMMA=   0.5243
  1.1063  1.1063  0.6398  0.6398  1.0163  0.7759  0.7759  0.5140  0.5140  0.6556
  0.3548  0.4213  0.3559  0.3559  0.2026  0.2026  0.3328  0.3328  0.1502  0.0332

  free energy =  -0.260542692292E+03  energy without entropy=  -0.260519680676E+03


--------------------------------------------------------------------------------------------------------




--------------------------------------- Iteration      2(  22)  ---------------------------------------


    POTLOK:  cpu time    0.4650: real time    0.4965
    SETDIJ:  cpu time    0.0412: real time    0.0412
    EDDIAG:  cpu time    7.5271: real time    7.5356
  RMM-DIIS:  cpu time   22.1516: real time   22.1755
    ORTHCH:  cpu time    0.3855: real time    0.3864
       DOS:  cpu time    0.0265: real time    0.0265
    CHARGE:  cpu time    3.0073: real time    3.0101
    MIXING:  cpu time    0.0149: real time    0.0149
    --------------------------------------------
      LOOP:  cpu time   33.6190: real time   33.6866

 eigenvalue-minimisations  :  7440
 total energy-change (2. order) : 0.7136741E-01  (-0.3689549E-03)
 number of electron     282.9999975 magnetization      16.8836553
 augmentation part      100.6008092 magnetization      10.5059526

 eigenvalues of (default mixing * dielectric matrix)
  average eigenvalue GAMMA=   0.5232
  1.1002  1.1002  1.0366  0.6007  0.6007  0.7647  0.7647  0.5330  0.5330  0.4053
  0.4053  0.6575  0.3981  0.3981  0.4210  0.2026  0.2026  0.3401  0.3401  0.1502
  0.0332

  free energy =  -0.260471324883E+03  energy without entropy=  -0.260443741356E+03


--------------------------------------------------------------------------------------------------------




--------------------------------------- Iteration      2(  23)  ---------------------------------------


    POTLOK:  cpu time    0.4649: real time    0.4973
    SETDIJ:  cpu time    0.0411: real time    0.0411
    EDDIAG:  cpu time    7.7602: real time    7.8421
  RMM-DIIS:  cpu time   21.9297: real time   22.2715
    ORTHCH:  cpu time    0.3878: real time    0.3887
       DOS:  cpu time    0.0247: real time    0.0247
    CHARGE:  cpu time    3.0228: real time    3.0259
    MIXING:  cpu time    0.0155: real time    0.0155
    --------------------------------------------
      LOOP:  cpu time   33.6467: real time   34.1069

 eigenvalue-minimisations  :  6890
 total energy-change (2. order) :-0.5629899E-01  (-0.1364528E-03)
 number of electron     282.9999975 magnetization      16.8823999
 augmentation part      100.5989875 magnetization      10.5275620

 eigenvalues of (default mixing * dielectric matrix)
  average eigenvalue GAMMA=   0.5337
  1.1138  1.1138  1.0036  0.6652  0.6652  0.7614  0.7614  0.4484  0.4933  0.4933
  0.5148  0.5148  0.6552  0.4168  0.4168  0.4218  0.2026  0.2026  0.3470  0.3470
  0.1502  0.0332

  free energy =  -0.260527623877E+03  energy without entropy=  -0.260499469412E+03


--------------------------------------------------------------------------------------------------------




--------------------------------------- Iteration      2(  24)  ---------------------------------------


    POTLOK:  cpu time    0.4659: real time    0.4973
    SETDIJ:  cpu time    0.0403: real time    0.0410
    EDDIAG:  cpu time    7.5919: real time    7.6001
  RMM-DIIS:  cpu time   21.2803: real time   21.3139
    ORTHCH:  cpu time    0.3878: real time    0.3879
       DOS:  cpu time    0.0265: real time    0.0265
    CHARGE:  cpu time    3.0627: real time    3.1309
    MIXING:  cpu time    0.0158: real time    0.0158
    --------------------------------------------
      LOOP:  cpu time   32.8712: real time   33.0134

 eigenvalue-minimisations  :  7040
 total energy-change (2. order) :-0.1514516E-01  (-0.8044239E-04)
 number of electron     282.9999975 magnetization      16.8834359
 augmentation part      100.6010329 magnetization      10.5342347

 eigenvalues of (default mixing * dielectric matrix)
  average eigenvalue GAMMA=   0.5628
  0.9460  1.1051  1.1051  1.0681  0.6931  0.6931  0.5462  0.5462  0.7607  0.7607
  0.5600  0.5600  0.6522  0.4520  0.4520  0.4211  0.2026  0.2026  0.3666  0.3666
  0.3010  0.1502  0.0332

  free energy =  -0.260542769036E+03  energy without entropy=  -0.260513242384E+03


--------------------------------------------------------------------------------------------------------




--------------------------------------- Iteration      2(  25)  ---------------------------------------


    POTLOK:  cpu time    0.4657: real time    0.4969
    SETDIJ:  cpu time    0.0410: real time    0.0410
    EDDIAG:  cpu time    7.6771: real time    7.7024
  RMM-DIIS:  cpu time   21.4314: real time   21.8829
    ORTHCH:  cpu time    0.3878: real time    0.3878
       DOS:  cpu time    0.0259: real time    0.0259
    CHARGE:  cpu time    3.0208: real time    3.0246
    MIXING:  cpu time    0.0164: real time    0.0164
    --------------------------------------------
      LOOP:  cpu time   33.0660: real time   33.5777

 eigenvalue-minimisations  :  6843
 total energy-change (2. order) : 0.1615117E-02  (-0.1702526E-03)
 number of electron     282.9999975 magnetization      16.9076525
 augmentation part      100.5970260 magnetization      10.5748812

 eigenvalues of (default mixing * dielectric matrix)
  average eigenvalue GAMMA=   0.6226
  1.3881  0.9504  0.9504  0.5381  0.5381  1.0301  1.0301  1.0693  0.6343  0.6343
  0.8115  0.8115  0.5698  0.5698  0.7011  0.2026  0.2026  0.4403  0.4403  0.4886
  0.4155  0.3421  0.1502  0.0332

  free energy =  -0.260541153919E+03  energy without entropy=  -0.260509654784E+03


--------------------------------------------------------------------------------------------------------




--------------------------------------- Iteration      2(  26)  ---------------------------------------


    POTLOK:  cpu time    0.4672: real time    0.4986
    SETDIJ:  cpu time    0.0413: real time    0.0413
    EDDIAG:  cpu time    7.5949: real time    7.6647
  RMM-DIIS:  cpu time   22.1640: real time   22.2984
    ORTHCH:  cpu time    0.3870: real time    0.3879
       DOS:  cpu time    0.0264: real time    0.0264
    CHARGE:  cpu time    3.0182: real time    3.0213
    MIXING:  cpu time    0.0170: real time    0.0170
    --------------------------------------------
      LOOP:  cpu time   33.7162: real time   33.9557

 eigenvalue-minimisations  :  7340
 total energy-change (2. order) : 0.1289692E+00  (-0.3674319E-02)
 number of electron     282.9999975 magnetization      16.9139840
 augmentation part      100.5322640 magnetization      10.6082281

 eigenvalues of (default mixing * dielectric matrix)
  average eigenvalue GAMMA=   0.6454
  1.5289  1.1010  1.1010  1.1807  1.1807  0.5376  0.5376  0.8647  0.8647  0.6705
  0.6705  0.6761  0.6761  0.6652  0.6652  0.5239  0.5239  0.2026  0.2026  0.4129
  0.4129  0.4195  0.3337  0.1502  0.0332

  free energy =  -0.260412184702E+03  energy without entropy=  -0.260379164104E+03


--------------------------------------------------------------------------------------------------------




--------------------------------------- Iteration      2(  27)  ---------------------------------------


    POTLOK:  cpu time    0.4731: real time    0.5204
    SETDIJ:  cpu time    0.0409: real time    0.0408
    EDDIAG:  cpu time    8.2310: real time    8.5559
  RMM-DIIS:  cpu time   22.9513: real time   22.9852
    ORTHCH:  cpu time    0.3878: real time    0.3878
       DOS:  cpu time    0.0265: real time    0.0266
    CHARGE:  cpu time    3.0258: real time    3.0300
    MIXING:  cpu time    0.0174: real time    0.0174
    --------------------------------------------
      LOOP:  cpu time   35.1537: real time   35.5642

 eigenvalue-minimisations  :  7658
 total energy-change (2. order) :-0.1154318E+00  (-0.1596043E-02)
 number of electron     282.9999975 magnetization      16.9165880
 augmentation part      100.5319038 magnetization      10.6405212

 eigenvalues of (default mixing * dielectric matrix)
  average eigenvalue GAMMA=   0.6421
  1.5882  1.1635  1.1635  1.1846  1.1846  0.5375  0.5375  0.8776  0.8776  0.6938
  0.6938  0.6684  0.6684  0.6722  0.6722  0.4903  0.4903  0.2026  0.2026  0.4002
  0.4002  0.4231  0.3667  0.3533  0.1502  0.0332

  free energy =  -0.260527616547E+03  energy without entropy=  -0.260495249121E+03


--------------------------------------------------------------------------------------------------------




--------------------------------------- Iteration      2(  28)  ---------------------------------------


    POTLOK:  cpu time    0.4657: real time    0.4971
    SETDIJ:  cpu time    0.0413: real time    0.0413
    EDDIAG:  cpu time    7.5923: real time    7.6022
  RMM-DIIS:  cpu time   22.9476: real time   23.4821
    ORTHCH:  cpu time    0.3883: real time    0.3883
       DOS:  cpu time    0.0261: real time    0.0261
    CHARGE:  cpu time    3.0466: real time    3.0506
    MIXING:  cpu time    0.0180: real time    0.0180
    --------------------------------------------
      LOOP:  cpu time   34.5258: real time   35.1057

 eigenvalue-minimisations  :  7505
 total energy-change (2. order) :-0.1523424E+00  (-0.1022396E-02)
 number of electron     282.9999974 magnetization      16.9941005
 augmentation part      100.5936333 magnetization      10.6906430

 eigenvalues of (default mixing * dielectric matrix)
  average eigenvalue GAMMA=   0.7048
  1.8909  1.4308  1.4308  1.2159  1.2159  0.5373  0.5373  0.8693  0.8693  0.6507
  0.6507  0.8285  0.8285  0.5866  0.5866  0.7155  0.7155  0.6371  0.6371  0.2026
  0.2026  0.4252  0.4252  0.4187  0.3368  0.1502  0.0332

  free energy =  -0.260679958984E+03  energy without entropy=  -0.260651093559E+03


--------------------------------------------------------------------------------------------------------




--------------------------------------- Iteration      2(  29)  ---------------------------------------


    POTLOK:  cpu time    0.4645: real time    0.4959
    SETDIJ:  cpu time    0.0411: real time    0.0411
    EDDIAG:  cpu time    7.6185: real time    7.6275
  RMM-DIIS:  cpu time   22.3004: real time   22.3309
    ORTHCH:  cpu time    0.3875: real time    0.3885
       DOS:  cpu time    0.0262: real time    0.0262
    CHARGE:  cpu time    3.0282: real time    3.0311
    MIXING:  cpu time    0.0188: real time    0.0188
    --------------------------------------------
      LOOP:  cpu time   33.8850: real time   33.9600

 eigenvalue-minimisations  :  7452
 total energy-change (2. order) : 0.4070717E+00  (-0.1457749E-01)
 number of electron     282.9999974 magnetization      17.0689292
 augmentation part      100.5023604 magnetization      10.7174963

 eigenvalues of (default mixing * dielectric matrix)
  average eigenvalue GAMMA=   0.7138
  1.9994  1.5827  1.5827  1.2606  1.2606  0.9865  0.9865  0.5372  0.5372  0.6544
  0.6544  0.7938  0.7938  0.7480  0.7480  0.5913  0.5913  0.5976  0.5976  0.2026
  0.2026  0.4234  0.4234  0.4188  0.3362  0.1502  0.2912  0.0332

  free energy =  -0.260272887327E+03  energy without entropy=  -0.260256117169E+03


--------------------------------------------------------------------------------------------------------




--------------------------------------- Iteration      2(  30)  ---------------------------------------


    POTLOK:  cpu time    0.4633: real time    0.4956
    SETDIJ:  cpu time    0.0410: real time    0.0410
    EDDIAG:  cpu time    7.6300: real time    7.7104
  RMM-DIIS:  cpu time   22.3921: real time   22.8884
    ORTHCH:  cpu time    0.3862: real time    0.3863
       DOS:  cpu time    0.0255: real time    0.0256
    CHARGE:  cpu time    3.0078: real time    3.0109
    MIXING:  cpu time    0.0195: real time    0.0195
    --------------------------------------------
      LOOP:  cpu time   33.9657: real time   34.5776

 eigenvalue-minimisations  :  7233
 total energy-change (2. order) : 0.9968324E-01  (-0.1061197E-01)
 number of electron     282.9999974 magnetization      17.1593553
 augmentation part      100.4654105 magnetization      10.7578373

 eigenvalues of (default mixing * dielectric matrix)
  average eigenvalue GAMMA=   0.7302
  2.1342  1.6125  1.6125  1.0738  1.0738  1.1527  1.1527  0.5372  0.5372  1.0646
  0.6558  0.6558  0.8450  0.8450  0.5757  0.5757  0.6715  0.6715  0.6123  0.4611
  0.4611  0.2026  0.2026  0.4254  0.4254  0.4185  0.3370  0.1502  0.0332

  free energy =  -0.260173204086E+03  energy without entropy=  -0.260172253039E+03


--------------------------------------------------------------------------------------------------------




--------------------------------------- Iteration      2(  31)  ---------------------------------------


    POTLOK:  cpu time    0.4639: real time    0.4960
    SETDIJ:  cpu time    0.0408: real time    0.0408
    EDDIAG:  cpu time    7.6208: real time    7.6287
  RMM-DIIS:  cpu time   22.7362: real time   22.8090
    ORTHCH:  cpu time    0.3873: real time    0.3873
       DOS:  cpu time    0.0261: real time    0.0261
    CHARGE:  cpu time    3.0084: real time    3.0239
    MIXING:  cpu time    0.0205: real time    0.0205
    --------------------------------------------
      LOOP:  cpu time   34.3039: real time   34.4324

 eigenvalue-minimisations  :  7585
 total energy-change (2. order) : 0.2068233E+00  (-0.2255473E-01)
 number of electron     282.9999974 magnetization      17.1497536
 augmentation part      100.3875381 magnetization      10.8563530

 eigenvalues of (default mixing * dielectric matrix)
  average eigenvalue GAMMA=   0.7034
  2.1353  1.5533  1.5533  1.2237  1.2237  1.0203  1.0203  0.5372  0.5372  0.9861
  0.8366  0.8366  0.6543  0.6543  0.5748  0.5748  0.6573  0.6573  0.6196  0.4106
  0.4106  0.4253  0.4253  0.4184  0.2026  0.2026  0.3370  0.1502  0.0332  0.2307

  free energy =  -0.259966380738E+03  energy without entropy=  -0.259946936102E+03


--------------------------------------------------------------------------------------------------------




--------------------------------------- Iteration      2(  32)  ---------------------------------------


    POTLOK:  cpu time    0.4666: real time    0.4983
    SETDIJ:  cpu time    0.0412: real time    0.0412
    EDDIAG:  cpu time    7.6031: real time    7.6375
  RMM-DIIS:  cpu time   24.4243: real time   24.7302
    ORTHCH:  cpu time    0.3852: real time    0.3852
       DOS:  cpu time    0.0248: real time    0.0248
    CHARGE:  cpu time    3.0131: real time    3.0171
    MIXING:  cpu time    0.0212: real time    0.0212
    --------------------------------------------
      LOOP:  cpu time   35.9795: real time   36.3554

 eigenvalue-minimisations  :  8013
 total energy-change (2. order) :-0.1070956E+00  (-0.2656364E-02)
 number of electron     282.9999974 magnetization      17.1114893
 augmentation part      100.3273297 magnetization      10.8357760

 eigenvalues of (default mixing * dielectric matrix)
  average eigenvalue GAMMA=   0.6931
  2.0366  1.3803  1.3803  1.4211  1.4211  0.9823  0.9823  0.5372  0.5372  0.5209
  0.5209  0.6586  0.6586  0.7712  0.7712  0.7003  0.7003  0.5883  0.5883  0.5874
  0.5874  0.2026  0.2026  0.4797  0.4797  0.4261  0.4261  0.4185  0.3371  0.1502
  0.0332

  free energy =  -0.260073476305E+03  energy without entropy=  -0.260068992718E+03


--------------------------------------------------------------------------------------------------------




--------------------------------------- Iteration      2(  33)  ---------------------------------------


    POTLOK:  cpu time    0.4636: real time    0.4958
    SETDIJ:  cpu time    0.0411: real time    0.0411
    EDDIAG:  cpu time    7.6156: real time    7.6247
  RMM-DIIS:  cpu time   22.2198: real time   22.3427
    ORTHCH:  cpu time    0.3998: real time    0.4026
       DOS:  cpu time    0.0255: real time    0.0255
    CHARGE:  cpu time    3.6978: real time    4.0603
    MIXING:  cpu time    0.0220: real time    0.0220
    --------------------------------------------
      LOOP:  cpu time   34.4851: real time   35.0146

 eigenvalue-minimisations  :  7383
 total energy-change (2. order) :-0.8762484E-01  (-0.5670129E-02)
 number of electron     282.9999974 magnetization      17.0967096
 augmentation part      100.3517274 magnetization      10.7977656

 eigenvalues of (default mixing * dielectric matrix)
  average eigenvalue GAMMA=   0.6946
  1.8470  1.2108  1.3194  1.3194  1.4374  1.4374  1.0093  1.0093  0.5372  0.5372
  0.6594  0.6594  0.8082  0.8082  0.4139  0.6999  0.6999  0.5711  0.5711  0.6002
  0.6002  0.4990  0.4990  0.2026  0.2026  0.4253  0.4253  0.4185  0.3370  0.1502
  0.2801  0.0332

  free energy =  -0.260161101141E+03  energy without entropy=  -0.260149579161E+03


--------------------------------------------------------------------------------------------------------




--------------------------------------- Iteration      2(  34)  ---------------------------------------


    POTLOK:  cpu time    0.4649: real time    0.4999
    SETDIJ:  cpu time    0.0415: real time    0.0415
    EDDIAG:  cpu time    7.5900: real time    7.5989
  RMM-DIIS:  cpu time   22.0271: real time   22.0566
    ORTHCH:  cpu time    0.3882: real time    0.3882
       DOS:  cpu time    0.0262: real time    0.0262
    CHARGE:  cpu time    3.0450: real time    3.0489
    MIXING:  cpu time    0.0223: real time    0.0223
    --------------------------------------------
      LOOP:  cpu time   33.6052: real time   33.6825

 eigenvalue-minimisations  :  7364
 total energy-change (2. order) :-0.8821060E-01  (-0.5402987E-02)
 number of electron     282.9999974 magnetization      17.1173667
 augmentation part      100.3916066 magnetization      10.8064305

 eigenvalues of (default mixing * dielectric matrix)
  average eigenvalue GAMMA=   0.7173
  1.7927  1.7927  1.3311  1.3311  1.4842  1.4842  1.0556  1.0556  0.5372  0.5372
  0.6595  0.6595  0.8311  0.8311  0.5214  0.5214  0.5822  0.5822  0.6674  0.6674
  0.5556  0.5556  0.5341  0.5341  0.2026  0.2026  0.4241  0.4241  0.4185  0.3371
  0.3762  0.1502  0.0332

  free energy =  -0.260249311737E+03  energy without entropy=  -0.260234135976E+03


--------------------------------------------------------------------------------------------------------




--------------------------------------- Iteration      2(  35)  ---------------------------------------


    POTLOK:  cpu time    0.4637: real time    0.4954
    SETDIJ:  cpu time    0.0411: real time    0.0411
    EDDIAG:  cpu time    7.6594: real time    7.6775
  RMM-DIIS:  cpu time   22.5399: real time   22.9458
    ORTHCH:  cpu time    0.3893: real time    0.3904
       DOS:  cpu time    0.0258: real time    0.0258
    CHARGE:  cpu time    3.0094: real time    3.0123
    MIXING:  cpu time    0.0231: real time    0.0231
    --------------------------------------------
      LOOP:  cpu time   34.1518: real time   34.6115

 eigenvalue-minimisations  :  7260
 total energy-change (2. order) :-0.2447718E-01  (-0.3394058E-02)
 number of electron     282.9999974 magnetization      17.1578021
 augmentation part      100.3895541 magnetization      10.8547292

 eigenvalues of (default mixing * dielectric matrix)
  average eigenvalue GAMMA=   0.7139
  1.8363  1.8363  1.3432  1.3432  1.4512  1.4512  1.0843  1.0843  0.5372  0.5372
  0.8285  0.8285  0.6597  0.6597  0.3744  0.5705  0.5705  0.6881  0.6881  0.5883
  0.5883  0.5930  0.5930  0.5111  0.5111  0.2026  0.2026  0.4250  0.4250  0.4183
  0.3370  0.1502  0.3225  0.0332

  free energy =  -0.260273788921E+03  energy without entropy=  -0.260257571909E+03


--------------------------------------------------------------------------------------------------------




--------------------------------------- Iteration      2(  36)  ---------------------------------------


    POTLOK:  cpu time    0.4950: real time    0.4966
    SETDIJ:  cpu time    0.0409: real time    0.0409
    EDDIAG:  cpu time    7.5939: real time    7.6020
  RMM-DIIS:  cpu time   21.7929: real time   21.8291
    ORTHCH:  cpu time    0.3881: real time    0.3891
       DOS:  cpu time    0.0259: real time    0.0259
    CHARGE:  cpu time    3.0487: real time    3.0579
    MIXING:  cpu time    0.0239: real time    0.0239
    --------------------------------------------
      LOOP:  cpu time   33.4093: real time   33.4654

 eigenvalue-minimisations  :  7172
 total energy-change (2. order) : 0.2495016E-01  (-0.1275294E-02)
 number of electron     282.9999974 magnetization      17.1902482
 augmentation part      100.3967931 magnetization      10.8976073

 eigenvalues of (default mixing * dielectric matrix)
  average eigenvalue GAMMA=   0.7344
  2.0501  2.0501  1.3080  1.3080  1.4420  1.4420  1.1812  1.1812  0.5372  0.5372
  0.6739  0.6739  0.6768  0.6768  0.8154  0.8154  0.5984  0.5984  0.6500  0.6500
  0.6002  0.6002  0.5295  0.5295  0.2026  0.2026  0.5452  0.4242  0.4242  0.4681
  0.4187  0.3371  0.3723  0.1502  0.0332

  free energy =  -0.260248838764E+03  energy without entropy=  -0.260234803326E+03


--------------------------------------------------------------------------------------------------------




--------------------------------------- Iteration      2(  37)  ---------------------------------------


    POTLOK:  cpu time    0.4645: real time    0.4967
    SETDIJ:  cpu time    0.0410: real time    0.0410
    EDDIAG:  cpu time    7.6881: real time    7.7522
  RMM-DIIS:  cpu time   21.8151: real time   22.2155
    ORTHCH:  cpu time    0.3909: real time    0.3908
       DOS:  cpu time    0.0252: real time    0.0260
    CHARGE:  cpu time    3.0109: real time    3.0138
    MIXING:  cpu time    0.0250: real time    0.0250
    --------------------------------------------
      LOOP:  cpu time   33.4606: real time   33.9610

 eigenvalue-minimisations  :  7144
 total energy-change (2. order) :-0.2168761E-01  (-0.7789496E-02)
 number of electron     282.9999974 magnetization      17.3463474
 augmentation part      100.3703507 magnetization      11.1016254

 eigenvalues of (default mixing * dielectric matrix)
  average eigenvalue GAMMA=   0.7781
  2.1605  2.1605  1.8219  1.8219  1.2416  1.2416  1.3879  1.3879  0.5372  0.5372
  0.9277  0.9277  0.6614  0.6614  0.3727  0.7541  0.7541  0.6001  0.6001  0.5867
  0.5867  0.6281  0.6281  0.6199  0.6199  0.5743  0.5743  0.2026  0.2026  0.4243
  0.4243  0.4431  0.4192  0.3371  0.1502  0.0332

  free energy =  -0.260270526370E+03  energy without entropy=  -0.260255522530E+03


--------------------------------------------------------------------------------------------------------




--------------------------------------- Iteration      2(  38)  ---------------------------------------


    POTLOK:  cpu time    0.4648: real time    0.4963
    SETDIJ:  cpu time    0.0412: real time    0.0411
    EDDIAG:  cpu time    7.5921: real time    7.6010
  RMM-DIIS:  cpu time   21.7576: real time   21.8654
    ORTHCH:  cpu time    0.3877: real time    0.3891
       DOS:  cpu time    0.0258: real time    0.0258
    CHARGE:  cpu time    3.0501: real time    3.0532
    MIXING:  cpu time    0.0256: real time    0.0256
    --------------------------------------------
      LOOP:  cpu time   33.3450: real time   33.4976

 eigenvalue-minimisations  :  7227
 total energy-change (2. order) : 0.1139519E+00  (-0.1423614E-01)
 number of electron     282.9999974 magnetization      17.4579331
 augmentation part      100.3346066 magnetization      11.2021454

 eigenvalues of (default mixing * dielectric matrix)
  average eigenvalue GAMMA=   0.7822
  2.1581  2.1581  2.0116  2.0116  1.2457  1.2457  1.3617  1.3617  0.5372  0.5372
  0.9393  0.9393  0.6615  0.6615  0.3727  0.6563  0.6563  0.7315  0.7315  0.7334
  0.6215  0.6215  0.5851  0.5851  0.5959  0.5959  0.5037  0.5037  0.2026  0.2026
  0.4244  0.4244  0.4216  0.4216  0.3371  0.1502  0.0332

  free energy =  -0.260156574433E+03  energy without entropy=  -0.260143553281E+03


--------------------------------------------------------------------------------------------------------




--------------------------------------- Iteration      2(  39)  ---------------------------------------


    POTLOK:  cpu time    0.4647: real time    0.4967
    SETDIJ:  cpu time    0.0410: real time    0.0410
    EDDIAG:  cpu time    7.8574: real time    7.9026
  RMM-DIIS:  cpu time   23.2643: real time   23.8212
    ORTHCH:  cpu time    0.3885: real time    0.3885
       DOS:  cpu time    0.0255: real time    0.0256
    CHARGE:  cpu time    3.0240: real time    3.0343
    MIXING:  cpu time    0.0263: real time    0.0263
    --------------------------------------------
      LOOP:  cpu time   35.0917: real time   35.7363

 eigenvalue-minimisations  :  7601
 total energy-change (2. order) :-0.1559367E-01  (-0.2676952E-02)
 number of electron     282.9999974 magnetization      17.5123797
 augmentation part      100.3024395 magnetization      11.2381419

 eigenvalues of (default mixing * dielectric matrix)
  average eigenvalue GAMMA=   0.7838
  2.1244  2.1244  1.9189  1.9189  1.2439  1.2439  1.4576  1.4576  0.5372  0.5372
  0.8640  0.8640  0.8312  0.8312  0.6613  0.6613  0.3728  0.8216  0.6850  0.6850
  0.5871  0.5871  0.5818  0.5818  0.6187  0.6187  0.5754  0.5754  0.5787  0.2026
  0.2026  0.4242  0.4242  0.4472  0.4191  0.3371  0.1502  0.0332

  free energy =  -0.260172168101E+03  energy without entropy=  -0.260174340392E+03


--------------------------------------------------------------------------------------------------------




--------------------------------------- Iteration      2(  40)  ---------------------------------------


    POTLOK:  cpu time    0.4955: real time    0.4962
    SETDIJ:  cpu time    0.0412: real time    0.0412
    EDDIAG:  cpu time    7.5888: real time    7.5976
  RMM-DIIS:  cpu time   22.2237: real time   22.3034
    ORTHCH:  cpu time    0.3862: real time    0.3907
       DOS:  cpu time    0.0255: real time    0.0255
    CHARGE:  cpu time    3.2763: real time    3.6081
    MIXING:  cpu time    0.0279: real time    0.0279
    --------------------------------------------
      LOOP:  cpu time   34.0651: real time   34.4907

 eigenvalue-minimisations  :  7414
 total energy-change (2. order) :-0.1734785E-01  (-0.1944816E-02)
 number of electron     282.9999974 magnetization      17.5621235
 augmentation part      100.2774579 magnetization      11.2665566

 eigenvalues of (default mixing * dielectric matrix)
  average eigenvalue GAMMA=   0.7925
  2.1072  2.1072  1.8486  1.8486  1.4798  1.4798  1.2392  1.2392  0.5372  0.5372
  0.9459  0.9459  0.9898  0.9898  0.6612  0.6612  0.8925  0.3728  0.6940  0.6940
  0.6127  0.6127  0.6971  0.6971  0.5849  0.5849  0.5785  0.5785  0.5317  0.5317
  0.2026  0.2026  0.4243  0.4243  0.4196  0.4322  0.3371  0.1502  0.0332

  free energy =  -0.260189515954E+03  energy without entropy=  -0.260200303740E+03


--------------------------------------------------------------------------------------------------------




--------------------------------------- Iteration      2(  41)  ---------------------------------------


    POTLOK:  cpu time    0.4987: real time    0.5133
    SETDIJ:  cpu time    0.0426: real time    0.0426
    EDDIAG:  cpu time    7.6244: real time    7.6363
  RMM-DIIS:  cpu time   22.6277: real time   22.6733
    ORTHCH:  cpu time    0.3875: real time    0.3875
       DOS:  cpu time    0.0246: real time    0.0247
    CHARGE:  cpu time    3.0214: real time    3.0253
    MIXING:  cpu time    0.0283: real time    0.0283
    --------------------------------------------
      LOOP:  cpu time   34.2552: real time   34.3312

 eigenvalue-minimisations  :  7577
 total energy-change (2. order) :-0.1572045E-01  (-0.1719464E-02)
 number of electron     282.9999974 magnetization      17.5737930
 augmentation part      100.2648654 magnetization      11.2586889

 eigenvalues of (default mixing * dielectric matrix)
  average eigenvalue GAMMA=   0.8052
  2.0821  2.0821  1.8702  1.8702  1.6157  1.6157  1.2094  1.2094  1.0470  1.0470
  1.1507  1.1507  0.5372  0.5372  0.6613  0.6613  0.3728  0.8303  0.6698  0.6698
  0.6579  0.6579  0.7022  0.7022  0.5824  0.5824  0.5544  0.5544  0.5823  0.5530
  0.5530  0.2026  0.2026  0.4242  0.4242  0.4434  0.4192  0.3371  0.1502  0.0332

  free energy =  -0.260205236407E+03  energy without entropy=  -0.260220042691E+03


--------------------------------------------------------------------------------------------------------




--------------------------------------- Iteration      2(  42)  ---------------------------------------


    POTLOK:  cpu time    0.4955: real time    0.4963
    SETDIJ:  cpu time    0.0414: real time    0.0414
    EDDIAG:  cpu time    7.6124: real time    7.6256
  RMM-DIIS:  cpu time   23.8552: real time   24.2267
    ORTHCH:  cpu time    0.3863: real time    0.3864
       DOS:  cpu time    0.0247: real time    0.0247
    CHARGE:  cpu time    3.0203: real time    3.0239
    MIXING:  cpu time    0.0288: real time    0.0288
    --------------------------------------------
      LOOP:  cpu time   35.4646: real time   35.8538

 eigenvalue-minimisations  :  7725
 total energy-change (2. order) :-0.2407501E-02  (-0.4301508E-03)
 number of electron     282.9999974 magnetization      17.5582795
 augmentation part      100.2585583 magnetization      11.2331978

 eigenvalues of (default mixing * dielectric matrix)
  average eigenvalue GAMMA=   0.8041
  2.0967  2.0967  1.7576  1.7576  1.8522  1.8522  1.2238  1.2238  0.9825  0.9825
  1.0598  1.0598  0.6695  0.5372  0.5372  0.6613  0.6613  0.3728  0.8077  0.6391
  0.6391  0.6808  0.6808  0.7228  0.7228  0.5844  0.5844  0.6089  0.6089  0.5812
  0.5444  0.5444  0.2026  0.2026  0.4243  0.4243  0.4193  0.4391  0.3371  0.1502
  0.0332

  free energy =  -0.260207643908E+03  energy without entropy=  -0.260224027418E+03


--------------------------------------------------------------------------------------------------------




--------------------------------------- Iteration      2(  43)  ---------------------------------------


    POTLOK:  cpu time    0.4965: real time    0.4980
    SETDIJ:  cpu time    0.0406: real time    0.0407
    EDDIAG:  cpu time    7.6231: real time    7.6319
  RMM-DIIS:  cpu time   21.8966: real time   21.9273
    ORTHCH:  cpu time    0.3904: real time    0.3907
       DOS:  cpu time    0.0248: real time    0.0248
    CHARGE:  cpu time    3.0772: real time    3.0960
    MIXING:  cpu time    0.0298: real time    0.0298
    --------------------------------------------
      LOOP:  cpu time   33.5790: real time   33.6391

 eigenvalue-minimisations  :  7251
 total energy-change (2. order) : 0.2464159E-01  (-0.1068078E-02)
 number of electron     282.9999974 magnetization      17.5246546
 augmentation part      100.2568318 magnetization      11.2050712

 eigenvalues of (default mixing * dielectric matrix)
  average eigenvalue GAMMA=   0.7854
  2.0970  2.0970  1.7588  1.7588  1.8528  1.8528  1.2238  1.2238  0.9824  0.9824
  1.0599  1.0599  0.6804  0.5372  0.5372  0.6613  0.6613  0.3728  0.8073  0.6392
  0.6392  0.6810  0.6810  0.7229  0.7229  0.5844  0.5844  0.6089  0.6089  0.5811
  0.5445  0.5445  0.2026  0.2026  0.4243  0.4243  0.4392  0.4193  0.3371  0.1502
  0.0332  0.0060

  free energy =  -0.260183002321E+03  energy without entropy=  -0.260201029413E+03


--------------------------------------------------------------------------------------------------------




--------------------------------------- Iteration      2(  44)  ---------------------------------------


    POTLOK:  cpu time    0.4650: real time    0.4965
    SETDIJ:  cpu time    0.0413: real time    0.0413
    EDDIAG:  cpu time    7.6615: real time    7.7018
  RMM-DIIS:  cpu time   22.8489: real time   23.2026
    ORTHCH:  cpu time    0.3883: real time    0.3884
       DOS:  cpu time    0.0243: real time    0.0243
    CHARGE:  cpu time    3.0550: real time    3.0582
    MIXING:  cpu time    0.0308: real time    0.0308
    --------------------------------------------
      LOOP:  cpu time   34.5152: real time   34.9438

 eigenvalue-minimisations  :  7439
 total energy-change (2. order) :-0.1565772E-01  (-0.1869450E-02)
 number of electron     282.9999974 magnetization      17.5468678
 augmentation part      100.2544284 magnetization      11.2273443

 eigenvalues of (default mixing * dielectric matrix)
  average eigenvalue GAMMA=   0.8283
  2.0570  2.0570  1.5629  1.5629  1.6399  1.6399  1.8559  1.8559  1.2426  1.2426
  0.5372  0.5372  0.9450  0.9450  0.9889  0.9889  0.6613  0.6613  0.3728  0.8438
  0.7748  0.7748  0.6314  0.6314  0.6969  0.6969  0.5849  0.5849  0.2026  0.2026
  0.6332  0.6332  0.5681  0.5681  0.5523  0.4243  0.4243  0.3371  0.4647  0.4196
  0.4290  0.1502  0.0332

  free energy =  -0.260198660044E+03  energy without entropy=  -0.260217549608E+03


--------------------------------------------------------------------------------------------------------




--------------------------------------- Iteration      2(  45)  ---------------------------------------


    POTLOK:  cpu time    0.4954: real time    0.4970
    SETDIJ:  cpu time    0.0409: real time    0.0409
    EDDIAG:  cpu time    7.6287: real time    7.6427
  RMM-DIIS:  cpu time   23.1186: real time   23.1761
    ORTHCH:  cpu time    0.3856: real time    0.3865
       DOS:  cpu time    0.0252: real time    0.0252
    CHARGE:  cpu time    3.0155: real time    3.0249
    MIXING:  cpu time    0.0316: real time    0.0317
    --------------------------------------------
      LOOP:  cpu time   34.7414: real time   34.8250

 eigenvalue-minimisations  :  7694
 total energy-change (2. order) : 0.5654877E-01  (-0.5351727E-03)
 number of electron     282.9999974 magnetization      17.5767282
 augmentation part      100.2608479 magnetization      11.2585848

 eigenvalues of (default mixing * dielectric matrix)
  average eigenvalue GAMMA=   0.8543
  2.0452  2.0452  2.2815  2.2815  2.3807  1.5194  1.5194  1.6606  1.2291  1.2291
  0.5372  0.5372  0.9390  0.9390  0.9682  0.9682  0.6613  0.6613  0.3728  0.8046
  0.8046  0.7092  0.7092  0.6311  0.6311  0.5853  0.5853  0.7153  0.6167  0.6167
  0.6353  0.6353  0.2026  0.2026  0.5117  0.5117  0.4243  0.4243  0.3371  0.4795
  0.4384  0.4194  0.1502  0.0332

  free energy =  -0.260142111278E+03  energy without entropy=  -0.260160194655E+03


--------------------------------------------------------------------------------------------------------




--------------------------------------- Iteration      2(  46)  ---------------------------------------


    POTLOK:  cpu time    0.4941: real time    0.4957
    SETDIJ:  cpu time    0.0413: real time    0.0413
    EDDIAG:  cpu time    8.3808: real time    8.6532
  RMM-DIIS:  cpu time   21.9506: real time   21.9737
    ORTHCH:  cpu time    0.3853: real time    0.3862
       DOS:  cpu time    0.0250: real time    0.0250
    CHARGE:  cpu time    3.0077: real time    3.0169
    MIXING:  cpu time    0.0305: real time    0.0305
    --------------------------------------------
      LOOP:  cpu time   34.3154: real time   34.6226

 eigenvalue-minimisations  :  7352
 total energy-change (2. order) : 0.5934585E-01  (-0.5494306E-03)
 number of electron     282.9999974 magnetization      17.6211242
 augmentation part      100.2668432 magnetization      11.2923883

 eigenvalues of (default mixing * dielectric matrix)
  average eigenvalue GAMMA=   0.8306
  2.8976  2.2663  2.2663  1.7117  1.7117  1.7996  1.3144  0.4641  0.4641  1.0063
  1.0063  0.9514  0.9514  0.7927  0.7927  0.6586  0.6586  0.0433  0.6530  0.6530
  0.8456  0.8456  0.3066  0.3066  0.5788  0.5788  0.1440  0.2513  0.2513  0.6842
  0.6842  0.6202  0.6202  0.5957  0.5298  0.5298  0.5324  0.3558  0.4496  0.4496

  free energy =  -0.260082765424E+03  energy without entropy=  -0.260099409673E+03


--------------------------------------------------------------------------------------------------------




--------------------------------------- Iteration      2(  47)  ---------------------------------------


    POTLOK:  cpu time    0.4639: real time    0.4969
    SETDIJ:  cpu time    0.0412: real time    0.0412
    EDDIAG:  cpu time    7.6654: real time    7.6795
  RMM-DIIS:  cpu time   22.4239: real time   22.5522
    ORTHCH:  cpu time    0.3910: real time    0.3942
       DOS:  cpu time    0.0250: real time    0.0258
    CHARGE:  cpu time    3.3997: real time    3.7561
    MIXING:  cpu time    0.0290: real time    0.0290
    --------------------------------------------
      LOOP:  cpu time   34.4391: real time   34.9749

 eigenvalue-minimisations  :  7414
 total energy-change (2. order) : 0.1669649E+00  (-0.7773899E-02)
 number of electron     282.9999974 magnetization      17.6456425
 augmentation part      100.3686233 magnetization      10.9497008

 eigenvalues of (default mixing * dielectric matrix)
  average eigenvalue GAMMA=   0.8119
  2.9084  2.2554  2.2554  1.7116  1.7116  1.7961  1.3190  0.4601  0.4601  1.0010
  1.0010  0.9427  0.9427  0.6437  0.6437  0.8055  0.8055  0.6681  0.6681  0.8454
  0.8454  0.3460  0.3460  0.0331  0.0202  0.5291  0.5291  0.1360  0.6665  0.6665
  0.2562  0.2562  0.6581  0.6581  0.5938  0.5472  0.5472  0.5386  0.3699  0.4493
  0.4493

  free energy =  -0.259915800478E+03  energy without entropy=  -0.259913274756E+03


--------------------------------------------------------------------------------------------------------




--------------------------------------- Iteration      2(  48)  ---------------------------------------


    POTLOK:  cpu time    0.4659: real time    0.4983
    SETDIJ:  cpu time    0.0413: real time    0.0413
    EDDIAG:  cpu time    7.5920: real time    7.5997
  RMM-DIIS:  cpu time   22.6881: real time   22.7188
    ORTHCH:  cpu time    0.3883: real time    0.3891
       DOS:  cpu time    0.0257: real time    0.0257
    CHARGE:  cpu time    3.0529: real time    3.0560
    MIXING:  cpu time    0.0299: real time    0.0299
    --------------------------------------------
      LOOP:  cpu time   34.2840: real time   34.3587

 eigenvalue-minimisations  :  7605
 total energy-change (2. order) :-0.6460452E-01  (-0.1075871E-02)
 number of electron     282.9999974 magnetization      17.7251279
 augmentation part      100.3920903 magnetization      11.0392760

 eigenvalues of (default mixing * dielectric matrix)
  average eigenvalue GAMMA=   0.8207
  2.8140  2.2467  2.2467  1.7463  1.7463  1.7501  1.2933  1.0760  1.0760  0.4980
  0.4424  0.8065  0.8065  0.9416  0.9416  0.7999  0.7999  0.6454  0.6454  0.0403
  0.2161  0.2161  0.4769  0.4769  0.8415  0.8415  0.7320  0.7320  0.1457  0.2632
  0.2632  0.6626  0.6626  0.5339  0.5339  0.6055  0.5438  0.5438  0.5449  0.3813
  0.4444  0.4444

  free energy =  -0.259980405001E+03  energy without entropy=  -0.259969269499E+03


--------------------------------------------------------------------------------------------------------




--------------------------------------- Iteration      2(  49)  ---------------------------------------


    POTLOK:  cpu time    0.4945: real time    0.4960
    SETDIJ:  cpu time    0.0410: real time    0.0410
    EDDIAG:  cpu time    7.7035: real time    7.7483
  RMM-DIIS:  cpu time   22.4116: real time   22.7053
    ORTHCH:  cpu time    0.3890: real time    0.3898
       DOS:  cpu time    0.0254: real time    0.0254
    CHARGE:  cpu time    3.0182: real time    3.0211
    MIXING:  cpu time    0.0305: real time    0.0305
    --------------------------------------------
      LOOP:  cpu time   34.1137: real time   34.4574

 eigenvalue-minimisations  :  7271
 total energy-change (2. order) :-0.1790685E+00  (-0.9185143E-02)
 number of electron     282.9999974 magnetization      17.9308718
 augmentation part      100.2871908 magnetization      11.6275690

 eigenvalues of (default mixing * dielectric matrix)
  average eigenvalue GAMMA=   0.8506
  2.8031  2.3394  2.3394  2.0234  2.0234  1.6046  1.6046  1.2311  1.2311  0.9909
  0.9909  0.5040  0.4424  0.9386  0.9386  0.7924  0.7924  0.8573  0.8573  0.0451
  0.6307  0.6307  0.5150  0.5150  0.2560  0.2560  0.7385  0.7385  0.1377  0.2578
  0.2578  0.5188  0.5188  0.5970  0.6006  0.6006  0.5721  0.5721  0.5077  0.5077
  0.3951  0.4515  0.4515

  free energy =  -0.260159473480E+03  energy without entropy=  -0.260167561251E+03


--------------------------------------------------------------------------------------------------------




--------------------------------------- Iteration      2(  50)  ---------------------------------------


    POTLOK:  cpu time    0.4945: real time    0.4959
    SETDIJ:  cpu time    0.0412: real time    0.0412
    EDDIAG:  cpu time    7.5890: real time    7.5971
  RMM-DIIS:  cpu time   21.9411: real time   21.9794
    ORTHCH:  cpu time    0.4099: real time    0.4207
       DOS:  cpu time    0.0227: real time    0.0227
    CHARGE:  cpu time    3.1301: real time    3.1915
    MIXING:  cpu time    0.0404: real time    0.0434
    --------------------------------------------
      LOOP:  cpu time   33.6688: real time   33.7919

 eigenvalue-minimisations  :  7334
 total energy-change (2. order) :-0.3792713E+00  (-0.2043738E-01)
 number of electron     282.9999974 magnetization      18.1331502
 augmentation part      100.2452514 magnetization      11.8118179

 eigenvalues of (default mixing * dielectric matrix)
  average eigenvalue GAMMA=   0.8763
  2.8007  2.3949  2.3949  2.6556  2.6556  1.5673  1.5673  1.2389  1.2389  0.5411
  0.9540  0.9540  0.4256  0.9324  0.9324  0.8217  0.8217  0.8509  0.8509  0.0461
  0.5087  0.5087  0.2537  0.2537  0.6955  0.6955  0.6129  0.6129  0.1371  0.6404
  0.6404  0.2658  0.2658  0.5240  0.5240  0.6639  0.5909  0.5909  0.5389  0.5389
  0.5669  0.3954  0.4444  0.4444

  free energy =  -0.260538744823E+03  energy without entropy=  -0.260557981057E+03


--------------------------------------------------------------------------------------------------------




--------------------------------------- Iteration      2(  51)  ---------------------------------------


    POTLOK:  cpu time    0.4653: real time    0.4723
    SETDIJ:  cpu time    0.0427: real time    0.0427
    EDDIAG:  cpu time    7.4346: real time    7.4577
  RMM-DIIS:  cpu time   24.6315: real time   24.9762
    ORTHCH:  cpu time    0.3890: real time    0.3908
       DOS:  cpu time    0.0247: real time    0.0247
    CHARGE:  cpu time    3.0122: real time    3.0154
    MIXING:  cpu time    0.0323: real time    0.0323
    --------------------------------------------
      LOOP:  cpu time   36.0322: real time   36.4121

 eigenvalue-minimisations  :  8007
 total energy-change (2. order) :-0.1930450E+00  (-0.1253965E-01)
 number of electron     282.9999974 magnetization      18.2623541
 augmentation part      100.2499637 magnetization      11.9412232

 eigenvalues of (default mixing * dielectric matrix)
  average eigenvalue GAMMA=   0.8697
  3.0010  3.6660  2.2059  2.2059  1.8091  1.8091  1.0879  1.0879  1.1950  0.8791
  0.8791  1.0176  1.0176  0.2801  0.2801  0.8229  0.8229  0.4243  0.4243  0.7673
  0.7673  0.0414  0.6345  0.6345  0.1394  0.4167  0.4167  0.2224  0.2224  0.6520
  0.4283  0.4283  0.6057  0.6057  0.5446  0.5446  0.4300  0.4300  0.4696  0.4696

  free energy =  -0.260731789851E+03  energy without entropy=  -0.260756119211E+03


--------------------------------------------------------------------------------------------------------




--------------------------------------- Iteration      2(  52)  ---------------------------------------


    POTLOK:  cpu time    0.4638: real time    0.4642
    SETDIJ:  cpu time    0.0404: real time    0.0413
    EDDIAG:  cpu time    7.5995: real time    7.6211
  RMM-DIIS:  cpu time   23.1070: real time   23.1555
    ORTHCH:  cpu time    0.3881: real time    0.3881
       DOS:  cpu time    0.0243: real time    0.0243
    CHARGE:  cpu time    3.0606: real time    3.0752
    MIXING:  cpu time    0.0288: real time    0.0288
    --------------------------------------------
      LOOP:  cpu time   34.7125: real time   34.7986

 eigenvalue-minimisations  :  7674
 total energy-change (2. order) : 0.2602965E-01  (-0.3455495E-02)
 number of electron     282.9999974 magnetization      18.4362434
 augmentation part      100.2658880 magnetization      12.1174200

 eigenvalues of (default mixing * dielectric matrix)
  average eigenvalue GAMMA=   0.8934
  4.7572  2.7040  2.1645  2.1645  1.8548  1.8548  1.1597  1.1597  1.3428  0.4544
  0.2836  0.9502  0.9502  0.8041  0.8041  0.9157  0.9157  0.4782  0.4782  0.0530
  0.7467  0.7467  0.0911  0.1854  0.1854  0.5455  0.5455  0.6668  0.6668  0.4377
  0.4377  0.3910  0.3910  0.6283  0.5951  0.5951  0.5517  0.5517  0.4368  0.4929
  0.4929

  free energy =  -0.260705760202E+03  energy without entropy=  -0.260729318936E+03


--------------------------------------------------------------------------------------------------------




--------------------------------------- Iteration      2(  53)  ---------------------------------------


    POTLOK:  cpu time    0.4634: real time    0.4784
    SETDIJ:  cpu time    0.0412: real time    0.0413
    EDDIAG:  cpu time    8.0811: real time    8.5124
  RMM-DIIS:  cpu time   21.6206: real time   21.6505
    ORTHCH:  cpu time    0.3874: real time    0.3884
       DOS:  cpu time    0.0249: real time    0.0249
    CHARGE:  cpu time    3.0184: real time    3.0213
    MIXING:  cpu time    0.0301: real time    0.0301
    --------------------------------------------
      LOOP:  cpu time   33.6671: real time   34.1473

 eigenvalue-minimisations  :  7223
 total energy-change (2. order) :-0.5472441E-01  (-0.4954070E-02)
 number of electron     282.9999974 magnetization      18.6295900
 augmentation part      100.2716764 magnetization      12.3098487

 eigenvalues of (default mixing * dielectric matrix)
  average eigenvalue GAMMA=   0.9310
  5.9106  2.7276  2.1496  2.1496  1.8729  1.8729  1.7329  1.1428  1.1428  1.1247
  1.1247  0.3885  0.3101  0.7942  0.7942  0.8046  0.8046  0.8422  0.8422  0.4327
  0.4327  0.0466  0.7587  0.7587  0.5915  0.5915  0.1125  0.2109  0.2109  0.3810
  0.3810  0.6455  0.6057  0.6057  0.5469  0.5469  0.4392  0.4392  0.4422  0.4422
  0.4484  0.5002

  free energy =  -0.260760484610E+03  energy without entropy=  -0.260786086803E+03


--------------------------------------------------------------------------------------------------------




--------------------------------------- Iteration      2(  54)  ---------------------------------------


    POTLOK:  cpu time    0.4628: real time    0.4641
    SETDIJ:  cpu time    0.0412: real time    0.0412
    EDDIAG:  cpu time    7.5906: real time    7.5990
  RMM-DIIS:  cpu time   22.2482: real time   22.6340
    ORTHCH:  cpu time    0.3866: real time    0.3876
       DOS:  cpu time    0.0238: real time    0.0238
    CHARGE:  cpu time    3.0391: real time    3.0421
    MIXING:  cpu time    0.0306: real time    0.0306
    --------------------------------------------
      LOOP:  cpu time   33.8229: real time   34.2223

 eigenvalue-minimisations  :  7268
 total energy-change (2. order) :-0.2531216E-01  (-0.4185236E-02)
 number of electron     282.9999974 magnetization      18.7120489
 augmentation part      100.2743928 magnetization      12.3879420

 eigenvalues of (default mixing * dielectric matrix)
  average eigenvalue GAMMA=   0.9375
  6.1359  2.9389  2.2054  2.2054  1.7926  1.7926  1.9046  1.2183  1.2183  1.0464
  1.0464  0.4906  0.4906  0.8360  0.8360  0.2256  0.2256  0.8571  0.8571  0.7790
  0.7790  0.0306  0.7474  0.7474  0.4601  0.4601  0.1525  0.1525  0.5917  0.5917
  0.4507  0.4507  0.6497  0.6067  0.6067  0.5489  0.5489  0.3397  0.4436  0.4436
  0.4447  0.4742  0.4870

  free energy =  -0.260785796772E+03  energy without entropy=  -0.260813645106E+03


--------------------------------------------------------------------------------------------------------




--------------------------------------- Iteration      2(  55)  ---------------------------------------


    POTLOK:  cpu time    0.4637: real time    0.4649
    SETDIJ:  cpu time    0.0411: real time    0.0411
    EDDIAG:  cpu time    7.6145: real time    7.6223
  RMM-DIIS:  cpu time   23.9309: real time   23.9630
    ORTHCH:  cpu time    0.3871: real time    0.3872
       DOS:  cpu time    0.0252: real time    0.0252
    CHARGE:  cpu time    3.0080: real time    3.0116
    MIXING:  cpu time    0.0317: real time    0.0318
    --------------------------------------------
      LOOP:  cpu time   35.5024: real time   35.5473

 eigenvalue-minimisations  :  7977
 total energy-change (2. order) :-0.7881543E-01  (-0.1045430E-02)
 number of electron     282.9999974 magnetization      18.7038868
 augmentation part      100.2722587 magnetization      12.3622658

 eigenvalues of (default mixing * dielectric matrix)
  average eigenvalue GAMMA=   0.9408
  6.2276  2.8292  2.1245  2.1245  1.8467  1.8467  1.9109  0.9158  1.0511  1.0511
  1.2020  1.2020  0.5922  0.5922  0.9106  0.9106  0.1816  0.1816  0.8630  0.8630
  0.7578  0.7578  0.0117  0.7641  0.7641  0.6237  0.6237  0.1618  0.1618  0.4154
  0.4154  0.6520  0.6073  0.6073  0.4810  0.4810  0.5473  0.5473  0.3577  0.3577
  0.5213  0.4756  0.4428  0.4318

  free energy =  -0.260864612200E+03  energy without entropy=  -0.260890574216E+03


--------------------------------------------------------------------------------------------------------




--------------------------------------- Iteration      2(  56)  ---------------------------------------


    POTLOK:  cpu time    0.4643: real time    0.4648
    SETDIJ:  cpu time    0.0411: real time    0.0411
    EDDIAG:  cpu time    7.6200: real time    7.6688
  RMM-DIIS:  cpu time   24.7028: real time   25.0728
    ORTHCH:  cpu time    0.3871: real time    0.3879
       DOS:  cpu time    0.0255: real time    0.0255
    CHARGE:  cpu time    3.0489: real time    3.0522
    MIXING:  cpu time    0.0308: real time    0.0309
    --------------------------------------------
      LOOP:  cpu time   36.3202: real time   36.7438

 eigenvalue-minimisations  :  8047
 total energy-change (2. order) : 0.3880869E-01  (-0.7878245E-04)
 number of electron     282.9999974 magnetization      18.3225117
 augmentation part      100.2736282 magnetization      11.9806238

 eigenvalues of (default mixing * dielectric matrix)
  average eigenvalue GAMMA=   0.8083
  1.6949  1.9411  1.9411  2.1855  2.1855  0.5153  1.0567  1.0567  0.8651  0.8651
  1.2176  1.2176  0.1370  0.9093  0.9093  0.9716  0.0825  0.0825  0.4618  0.4618
  0.7219  0.7219  0.6422  0.6422  0.8150  0.8150  0.1967  0.4657  0.4657  0.7805
  0.5786  0.5786  0.3896  0.4706  0.4706  0.4626  0.6442  0.5909  0.5909  0.5309

  free energy =  -0.260825803508E+03  energy without entropy=  -0.260852159394E+03


--------------------------------------------------------------------------------------------------------




--------------------------------------- Iteration      2(  57)  ---------------------------------------


    POTLOK:  cpu time    0.4630: real time    0.4641
    SETDIJ:  cpu time    0.0413: real time    0.0413
    EDDIAG:  cpu time    7.6119: real time    7.6260
  RMM-DIIS:  cpu time   22.3705: real time   22.5079
    ORTHCH:  cpu time    0.3853: real time    0.3863
       DOS:  cpu time    0.0241: real time    0.0241
    CHARGE:  cpu time    2.9912: real time    2.9943
    MIXING:  cpu time    0.0291: real time    0.0291
    --------------------------------------------
      LOOP:  cpu time   33.9163: real time   34.0733

 eigenvalue-minimisations  :  7454
 total energy-change (2. order) : 0.4022306E+00  (-0.2153441E-01)
 number of electron     282.9999974 magnetization      18.2799893
 augmentation part      100.2804139 magnetization      11.9327792

 eigenvalues of (default mixing * dielectric matrix)
  average eigenvalue GAMMA=   0.8016
  1.4135  1.9724  1.9724  2.2479  2.2479  0.5719  1.0643  1.0643  0.9255  0.9255
  1.1517  1.1517  1.0787  0.8823  0.8823  0.0665  0.7790  0.7790  0.0785  0.0785
  0.5212  0.5212  0.1420  0.8139  0.8139  0.6516  0.6516  0.3872  0.3872  0.7945
  0.4934  0.4934  0.3683  0.6057  0.6057  0.6473  0.6059  0.6059  0.4226  0.4572
  0.5439

  free energy =  -0.260423572876E+03  energy without entropy=  -0.260437935110E+03


--------------------------------------------------------------------------------------------------------




--------------------------------------- Iteration      2(  58)  ---------------------------------------


    POTLOK:  cpu time    0.4693: real time    0.4772
    SETDIJ:  cpu time    0.0383: real time    0.0421
    EDDIAG:  cpu time    7.6260: real time    7.6575
  RMM-DIIS:  cpu time   25.8641: real time   26.2201
    ORTHCH:  cpu time    0.3853: real time    0.3862
       DOS:  cpu time    0.0247: real time    0.0247
    CHARGE:  cpu time    3.0132: real time    3.0161
    MIXING:  cpu time    0.0295: real time    0.0295
    --------------------------------------------
      LOOP:  cpu time   37.4503: real time   37.8534

 eigenvalue-minimisations  :  8379
 total energy-change (2. order) :-0.1423293E+00  (-0.2257387E-02)
 number of electron     282.9999974 magnetization      18.2231160
 augmentation part      100.2806884 magnetization      11.8724167

 eigenvalues of (default mixing * dielectric matrix)
  average eigenvalue GAMMA=   0.8097
  1.6131  2.0196  2.0196  2.2261  2.2261  0.4967  1.0455  1.0455  1.0812  1.0812
  0.8654  0.8654  1.1001  1.1001  0.0501  0.0792  0.0792  0.9902  0.9902  0.3312
  0.3312  0.5661  0.5661  0.7670  0.7670  0.2317  0.5367  0.5367  0.7631  0.7631
  0.6765  0.6765  0.6925  0.6925  0.4485  0.4485  0.4319  0.4319  0.6376  0.5986
  0.5986  0.5383

  free energy =  -0.260565902130E+03  energy without entropy=  -0.260581104511E+03


--------------------------------------------------------------------------------------------------------




--------------------------------------- Iteration      2(  59)  ---------------------------------------


    POTLOK:  cpu time    0.4635: real time    0.4639
    SETDIJ:  cpu time    0.0409: real time    0.0409
    EDDIAG:  cpu time    7.5678: real time    7.5768
  RMM-DIIS:  cpu time   21.6378: real time   21.9553
    ORTHCH:  cpu time    0.4195: real time    0.4413
       DOS:  cpu time    0.0248: real time    0.0248
    CHARGE:  cpu time    3.0132: real time    3.0195
    MIXING:  cpu time    0.0311: real time    0.0311
    --------------------------------------------
      LOOP:  cpu time   33.1985: real time   33.5536

 eigenvalue-minimisations  :  7061
 total energy-change (2. order) :-0.2017589E+00  (-0.3524822E-02)
 number of electron     282.9999974 magnetization      18.1755396
 augmentation part      100.2842213 magnetization      11.8271954

 eigenvalues of (default mixing * dielectric matrix)
  average eigenvalue GAMMA=   0.8210
  1.5262  2.1696  2.1696  2.2130  2.2130  1.2296  1.2296  0.5365  1.0454  1.0454
  1.1919  1.1919  0.8122  0.8122  0.8455  0.8455  0.9604  0.0878  0.8718  0.8718
  0.5165  0.5165  0.0808  0.0808  0.1364  0.3857  0.3857  0.7075  0.7075  0.5832
  0.5832  0.6960  0.6960  0.5775  0.5775  0.4261  0.4261  0.5974  0.5974  0.5500
  0.5500  0.5109  0.5450

  free energy =  -0.260767661062E+03  energy without entropy=  -0.260786839766E+03


--------------------------------------------------------------------------------------------------------




--------------------------------------- Iteration      2(  60)  ---------------------------------------


    POTLOK:  cpu time    0.4650: real time    0.4665
    SETDIJ:  cpu time    0.0408: real time    0.0408
    EDDIAG:  cpu time    7.5459: real time    7.5537
  RMM-DIIS:  cpu time   21.5559: real time   21.5926
    ORTHCH:  cpu time    0.3853: real time    0.3853
       DOS:  cpu time    0.0245: real time    0.0245
    --------------------------------------------
      LOOP:  cpu time   30.0173: real time   30.0633

 eigenvalue-minimisations  :  7223
 total energy-change (2. order) :-0.2317120E+00  (-0.5846341E-02)
 number of electron     282.9999974 magnetization      18.1755396
 augmentation part      100.2842213 magnetization      11.8271954

  free energy =  -0.260999373090E+03  energy without entropy=  -0.261023725084E+03


--------------------------------------------------------------------------------------------------------




 average (electrostatic) potential at core
  the test charge radii are     0.9577  0.7215  0.5201
  (the norm of the test charge is              1.0000)
       1 -76.7785       2 -76.5259       3 -76.5925       4 -76.3073       5 -76.5420
       6 -76.9720       7 -76.6141       8 -76.7197       9 -75.4636      10 -75.1551
      11 -75.0196      12 -74.8840      13 -77.2008      14 -76.1839      15 -76.3959
      16 -76.5006      17 -76.6753      18 -76.6671      19 -76.6310      20 -77.7917
      21 -75.9211      22 -76.3482      23 -76.6086      24 -76.3446      25 -76.2938
      26 -76.2010      27 -76.9667      28 -74.9906      29 -76.2577      30 -76.8739
      31 -76.3192      32 -76.6379      33 -40.5557      34 -39.1113      35 -40.4553
      36 -39.8114      37 -41.4504      38 -40.8394      39 -39.0759
 
 
 
 E-fermi :  -1.4626     XC(G=0):  -2.8745     alpha+bet : -3.3905


 spin component 1

 k-point     1 :       0.0000    0.0000    0.0000
  band No.  band energies     occupation 
      1     -52.3300      1.00000
      2     -52.2293      1.00000
      3     -52.1697      1.00000
      4     -52.1033      1.00000
      5     -51.9845      1.00000
      6     -51.9478      1.00000
      7     -51.9283      1.00000
      8     -51.9243      1.00000
      9     -51.8863      1.00000
     10     -51.8679      1.00000
     11     -51.6490      1.00000
     12     -51.6411      1.00000
     13     -51.0895      1.00000
     14     -51.0700      1.00000
     15     -50.9895      1.00000
     16     -50.8758      1.00000
     17     -50.8555      1.00000
     18     -50.7917      1.00000
     19     -50.7107      1.00000
     20     -50.6945      1.00000
     21     -50.6615      1.00000
     22     -50.5860      1.00000
     23     -50.5432      1.00000
     24     -50.4978      1.00000
     25     -48.2337      1.00000
     26     -48.1205      1.00000
     27     -48.0681      1.00000
     28     -48.0374      1.00000
     29     -48.0357      1.00000
     30     -48.0103      1.00000
     31     -47.6589      1.00000
     32     -47.5734      1.00000
     33     -47.0652      1.00000
     34     -47.0642      1.00000
     35     -47.0418      1.00000
     36     -46.8126      1.00000
     37     -21.5893      1.00000
     38     -20.9992      1.00000
     39     -20.6109      1.00000
     40     -20.3245      1.00000
     41     -20.0412      1.00000
     42     -20.0279      1.00000
     43     -19.7242      1.00000
     44     -19.5478      1.00000
     45     -19.5123      1.00000
     46     -19.4468      1.00000
     47     -19.4315      1.00000
     48     -19.4093      1.00000
     49     -19.3304      1.00000
     50     -19.2761      1.00000
     51     -19.2088      1.00000
     52     -19.1187      1.00000
     53     -19.0962      1.00000
     54     -18.9441      1.00000
     55     -18.7342      1.00000
     56     -17.5503      1.00000
     57      -9.7223      1.00000
     58      -9.0247      1.00000
     59      -8.8156      1.00000
     60      -8.5855      1.00000
     61      -8.5301      1.00000
     62      -8.0360      1.00000
     63      -8.0105      1.00000
     64      -7.9421      1.00000
     65      -7.7949      1.00000
     66      -7.7128      1.00000
     67      -7.6952      1.00000
     68      -7.5898      1.00000
     69      -7.5008      1.00000
     70      -7.4125      1.00000
     71      -7.3115      1.00000
     72      -7.2307      1.00000
     73      -7.1943      1.00000
     74      -7.1128      1.00000
     75      -6.9959      1.00000
     76      -6.9196      1.00000
     77      -6.8665      1.00000
     78      -6.8211      1.00000
     79      -6.7995      1.00000
     80      -6.7092      1.00000
     81      -6.6992      1.00000
     82      -6.6631      1.00000
     83      -6.5230      1.00000
     84      -6.4971      1.00000
     85      -6.4380      1.00000
     86      -6.3876      1.00000
     87      -6.3216      1.00000
     88      -6.1888      1.00000
     89      -6.1587      1.00000
     90      -6.0572      1.00000
     91      -6.0191      1.00000
     92      -6.0040      1.00000
     93      -5.8956      1.00000
     94      -5.8216      1.00000
     95      -5.8018      1.00000
     96      -5.7256      1.00000
     97      -5.6212      1.00000
     98      -5.5163      1.00000
     99      -5.4444      1.00000
    100      -5.4139      1.00000
    101      -5.3514      1.00000
    102      -5.2295      1.00000
    103      -5.1021      1.00000
    104      -5.0277      1.00000
    105      -4.9976      1.00000
    106      -4.9537      1.00000
    107      -4.9138      1.00000
    108      -4.8582      1.00000
    109      -4.7933      1.00000
    110      -4.7622      1.00000
    111      -4.7111      1.00000
    112      -4.6561      1.00000
    113      -4.6189      1.00000
    114      -4.5787      1.00000
    115      -4.5208      1.00000
    116      -4.4669      1.00000
    117      -4.3928      1.00000
    118      -4.2619      1.00000
    119      -4.1873      1.00000
    120      -4.1166      1.00000
    121      -4.0022      1.00000
    122      -3.9700      1.00000
    123      -3.8974      1.00000
    124      -3.8798      1.00000
    125      -3.8576      1.00000
    126      -3.8133      1.00000
    127      -3.7740      1.00000
    128      -3.6924      1.00000
    129      -3.6360      1.00000
    130      -3.6032      1.00000
    131      -3.4705      1.00000
    132      -3.4010      1.00000
    133      -3.1826      1.00000
    134      -3.1365      1.00000
    135      -3.0703      1.00000
    136      -2.9841      1.00000
    137      -2.9325      1.00000
    138      -2.7884      1.00000
    139      -2.6759      1.00000
    140      -2.5731      1.00000
    141      -2.4998      1.00000
    142      -2.4166      1.00000
    143      -2.2192      1.00000
    144      -2.0943      1.00004
    145      -2.0483      1.00014
    146      -1.9460      1.00167
    147      -1.8980      1.00433
    148      -1.8747      1.00654
    149      -1.7560      1.02909
    150      -1.5373      0.79318
    151      -1.4833      0.58714
    152      -0.6157     -0.00000
    153      -0.3931     -0.00000
    154      -0.2414     -0.00000
    155      -0.0493     -0.00000
    156       0.3315     -0.00000
    157       0.5843     -0.00000
    158       1.5441     -0.00000
    159       1.5694     -0.00000
    160       1.6741     -0.00000
    161       1.7791     -0.00000
    162       1.8339     -0.00000
    163       1.9384     -0.00000
    164       1.9503     -0.00000
    165       2.0156     -0.00000
    166       2.2436     -0.00000
    167       2.2634     -0.00000
    168       2.4333     -0.00000
    169       2.4630     -0.00000
    170       2.5002     -0.00000
    171       2.5919     -0.00000
    172       2.7346     -0.00000
    173       2.8502     -0.00000
    174       2.9309     -0.00000
    175       3.0597     -0.00000
    176       3.1086     -0.00000
    177       3.1789     -0.00000
    178       3.6455     -0.00000

 k-point     2 :       0.2500    0.0000   -0.0000
  band No.  band energies     occupation 
      1     -52.3300      1.00000
      2     -52.2293      1.00000
      3     -52.1697      1.00000
      4     -52.1033      1.00000
      5     -51.9845      1.00000
      6     -51.9478      1.00000
      7     -51.9283      1.00000
      8     -51.9243      1.00000
      9     -51.8863      1.00000
     10     -51.8679      1.00000
     11     -51.6490      1.00000
     12     -51.6410      1.00000
     13     -51.0895      1.00000
     14     -51.0700      1.00000
     15     -50.9895      1.00000
     16     -50.8758      1.00000
     17     -50.8555      1.00000
     18     -50.7917      1.00000
     19     -50.7107      1.00000
     20     -50.6945      1.00000
     21     -50.6615      1.00000
     22     -50.5860      1.00000
     23     -50.5432      1.00000
     24     -50.4978      1.00000
     25     -48.2337      1.00000
     26     -48.1204      1.00000
     27     -48.0680      1.00000
     28     -48.0361      1.00000
     29     -48.0357      1.00000
     30     -48.0116      1.00000
     31     -47.6590      1.00000
     32     -47.5733      1.00000
     33     -47.0652      1.00000
     34     -47.0610      1.00000
     35     -47.0452      1.00000
     36     -46.8129      1.00000
     37     -21.5785      1.00000
     38     -20.9982      1.00000
     39     -20.5704      1.00000
     40     -20.2692      1.00000
     41     -20.0351      1.00000
     42     -19.9922      1.00000
     43     -19.8175      1.00000
     44     -19.6248      1.00000
     45     -19.4958      1.00000
     46     -19.4513      1.00000
     47     -19.4435      1.00000
     48     -19.3886      1.00000
     49     -19.3315      1.00000
     50     -19.2810      1.00000
     51     -19.2315      1.00000
     52     -19.1385      1.00000
     53     -19.0805      1.00000
     54     -18.9447      1.00000
     55     -18.7365      1.00000
     56     -17.5542      1.00000
     57      -9.6947      1.00000
     58      -8.9978      1.00000
     59      -8.7521      1.00000
     60      -8.5653      1.00000
     61      -8.4441      1.00000
     62      -8.0249      1.00000
     63      -7.9622      1.00000
     64      -7.9001      1.00000
     65      -7.7897      1.00000
     66      -7.6951      1.00000
     67      -7.6500      1.00000
     68      -7.5911      1.00000
     69      -7.5315      1.00000
     70      -7.3925      1.00000
     71      -7.3276      1.00000
     72      -7.2625      1.00000
     73      -7.1875      1.00000
     74      -7.1009      1.00000
     75      -6.9814      1.00000
     76      -6.9298      1.00000
     77      -6.8619      1.00000
     78      -6.7696      1.00000
     79      -6.7608      1.00000
     80      -6.6749      1.00000
     81      -6.6384      1.00000
     82      -6.5655      1.00000
     83      -6.5223      1.00000
     84      -6.4438      1.00000
     85      -6.4050      1.00000
     86      -6.3659      1.00000
     87      -6.2632      1.00000
     88      -6.1908      1.00000
     89      -6.1558      1.00000
     90      -6.0793      1.00000
     91      -6.0151      1.00000
     92      -5.9795      1.00000
     93      -5.9239      1.00000
     94      -5.8700      1.00000
     95      -5.7900      1.00000
     96      -5.6983      1.00000
     97      -5.6733      1.00000
     98      -5.5610      1.00000
     99      -5.4782      1.00000
    100      -5.4412      1.00000
    101      -5.3503      1.00000
    102      -5.2542      1.00000
    103      -5.1794      1.00000
    104      -5.1133      1.00000
    105      -5.0324      1.00000
    106      -4.9994      1.00000
    107      -4.9584      1.00000
    108      -4.8498      1.00000
    109      -4.8188      1.00000
    110      -4.7749      1.00000
    111      -4.7290      1.00000
    112      -4.6708      1.00000
    113      -4.5787      1.00000
    114      -4.5215      1.00000
    115      -4.4794      1.00000
    116      -4.3881      1.00000
    117      -4.3542      1.00000
    118      -4.3076      1.00000
    119      -4.2121      1.00000
    120      -4.1842      1.00000
    121      -4.1059      1.00000
    122      -4.0531      1.00000
    123      -3.9967      1.00000
    124      -3.8805      1.00000
    125      -3.8647      1.00000
    126      -3.7966      1.00000
    127      -3.7367      1.00000
    128      -3.6641      1.00000
    129      -3.5892      1.00000
    130      -3.5147      1.00000
    131      -3.4854      1.00000
    132      -3.3399      1.00000
    133      -3.2404      1.00000
    134      -3.0685      1.00000
    135      -3.0567      1.00000
    136      -3.0241      1.00000
    137      -2.9250      1.00000
    138      -2.8421      1.00000
    139      -2.7187      1.00000
    140      -2.6549      1.00000
    141      -2.5705      1.00000
    142      -2.4883      1.00000
    143      -2.4309      1.00000
    144      -2.2080      1.00000
    145      -2.1447      1.00001
    146      -2.1325      1.00001
    147      -2.0303      1.00022
    148      -1.9382      1.00196
    149      -1.8500      1.00975
    150      -1.7687      1.02627
    151      -1.5726      0.89640
    152      -0.6998     -0.00000
    153      -0.3848     -0.00000
    154      -0.2477     -0.00000
    155      -0.0263     -0.00000
    156       0.3609     -0.00000
    157       0.9433     -0.00000
    158       1.6661     -0.00000
    159       1.7634     -0.00000
    160       1.8191     -0.00000
    161       1.8480     -0.00000
    162       1.9272     -0.00000
    163       1.9709     -0.00000
    164       1.9994     -0.00000
    165       2.1565     -0.00000
    166       2.2317     -0.00000
    167       2.2707     -0.00000
    168       2.3573     -0.00000
    169       2.4208     -0.00000
    170       2.4795     -0.00000
    171       2.6110     -0.00000
    172       2.6988     -0.00000
    173       2.7473     -0.00000
    174       2.8419     -0.00000
    175       2.8713     -0.00000
    176       2.9431     -0.00000
    177       3.0073     -0.00000
    178       3.2806     -0.00000

 k-point     3 :       0.5000    0.0000   -0.0000
  band No.  band energies     occupation 
      1     -52.3300      1.00000
      2     -52.2293      1.00000
      3     -52.1697      1.00000
      4     -52.1033      1.00000
      5     -51.9845      1.00000
      6     -51.9477      1.00000
      7     -51.9283      1.00000
      8     -51.9243      1.00000
      9     -51.8863      1.00000
     10     -51.8679      1.00000
     11     -51.6490      1.00000
     12     -51.6410      1.00000
     13     -51.0895      1.00000
     14     -51.0700      1.00000
     15     -50.9895      1.00000
     16     -50.8758      1.00000
     17     -50.8555      1.00000
     18     -50.7917      1.00000
     19     -50.7107      1.00000
     20     -50.6945      1.00000
     21     -50.6615      1.00000
     22     -50.5860      1.00000
     23     -50.5432      1.00000
     24     -50.4978      1.00000
     25     -48.2337      1.00000
     26     -48.1203      1.00000
     27     -48.0679      1.00000
     28     -48.0359      1.00000
     29     -48.0343      1.00000
     30     -48.0131      1.00000
     31     -47.6590      1.00000
     32     -47.5732      1.00000
     33     -47.0652      1.00000
     34     -47.0536      1.00000
     35     -47.0529      1.00000
     36     -46.8132      1.00000
     37     -21.5676      1.00000
     38     -20.9972      1.00000
     39     -20.5293      1.00000
     40     -20.1541      1.00000
     41     -20.0405      1.00000
     42     -20.0054      1.00000
     43     -19.8786      1.00000
     44     -19.7252      1.00000
     45     -19.4727      1.00000
     46     -19.4662      1.00000
     47     -19.4473      1.00000
     48     -19.3782      1.00000
     49     -19.3340      1.00000
     50     -19.2875      1.00000
     51     -19.2524      1.00000
     52     -19.1516      1.00000
     53     -19.0735      1.00000
     54     -18.9454      1.00000
     55     -18.7387      1.00000
     56     -17.5579      1.00000
     57      -9.6671      1.00000
     58      -8.9726      1.00000
     59      -8.6879      1.00000
     60      -8.5588      1.00000
     61      -8.2911      1.00000
     62      -8.0663      1.00000
     63      -7.8618      1.00000
     64      -7.8490      1.00000
     65      -7.8209      1.00000
     66      -7.6661      1.00000
     67      -7.6207      1.00000
     68      -7.5996      1.00000
     69      -7.5639      1.00000
     70      -7.4088      1.00000
     71      -7.3490      1.00000
     72      -7.2774      1.00000
     73      -7.1413      1.00000
     74      -7.1226      1.00000
     75      -7.0282      1.00000
     76      -6.9249      1.00000
     77      -6.8473      1.00000
     78      -6.7089      1.00000
     79      -6.7030      1.00000
     80      -6.6305      1.00000
     81      -6.5653      1.00000
     82      -6.5162      1.00000
     83      -6.4242      1.00000
     84      -6.4139      1.00000
     85      -6.3758      1.00000
     86      -6.3251      1.00000
     87      -6.2320      1.00000
     88      -6.1525      1.00000
     89      -6.1201      1.00000
     90      -6.0610      1.00000
     91      -6.0375      1.00000
     92      -5.9976      1.00000
     93      -5.9016      1.00000
     94      -5.8676      1.00000
     95      -5.8057      1.00000
     96      -5.7461      1.00000
     97      -5.6985      1.00000
     98      -5.6276      1.00000
     99      -5.5156      1.00000
    100      -5.4613      1.00000
    101      -5.4142      1.00000
    102      -5.3044      1.00000
    103      -5.1820      1.00000
    104      -5.1061      1.00000
    105      -5.0799      1.00000
    106      -5.0452      1.00000
    107      -4.9320      1.00000
    108      -4.8679      1.00000
    109      -4.8525      1.00000
    110      -4.8084      1.00000
    111      -4.7281      1.00000
    112      -4.6658      1.00000
    113      -4.6172      1.00000
    114      -4.5853      1.00000
    115      -4.5131      1.00000
    116      -4.4872      1.00000
    117      -4.3888      1.00000
    118      -4.2691      1.00000
    119      -4.2375      1.00000
    120      -4.1978      1.00000
    121      -4.1815      1.00000
    122      -4.0746      1.00000
    123      -4.0238      1.00000
    124      -3.9748      1.00000
    125      -3.8384      1.00000
    126      -3.7597      1.00000
    127      -3.6621      1.00000
    128      -3.6366      1.00000
    129      -3.5241      1.00000
    130      -3.4198      1.00000
    131      -3.3434      1.00000
    132      -3.3136      1.00000
    133      -3.1847      1.00000
    134      -3.1333      1.00000
    135      -3.0475      1.00000
    136      -2.9867      1.00000
    137      -2.9246      1.00000
    138      -2.8951      1.00000
    139      -2.8343      1.00000
    140      -2.7687      1.00000
    141      -2.7223      1.00000
    142      -2.6247      1.00000
    143      -2.4980      1.00000
    144      -2.4270      1.00000
    145      -2.3233      1.00000
    146      -2.2222      1.00000
    147      -2.1693      1.00000
    148      -2.0002      1.00048
    149      -1.9539      1.00140
    150      -1.8095      1.01706
    151      -1.6737      1.02997
    152      -0.7853     -0.00001
    153      -0.3777     -0.00000
    154      -0.2505     -0.00000
    155      -0.0106     -0.00000
    156       0.3891     -0.00000
    157       1.4768     -0.00000
    158       1.7385     -0.00000
    159       1.8537     -0.00000
    160       1.8842     -0.00000
    161       1.9608     -0.00000
    162       2.0224     -0.00000
    163       2.0564     -0.00000
    164       2.0968     -0.00000
    165       2.1242     -0.00000
    166       2.1423     -0.00000
    167       2.1687     -0.00000
    168       2.1722     -0.00000
    169       2.3745     -0.00000
    170       2.4032     -0.00000
    171       2.5009     -0.00000
    172       2.5719     -0.00000
    173       2.6514     -0.00000
    174       2.7235     -0.00000
    175       2.8093     -0.00000
    176       2.8917     -0.00000
    177       2.9257     -0.00000
    178       3.2336     -0.00000

 k-point     4 :       0.0000    0.2500   -0.0000
  band No.  band energies     occupation 
      1     -52.3298      1.00000
      2     -52.2293      1.00000
      3     -52.1697      1.00000
      4     -52.1032      1.00000
      5     -51.9845      1.00000
      6     -51.9475      1.00000
      7     -51.9282      1.00000
      8     -51.9243      1.00000
      9     -51.8863      1.00000
     10     -51.8679      1.00000
     11     -51.6490      1.00000
     12     -51.6410      1.00000
     13     -51.0895      1.00000
     14     -51.0700      1.00000
     15     -50.9895      1.00000
     16     -50.8758      1.00000
     17     -50.8555      1.00000
     18     -50.7917      1.00000
     19     -50.7107      1.00000
     20     -50.6945      1.00000
     21     -50.6615      1.00000
     22     -50.5860      1.00000
     23     -50.5432      1.00000
     24     -50.4978      1.00000
     25     -48.2340      1.00000
     26     -48.1205      1.00000
     27     -48.0684      1.00000
     28     -48.0376      1.00000
     29     -48.0358      1.00000
     30     -48.0103      1.00000
     31     -47.6589      1.00000
     32     -47.5733      1.00000
     33     -47.0652      1.00000
     34     -47.0642      1.00000
     35     -47.0418      1.00000
     36     -46.8129      1.00000
     37     -21.5482      1.00000
     38     -21.0285      1.00000
     39     -20.5415      1.00000
     40     -20.2366      1.00000
     41     -20.0756      1.00000
     42     -19.9809      1.00000
     43     -19.7272      1.00000
     44     -19.5917      1.00000
     45     -19.5609      1.00000
     46     -19.4759      1.00000
     47     -19.4186      1.00000
     48     -19.4083      1.00000
     49     -19.3405      1.00000
     50     -19.3032      1.00000
     51     -19.2157      1.00000
     52     -19.1358      1.00000
     53     -19.1201      1.00000
     54     -18.9642      1.00000
     55     -18.7649      1.00000
     56     -17.5645      1.00000
     57      -9.6737      1.00000
     58      -8.9587      1.00000
     59      -8.7634      1.00000
     60      -8.6166      1.00000
     61      -8.3962      1.00000
     62      -7.9685      1.00000
     63      -7.9034      1.00000
     64      -7.8566      1.00000
     65      -7.7421      1.00000
     66      -7.6458      1.00000
     67      -7.6072      1.00000
     68      -7.5279      1.00000
     69      -7.4201      1.00000
     70      -7.3481      1.00000
     71      -7.3126      1.00000
     72      -7.2135      1.00000
     73      -7.1603      1.00000
     74      -7.1063      1.00000
     75      -7.0189      1.00000
     76      -6.9616      1.00000
     77      -6.9155      1.00000
     78      -6.8407      1.00000
     79      -6.7720      1.00000
     80      -6.7051      1.00000
     81      -6.6694      1.00000
     82      -6.6064      1.00000
     83      -6.5891      1.00000
     84      -6.5003      1.00000
     85      -6.4275      1.00000
     86      -6.3664      1.00000
     87      -6.2423      1.00000
     88      -6.2076      1.00000
     89      -6.1150      1.00000
     90      -6.0496      1.00000
     91      -5.9986      1.00000
     92      -5.9524      1.00000
     93      -5.9260      1.00000
     94      -5.8399      1.00000
     95      -5.7967      1.00000
     96      -5.6976      1.00000
     97      -5.6680      1.00000
     98      -5.6238      1.00000
     99      -5.4693      1.00000
    100      -5.3554      1.00000
    101      -5.3155      1.00000
    102      -5.2492      1.00000
    103      -5.2029      1.00000
    104      -5.1319      1.00000
    105      -5.0345      1.00000
    106      -5.0179      1.00000
    107      -4.9665      1.00000
    108      -4.9075      1.00000
    109      -4.8427      1.00000
    110      -4.7909      1.00000
    111      -4.7538      1.00000
    112      -4.6742      1.00000
    113      -4.6346      1.00000
    114      -4.5891      1.00000
    115      -4.5352      1.00000
    116      -4.3957      1.00000
    117      -4.3637      1.00000
    118      -4.3137      1.00000
    119      -4.2370      1.00000
    120      -4.1579      1.00000
    121      -4.0969      1.00000
    122      -4.0771      1.00000
    123      -3.9608      1.00000
    124      -3.8893      1.00000
    125      -3.8432      1.00000
    126      -3.7707      1.00000
    127      -3.7401      1.00000
    128      -3.6680      1.00000
    129      -3.5256      1.00000
    130      -3.4760      1.00000
    131      -3.4343      1.00000
    132      -3.3201      1.00000
    133      -3.1964      1.00000
    134      -3.1609      1.00000
    135      -3.1036      1.00000
    136      -2.9818      1.00000
    137      -2.9407      1.00000
    138      -2.8370      1.00000
    139      -2.7848      1.00000
    140      -2.6813      1.00000
    141      -2.5490      1.00000
    142      -2.4667      1.00000
    143      -2.3701      1.00000
    144      -2.3263      1.00000
    145      -2.1810      1.00000
    146      -2.0926      1.00004
    147      -2.0087      1.00039
    148      -1.9064      1.00370
    149      -1.8046      1.01810
    150      -1.7683      1.02635
    151      -1.5742      0.90034
    152      -0.6830     -0.00000
    153      -0.5168     -0.00000
    154      -0.5062     -0.00000
    155      -0.2135     -0.00000
    156       0.0949     -0.00000
    157       1.0478     -0.00000
    158       1.5453     -0.00000
    159       1.6686     -0.00000
    160       1.8345     -0.00000
    161       1.8669     -0.00000
    162       1.9332     -0.00000
    163       1.9562     -0.00000
    164       2.0528     -0.00000
    165       2.1427     -0.00000
    166       2.2664     -0.00000
    167       2.2847     -0.00000
    168       2.3590     -0.00000
    169       2.4068     -0.00000
    170       2.4471     -0.00000
    171       2.5471     -0.00000
    172       2.5800     -0.00000
    173       2.7492     -0.00000
    174       2.8015     -0.00000
    175       2.9522     -0.00000
    176       3.0601     -0.00000
    177       3.1113     -0.00000
    178       3.2257     -0.00000

 k-point     5 :       0.2500    0.2500   -0.0000
  band No.  band energies     occupation 
      1     -52.3298      1.00000
      2     -52.2293      1.00000
      3     -52.1697      1.00000
      4     -52.1032      1.00000
      5     -51.9845      1.00000
      6     -51.9475      1.00000
      7     -51.9282      1.00000
      8     -51.9243      1.00000
      9     -51.8863      1.00000
     10     -51.8679      1.00000
     11     -51.6490      1.00000
     12     -51.6411      1.00000
     13     -51.0895      1.00000
     14     -51.0700      1.00000
     15     -50.9895      1.00000
     16     -50.8758      1.00000
     17     -50.8555      1.00000
     18     -50.7917      1.00000
     19     -50.7107      1.00000
     20     -50.6945      1.00000
     21     -50.6615      1.00000
     22     -50.5860      1.00000
     23     -50.5432      1.00000
     24     -50.4978      1.00000
     25     -48.2340      1.00000
     26     -48.1207      1.00000
     27     -48.0683      1.00000
     28     -48.0362      1.00000
     29     -48.0357      1.00000
     30     -48.0116      1.00000
     31     -47.6589      1.00000
     32     -47.5734      1.00000
     33     -47.0652      1.00000
     34     -47.0610      1.00000
     35     -47.0452      1.00000
     36     -46.8126      1.00000
     37     -21.5498      1.00000
     38     -21.0249      1.00000
     39     -20.5415      1.00000
     40     -20.2365      1.00000
     41     -20.0769      1.00000
     42     -19.9815      1.00000
     43     -19.7242      1.00000
     44     -19.5883      1.00000
     45     -19.5723      1.00000
     46     -19.4822      1.00000
     47     -19.4184      1.00000
     48     -19.3955      1.00000
     49     -19.3251      1.00000
     50     -19.3004      1.00000
     51     -19.2233      1.00000
     52     -19.1656      1.00000
     53     -19.1021      1.00000
     54     -18.9646      1.00000
     55     -18.7648      1.00000
     56     -17.5670      1.00000
     57      -9.6725      1.00000
     58      -8.9585      1.00000
     59      -8.7399      1.00000
     60      -8.6177      1.00000
     61      -8.4143      1.00000
     62      -7.9629      1.00000
     63      -7.9202      1.00000
     64      -7.8165      1.00000
     65      -7.7359      1.00000
     66      -7.6295      1.00000
     67      -7.5747      1.00000
     68      -7.5023      1.00000
     69      -7.3993      1.00000
     70      -7.3544      1.00000
     71      -7.2932      1.00000
     72      -7.2158      1.00000
     73      -7.1587      1.00000
     74      -7.1239      1.00000
     75      -7.0499      1.00000
     76      -6.9771      1.00000
     77      -6.9442      1.00000
     78      -6.8251      1.00000
     79      -6.7595      1.00000
     80      -6.7050      1.00000
     81      -6.6645      1.00000
     82      -6.6087      1.00000
     83      -6.5624      1.00000
     84      -6.5181      1.00000
     85      -6.4714      1.00000
     86      -6.4134      1.00000
     87      -6.2196      1.00000
     88      -6.2082      1.00000
     89      -6.1854      1.00000
     90      -6.1040      1.00000
     91      -5.9988      1.00000
     92      -5.9594      1.00000
     93      -5.8877      1.00000
     94      -5.8241      1.00000
     95      -5.7477      1.00000
     96      -5.7047      1.00000
     97      -5.6163      1.00000
     98      -5.5705      1.00000
     99      -5.5516      1.00000
    100      -5.3887      1.00000
    101      -5.3170      1.00000
    102      -5.2616      1.00000
    103      -5.1632      1.00000
    104      -5.1289      1.00000
    105      -5.0789      1.00000
    106      -5.0014      1.00000
    107      -4.9689      1.00000
    108      -4.8861      1.00000
    109      -4.8553      1.00000
    110      -4.8079      1.00000
    111      -4.7657      1.00000
    112      -4.7111      1.00000
    113      -4.6109      1.00000
    114      -4.5527      1.00000
    115      -4.5377      1.00000
    116      -4.4004      1.00000
    117      -4.3456      1.00000
    118      -4.3219      1.00000
    119      -4.2510      1.00000
    120      -4.1711      1.00000
    121      -4.1210      1.00000
    122      -4.0654      1.00000
    123      -3.9934      1.00000
    124      -3.9205      1.00000
    125      -3.8636      1.00000
    126      -3.8050      1.00000
    127      -3.7188      1.00000
    128      -3.6167      1.00000
    129      -3.5618      1.00000
    130      -3.5116      1.00000
    131      -3.3750      1.00000
    132      -3.2837      1.00000
    133      -3.2227      1.00000
    134      -3.1617      1.00000
    135      -3.0683      1.00000
    136      -2.9996      1.00000
    137      -2.8882      1.00000
    138      -2.8052      1.00000
    139      -2.7861      1.00000
    140      -2.7116      1.00000
    141      -2.5836      1.00000
    142      -2.4484      1.00000
    143      -2.4224      1.00000
    144      -2.2835      1.00000
    145      -2.1928      1.00000
    146      -2.1203      1.00002
    147      -2.0437      1.00016
    148      -1.8933      1.00472
    149      -1.7633      1.02749
    150      -1.6776      1.03127
    151      -1.5859      0.92737
    152      -0.7189     -0.00000
    153      -0.5205     -0.00000
    154      -0.4250     -0.00000
    155      -0.2133     -0.00000
    156       0.0953     -0.00000
    157       1.0463     -0.00000
    158       1.6013     -0.00000
    159       1.7243     -0.00000
    160       1.7743     -0.00000
    161       1.8577     -0.00000
    162       1.9226     -0.00000
    163       1.9719     -0.00000
    164       2.0450     -0.00000
    165       2.1147     -0.00000
    166       2.2068     -0.00000
    167       2.2781     -0.00000
    168       2.3427     -0.00000
    169       2.4053     -0.00000
    170       2.4405     -0.00000
    171       2.5747     -0.00000
    172       2.6045     -0.00000
    173       2.6783     -0.00000
    174       2.7772     -0.00000
    175       2.9812     -0.00000
    176       3.0270     -0.00000
    177       3.1586     -0.00000
    178       3.3492     -0.00000

 k-point     6 :       0.5000    0.2500    0.0000
  band No.  band energies     occupation 
      1     -52.3298      1.00000
      2     -52.2293      1.00000
      3     -52.1697      1.00000
      4     -52.1032      1.00000
      5     -51.9845      1.00000
      6     -51.9475      1.00000
      7     -51.9282      1.00000
      8     -51.9243      1.00000
      9     -51.8863      1.00000
     10     -51.8679      1.00000
     11     -51.6490      1.00000
     12     -51.6410      1.00000
     13     -51.0895      1.00000
     14     -51.0700      1.00000
     15     -50.9895      1.00000
     16     -50.8758      1.00000
     17     -50.8555      1.00000
     18     -50.7917      1.00000
     19     -50.7107      1.00000
     20     -50.6945      1.00000
     21     -50.6615      1.00000
     22     -50.5860      1.00000
     23     -50.5432      1.00000
     24     -50.4978      1.00000
     25     -48.2340      1.00000
     26     -48.1205      1.00000
     27     -48.0682      1.00000
     28     -48.0359      1.00000
     29     -48.0345      1.00000
     30     -48.0131      1.00000
     31     -47.6590      1.00000
     32     -47.5733      1.00000
     33     -47.0652      1.00000
     34     -47.0535      1.00000
     35     -47.0529      1.00000
     36     -46.8129      1.00000
     37     -21.5385      1.00000
     38     -21.0242      1.00000
     39     -20.4997      1.00000
     40     -20.1277      1.00000
     41     -20.0817      1.00000
     42     -19.9468      1.00000
     43     -19.8467      1.00000
     44     -19.6739      1.00000
     45     -19.5924      1.00000
     46     -19.4455      1.00000
     47     -19.4327      1.00000
     48     -19.3800      1.00000
     49     -19.3487      1.00000
     50     -19.2916      1.00000
     51     -19.2554      1.00000
     52     -19.1637      1.00000
     53     -19.1020      1.00000
     54     -18.9562      1.00000
     55     -18.7665      1.00000
     56     -17.5704      1.00000
     57      -9.6464      1.00000
     58      -8.9280      1.00000
     59      -8.6814      1.00000
     60      -8.6168      1.00000
     61      -8.2842      1.00000
     62      -7.9736      1.00000
     63      -7.8425      1.00000
     64      -7.7717      1.00000
     65      -7.6995      1.00000
     66      -7.6201      1.00000
     67      -7.5652      1.00000
     68      -7.4910      1.00000
     69      -7.4112      1.00000
     70      -7.3564      1.00000
     71      -7.2851      1.00000
     72      -7.2278      1.00000
     73      -7.1769      1.00000
     74      -7.1287      1.00000
     75      -7.0295      1.00000
     76      -6.9579      1.00000
     77      -6.8876      1.00000
     78      -6.8436      1.00000
     79      -6.7210      1.00000
     80      -6.6973      1.00000
     81      -6.6650      1.00000
     82      -6.5898      1.00000
     83      -6.5402      1.00000
     84      -6.4633      1.00000
     85      -6.3928      1.00000
     86      -6.2981      1.00000
     87      -6.2571      1.00000
     88      -6.2016      1.00000
     89      -6.1436      1.00000
     90      -6.0585      1.00000
     91      -6.0097      1.00000
     92      -5.9275      1.00000
     93      -5.8980      1.00000
     94      -5.8558      1.00000
     95      -5.7884      1.00000
     96      -5.7437      1.00000
     97      -5.6364      1.00000
     98      -5.6142      1.00000
     99      -5.5182      1.00000
    100      -5.4402      1.00000
    101      -5.4187      1.00000
    102      -5.2393      1.00000
    103      -5.2019      1.00000
    104      -5.1510      1.00000
    105      -5.1402      1.00000
    106      -5.0102      1.00000
    107      -4.9584      1.00000
    108      -4.9319      1.00000
    109      -4.8402      1.00000
    110      -4.8242      1.00000
    111      -4.7702      1.00000
    112      -4.7076      1.00000
    113      -4.6543      1.00000
    114      -4.5607      1.00000
    115      -4.5135      1.00000
    116      -4.4474      1.00000
    117      -4.3761      1.00000
    118      -4.3268      1.00000
    119      -4.2852      1.00000
    120      -4.2177      1.00000
    121      -4.1878      1.00000
    122      -4.1087      1.00000
    123      -4.0040      1.00000
    124      -3.9514      1.00000
    125      -3.8271      1.00000
    126      -3.7445      1.00000
    127      -3.7126      1.00000
    128      -3.6074      1.00000
    129      -3.5650      1.00000
    130      -3.4802      1.00000
    131      -3.3085      1.00000
    132      -3.2711      1.00000
    133      -3.2223      1.00000
    134      -3.1599      1.00000
    135      -3.0902      1.00000
    136      -3.0303      1.00000
    137      -2.9080      1.00000
    138      -2.8430      1.00000
    139      -2.7621      1.00000
    140      -2.7224      1.00000
    141      -2.6882      1.00000
    142      -2.6032      1.00000
    143      -2.4913      1.00000
    144      -2.4472      1.00000
    145      -2.3126      1.00000
    146      -2.2408      1.00000
    147      -2.1573      1.00001
    148      -2.1026      1.00003
    149      -1.8333      1.01246
    150      -1.7485      1.03063
    151      -1.7082      1.03546
    152      -0.7431     -0.00000
    153      -0.5208     -0.00000
    154      -0.4413     -0.00000
    155      -0.1892     -0.00000
    156       0.1230     -0.00000
    157       1.5226     -0.00000
    158       1.7252     -0.00000
    159       1.8177     -0.00000
    160       1.8881     -0.00000
    161       1.9536     -0.00000
    162       2.0063     -0.00000
    163       2.0601     -0.00000
    164       2.0879     -0.00000
    165       2.1168     -0.00000
    166       2.1609     -0.00000
    167       2.2314     -0.00000
    168       2.2805     -0.00000
    169       2.4062     -0.00000
    170       2.4318     -0.00000
    171       2.4872     -0.00000
    172       2.5182     -0.00000
    173       2.5876     -0.00000
    174       2.6464     -0.00000
    175       2.7571     -0.00000
    176       2.8455     -0.00000
    177       3.0031     -0.00000
    178       3.0888     -0.00000

 k-point     7 :      -0.2500    0.2500   -0.0000
  band No.  band energies     occupation 
      1     -52.3298      1.00000
      2     -52.2293      1.00000
      3     -52.1697      1.00000
      4     -52.1032      1.00000
      5     -51.9845      1.00000
      6     -51.9475      1.00000
      7     -51.9282      1.00000
      8     -51.9243      1.00000
      9     -51.8863      1.00000
     10     -51.8679      1.00000
     11     -51.6490      1.00000
     12     -51.6410      1.00000
     13     -51.0895      1.00000
     14     -51.0700      1.00000
     15     -50.9895      1.00000
     16     -50.8758      1.00000
     17     -50.8555      1.00000
     18     -50.7917      1.00000
     19     -50.7107      1.00000
     20     -50.6945      1.00000
     21     -50.6615      1.00000
     22     -50.5860      1.00000
     23     -50.5432      1.00000
     24     -50.4978      1.00000
     25     -48.2340      1.00000
     26     -48.1204      1.00000
     27     -48.0683      1.00000
     28     -48.0362      1.00000
     29     -48.0358      1.00000
     30     -48.0116      1.00000
     31     -47.6590      1.00000
     32     -47.5732      1.00000
     33     -47.0652      1.00000
     34     -47.0611      1.00000
     35     -47.0452      1.00000
     36     -46.8132      1.00000
     37     -21.5368      1.00000
     38     -21.0279      1.00000
     39     -20.4999      1.00000
     40     -20.1326      1.00000
     41     -20.0710      1.00000
     42     -19.9523      1.00000
     43     -19.8457      1.00000
     44     -19.6731      1.00000
     45     -19.5934      1.00000
     46     -19.4414      1.00000
     47     -19.4252      1.00000
     48     -19.3927      1.00000
     49     -19.3574      1.00000
     50     -19.3007      1.00000
     51     -19.2446      1.00000
     52     -19.1457      1.00000
     53     -19.1113      1.00000
     54     -18.9560      1.00000
     55     -18.7666      1.00000
     56     -17.5679      1.00000
     57      -9.6477      1.00000
     58      -8.9282      1.00000
     59      -8.7044      1.00000
     60      -8.6152      1.00000
     61      -8.2559      1.00000
     62      -7.9866      1.00000
     63      -7.8391      1.00000
     64      -7.8079      1.00000
     65      -7.7252      1.00000
     66      -7.6321      1.00000
     67      -7.5963      1.00000
     68      -7.4985      1.00000
     69      -7.4296      1.00000
     70      -7.3622      1.00000
     71      -7.2709      1.00000
     72      -7.2473      1.00000
     73      -7.1585      1.00000
     74      -7.0773      1.00000
     75      -7.0319      1.00000
     76      -6.9664      1.00000
     77      -6.8859      1.00000
     78      -6.8283      1.00000
     79      -6.7842      1.00000
     80      -6.7343      1.00000
     81      -6.6288      1.00000
     82      -6.5639      1.00000
     83      -6.4995      1.00000
     84      -6.4208      1.00000
     85      -6.3522      1.00000
     86      -6.2985      1.00000
     87      -6.2153      1.00000
     88      -6.1685      1.00000
     89      -6.1189      1.00000
     90      -6.0922      1.00000
     91      -6.0529      1.00000
     92      -5.9683      1.00000
     93      -5.9261      1.00000
     94      -5.8820      1.00000
     95      -5.7543      1.00000
     96      -5.7202      1.00000
     97      -5.6846      1.00000
     98      -5.5761      1.00000
     99      -5.4878      1.00000
    100      -5.4689      1.00000
    101      -5.3517      1.00000
    102      -5.2667      1.00000
    103      -5.2290      1.00000
    104      -5.1359      1.00000
    105      -5.1079      1.00000
    106      -5.0216      1.00000
    107      -4.9790      1.00000
    108      -4.9476      1.00000
    109      -4.8625      1.00000
    110      -4.8024      1.00000
    111      -4.7414      1.00000
    112      -4.7181      1.00000
    113      -4.6704      1.00000
    114      -4.5695      1.00000
    115      -4.4976      1.00000
    116      -4.4263      1.00000
    117      -4.3837      1.00000
    118      -4.3234      1.00000
    119      -4.2637      1.00000
    120      -4.1977      1.00000
    121      -4.1335      1.00000
    122      -4.0697      1.00000
    123      -4.0124      1.00000
    124      -3.9684      1.00000
    125      -3.8542      1.00000
    126      -3.7926      1.00000
    127      -3.6649      1.00000
    128      -3.6122      1.00000
    129      -3.5358      1.00000
    130      -3.4903      1.00000
    131      -3.3343      1.00000
    132      -3.2845      1.00000
    133      -3.2220      1.00000
    134      -3.1279      1.00000
    135      -3.0559      1.00000
    136      -3.0486      1.00000
    137      -2.9294      1.00000
    138      -2.9108      1.00000
    139      -2.8134      1.00000
    140      -2.7601      1.00000
    141      -2.6792      1.00000
    142      -2.6049      1.00000
    143      -2.4942      1.00000
    144      -2.4182      1.00000
    145      -2.2497      1.00000
    146      -2.1869      1.00000
    147      -2.1023      1.00003
    148      -2.0467      1.00014
    149      -1.9239      1.00263
    150      -1.8616      1.00813
    151      -1.7308      1.03369
    152      -0.6816     -0.00000
    153      -0.5692     -0.00000
    154      -0.4867     -0.00000
    155      -0.1879     -0.00000
    156       0.1205     -0.00000
    157       1.5271     -0.00000
    158       1.7326     -0.00000
    159       1.7693     -0.00000
    160       1.8813     -0.00000
    161       1.9376     -0.00000
    162       1.9945     -0.00000
    163       2.0206     -0.00000
    164       2.0610     -0.00000
    165       2.1735     -0.00000
    166       2.2247     -0.00000
    167       2.2889     -0.00000
    168       2.3534     -0.00000
    169       2.3785     -0.00000
    170       2.4067     -0.00000
    171       2.4460     -0.00000
    172       2.4650     -0.00000
    173       2.6771     -0.00000
    174       2.7167     -0.00000
    175       2.8090     -0.00000
    176       2.8695     -0.00000
    177       2.9112     -0.00000
    178       3.0893     -0.00000

 k-point     8 :       0.0000    0.5000   -0.0000
  band No.  band energies     occupation 
      1     -52.3297      1.00000
      2     -52.2293      1.00000
      3     -52.1697      1.00000
      4     -52.1031      1.00000
      5     -51.9845      1.00000
      6     -51.9473      1.00000
      7     -51.9282      1.00000
      8     -51.9243      1.00000
      9     -51.8863      1.00000
     10     -51.8679      1.00000
     11     -51.6490      1.00000
     12     -51.6410      1.00000
     13     -51.0895      1.00000
     14     -51.0700      1.00000
     15     -50.9895      1.00000
     16     -50.8758      1.00000
     17     -50.8555      1.00000
     18     -50.7917      1.00000
     19     -50.7107      1.00000
     20     -50.6945      1.00000
     21     -50.6615      1.00000
     22     -50.5860      1.00000
     23     -50.5432      1.00000
     24     -50.4978      1.00000
     25     -48.2344      1.00000
     26     -48.1205      1.00000
     27     -48.0688      1.00000
     28     -48.0377      1.00000
     29     -48.0358      1.00000
     30     -48.0103      1.00000
     31     -47.6589      1.00000
     32     -47.5732      1.00000
     33     -47.0652      1.00000
     34     -47.0642      1.00000
     35     -47.0418      1.00000
     36     -46.8132      1.00000
     37     -21.5013      1.00000
     38     -21.0634      1.00000
     39     -20.4599      1.00000
     40     -20.1438      1.00000
     41     -20.0405      1.00000
     42     -19.9398      1.00000
     43     -19.8149      1.00000
     44     -19.6409      1.00000
     45     -19.6252      1.00000
     46     -19.4906      1.00000
     47     -19.4222      1.00000
     48     -19.4028      1.00000
     49     -19.3682      1.00000
     50     -19.2921      1.00000
     51     -19.2283      1.00000
     52     -19.1569      1.00000
     53     -19.1273      1.00000
     54     -18.9870      1.00000
     55     -18.7971      1.00000
     56     -17.5784      1.00000
     57      -9.6261      1.00000
     58      -8.8584      1.00000
     59      -8.7172      1.00000
     60      -8.7017      1.00000
     61      -8.1794      1.00000
     62      -7.9608      1.00000
     63      -7.8069      1.00000
     64      -7.7527      1.00000
     65      -7.6438      1.00000
     66      -7.6076      1.00000
     67      -7.5912      1.00000
     68      -7.4321      1.00000
     69      -7.3559      1.00000
     70      -7.2768      1.00000
     71      -7.2499      1.00000
     72      -7.2100      1.00000
     73      -7.1914      1.00000
     74      -7.0626      1.00000
     75      -7.0292      1.00000
     76      -6.9277      1.00000
     77      -6.8929      1.00000
     78      -6.8512      1.00000
     79      -6.8028      1.00000
     80      -6.7330      1.00000
     81      -6.6265      1.00000
     82      -6.5505      1.00000
     83      -6.5277      1.00000
     84      -6.4189      1.00000
     85      -6.3992      1.00000
     86      -6.3438      1.00000
     87      -6.2824      1.00000
     88      -6.2089      1.00000
     89      -6.1127      1.00000
     90      -6.0527      1.00000
     91      -5.9938      1.00000
     92      -5.9633      1.00000
     93      -5.9283      1.00000
     94      -5.8655      1.00000
     95      -5.8118      1.00000
     96      -5.7303      1.00000
     97      -5.6698      1.00000
     98      -5.6456      1.00000
     99      -5.4898      1.00000
    100      -5.4307      1.00000
    101      -5.3299      1.00000
    102      -5.3108      1.00000
    103      -5.2425      1.00000
    104      -5.1741      1.00000
    105      -5.1417      1.00000
    106      -5.0991      1.00000
    107      -5.0541      1.00000
    108      -4.9290      1.00000
    109      -4.8974      1.00000
    110      -4.8420      1.00000
    111      -4.7585      1.00000
    112      -4.7457      1.00000
    113      -4.6201      1.00000
    114      -4.6103      1.00000
    115      -4.5737      1.00000
    116      -4.4969      1.00000
    117      -4.4274      1.00000
    118      -4.3654      1.00000
    119      -4.2433      1.00000
    120      -4.2253      1.00000
    121      -4.1176      1.00000
    122      -4.0361      1.00000
    123      -3.9613      1.00000
    124      -3.8583      1.00000
    125      -3.7827      1.00000
    126      -3.7250      1.00000
    127      -3.6781      1.00000
    128      -3.5587      1.00000
    129      -3.4825      1.00000
    130      -3.3946      1.00000
    131      -3.3634      1.00000
    132      -3.2549      1.00000
    133      -3.2297      1.00000
    134      -3.1838      1.00000
    135      -3.0963      1.00000
    136      -3.0689      1.00000
    137      -3.0037      1.00000
    138      -2.8836      1.00000
    139      -2.8186      1.00000
    140      -2.7321      1.00000
    141      -2.6430      1.00000
    142      -2.5580      1.00000
    143      -2.4481      1.00000
    144      -2.4212      1.00000
    145      -2.3993      1.00000
    146      -2.2039      1.00000
    147      -2.1831      1.00000
    148      -2.0332      1.00021
    149      -1.9643      1.00112
    150      -1.7754      1.02473
    151      -1.6279      0.99657
    152      -0.9353     -0.00062
    153      -0.6864     -0.00000
    154      -0.4656     -0.00000
    155      -0.3421     -0.00000
    156      -0.1242     -0.00000
    157       1.5111     -0.00000
    158       1.7077     -0.00000
    159       1.7614     -0.00000
    160       1.8697     -0.00000
    161       1.9227     -0.00000
    162       1.9463     -0.00000
    163       1.9950     -0.00000
    164       2.0813     -0.00000
    165       2.1029     -0.00000
    166       2.1984     -0.00000
    167       2.2551     -0.00000
    168       2.3260     -0.00000
    169       2.3463     -0.00000
    170       2.3585     -0.00000
    171       2.4063     -0.00000
    172       2.4435     -0.00000
    173       2.6441     -0.00000
    174       2.7183     -0.00000
    175       2.8654     -0.00000
    176       2.9678     -0.00000
    177       3.0025     -0.00000
    178       3.0535     -0.00000

 k-point     9 :       0.2500    0.5000   -0.0000
  band No.  band energies     occupation 
      1     -52.3297      1.00000
      2     -52.2293      1.00000
      3     -52.1697      1.00000
      4     -52.1031      1.00000
      5     -51.9845      1.00000
      6     -51.9473      1.00000
      7     -51.9282      1.00000
      8     -51.9243      1.00000
      9     -51.8863      1.00000
     10     -51.8679      1.00000
     11     -51.6490      1.00000
     12     -51.6410      1.00000
     13     -51.0895      1.00000
     14     -51.0700      1.00000
     15     -50.9895      1.00000
     16     -50.8758      1.00000
     17     -50.8555      1.00000
     18     -50.7917      1.00000
     19     -50.7107      1.00000
     20     -50.6945      1.00000
     21     -50.6615      1.00000
     22     -50.5860      1.00000
     23     -50.5432      1.00000
     24     -50.4978      1.00000
     25     -48.2344      1.00000
     26     -48.1207      1.00000
     27     -48.0687      1.00000
     28     -48.0363      1.00000
     29     -48.0358      1.00000
     30     -48.0116      1.00000
     31     -47.6590      1.00000
     32     -47.5733      1.00000
     33     -47.0652      1.00000
     34     -47.0610      1.00000
     35     -47.0452      1.00000
     36     -46.8129      1.00000
     37     -21.5034      1.00000
     38     -21.0594      1.00000
     39     -20.4604      1.00000
     40     -20.1399      1.00000
     41     -20.0634      1.00000
     42     -19.9203      1.00000
     43     -19.7827      1.00000
     44     -19.6817      1.00000
     45     -19.6324      1.00000
     46     -19.4821      1.00000
     47     -19.4250      1.00000
     48     -19.3978      1.00000
     49     -19.3506      1.00000
     50     -19.2927      1.00000
     51     -19.2321      1.00000
     52     -19.1780      1.00000
     53     -19.1187      1.00000
     54     -18.9850      1.00000
     55     -18.7970      1.00000
     56     -17.5808      1.00000
     57      -9.6249      1.00000
     58      -8.8592      1.00000
     59      -8.7028      1.00000
     60      -8.6946      1.00000
     61      -8.2197      1.00000
     62      -7.9233      1.00000
     63      -7.8019      1.00000
     64      -7.7240      1.00000
     65      -7.6684      1.00000
     66      -7.5721      1.00000
     67      -7.5395      1.00000
     68      -7.4159      1.00000
     69      -7.3635      1.00000
     70      -7.3167      1.00000
     71      -7.2724      1.00000
     72      -7.1862      1.00000
     73      -7.1552      1.00000
     74      -7.0343      1.00000
     75      -6.9985      1.00000
     76      -6.9570      1.00000
     77      -6.8712      1.00000
     78      -6.8418      1.00000
     79      -6.7962      1.00000
     80      -6.7090      1.00000
     81      -6.6494      1.00000
     82      -6.5703      1.00000
     83      -6.5560      1.00000
     84      -6.4788      1.00000
     85      -6.4553      1.00000
     86      -6.3820      1.00000
     87      -6.2758      1.00000
     88      -6.2281      1.00000
     89      -6.1747      1.00000
     90      -6.1145      1.00000
     91      -6.0165      1.00000
     92      -5.9472      1.00000
     93      -5.9056      1.00000
     94      -5.8186      1.00000
     95      -5.8059      1.00000
     96      -5.7238      1.00000
     97      -5.6473      1.00000
     98      -5.5955      1.00000
     99      -5.5215      1.00000
    100      -5.4458      1.00000
    101      -5.3972      1.00000
    102      -5.3230      1.00000
    103      -5.2324      1.00000
    104      -5.1791      1.00000
    105      -5.1237      1.00000
    106      -5.0582      1.00000
    107      -4.9900      1.00000
    108      -4.9345      1.00000
    109      -4.8812      1.00000
    110      -4.8492      1.00000
    111      -4.7858      1.00000
    112      -4.7509      1.00000
    113      -4.6799      1.00000
    114      -4.6080      1.00000
    115      -4.5107      1.00000
    116      -4.4640      1.00000
    117      -4.3823      1.00000
    118      -4.3443      1.00000
    119      -4.2873      1.00000
    120      -4.2111      1.00000
    121      -4.1421      1.00000
    122      -4.0557      1.00000
    123      -3.9537      1.00000
    124      -3.8769      1.00000
    125      -3.8115      1.00000
    126      -3.7530      1.00000
    127      -3.6821      1.00000
    128      -3.5677      1.00000
    129      -3.4954      1.00000
    130      -3.4055      1.00000
    131      -3.3619      1.00000
    132      -3.2841      1.00000
    133      -3.2263      1.00000
    134      -3.1575      1.00000
    135      -3.1117      1.00000
    136      -3.0346      1.00000
    137      -2.9612      1.00000
    138      -2.8883      1.00000
    139      -2.8394      1.00000
    140      -2.8014      1.00000
    141      -2.6926      1.00000
    142      -2.6099      1.00000
    143      -2.5455      1.00000
    144      -2.3945      1.00000
    145      -2.2383      1.00000
    146      -2.1907      1.00000
    147      -2.0997      1.00003
    148      -2.0400      1.00017
    149      -1.8316      1.01276
    150      -1.7615      1.02788
    151      -1.7019      1.03533
    152      -0.8914     -0.00020
    153      -0.7327     -0.00000
    154      -0.4757     -0.00000
    155      -0.3215     -0.00000
    156      -0.1436     -0.00000
    157       1.6525     -0.00000
    158       1.7103     -0.00000
    159       1.7700     -0.00000
    160       1.8142     -0.00000
    161       1.9182     -0.00000
    162       1.9720     -0.00000
    163       1.9899     -0.00000
    164       2.0605     -0.00000
    165       2.1255     -0.00000
    166       2.1996     -0.00000
    167       2.2402     -0.00000
    168       2.3177     -0.00000
    169       2.3509     -0.00000
    170       2.3993     -0.00000
    171       2.4482     -0.00000
    172       2.4804     -0.00000
    173       2.5541     -0.00000
    174       2.6942     -0.00000
    175       2.7471     -0.00000
    176       2.9155     -0.00000
    177       2.9800     -0.00000
    178       3.1560     -0.00000

 k-point    10 :       0.5000    0.5000   -0.0000
  band No.  band energies     occupation 
      1     -52.3296      1.00000
      2     -52.2293      1.00000
      3     -52.1697      1.00000
      4     -52.1031      1.00000
      5     -51.9845      1.00000
      6     -51.9473      1.00000
      7     -51.9282      1.00000
      8     -51.9243      1.00000
      9     -51.8863      1.00000
     10     -51.8679      1.00000
     11     -51.6490      1.00000
     12     -51.6411      1.00000
     13     -51.0895      1.00000
     14     -51.0700      1.00000
     15     -50.9895      1.00000
     16     -50.8758      1.00000
     17     -50.8555      1.00000
     18     -50.7917      1.00000
     19     -50.7106      1.00000
     20     -50.6945      1.00000
     21     -50.6615      1.00000
     22     -50.5860      1.00000
     23     -50.5432      1.00000
     24     -50.4978      1.00000
     25     -48.2344      1.00000
     26     -48.1208      1.00000
     27     -48.0686      1.00000
     28     -48.0359      1.00000
     29     -48.0346      1.00000
     30     -48.0131      1.00000
     31     -47.6590      1.00000
     32     -47.5734      1.00000
     33     -47.0652      1.00000
     34     -47.0535      1.00000
     35     -47.0529      1.00000
     36     -46.8126      1.00000
     37     -21.5053      1.00000
     38     -21.0554      1.00000
     39     -20.4597      1.00000
     40     -20.1348      1.00000
     41     -20.0706      1.00000
     42     -19.9191      1.00000
     43     -19.8028      1.00000
     44     -19.6521      1.00000
     45     -19.6398      1.00000
     46     -19.5011      1.00000
     47     -19.4047      1.00000
     48     -19.3807      1.00000
     49     -19.3483      1.00000
     50     -19.2899      1.00000
     51     -19.2525      1.00000
     52     -19.1953      1.00000
     53     -19.1051      1.00000
     54     -18.9876      1.00000
     55     -18.7970      1.00000
     56     -17.5833      1.00000
     57      -9.6233      1.00000
     58      -8.8584      1.00000
     59      -8.7055      1.00000
     60      -8.6733      1.00000
     61      -8.2449      1.00000
     62      -7.8964      1.00000
     63      -7.8093      1.00000
     64      -7.7250      1.00000
     65      -7.6245      1.00000
     66      -7.6119      1.00000
     67      -7.4972      1.00000
     68      -7.3680      1.00000
     69      -7.3595      1.00000
     70      -7.3102      1.00000
     71      -7.2519      1.00000
     72      -7.1739      1.00000
     73      -7.1583      1.00000
     74      -7.0646      1.00000
     75      -7.0042      1.00000
     76      -6.9573      1.00000
     77      -6.8683      1.00000
     78      -6.8419      1.00000
     79      -6.7770      1.00000
     80      -6.7088      1.00000
     81      -6.6347      1.00000
     82      -6.6106      1.00000
     83      -6.5407      1.00000
     84      -6.4843      1.00000
     85      -6.4349      1.00000
     86      -6.3955      1.00000
     87      -6.3348      1.00000
     88      -6.2889      1.00000
     89      -6.1997      1.00000
     90      -6.1052      1.00000
     91      -6.0382      1.00000
     92      -5.9521      1.00000
     93      -5.8868      1.00000
     94      -5.8651      1.00000
     95      -5.7840      1.00000
     96      -5.7485      1.00000
     97      -5.6613      1.00000
     98      -5.4713      1.00000
     99      -5.4627      1.00000
    100      -5.4353      1.00000
    101      -5.3982      1.00000
    102      -5.3622      1.00000
    103      -5.2670      1.00000
    104      -5.1892      1.00000
    105      -5.1433      1.00000
    106      -5.0611      1.00000
    107      -5.0144      1.00000
    108      -4.9837      1.00000
    109      -4.8944      1.00000
    110      -4.8553      1.00000
    111      -4.8083      1.00000
    112      -4.7712      1.00000
    113      -4.7114      1.00000
    114      -4.5899      1.00000
    115      -4.5077      1.00000
    116      -4.4557      1.00000
    117      -4.4315      1.00000
    118      -4.3272      1.00000
    119      -4.2129      1.00000
    120      -4.1977      1.00000
    121      -4.1630      1.00000
    122      -4.0684      1.00000
    123      -3.9504      1.00000
    124      -3.9254      1.00000
    125      -3.8035      1.00000
    126      -3.7174      1.00000
    127      -3.6784      1.00000
    128      -3.6212      1.00000
    129      -3.5078      1.00000
    130      -3.3961      1.00000
    131      -3.3173      1.00000
    132      -3.2327      1.00000
    133      -3.1932      1.00000
    134      -3.1547      1.00000
    135      -3.0962      1.00000
    136      -3.0285      1.00000
    137      -2.9764      1.00000
    138      -2.9155      1.00000
    139      -2.8718      1.00000
    140      -2.7138      1.00000
    141      -2.6059      1.00000
    142      -2.5769      1.00000
    143      -2.4780      1.00000
    144      -2.4290      1.00000
    145      -2.3181      1.00000
    146      -2.3096      1.00000
    147      -2.1716      1.00000
    148      -2.0113      1.00036
    149      -1.9151      1.00313
    150      -1.7041      1.03541
    151      -1.6063      0.96618
    152      -0.9634     -0.00118
    153      -0.7019     -0.00000
    154      -0.4428     -0.00000
    155      -0.2428     -0.00000
    156      -0.1273     -0.00000
    157       1.5970     -0.00000
    158       1.6913     -0.00000
    159       1.7300     -0.00000
    160       1.9035     -0.00000
    161       1.9530     -0.00000
    162       2.0043     -0.00000
    163       2.0273     -0.00000
    164       2.0587     -0.00000
    165       2.0982     -0.00000
    166       2.1528     -0.00000
    167       2.1711     -0.00000
    168       2.1845     -0.00000
    169       2.3368     -0.00000
    170       2.3783     -0.00000
    171       2.4134     -0.00000
    172       2.4593     -0.00000
    173       2.6104     -0.00000
    174       2.7328     -0.00000
    175       2.8164     -0.00000
    176       2.8377     -0.00000
    177       3.0879     -0.00000
    178       3.2264     -0.00000

 spin component 2

 k-point     1 :       0.0000    0.0000    0.0000
  band No.  band energies     occupation 
      1     -52.1563      1.00000
      2     -52.0912      1.00000
      3     -51.9674      1.00000
      4     -51.9465      1.00000
      5     -51.9380      1.00000
      6     -51.9097      1.00000
      7     -51.6657      1.00000
      8     -51.6533      1.00000
      9     -51.6351      1.00000
     10     -51.6243      1.00000
     11     -51.6063      1.00000
     12     -51.4604      1.00000
     13     -48.4641      1.00000
     14     -48.1628      1.00000
     15     -48.0929      1.00000
     16     -48.0341      1.00000
     17     -47.9042      1.00000
     18     -47.8792      1.00000
     19     -47.8620      1.00000
     20     -47.7691      1.00000
     21     -47.7319      1.00000
     22     -47.2147      1.00000
     23     -47.0099      1.00000
     24     -46.9720      1.00000
     25     -46.4115      1.00000
     26     -46.3354      1.00000
     27     -46.2143      1.00000
     28     -45.9819      1.00000
     29     -45.9475      1.00000
     30     -45.9031      1.00000
     31     -45.8677      1.00000
     32     -45.8321      1.00000
     33     -45.8144      1.00000
     34     -45.7602      1.00000
     35     -45.7238      1.00000
     36     -45.6974      1.00000
     37     -21.6542      1.00000
     38     -21.0007      1.00000
     39     -20.5551      1.00000
     40     -20.2878      1.00000
     41     -20.0060      1.00000
     42     -19.9528      1.00000
     43     -19.6848      1.00000
     44     -19.5516      1.00000
     45     -19.5346      1.00000
     46     -19.4275      1.00000
     47     -19.3962      1.00000
     48     -19.3766      1.00000
     49     -19.3007      1.00000
     50     -19.1755      1.00000
     51     -19.1363      1.00000
     52     -19.1019      1.00000
     53     -19.0683      1.00000
     54     -18.9144      1.00000
     55     -18.7362      1.00000
     56     -17.4760      1.00000
     57      -9.8528      1.00000
     58      -8.9082      1.00000
     59      -8.6526      1.00000
     60      -8.4878      1.00000
     61      -8.1379      1.00000
     62      -8.0310      1.00000
     63      -7.9249      1.00000
     64      -7.8778      1.00000
     65      -7.6498      1.00000
     66      -7.5659      1.00000
     67      -7.4457      1.00000
     68      -7.3530      1.00000
     69      -7.2176      1.00000
     70      -7.1867      1.00000
     71      -7.1016      1.00000
     72      -6.9240      1.00000
     73      -6.8410      1.00000
     74      -6.7147      1.00000
     75      -6.6878      1.00000
     76      -6.6005      1.00000
     77      -6.5346      1.00000
     78      -6.4729      1.00000
     79      -6.4624      1.00000
     80      -6.3719      1.00000
     81      -6.3473      1.00000
     82      -6.2837      1.00000
     83      -6.2591      1.00000
     84      -6.2390      1.00000
     85      -6.1858      1.00000
     86      -6.1384      1.00000
     87      -5.9948      1.00000
     88      -5.8593      1.00000
     89      -5.5632      1.00000
     90      -5.3966      1.00000
     91      -5.3477      1.00000
     92      -5.2682      1.00000
     93      -5.2320      1.00000
     94      -5.1862      1.00000
     95      -5.0963      1.00000
     96      -4.9837      1.00000
     97      -4.9797      1.00000
     98      -4.8516      1.00000
     99      -4.8376      1.00000
    100      -4.8050      1.00000
    101      -4.7374      1.00000
    102      -4.6806      1.00000
    103      -4.6680      1.00000
    104      -4.6002      1.00000
    105      -4.5442      1.00000
    106      -4.5269      1.00000
    107      -4.4101      1.00000
    108      -4.3515      1.00000
    109      -4.3219      1.00000
    110      -4.2369      1.00000
    111      -4.1452      1.00000
    112      -4.0387      1.00000
    113      -3.9685      1.00000
    114      -3.9099      1.00000
    115      -3.8776      1.00000
    116      -3.8192      1.00000
    117      -3.7892      1.00000
    118      -3.6954      1.00000
    119      -3.6537      1.00000
    120      -3.6191      1.00000
    121      -3.5057      1.00000
    122      -3.4827      1.00000
    123      -3.3386      1.00000
    124      -3.0543      1.00000
    125      -2.8998      1.00000
    126      -2.6099      1.00000
    127      -2.3369      1.00000
    128      -2.2215      1.00000
    129      -2.1813      1.00000
    130      -2.0253      1.00025
    131      -1.9014      1.00407
    132      -1.7342      1.03319
    133       0.0085     -0.00000
    134       0.1119     -0.00000
    135       0.2493     -0.00000
    136       0.2840     -0.00000
    137       0.3439     -0.00000
    138       1.4808     -0.00000
    139       1.5350     -0.00000
    140       1.5979     -0.00000
    141       1.6812     -0.00000
    142       1.7450     -0.00000
    143       1.7917     -0.00000
    144       1.8526     -0.00000
    145       1.9347     -0.00000
    146       1.9938     -0.00000
    147       2.0166     -0.00000
    148       2.0630     -0.00000
    149       2.1083     -0.00000
    150       2.2086     -0.00000
    151       2.2557     -0.00000
    152       2.2770     -0.00000
    153       2.2887     -0.00000
    154       2.3605     -0.00000
    155       2.4420     -0.00000
    156       2.6007     -0.00000
    157       2.6888     -0.00000
    158       2.7496     -0.00000
    159       2.8059     -0.00000
    160       2.8465     -0.00000
    161       2.8985     -0.00000
    162       2.9610     -0.00000
    163       3.0292     -0.00000
    164       3.0665     -0.00000
    165       3.1376     -0.00000
    166       3.1822     -0.00000
    167       3.2051     -0.00000
    168       3.2810     -0.00000
    169       3.3041     -0.00000
    170       3.3367     -0.00000
    171       3.3627     -0.00000
    172       3.4280     -0.00000
    173       3.4634     -0.00000
    174       3.6588     -0.00000
    175       3.6896     -0.00000
    176       3.8627     -0.00000
    177       3.9800     -0.00000
    178       4.0181      0.00000

 k-point     2 :       0.2500    0.0000   -0.0000
  band No.  band energies     occupation 
      1     -52.1563      1.00000
      2     -52.0911      1.00000
      3     -51.9674      1.00000
      4     -51.9455      1.00000
      5     -51.9382      1.00000
      6     -51.9102      1.00000
      7     -51.6630      1.00000
      8     -51.6536      1.00000
      9     -51.6374      1.00000
     10     -51.6219      1.00000
     11     -51.6091      1.00000
     12     -51.4606      1.00000
     13     -48.4641      1.00000
     14     -48.1628      1.00000
     15     -48.0929      1.00000
     16     -48.0341      1.00000
     17     -47.9042      1.00000
     18     -47.8792      1.00000
     19     -47.8620      1.00000
     20     -47.7692      1.00000
     21     -47.7319      1.00000
     22     -47.2147      1.00000
     23     -47.0099      1.00000
     24     -46.9719      1.00000
     25     -46.4115      1.00000
     26     -46.3354      1.00000
     27     -46.2143      1.00000
     28     -45.9819      1.00000
     29     -45.9475      1.00000
     30     -45.9031      1.00000
     31     -45.8677      1.00000
     32     -45.8321      1.00000
     33     -45.8144      1.00000
     34     -45.7602      1.00000
     35     -45.7238      1.00000
     36     -45.6974      1.00000
     37     -21.6437      1.00000
     38     -20.9989      1.00000
     39     -20.5076      1.00000
     40     -20.2318      1.00000
     41     -19.9632      1.00000
     42     -19.9491      1.00000
     43     -19.7888      1.00000
     44     -19.6495      1.00000
     45     -19.4916      1.00000
     46     -19.4152      1.00000
     47     -19.3974      1.00000
     48     -19.3870      1.00000
     49     -19.2967      1.00000
     50     -19.1794      1.00000
     51     -19.1684      1.00000
     52     -19.1079      1.00000
     53     -19.0704      1.00000
     54     -18.9162      1.00000
     55     -18.7376      1.00000
     56     -17.4797      1.00000
     57      -9.8223      1.00000
     58      -8.8077      1.00000
     59      -8.6160      1.00000
     60      -8.3169      1.00000
     61      -8.1184      1.00000
     62      -8.0230      1.00000
     63      -7.8759      1.00000
     64      -7.8162      1.00000
     65      -7.5807      1.00000
     66      -7.5445      1.00000
     67      -7.4524      1.00000
     68      -7.3386      1.00000
     69      -7.2935      1.00000
     70      -7.1597      1.00000
     71      -7.0192      1.00000
     72      -6.9635      1.00000
     73      -6.8519      1.00000
     74      -6.8113      1.00000
     75      -6.7342      1.00000
     76      -6.6937      1.00000
     77      -6.5470      1.00000
     78      -6.4972      1.00000
     79      -6.3811      1.00000
     80      -6.3300      1.00000
     81      -6.3112      1.00000
     82      -6.2366      1.00000
     83      -6.2098      1.00000
     84      -6.1757      1.00000
     85      -6.0308      1.00000
     86      -5.9633      1.00000
     87      -5.9244      1.00000
     88      -5.6914      1.00000
     89      -5.5917      1.00000
     90      -5.4887      1.00000
     91      -5.4590      1.00000
     92      -5.3583      1.00000
     93      -5.3040      1.00000
     94      -5.2378      1.00000
     95      -5.2132      1.00000
     96      -5.0863      1.00000
     97      -5.0704      1.00000
     98      -5.0311      1.00000
     99      -4.9605      1.00000
    100      -4.8656      1.00000
    101      -4.7791      1.00000
    102      -4.7327      1.00000
    103      -4.6717      1.00000
    104      -4.6016      1.00000
    105      -4.4571      1.00000
    106      -4.4148      1.00000
    107      -4.3924      1.00000
    108      -4.3477      1.00000
    109      -4.2521      1.00000
    110      -4.2211      1.00000
    111      -4.1212      1.00000
    112      -4.0638      1.00000
    113      -4.0170      1.00000
    114      -3.9811      1.00000
    115      -3.9123      1.00000
    116      -3.8541      1.00000
    117      -3.7783      1.00000
    118      -3.7230      1.00000
    119      -3.6794      1.00000
    120      -3.6232      1.00000
    121      -3.5248      1.00000
    122      -3.4865      1.00000
    123      -3.3766      1.00000
    124      -3.1525      1.00000
    125      -2.8532      1.00000
    126      -2.7756      1.00000
    127      -2.4719      1.00000
    128      -2.3296      1.00000
    129      -2.3153      1.00000
    130      -2.2205      1.00000
    131      -2.0513      1.00013
    132      -1.8095      1.01706
    133       0.0028     -0.00000
    134       0.1251     -0.00000
    135       0.2837     -0.00000
    136       0.3336     -0.00000
    137       0.5542     -0.00000
    138       1.5065     -0.00000
    139       1.5906     -0.00000
    140       1.6225     -0.00000
    141       1.6903     -0.00000
    142       1.7687     -0.00000
    143       1.8315     -0.00000
    144       1.8919     -0.00000
    145       1.9675     -0.00000
    146       2.0112     -0.00000
    147       2.0604     -0.00000
    148       2.1344     -0.00000
    149       2.1741     -0.00000
    150       2.2488     -0.00000
    151       2.2660     -0.00000
    152       2.3366     -0.00000
    153       2.3501     -0.00000
    154       2.3778     -0.00000
    155       2.4472     -0.00000
    156       2.5234     -0.00000
    157       2.6148     -0.00000
    158       2.7108     -0.00000
    159       2.7676     -0.00000
    160       2.8689     -0.00000
    161       2.9117     -0.00000
    162       3.0079     -0.00000
    163       3.0744     -0.00000
    164       3.1447     -0.00000
    165       3.1649     -0.00000
    166       3.1830     -0.00000
    167       3.2098     -0.00000
    168       3.2547     -0.00000
    169       3.2815     -0.00000
    170       3.3318     -0.00000
    171       3.3919     -0.00000
    172       3.4514     -0.00000
    173       3.4848     -0.00000
    174       3.5663     -0.00000
    175       3.6148     -0.00000
    176       3.7810     -0.00000
    177       3.8404     -0.00000
    178       4.0274      0.00000

 k-point     3 :       0.5000    0.0000   -0.0000
  band No.  band energies     occupation 
      1     -52.1562      1.00000
      2     -52.0910      1.00000
      3     -51.9673      1.00000
      4     -51.9444      1.00000
      5     -51.9385      1.00000
      6     -51.9107      1.00000
      7     -51.6592      1.00000
      8     -51.6545      1.00000
      9     -51.6402      1.00000
     10     -51.6165      1.00000
     11     -51.6148      1.00000
     12     -51.4609      1.00000
     13     -48.4641      1.00000
     14     -48.1628      1.00000
     15     -48.0929      1.00000
     16     -48.0341      1.00000
     17     -47.9043      1.00000
     18     -47.8792      1.00000
     19     -47.8620      1.00000
     20     -47.7693      1.00000
     21     -47.7318      1.00000
     22     -47.2146      1.00000
     23     -47.0099      1.00000
     24     -46.9719      1.00000
     25     -46.4115      1.00000
     26     -46.3354      1.00000
     27     -46.2143      1.00000
     28     -45.9820      1.00000
     29     -45.9475      1.00000
     30     -45.9031      1.00000
     31     -45.8677      1.00000
     32     -45.8321      1.00000
     33     -45.8144      1.00000
     34     -45.7602      1.00000
     35     -45.7238      1.00000
     36     -45.6974      1.00000
     37     -21.6331      1.00000
     38     -20.9971      1.00000
     39     -20.4587      1.00000
     40     -20.0967      1.00000
     41     -20.0007      1.00000
     42     -19.9503      1.00000
     43     -19.8313      1.00000
     44     -19.7728      1.00000
     45     -19.4790      1.00000
     46     -19.4159      1.00000
     47     -19.4018      1.00000
     48     -19.3787      1.00000
     49     -19.2928      1.00000
     50     -19.2026      1.00000
     51     -19.1717      1.00000
     52     -19.1301      1.00000
     53     -19.0689      1.00000
     54     -18.9182      1.00000
     55     -18.7391      1.00000
     56     -17.4833      1.00000
     57      -9.7919      1.00000
     58      -8.6866      1.00000
     59      -8.5773      1.00000
     60      -8.1164      1.00000
     61      -8.0533      1.00000
     62      -7.9896      1.00000
     63      -7.9208      1.00000
     64      -7.7442      1.00000
     65      -7.5896      1.00000
     66      -7.5830      1.00000
     67      -7.4274      1.00000
     68      -7.3245      1.00000
     69      -7.2999      1.00000
     70      -7.1546      1.00000
     71      -7.1072      1.00000
     72      -6.8983      1.00000
     73      -6.8392      1.00000
     74      -6.7757      1.00000
     75      -6.7024      1.00000
     76      -6.6346      1.00000
     77      -6.6197      1.00000
     78      -6.4337      1.00000
     79      -6.3540      1.00000
     80      -6.2954      1.00000
     81      -6.1958      1.00000
     82      -6.1653      1.00000
     83      -6.1428      1.00000
     84      -6.0952      1.00000
     85      -6.0058      1.00000
     86      -5.8757      1.00000
     87      -5.8241      1.00000
     88      -5.7815      1.00000
     89      -5.6692      1.00000
     90      -5.6052      1.00000
     91      -5.5768      1.00000
     92      -5.4920      1.00000
     93      -5.4594      1.00000
     94      -5.3112      1.00000
     95      -5.2399      1.00000
     96      -5.1765      1.00000
     97      -5.1226      1.00000
     98      -5.0770      1.00000
     99      -4.9399      1.00000
    100      -4.9345      1.00000
    101      -4.8527      1.00000
    102      -4.7655      1.00000
    103      -4.6699      1.00000
    104      -4.5910      1.00000
    105      -4.5067      1.00000
    106      -4.4996      1.00000
    107      -4.3559      1.00000
    108      -4.3257      1.00000
    109      -4.2081      1.00000
    110      -4.1943      1.00000
    111      -4.1675      1.00000
    112      -4.0560      1.00000
    113      -4.0530      1.00000
    114      -3.9578      1.00000
    115      -3.9193      1.00000
    116      -3.8034      1.00000
    117      -3.7774      1.00000
    118      -3.6885      1.00000
    119      -3.6732      1.00000
    120      -3.6139      1.00000
    121      -3.5729      1.00000
    122      -3.4801      1.00000
    123      -3.2949      1.00000
    124      -3.2225      1.00000
    125      -2.9517      1.00000
    126      -2.8972      1.00000
    127      -2.6590      1.00000
    128      -2.6304      1.00000
    129      -2.4858      1.00000
    130      -2.2461      1.00000
    131      -2.2087      1.00000
    132      -1.8497      1.00978
    133      -0.0040     -0.00000
    134       0.1365     -0.00000
    135       0.2920     -0.00000
    136       0.3496     -0.00000
    137       0.9840     -0.00000
    138       1.4774     -0.00000
    139       1.5253     -0.00000
    140       1.6513     -0.00000
    141       1.6617     -0.00000
    142       1.7505     -0.00000
    143       1.8229     -0.00000
    144       1.8768     -0.00000
    145       1.9173     -0.00000
    146       2.0197     -0.00000
    147       2.0231     -0.00000
    148       2.0628     -0.00000
    149       2.1585     -0.00000
    150       2.2047     -0.00000
    151       2.2802     -0.00000
    152       2.3509     -0.00000
    153       2.4028     -0.00000
    154       2.4374     -0.00000
    155       2.4926     -0.00000
    156       2.6593     -0.00000
    157       2.7536     -0.00000
    158       2.8482     -0.00000
    159       2.8869     -0.00000
    160       2.9829     -0.00000
    161       3.0353     -0.00000
    162       3.1097     -0.00000
    163       3.1317     -0.00000
    164       3.1609     -0.00000
    165       3.1684     -0.00000
    166       3.2134     -0.00000
    167       3.2670     -0.00000
    168       3.3074     -0.00000
    169       3.3383     -0.00000
    170       3.3743     -0.00000
    171       3.4246     -0.00000
    172       3.4638     -0.00000
    173       3.5072     -0.00000
    174       3.5269     -0.00000
    175       3.6096     -0.00000
    176       3.7351     -0.00000
    177       3.8915     -0.00000
    178       4.1105      0.00000

 k-point     4 :       0.0000    0.2500   -0.0000
  band No.  band energies     occupation 
      1     -52.1560      1.00000
      2     -52.0911      1.00000
      3     -51.9673      1.00000
      4     -51.9464      1.00000
      5     -51.9380      1.00000
      6     -51.9097      1.00000
      7     -51.6630      1.00000
      8     -51.6536      1.00000
      9     -51.6374      1.00000
     10     -51.6243      1.00000
     11     -51.6063      1.00000
     12     -51.4607      1.00000
     13     -48.4644      1.00000
     14     -48.1630      1.00000
     15     -48.0929      1.00000
     16     -48.0341      1.00000
     17     -47.9045      1.00000
     18     -47.8792      1.00000
     19     -47.8623      1.00000
     20     -47.7691      1.00000
     21     -47.7319      1.00000
     22     -47.2147      1.00000
     23     -47.0099      1.00000
     24     -46.9720      1.00000
     25     -46.4115      1.00000
     26     -46.3354      1.00000
     27     -46.2143      1.00000
     28     -45.9820      1.00000
     29     -45.9475      1.00000
     30     -45.9031      1.00000
     31     -45.8677      1.00000
     32     -45.8321      1.00000
     33     -45.8144      1.00000
     34     -45.7602      1.00000
     35     -45.7238      1.00000
     36     -45.6974      1.00000
     37     -21.6155      1.00000
     38     -21.0279      1.00000
     39     -20.4765      1.00000
     40     -20.2028      1.00000
     41     -20.0020      1.00000
     42     -19.9437      1.00000
     43     -19.6800      1.00000
     44     -19.5905      1.00000
     45     -19.5261      1.00000
     46     -19.4985      1.00000
     47     -19.4293      1.00000
     48     -19.3615      1.00000
     49     -19.2897      1.00000
     50     -19.2298      1.00000
     51     -19.1496      1.00000
     52     -19.1094      1.00000
     53     -19.0887      1.00000
     54     -18.9426      1.00000
     55     -18.7691      1.00000
     56     -17.4897      1.00000
     57      -9.8000      1.00000
     58      -8.8414      1.00000
     59      -8.5756      1.00000
     60      -8.3203      1.00000
     61      -8.1610      1.00000
     62      -7.9507      1.00000
     63      -7.7403      1.00000
     64      -7.6925      1.00000
     65      -7.5646      1.00000
     66      -7.4395      1.00000
     67      -7.3705      1.00000
     68      -7.2400      1.00000
     69      -7.1829      1.00000
     70      -7.1206      1.00000
     71      -7.0224      1.00000
     72      -6.9496      1.00000
     73      -6.8866      1.00000
     74      -6.7989      1.00000
     75      -6.7427      1.00000
     76      -6.7280      1.00000
     77      -6.6130      1.00000
     78      -6.5051      1.00000
     79      -6.4912      1.00000
     80      -6.4342      1.00000
     81      -6.3421      1.00000
     82      -6.2105      1.00000
     83      -6.1876      1.00000
     84      -6.1614      1.00000
     85      -6.0974      1.00000
     86      -5.9840      1.00000
     87      -5.9661      1.00000
     88      -5.8809      1.00000
     89      -5.6070      1.00000
     90      -5.5227      1.00000
     91      -5.4775      1.00000
     92      -5.3521      1.00000
     93      -5.2744      1.00000
     94      -5.2419      1.00000
     95      -5.1515      1.00000
     96      -5.0726      1.00000
     97      -5.0052      1.00000
     98      -4.9583      1.00000
     99      -4.8528      1.00000
    100      -4.8113      1.00000
    101      -4.7808      1.00000
    102      -4.7287      1.00000
    103      -4.6885      1.00000
    104      -4.5878      1.00000
    105      -4.5706      1.00000
    106      -4.5063      1.00000
    107      -4.4597      1.00000
    108      -4.3829      1.00000
    109      -4.3367      1.00000
    110      -4.2488      1.00000
    111      -4.1552      1.00000
    112      -4.0819      1.00000
    113      -4.0394      1.00000
    114      -3.9939      1.00000
    115      -3.9152      1.00000
    116      -3.8288      1.00000
    117      -3.7922      1.00000
    118      -3.7324      1.00000
    119      -3.7206      1.00000
    120      -3.6431      1.00000
    121      -3.5099      1.00000
    122      -3.4172      1.00000
    123      -3.2967      1.00000
    124      -3.2145      1.00000
    125      -2.9533      1.00000
    126      -2.7758      1.00000
    127      -2.4584      1.00000
    128      -2.2996      1.00000
    129      -2.2547      1.00000
    130      -2.0560      1.00011
    131      -1.9982      1.00050
    132      -1.7810      1.02344
    133      -0.2287     -0.00000
    134      -0.0824     -0.00000
    135       0.0236     -0.00000
    136       0.1627     -0.00000
    137       0.5888     -0.00000
    138       1.5272     -0.00000
    139       1.5715     -0.00000
    140       1.6513     -0.00000
    141       1.6895     -0.00000
    142       1.7741     -0.00000
    143       1.8059     -0.00000
    144       1.8903     -0.00000
    145       1.9380     -0.00000
    146       2.0016     -0.00000
    147       2.0324     -0.00000
    148       2.0845     -0.00000
    149       2.1119     -0.00000
    150       2.1964     -0.00000
    151       2.2447     -0.00000
    152       2.3266     -0.00000
    153       2.3709     -0.00000
    154       2.4191     -0.00000
    155       2.4916     -0.00000
    156       2.5475     -0.00000
    157       2.5977     -0.00000
    158       2.7033     -0.00000
    159       2.7691     -0.00000
    160       2.8757     -0.00000
    161       2.9265     -0.00000
    162       3.0066     -0.00000
    163       3.0677     -0.00000
    164       3.1278     -0.00000
    165       3.1608     -0.00000
    166       3.1813     -0.00000
    167       3.2425     -0.00000
    168       3.3202     -0.00000
    169       3.3487     -0.00000
    170       3.3656     -0.00000
    171       3.3912     -0.00000
    172       3.4554     -0.00000
    173       3.4977     -0.00000
    174       3.6187     -0.00000
    175       3.6563     -0.00000
    176       3.7947     -0.00000
    177       3.8634     -0.00000
    178       4.0101      0.00000

 k-point     5 :       0.2500    0.2500   -0.0000
  band No.  band energies     occupation 
      1     -52.1561      1.00000
      2     -52.0912      1.00000
      3     -51.9672      1.00000
      4     -51.9454      1.00000
      5     -51.9382      1.00000
      6     -51.9102      1.00000
      7     -51.6657      1.00000
      8     -51.6532      1.00000
      9     -51.6351      1.00000
     10     -51.6219      1.00000
     11     -51.6091      1.00000
     12     -51.4604      1.00000
     13     -48.4644      1.00000
     14     -48.1630      1.00000
     15     -48.0929      1.00000
     16     -48.0341      1.00000
     17     -47.9045      1.00000
     18     -47.8792      1.00000
     19     -47.8622      1.00000
     20     -47.7692      1.00000
     21     -47.7319      1.00000
     22     -47.2147      1.00000
     23     -47.0099      1.00000
     24     -46.9720      1.00000
     25     -46.4115      1.00000
     26     -46.3354      1.00000
     27     -46.2143      1.00000
     28     -45.9820      1.00000
     29     -45.9475      1.00000
     30     -45.9031      1.00000
     31     -45.8677      1.00000
     32     -45.8321      1.00000
     33     -45.8144      1.00000
     34     -45.7602      1.00000
     35     -45.7238      1.00000
     36     -45.6974      1.00000
     37     -21.6175      1.00000
     38     -21.0237      1.00000
     39     -20.4762      1.00000
     40     -20.1998      1.00000
     41     -20.0033      1.00000
     42     -19.9460      1.00000
     43     -19.6858      1.00000
     44     -19.6143      1.00000
     45     -19.5125      1.00000
     46     -19.4835      1.00000
     47     -19.4264      1.00000
     48     -19.3607      1.00000
     49     -19.2894      1.00000
     50     -19.1874      1.00000
     51     -19.1769      1.00000
     52     -19.1145      1.00000
     53     -19.1023      1.00000
     54     -18.9451      1.00000
     55     -18.7690      1.00000
     56     -17.4910      1.00000
     57      -9.8125      1.00000
     58      -8.7986      1.00000
     59      -8.5721      1.00000
     60      -8.2794      1.00000
     61      -8.1474      1.00000
     62      -7.9628      1.00000
     63      -7.7751      1.00000
     64      -7.7423      1.00000
     65      -7.4803      1.00000
     66      -7.4124      1.00000
     67      -7.3738      1.00000
     68      -7.2362      1.00000
     69      -7.1768      1.00000
     70      -7.1173      1.00000
     71      -7.0548      1.00000
     72      -7.0028      1.00000
     73      -6.8645      1.00000
     74      -6.8178      1.00000
     75      -6.7200      1.00000
     76      -6.6872      1.00000
     77      -6.6186      1.00000
     78      -6.5501      1.00000
     79      -6.5118      1.00000
     80      -6.4367      1.00000
     81      -6.3905      1.00000
     82      -6.3234      1.00000
     83      -6.2190      1.00000
     84      -6.1605      1.00000
     85      -6.0028      1.00000
     86      -5.9556      1.00000
     87      -5.8946      1.00000
     88      -5.7937      1.00000
     89      -5.6126      1.00000
     90      -5.5516      1.00000
     91      -5.4585      1.00000
     92      -5.3600      1.00000
     93      -5.3338      1.00000
     94      -5.2478      1.00000
     95      -5.2114      1.00000
     96      -5.1223      1.00000
     97      -5.0099      1.00000
     98      -4.9665      1.00000
     99      -4.8584      1.00000
    100      -4.8390      1.00000
    101      -4.7817      1.00000
    102      -4.7473      1.00000
    103      -4.7260      1.00000
    104      -4.5952      1.00000
    105      -4.5724      1.00000
    106      -4.4712      1.00000
    107      -4.4042      1.00000
    108      -4.3151      1.00000
    109      -4.2538      1.00000
    110      -4.2017      1.00000
    111      -4.1517      1.00000
    112      -4.0816      1.00000
    113      -4.0275      1.00000
    114      -3.9883      1.00000
    115      -3.8937      1.00000
    116      -3.8548      1.00000
    117      -3.7897      1.00000
    118      -3.7416      1.00000
    119      -3.6946      1.00000
    120      -3.6484      1.00000
    121      -3.5982      1.00000
    122      -3.4907      1.00000
    123      -3.3985      1.00000
    124      -3.2891      1.00000
    125      -2.8148      1.00000
    126      -2.8046      1.00000
    127      -2.3610      1.00000
    128      -2.3295      1.00000
    129      -2.2405      1.00000
    130      -2.1738      1.00000
    131      -1.9147      1.00315
    132      -1.7155      1.03523
    133      -0.2253     -0.00000
    134      -0.0959     -0.00000
    135       0.0200     -0.00000
    136       0.1780     -0.00000
    137       0.5991     -0.00000
    138       1.5111     -0.00000
    139       1.5640     -0.00000
    140       1.6372     -0.00000
    141       1.6870     -0.00000
    142       1.7624     -0.00000
    143       1.8163     -0.00000
    144       1.8811     -0.00000
    145       1.9484     -0.00000
    146       1.9847     -0.00000
    147       2.0475     -0.00000
    148       2.0821     -0.00000
    149       2.1232     -0.00000
    150       2.2418     -0.00000
    151       2.2771     -0.00000
    152       2.3382     -0.00000
    153       2.3498     -0.00000
    154       2.4286     -0.00000
    155       2.4800     -0.00000
    156       2.5540     -0.00000
    157       2.6228     -0.00000
    158       2.7140     -0.00000
    159       2.7535     -0.00000
    160       2.8576     -0.00000
    161       2.8991     -0.00000
    162       3.0062     -0.00000
    163       3.0732     -0.00000
    164       3.1107     -0.00000
    165       3.1768     -0.00000
    166       3.2301     -0.00000
    167       3.2521     -0.00000
    168       3.2711     -0.00000
    169       3.3447     -0.00000
    170       3.3543     -0.00000
    171       3.4206     -0.00000
    172       3.4515     -0.00000
    173       3.5067     -0.00000
    174       3.5839     -0.00000
    175       3.6440     -0.00000
    176       3.8073     -0.00000
    177       3.9345     -0.00000
    178       4.0347      0.00000

 k-point     6 :       0.5000    0.2500    0.0000
  band No.  band energies     occupation 
      1     -52.1560      1.00000
      2     -52.0911      1.00000
      3     -51.9672      1.00000
      4     -51.9442      1.00000
      5     -51.9386      1.00000
      6     -51.9107      1.00000
      7     -51.6630      1.00000
      8     -51.6535      1.00000
      9     -51.6374      1.00000
     10     -51.6165      1.00000
     11     -51.6148      1.00000
     12     -51.4606      1.00000
     13     -48.4644      1.00000
     14     -48.1630      1.00000
     15     -48.0929      1.00000
     16     -48.0341      1.00000
     17     -47.9045      1.00000
     18     -47.8792      1.00000
     19     -47.8622      1.00000
     20     -47.7693      1.00000
     21     -47.7318      1.00000
     22     -47.2147      1.00000
     23     -47.0099      1.00000
     24     -46.9719      1.00000
     25     -46.4115      1.00000
     26     -46.3354      1.00000
     27     -46.2143      1.00000
     28     -45.9820      1.00000
     29     -45.9475      1.00000
     30     -45.9031      1.00000
     31     -45.8677      1.00000
     32     -45.8321      1.00000
     33     -45.8144      1.00000
     34     -45.7602      1.00000
     35     -45.7238      1.00000
     36     -45.6974      1.00000
     37     -21.6066      1.00000
     38     -21.0223      1.00000
     39     -20.4260      1.00000
     40     -20.0825      1.00000
     41     -20.0111      1.00000
     42     -19.9027      1.00000
     43     -19.8181      1.00000
     44     -19.7127      1.00000
     45     -19.5328      1.00000
     46     -19.4799      1.00000
     47     -19.3816      1.00000
     48     -19.3630      1.00000
     49     -19.2896      1.00000
     50     -19.2374      1.00000
     51     -19.1613      1.00000
     52     -19.1398      1.00000
     53     -19.1018      1.00000
     54     -18.9345      1.00000
     55     -18.7695      1.00000
     56     -17.4941      1.00000
     57      -9.7823      1.00000
     58      -8.6927      1.00000
     59      -8.5301      1.00000
     60      -8.1770      1.00000
     61      -7.9910      1.00000
     62      -7.9214      1.00000
     63      -7.7868      1.00000
     64      -7.6568      1.00000
     65      -7.5128      1.00000
     66      -7.4216      1.00000
     67      -7.2943      1.00000
     68      -7.2589      1.00000
     69      -7.2213      1.00000
     70      -7.1219      1.00000
     71      -7.0709      1.00000
     72      -6.9667      1.00000
     73      -6.8851      1.00000
     74      -6.7965      1.00000
     75      -6.7753      1.00000
     76      -6.6672      1.00000
     77      -6.5991      1.00000
     78      -6.4923      1.00000
     79      -6.4810      1.00000
     80      -6.3459      1.00000
     81      -6.2583      1.00000
     82      -6.2107      1.00000
     83      -6.1290      1.00000
     84      -6.0864      1.00000
     85      -6.0484      1.00000
     86      -5.9520      1.00000
     87      -5.8651      1.00000
     88      -5.7856      1.00000
     89      -5.7418      1.00000
     90      -5.6423      1.00000
     91      -5.5507      1.00000
     92      -5.5104      1.00000
     93      -5.4526      1.00000
     94      -5.3360      1.00000
     95      -5.2835      1.00000
     96      -5.0973      1.00000
     97      -5.0713      1.00000
     98      -5.0100      1.00000
     99      -4.9257      1.00000
    100      -4.8560      1.00000
    101      -4.8444      1.00000
    102      -4.7608      1.00000
    103      -4.6827      1.00000
    104      -4.6344      1.00000
    105      -4.5501      1.00000
    106      -4.4962      1.00000
    107      -4.4373      1.00000
    108      -4.3173      1.00000
    109      -4.2471      1.00000
    110      -4.1796      1.00000
    111      -4.1386      1.00000
    112      -4.1122      1.00000
    113      -4.0646      1.00000
    114      -3.9990      1.00000
    115      -3.9317      1.00000
    116      -3.8539      1.00000
    117      -3.7979      1.00000
    118      -3.7448      1.00000
    119      -3.7052      1.00000
    120      -3.6488      1.00000
    121      -3.5956      1.00000
    122      -3.5307      1.00000
    123      -3.4130      1.00000
    124      -3.3500      1.00000
    125      -2.8575      1.00000
    126      -2.8049      1.00000
    127      -2.5289      1.00000
    128      -2.4730      1.00000
    129      -2.3881      1.00000
    130      -2.3550      1.00000
    131      -1.9939      1.00056
    132      -1.8181      1.01532
    133      -0.2307     -0.00000
    134      -0.0446     -0.00000
    135      -0.0162     -0.00000
    136       0.2052     -0.00000
    137       0.9836     -0.00000
    138       1.4988     -0.00000
    139       1.5287     -0.00000
    140       1.6419     -0.00000
    141       1.6975     -0.00000
    142       1.7307     -0.00000
    143       1.8502     -0.00000
    144       1.8788     -0.00000
    145       1.9467     -0.00000
    146       1.9868     -0.00000
    147       2.0200     -0.00000
    148       2.0838     -0.00000
    149       2.1030     -0.00000
    150       2.1705     -0.00000
    151       2.2823     -0.00000
    152       2.3399     -0.00000
    153       2.4289     -0.00000
    154       2.4846     -0.00000
    155       2.5296     -0.00000
    156       2.5924     -0.00000
    157       2.6443     -0.00000
    158       2.7775     -0.00000
    159       2.9073     -0.00000
    160       2.9684     -0.00000
    161       3.0062     -0.00000
    162       3.0512     -0.00000
    163       3.1037     -0.00000
    164       3.1533     -0.00000
    165       3.1986     -0.00000
    166       3.2444     -0.00000
    167       3.2847     -0.00000
    168       3.3213     -0.00000
    169       3.3374     -0.00000
    170       3.3708     -0.00000
    171       3.4135     -0.00000
    172       3.4697     -0.00000
    173       3.5103     -0.00000
    174       3.5634     -0.00000
    175       3.6669     -0.00000
    176       3.7675     -0.00000
    177       3.8968     -0.00000
    178       3.9389     -0.00000

 k-point     7 :      -0.2500    0.2500   -0.0000
  band No.  band energies     occupation 
      1     -52.1560      1.00000
      2     -52.0910      1.00000
      3     -51.9672      1.00000
      4     -51.9454      1.00000
      5     -51.9382      1.00000
      6     -51.9102      1.00000
      7     -51.6592      1.00000
      8     -51.6545      1.00000
      9     -51.6402      1.00000
     10     -51.6219      1.00000
     11     -51.6091      1.00000
     12     -51.4609      1.00000
     13     -48.4644      1.00000
     14     -48.1630      1.00000
     15     -48.0929      1.00000
     16     -48.0341      1.00000
     17     -47.9046      1.00000
     18     -47.8792      1.00000
     19     -47.8623      1.00000
     20     -47.7692      1.00000
     21     -47.7319      1.00000
     22     -47.2147      1.00000
     23     -47.0099      1.00000
     24     -46.9719      1.00000
     25     -46.4115      1.00000
     26     -46.3354      1.00000
     27     -46.2143      1.00000
     28     -45.9820      1.00000
     29     -45.9475      1.00000
     30     -45.9031      1.00000
     31     -45.8677      1.00000
     32     -45.8321      1.00000
     33     -45.8144      1.00000
     34     -45.7602      1.00000
     35     -45.7238      1.00000
     36     -45.6974      1.00000
     37     -21.6046      1.00000
     38     -21.0265      1.00000
     39     -20.4262      1.00000
     40     -20.0955      1.00000
     41     -19.9987      1.00000
     42     -19.9000      1.00000
     43     -19.8173      1.00000
     44     -19.7005      1.00000
     45     -19.5347      1.00000
     46     -19.4915      1.00000
     47     -19.3831      1.00000
     48     -19.3708      1.00000
     49     -19.2958      1.00000
     50     -19.2319      1.00000
     51     -19.1851      1.00000
     52     -19.1171      1.00000
     53     -19.0913      1.00000
     54     -18.9324      1.00000
     55     -18.7696      1.00000
     56     -17.4928      1.00000
     57      -9.7697      1.00000
     58      -8.7419      1.00000
     59      -8.5336      1.00000
     60      -8.1785      1.00000
     61      -8.0762      1.00000
     62      -7.9450      1.00000
     63      -7.7015      1.00000
     64      -7.6161      1.00000
     65      -7.5281      1.00000
     66      -7.4280      1.00000
     67      -7.3473      1.00000
     68      -7.2561      1.00000
     69      -7.1960      1.00000
     70      -7.1023      1.00000
     71      -7.0282      1.00000
     72      -6.9999      1.00000
     73      -6.8942      1.00000
     74      -6.7896      1.00000
     75      -6.7350      1.00000
     76      -6.6526      1.00000
     77      -6.6074      1.00000
     78      -6.4911      1.00000
     79      -6.4541      1.00000
     80      -6.3855      1.00000
     81      -6.3237      1.00000
     82      -6.1937      1.00000
     83      -6.1264      1.00000
     84      -6.0789      1.00000
     85      -6.0238      1.00000
     86      -5.9844      1.00000
     87      -5.8522      1.00000
     88      -5.7923      1.00000
     89      -5.7169      1.00000
     90      -5.6561      1.00000
     91      -5.5329      1.00000
     92      -5.5037      1.00000
     93      -5.3725      1.00000
     94      -5.2827      1.00000
     95      -5.2436      1.00000
     96      -5.1594      1.00000
     97      -5.1357      1.00000
     98      -5.0160      1.00000
     99      -4.9373      1.00000
    100      -4.8948      1.00000
    101      -4.8339      1.00000
    102      -4.7524      1.00000
    103      -4.6299      1.00000
    104      -4.6054      1.00000
    105      -4.5670      1.00000
    106      -4.5102      1.00000
    107      -4.4087      1.00000
    108      -4.3214      1.00000
    109      -4.2489      1.00000
    110      -4.2174      1.00000
    111      -4.1669      1.00000
    112      -4.0937      1.00000
    113      -4.0423      1.00000
    114      -3.9911      1.00000
    115      -3.9254      1.00000
    116      -3.8961      1.00000
    117      -3.8318      1.00000
    118      -3.7870      1.00000
    119      -3.7333      1.00000
    120      -3.6337      1.00000
    121      -3.5619      1.00000
    122      -3.4875      1.00000
    123      -3.3837      1.00000
    124      -3.2379      1.00000
    125      -2.9215      1.00000
    126      -2.8376      1.00000
    127      -2.5195      1.00000
    128      -2.4765      1.00000
    129      -2.3800      1.00000
    130      -2.2430      1.00000
    131      -2.1162      1.00002
    132      -1.8737      1.00665
    133      -0.2222     -0.00000
    134      -0.0610     -0.00000
    135       0.0120     -0.00000
    136       0.1831     -0.00000
    137       0.9732     -0.00000
    138       1.5288     -0.00000
    139       1.5498     -0.00000
    140       1.6495     -0.00000
    141       1.6762     -0.00000
    142       1.7570     -0.00000
    143       1.7862     -0.00000
    144       1.8924     -0.00000
    145       1.9362     -0.00000
    146       1.9986     -0.00000
    147       2.0291     -0.00000
    148       2.0737     -0.00000
    149       2.0850     -0.00000
    150       2.1677     -0.00000
    151       2.2393     -0.00000
    152       2.2905     -0.00000
    153       2.4151     -0.00000
    154       2.5240     -0.00000
    155       2.5633     -0.00000
    156       2.6430     -0.00000
    157       2.6831     -0.00000
    158       2.7384     -0.00000
    159       2.8603     -0.00000
    160       2.9873     -0.00000
    161       3.0311     -0.00000
    162       3.0652     -0.00000
    163       3.0967     -0.00000
    164       3.1365     -0.00000
    165       3.2031     -0.00000
    166       3.2245     -0.00000
    167       3.2632     -0.00000
    168       3.3045     -0.00000
    169       3.3415     -0.00000
    170       3.3819     -0.00000
    171       3.4060     -0.00000
    172       3.4715     -0.00000
    173       3.5195     -0.00000
    174       3.5915     -0.00000
    175       3.6743     -0.00000
    176       3.7750     -0.00000
    177       3.8425     -0.00000
    178       3.9308     -0.00000

 k-point     8 :       0.0000    0.5000   -0.0000
  band No.  band energies     occupation 
      1     -52.1557      1.00000
      2     -52.0909      1.00000
      3     -51.9671      1.00000
      4     -51.9462      1.00000
      5     -51.9379      1.00000
      6     -51.9097      1.00000
      7     -51.6591      1.00000
      8     -51.6546      1.00000
      9     -51.6402      1.00000
     10     -51.6243      1.00000
     11     -51.6063      1.00000
     12     -51.4609      1.00000
     13     -48.4647      1.00000
     14     -48.1632      1.00000
     15     -48.0929      1.00000
     16     -48.0341      1.00000
     17     -47.9049      1.00000
     18     -47.8792      1.00000
     19     -47.8625      1.00000
     20     -47.7691      1.00000
     21     -47.7319      1.00000
     22     -47.2147      1.00000
     23     -47.0099      1.00000
     24     -46.9720      1.00000
     25     -46.4115      1.00000
     26     -46.3354      1.00000
     27     -46.2143      1.00000
     28     -45.9820      1.00000
     29     -45.9475      1.00000
     30     -45.9031      1.00000
     31     -45.8677      1.00000
     32     -45.8321      1.00000
     33     -45.8144      1.00000
     34     -45.7602      1.00000
     35     -45.7238      1.00000
     36     -45.6974      1.00000
     37     -21.5724      1.00000
     38     -21.0594      1.00000
     39     -20.3798      1.00000
     40     -20.0959      1.00000
     41     -20.0100      1.00000
     42     -19.8711      1.00000
     43     -19.7511      1.00000
     44     -19.6535      1.00000
     45     -19.5763      1.00000
     46     -19.5237      1.00000
     47     -19.4588      1.00000
     48     -19.3447      1.00000
     49     -19.3052      1.00000
     50     -19.2333      1.00000
     51     -19.1805      1.00000
     52     -19.1091      1.00000
     53     -19.1045      1.00000
     54     -18.9711      1.00000
     55     -18.8041      1.00000
     56     -17.5031      1.00000
     57      -9.7465      1.00000
     58      -8.7818      1.00000
     59      -8.4625      1.00000
     60      -8.2728      1.00000
     61      -8.0773      1.00000
     62      -7.8672      1.00000
     63      -7.5872      1.00000
     64      -7.5450      1.00000
     65      -7.4318      1.00000
     66      -7.3156      1.00000
     67      -7.2761      1.00000
     68      -7.1465      1.00000
     69      -7.0860      1.00000
     70      -7.0607      1.00000
     71      -6.9171      1.00000
     72      -6.8988      1.00000
     73      -6.8395      1.00000
     74      -6.8174      1.00000
     75      -6.7179      1.00000
     76      -6.6895      1.00000
     77      -6.6483      1.00000
     78      -6.5395      1.00000
     79      -6.4606      1.00000
     80      -6.4349      1.00000
     81      -6.3857      1.00000
     82      -6.3407      1.00000
     83      -6.1806      1.00000
     84      -6.1034      1.00000
     85      -6.0599      1.00000
     86      -6.0052      1.00000
     87      -5.9963      1.00000
     88      -5.8973      1.00000
     89      -5.8047      1.00000
     90      -5.6312      1.00000
     91      -5.5734      1.00000
     92      -5.4484      1.00000
     93      -5.3937      1.00000
     94      -5.3166      1.00000
     95      -5.2742      1.00000
     96      -5.1688      1.00000
     97      -5.1307      1.00000
     98      -5.0226      1.00000
     99      -4.9705      1.00000
    100      -4.8103      1.00000
    101      -4.7645      1.00000
    102      -4.7482      1.00000
    103      -4.7253      1.00000
    104      -4.6430      1.00000
    105      -4.6140      1.00000
    106      -4.5798      1.00000
    107      -4.4818      1.00000
    108      -4.3797      1.00000
    109      -4.3085      1.00000
    110      -4.2028      1.00000
    111      -4.1610      1.00000
    112      -4.0473      1.00000
    113      -4.0058      1.00000
    114      -3.9492      1.00000
    115      -3.9112      1.00000
    116      -3.8266      1.00000
    117      -3.8201      1.00000
    118      -3.7713      1.00000
    119      -3.7421      1.00000
    120      -3.6491      1.00000
    121      -3.4657      1.00000
    122      -3.4335      1.00000
    123      -3.3163      1.00000
    124      -3.1871      1.00000
    125      -3.1255      1.00000
    126      -2.9767      1.00000
    127      -2.6084      1.00000
    128      -2.3611      1.00000
    129      -2.3218      1.00000
    130      -2.1153      1.00002
    131      -2.0260      1.00025
    132      -1.8350      1.01217
    133      -0.4363     -0.00000
    134      -0.3105     -0.00000
    135      -0.1949     -0.00000
    136       0.0512     -0.00000
    137       1.1043     -0.00000
    138       1.3146     -0.00000
    139       1.5416     -0.00000
    140       1.6238     -0.00000
    141       1.7176     -0.00000
    142       1.8038     -0.00000
    143       1.8137     -0.00000
    144       1.8453     -0.00000
    145       1.8608     -0.00000
    146       1.9654     -0.00000
    147       2.0110     -0.00000
    148       2.0496     -0.00000
    149       2.1134     -0.00000
    150       2.1333     -0.00000
    151       2.1722     -0.00000
    152       2.3028     -0.00000
    153       2.3910     -0.00000
    154       2.4576     -0.00000
    155       2.5663     -0.00000
    156       2.6889     -0.00000
    157       2.7335     -0.00000
    158       2.7897     -0.00000
    159       2.9521     -0.00000
    160       3.0529     -0.00000
    161       3.0775     -0.00000
    162       3.0893     -0.00000
    163       3.1261     -0.00000
    164       3.1793     -0.00000
    165       3.2057     -0.00000
    166       3.2132     -0.00000
    167       3.2892     -0.00000
    168       3.3391     -0.00000
    169       3.3622     -0.00000
    170       3.4145     -0.00000
    171       3.4983     -0.00000
    172       3.5476     -0.00000
    173       3.5680     -0.00000
    174       3.5930     -0.00000
    175       3.7141     -0.00000
    176       3.7360     -0.00000
    177       3.8591     -0.00000
    178       3.9914     -0.00000

 k-point     9 :       0.2500    0.5000   -0.0000
  band No.  band energies     occupation 
      1     -52.1558      1.00000
      2     -52.0910      1.00000
      3     -51.9671      1.00000
      4     -51.9452      1.00000
      5     -51.9382      1.00000
      6     -51.9102      1.00000
      7     -51.6630      1.00000
      8     -51.6536      1.00000
      9     -51.6374      1.00000
     10     -51.6219      1.00000
     11     -51.6091      1.00000
     12     -51.4607      1.00000
     13     -48.4647      1.00000
     14     -48.1632      1.00000
     15     -48.0929      1.00000
     16     -48.0341      1.00000
     17     -47.9049      1.00000
     18     -47.8792      1.00000
     19     -47.8625      1.00000
     20     -47.7692      1.00000
     21     -47.7319      1.00000
     22     -47.2147      1.00000
     23     -47.0099      1.00000
     24     -46.9720      1.00000
     25     -46.4115      1.00000
     26     -46.3354      1.00000
     27     -46.2143      1.00000
     28     -45.9820      1.00000
     29     -45.9475      1.00000
     30     -45.9031      1.00000
     31     -45.8677      1.00000
     32     -45.8321      1.00000
     33     -45.8144      1.00000
     34     -45.7602      1.00000
     35     -45.7238      1.00000
     36     -45.6974      1.00000
     37     -21.5748      1.00000
     38     -21.0549      1.00000
     39     -20.3804      1.00000
     40     -20.0867      1.00000
     41     -20.0208      1.00000
     42     -19.8657      1.00000
     43     -19.7418      1.00000
     44     -19.6695      1.00000
     45     -19.6084      1.00000
     46     -19.5058      1.00000
     47     -19.4371      1.00000
     48     -19.3434      1.00000
     49     -19.2944      1.00000
     50     -19.2387      1.00000
     51     -19.1590      1.00000
     52     -19.1358      1.00000
     53     -19.1130      1.00000
     54     -18.9721      1.00000
     55     -18.8039      1.00000
     56     -17.5041      1.00000
     57      -9.7594      1.00000
     58      -8.7385      1.00000
     59      -8.4597      1.00000
     60      -8.2702      1.00000
     61      -7.9895      1.00000
     62      -7.8884      1.00000
     63      -7.5846      1.00000
     64      -7.5373      1.00000
     65      -7.4520      1.00000
     66      -7.3136      1.00000
     67      -7.2613      1.00000
     68      -7.1695      1.00000
     69      -7.0918      1.00000
     70      -7.0479      1.00000
     71      -6.9837      1.00000
     72      -6.8730      1.00000
     73      -6.8228      1.00000
     74      -6.7926      1.00000
     75      -6.7564      1.00000
     76      -6.7085      1.00000
     77      -6.6682      1.00000
     78      -6.6356      1.00000
     79      -6.5445      1.00000
     80      -6.4733      1.00000
     81      -6.3561      1.00000
     82      -6.3077      1.00000
     83      -6.1960      1.00000
     84      -6.0918      1.00000
     85      -6.0162      1.00000
     86      -5.9764      1.00000
     87      -5.9141      1.00000
     88      -5.9047      1.00000
     89      -5.7199      1.00000
     90      -5.5704      1.00000
     91      -5.5039      1.00000
     92      -5.4515      1.00000
     93      -5.4026      1.00000
     94      -5.3727      1.00000
     95      -5.3224      1.00000
     96      -5.2523      1.00000
     97      -5.1243      1.00000
     98      -5.0447      1.00000
     99      -4.9982      1.00000
    100      -4.9583      1.00000
    101      -4.8183      1.00000
    102      -4.7792      1.00000
    103      -4.6681      1.00000
    104      -4.6439      1.00000
    105      -4.5485      1.00000
    106      -4.4514      1.00000
    107      -4.4126      1.00000
    108      -4.3696      1.00000
    109      -4.2446      1.00000
    110      -4.2234      1.00000
    111      -4.1466      1.00000
    112      -4.0787      1.00000
    113      -4.0182      1.00000
    114      -3.9765      1.00000
    115      -3.9184      1.00000
    116      -3.8612      1.00000
    117      -3.8056      1.00000
    118      -3.7739      1.00000
    119      -3.7168      1.00000
    120      -3.6463      1.00000
    121      -3.5791      1.00000
    122      -3.5033      1.00000
    123      -3.3966      1.00000
    124      -3.2918      1.00000
    125      -3.1226      1.00000
    126      -2.8566      1.00000
    127      -2.5204      1.00000
    128      -2.3507      1.00000
    129      -2.2752      1.00000
    130      -2.1346      1.00001
    131      -1.9783      1.00081
    132      -1.7712      1.02569
    133      -0.4627     -0.00000
    134      -0.3478     -0.00000
    135      -0.1934     -0.00000
    136       0.0568     -0.00000
    137       1.0512     -0.00000
    138       1.3905     -0.00000
    139       1.5390     -0.00000
    140       1.6127     -0.00000
    141       1.6967     -0.00000
    142       1.7540     -0.00000
    143       1.7996     -0.00000
    144       1.8755     -0.00000
    145       1.9323     -0.00000
    146       1.9634     -0.00000
    147       2.0066     -0.00000
    148       2.0807     -0.00000
    149       2.1323     -0.00000
    150       2.1511     -0.00000
    151       2.2190     -0.00000
    152       2.2679     -0.00000
    153       2.3913     -0.00000
    154       2.4534     -0.00000
    155       2.5769     -0.00000
    156       2.6228     -0.00000
    157       2.7108     -0.00000
    158       2.7761     -0.00000
    159       2.9085     -0.00000
    160       2.9714     -0.00000
    161       3.0525     -0.00000
    162       3.1045     -0.00000
    163       3.1720     -0.00000
    164       3.1950     -0.00000
    165       3.2115     -0.00000
    166       3.2385     -0.00000
    167       3.2819     -0.00000
    168       3.3090     -0.00000
    169       3.3694     -0.00000
    170       3.3883     -0.00000
    171       3.4350     -0.00000
    172       3.4709     -0.00000
    173       3.5689     -0.00000
    174       3.6000     -0.00000
    175       3.7137     -0.00000
    176       3.7910     -0.00000
    177       3.8718     -0.00000
    178       3.9578     -0.00000

 k-point    10 :       0.5000    0.5000   -0.0000
  band No.  band energies     occupation 
      1     -52.1558      1.00000
      2     -52.0911      1.00000
      3     -51.9670      1.00000
      4     -51.9441      1.00000
      5     -51.9386      1.00000
      6     -51.9107      1.00000
      7     -51.6657      1.00000
      8     -51.6532      1.00000
      9     -51.6351      1.00000
     10     -51.6165      1.00000
     11     -51.6148      1.00000
     12     -51.4604      1.00000
     13     -48.4647      1.00000
     14     -48.1632      1.00000
     15     -48.0929      1.00000
     16     -48.0341      1.00000
     17     -47.9048      1.00000
     18     -47.8792      1.00000
     19     -47.8624      1.00000
     20     -47.7693      1.00000
     21     -47.7318      1.00000
     22     -47.2147      1.00000
     23     -47.0099      1.00000
     24     -46.9720      1.00000
     25     -46.4115      1.00000
     26     -46.3354      1.00000
     27     -46.2143      1.00000
     28     -45.9820      1.00000
     29     -45.9475      1.00000
     30     -45.9031      1.00000
     31     -45.8677      1.00000
     32     -45.8321      1.00000
     33     -45.8144      1.00000
     34     -45.7602      1.00000
     35     -45.7238      1.00000
     36     -45.6974      1.00000
     37     -21.5771      1.00000
     38     -21.0505      1.00000
     39     -20.3793      1.00000
     40     -20.0729      1.00000
     41     -20.0232      1.00000
     42     -19.8767      1.00000
     43     -19.7769      1.00000
     44     -19.6922      1.00000
     45     -19.5470      1.00000
     46     -19.4903      1.00000
     47     -19.4557      1.00000
     48     -19.3423      1.00000
     49     -19.2664      1.00000
     50     -19.2276      1.00000
     51     -19.1891      1.00000
     52     -19.1477      1.00000
     53     -19.1092      1.00000
     54     -18.9787      1.00000
     55     -18.8039      1.00000
     56     -17.5053      1.00000
     57      -9.7719      1.00000
     58      -8.6922      1.00000
     59      -8.4554      1.00000
     60      -8.2668      1.00000
     61      -7.9230      1.00000
     62      -7.8037      1.00000
     63      -7.6623      1.00000
     64      -7.6001      1.00000
     65      -7.4730      1.00000
     66      -7.2709      1.00000
     67      -7.2380      1.00000
     68      -7.1811      1.00000
     69      -7.0926      1.00000
     70      -7.0854      1.00000
     71      -7.0197      1.00000
     72      -6.9292      1.00000
     73      -6.9193      1.00000
     74      -6.7974      1.00000
     75      -6.7668      1.00000
     76      -6.6875      1.00000
     77      -6.6462      1.00000
     78      -6.5994      1.00000
     79      -6.5256      1.00000
     80      -6.4085      1.00000
     81      -6.3257      1.00000
     82      -6.2371      1.00000
     83      -6.1578      1.00000
     84      -6.0430      1.00000
     85      -5.9695      1.00000
     86      -5.9580      1.00000
     87      -5.9305      1.00000
     88      -5.8613      1.00000
     89      -5.8202      1.00000
     90      -5.6571      1.00000
     91      -5.6330      1.00000
     92      -5.5476      1.00000
     93      -5.4533      1.00000
     94      -5.3392      1.00000
     95      -5.3150      1.00000
     96      -5.2489      1.00000
     97      -5.1323      1.00000
     98      -5.0642      1.00000
     99      -5.0242      1.00000
    100      -4.9009      1.00000
    101      -4.8135      1.00000
    102      -4.7641      1.00000
    103      -4.6852      1.00000
    104      -4.5997      1.00000
    105      -4.5660      1.00000
    106      -4.4917      1.00000
    107      -4.3724      1.00000
    108      -4.2911      1.00000
    109      -4.2314      1.00000
    110      -4.1508      1.00000
    111      -4.1330      1.00000
    112      -4.1246      1.00000
    113      -4.0558      1.00000
    114      -3.9720      1.00000
    115      -3.9594      1.00000
    116      -3.8742      1.00000
    117      -3.8515      1.00000
    118      -3.7050      1.00000
    119      -3.6941      1.00000
    120      -3.6140      1.00000
    121      -3.5875      1.00000
    122      -3.4861      1.00000
    123      -3.4513      1.00000
    124      -3.3189      1.00000
    125      -3.1465      1.00000
    126      -2.7541      1.00000
    127      -2.4449      1.00000
    128      -2.4271      1.00000
    129      -2.3365      1.00000
    130      -2.2654      1.00000
    131      -1.9166      1.00304
    132      -1.7065      1.03545
    133      -0.4493     -0.00000
    134      -0.3372     -0.00000
    135      -0.1867     -0.00000
    136       0.0790     -0.00000
    137       1.1043     -0.00000
    138       1.3106     -0.00000
    139       1.5183     -0.00000
    140       1.5955     -0.00000
    141       1.6690     -0.00000
    142       1.7307     -0.00000
    143       1.7894     -0.00000
    144       1.9212     -0.00000
    145       1.9414     -0.00000
    146       2.0142     -0.00000
    147       2.0282     -0.00000
    148       2.1002     -0.00000
    149       2.1271     -0.00000
    150       2.1733     -0.00000
    151       2.2067     -0.00000
    152       2.2707     -0.00000
    153       2.3807     -0.00000
    154       2.3875     -0.00000
    155       2.5733     -0.00000
    156       2.6682     -0.00000
    157       2.7222     -0.00000
    158       2.8268     -0.00000
    159       2.9111     -0.00000
    160       3.0442     -0.00000
    161       3.0805     -0.00000
    162       3.1472     -0.00000
    163       3.1597     -0.00000
    164       3.1816     -0.00000
    165       3.2193     -0.00000
    166       3.2554     -0.00000
    167       3.2810     -0.00000
    168       3.3188     -0.00000
    169       3.3729     -0.00000
    170       3.4387     -0.00000
    171       3.4721     -0.00000
    172       3.4981     -0.00000
    173       3.5606     -0.00000
    174       3.5752     -0.00000
    175       3.7005     -0.00000
    176       3.8659     -0.00000
    177       3.9976      0.00000
    178       4.0389      0.00000


--------------------------------------------------------------------------------------------------------


 soft charge-density along one line, spin component           1
         0         1         2         3         4         5         6         7         8         9
 total charge-density along one line
 
 soft charge-density along one line, spin component           2
         0         1         2         3         4         5         6         7         8         9
 total charge-density along one line
 
 pseudopotential strength for first ion, spin component:           1
-49.562  -0.026  -0.009  11.168   0.012   0.004   0.002  -0.028
 -0.026 -49.358  -0.001   0.012  11.078   0.000   0.000  -0.025
 -0.009  -0.001 -49.610   0.004   0.000  11.185  -0.024   0.000
 11.168   0.012   0.004   4.226  -0.004  -0.001  -0.000   0.007
  0.012  11.078   0.000  -0.004   4.258  -0.000  -0.000   0.007
  0.004   0.000  11.185  -0.001  -0.000   4.222   0.009  -0.000
  0.002   0.000  -0.024  -0.000  -0.000   0.009  -9.244   0.001
 -0.028  -0.025   0.000   0.007   0.007  -0.000   0.001 -10.651
  0.014  -0.033  -0.001  -0.005   0.009   0.000  -0.014  -0.023
  0.000   0.002  -0.031  -0.000  -0.000   0.007   0.148  -0.005
  0.026  -0.002   0.002  -0.007   0.000  -0.001  -0.003   0.016
  0.002   0.000  -0.024  -0.000  -0.000   0.008  -9.645   0.001
 -0.027  -0.025   0.000   0.007   0.007  -0.000   0.001 -11.095
  0.014  -0.033  -0.001  -0.005   0.009   0.000  -0.015  -0.024
  0.000   0.002  -0.031  -0.000  -0.000   0.007   0.153  -0.005
  0.026  -0.002   0.002  -0.007   0.000  -0.001  -0.003   0.015
  0.010   0.011  -0.001   0.000   0.002  -0.000   0.002   0.006
  0.020   0.022  -0.001   0.001   0.004  -0.000   0.004   0.013
 pseudopotential strength for first ion, spin component:           2
-46.756  -0.054  -0.012   9.877   0.024   0.005   0.001  -0.039
 -0.054 -46.226   0.000   0.024   9.639   0.000   0.000  -0.035
 -0.012   0.000 -46.816   0.005   0.000   9.900  -0.028   0.000
  9.877   0.024   0.005   4.663  -0.007  -0.001  -0.000   0.013
  0.024   9.639   0.000  -0.007   4.727   0.000  -0.000   0.012
  0.005   0.000   9.900  -0.001   0.000   4.654   0.009  -0.000
  0.001   0.000  -0.028  -0.000  -0.000   0.009  -6.013   0.001
 -0.039  -0.035   0.000   0.013   0.012  -0.000   0.001  -4.770
  0.017  -0.040  -0.001  -0.005   0.012   0.000   0.006  -0.006
  0.000   0.003  -0.047  -0.000  -0.001   0.015  -0.098  -0.003
  0.036  -0.004   0.002  -0.012   0.001  -0.001   0.000  -0.009
  0.001   0.000  -0.027  -0.000  -0.000   0.009  -6.413   0.001
 -0.039  -0.035   0.000   0.012   0.012  -0.000   0.001  -5.160
  0.016  -0.040  -0.001  -0.005   0.012   0.000   0.006  -0.005
  0.000   0.003  -0.046  -0.000  -0.001   0.015  -0.098  -0.002
  0.036  -0.004   0.002  -0.012   0.001  -0.001   0.000  -0.010
  0.013   0.016  -0.001  -0.000   0.001  -0.000   0.003   0.013
  0.026   0.032  -0.002   0.000   0.002  -0.000   0.005   0.026
 total augmentation occupancy for first ion, spin component:           1
  1.989  -0.000  -0.000  -0.046  -0.001  -0.000   0.000   0.002   0.001   0.000   0.003  -0.000   0.000  -0.002  -0.000  -0.005
 -0.000   1.991   0.000  -0.001  -0.040   0.000  -0.000  -0.003  -0.002   0.000  -0.001   0.000   0.004   0.004  -0.000   0.002
 -0.000   0.000   1.989  -0.000   0.000  -0.045   0.001  -0.000  -0.000  -0.001  -0.000   0.000  -0.000   0.000   0.004  -0.000
 -0.046  -0.001  -0.000   0.234   0.012   0.000   0.006   0.023   0.034  -0.002  -0.015  -0.005  -0.020  -0.037   0.001   0.014
 -0.001  -0.040   0.000   0.012   0.102   0.000  -0.003  -0.013  -0.027  -0.003   0.020   0.002   0.017   0.032   0.002  -0.017
 -0.000   0.000  -0.045   0.000   0.000   0.205   0.019  -0.001  -0.002   0.045  -0.000   0.010   0.001   0.002  -0.037  -0.000
  0.000  -0.000   0.001   0.006  -0.003   0.019   5.889   0.005   0.145  -0.403   0.025  -6.343  -0.006  -0.113   0.155  -0.020
  0.002  -0.003  -0.000   0.023  -0.013  -0.001   0.005   5.886   0.126  -0.010   0.161  -0.006  -3.847  -0.093   0.008  -0.145
  0.001  -0.002  -0.000   0.034  -0.027  -0.002   0.145   0.126  11.067   0.060   0.860  -0.112  -0.094  -8.947  -0.050  -0.853
  0.000   0.000  -0.001  -0.002  -0.003   0.045  -0.403  -0.010   0.060   5.532   0.008   0.157   0.008  -0.050  -3.525  -0.008
  0.003  -0.001  -0.000  -0.015   0.020  -0.000   0.025   0.161   0.860   0.008   7.094  -0.020  -0.142  -0.852  -0.008  -5.015
 -0.000   0.000   0.000  -0.005   0.002   0.010  -6.343  -0.006  -0.112   0.157  -0.020   7.551   0.006   0.088   0.043   0.016
  0.000   0.004  -0.000  -0.020   0.017   0.001  -0.006  -3.847  -0.094   0.008  -0.142   0.006   2.973   0.064  -0.006   0.136
 -0.002   0.004   0.000  -0.037   0.032   0.002  -0.113  -0.093  -8.947  -0.050  -0.852   0.088   0.064   8.058   0.041   0.852
 -0.000  -0.000   0.004   0.001   0.002  -0.037   0.155   0.008  -0.050  -3.525  -0.008   0.043  -0.006   0.041   2.677   0.007
 -0.005   0.002  -0.000   0.014  -0.017  -0.000  -0.020  -0.145  -0.853  -0.008  -5.015   0.016   0.136   0.852   0.007   4.121
 -0.034  -0.050   0.003   0.027   0.007  -0.002   0.008  -0.319   1.725  -0.005   0.336  -0.010   0.316  -1.669   0.001  -0.380
  0.018   0.026  -0.001   0.000  -0.003   0.000  -0.002   0.019  -0.168   0.000   0.023   0.004  -0.024   0.166   0.001   0.010
 total augmentation occupancy for first ion, spin component:           2
 -0.003  -0.000  -0.000  -0.010   0.000   0.000   0.000  -0.004   0.002  -0.000   0.005  -0.000   0.003  -0.001   0.000  -0.004
 -0.000  -0.002   0.000   0.000  -0.010   0.000  -0.000  -0.005  -0.005   0.000  -0.001   0.000   0.004   0.004  -0.000   0.001
 -0.000   0.000  -0.003   0.000   0.000  -0.009  -0.000  -0.000  -0.000  -0.006   0.000   0.000   0.000   0.000   0.005  -0.000
 -0.010   0.000   0.000   0.021   0.002   0.000   0.004   0.023   0.020  -0.003  -0.020  -0.004  -0.013  -0.012   0.003   0.007
  0.000  -0.010   0.000   0.002   0.014   0.000  -0.004   0.005  -0.008  -0.007   0.014   0.003  -0.001   0.007   0.006  -0.009
  0.000   0.000  -0.009   0.000   0.000   0.020   0.035  -0.003  -0.002   0.040  -0.001  -0.031   0.003   0.001  -0.022   0.001
  0.000  -0.000  -0.000   0.004  -0.004   0.035   0.070   0.005   0.146  -0.660   0.025   0.703  -0.006  -0.116   0.482  -0.020
 -0.004  -0.005  -0.000   0.023   0.005  -0.003   0.005   4.984   0.161  -0.010   0.191  -0.008  -2.716  -0.130   0.006  -0.150
  0.002  -0.005  -0.000   0.020  -0.008  -0.002   0.146   0.161   7.857   0.062   0.474  -0.112  -0.130  -5.088  -0.054  -0.401
 -0.000   0.000  -0.006  -0.003  -0.007   0.040  -0.660  -0.010   0.062   4.746   0.007   0.479   0.006  -0.054  -2.520  -0.006
  0.005  -0.001   0.000  -0.020   0.014  -0.001   0.025   0.191   0.474   0.007   5.744  -0.020  -0.150  -0.403  -0.006  -3.329
 -0.000   0.000   0.000  -0.004   0.003  -0.031   0.703  -0.008  -0.112   0.479  -0.020  -1.076   0.009   0.088  -0.368   0.016
  0.003   0.004   0.000  -0.013  -0.001   0.003  -0.006  -2.716  -0.130   0.006  -0.150   0.009   1.547   0.105  -0.003   0.106
 -0.001   0.004   0.000  -0.012   0.007   0.001  -0.116  -0.130  -5.088  -0.054  -0.403   0.088   0.105   3.378   0.049   0.327
  0.000  -0.000   0.005   0.003   0.006  -0.022   0.482   0.006  -0.054  -2.520  -0.006  -0.368  -0.003   0.049   1.386   0.007
 -0.004   0.001  -0.000   0.007  -0.009   0.001  -0.020  -0.150  -0.401  -0.006  -3.329   0.016   0.106   0.327   0.007   2.006
  0.003   0.004  -0.000  -0.001  -0.000  -0.000  -0.000  -0.078   0.544  -0.013   0.034  -0.002   0.037  -0.349   0.013  -0.030
 -0.001  -0.002   0.000   0.001  -0.000  -0.000   0.003  -0.018  -0.000   0.001   0.075  -0.002   0.017  -0.009  -0.001  -0.050


------------------------ aborting loop because EDIFF is reached ----------------------------------------


 


 total charge     
 
# of ion       s       p       d       tot
------------------------------------------
    1        0.281   6.312   4.840  11.434
    2        0.279   6.298   4.823  11.400
    3        0.298   6.339   4.861  11.498
    4        0.279   6.294   4.819  11.391
    5        0.296   6.335   4.860  11.491
    6        0.301   6.348   4.562  11.211
    7        0.295   6.335   4.855  11.486
    8        0.298   6.344   4.838  11.480
    9        0.247   6.246   5.019  11.512
   10        0.216   6.191   4.908  11.316
   11        0.230   6.215   4.930  11.375
   12        0.248   6.245   4.962  11.455
   13        1.563   3.501   0.000   5.064
   14        1.560   3.456   0.000   5.016
   15        1.559   3.479   0.000   5.037
   16        1.560   3.494   0.000   5.053
   17        1.562   3.453   0.000   5.016
   18        1.561   3.507   0.000   5.068
   19        1.556   3.457   0.000   5.012
   20        1.553   3.554   0.000   5.107
   21        1.571   3.584   0.000   5.154
   22        1.560   3.462   0.000   5.021
   23        1.559   3.504   0.000   5.063
   24        1.559   3.434   0.000   4.993
   25        1.558   3.470   0.000   5.028
   26        1.560   3.473   0.000   5.033
   27        1.552   3.499   0.000   5.051
   28        1.571   3.269   0.000   4.839
   29        1.559   3.467   0.000   5.027
   30        1.552   3.504   0.000   5.055
   31        1.560   3.475   0.000   5.036
   32        1.561   3.495   0.000   5.055
   33        0.496   0.055   0.000   0.551
   34        0.498   0.060   0.000   0.558
   35        0.495   0.055   0.000   0.550
   36        0.507   0.055   0.000   0.563
   37        0.564   0.094   0.000   0.657
   38        0.568   0.098   0.000   0.665
   39        0.477   0.060   0.000   0.537
--------------------------------------------------
tot         38.071 145.513  58.276 241.860
 


 magnetization (x)
 
# of ion       s       p       d       tot
------------------------------------------
    1        0.033   0.032   3.906   3.971
    2        0.030   0.030   3.904   3.964
    3       -0.027  -0.024  -3.712  -3.763
    4       -0.031  -0.024  -3.836  -3.891
    5        0.032   0.033   3.841   3.906
    6        0.017   0.028   3.329   3.374
    7       -0.025  -0.025  -3.716  -3.766
    8       -0.022  -0.029  -3.751  -3.802
    9        0.027   0.053   4.428   4.508
   10        0.029   0.042   4.487   4.558
   11        0.026   0.046   4.451   4.524
   12        0.028   0.052   4.428   4.508
   13        0.000  -0.016   0.000  -0.016
   14        0.010   0.021   0.000   0.031
   15        0.007   0.036   0.000   0.044
   16       -0.002  -0.019   0.000  -0.021
   17       -0.003  -0.068   0.000  -0.071
   18        0.009   0.038   0.000   0.047
   19        0.004  -0.017   0.000  -0.013
   20       -0.007  -0.027   0.000  -0.034
   21        0.003   0.032   0.000   0.036
   22       -0.002  -0.022   0.000  -0.024
   23        0.008   0.042   0.000   0.050
   24        0.008   0.014   0.000   0.022
   25        0.008   0.035   0.000   0.043
   26       -0.005  -0.019   0.000  -0.024
   27        0.004  -0.007   0.000  -0.003
   28        0.002  -0.055   0.000  -0.053
   29       -0.002  -0.030   0.000  -0.032
   30        0.004  -0.005   0.000  -0.001
   31       -0.002  -0.036   0.000  -0.038
   32       -0.001  -0.028   0.000  -0.029
   33        0.008   0.001   0.000   0.009
   34        0.006   0.001   0.000   0.007
   35        0.008   0.000   0.000   0.008
   36        0.008   0.001   0.000   0.009
   37       -0.004  -0.000   0.000  -0.004
   38       -0.001  -0.000   0.000  -0.001
   39       -0.005  -0.000   0.000  -0.006
--------------------------------------------------
tot          0.182   0.082  17.760  18.023
 
    CHARGE:  cpu time    3.0463: real time    3.0497
    FORLOC:  cpu time    0.0762: real time    0.0769
    FORNL :  cpu time   10.8624: real time   10.9897
    FORCOR:  cpu time    0.5508: real time    0.5523
    FORHAR:  cpu time    0.0989: real time    0.0990
    MIXING:  cpu time    0.0321: real time    0.0322
    OFIELD:  cpu time    0.0001: real time    0.0001

 VOLUME and BASIS-vectors are now :
 -----------------------------------------------------------------------------
  energy-cutoff  :      520.00
  volume of cell :     1228.02
      direct lattice vectors                 reciprocal lattice vectors
     2.873573495 -2.873573495  4.708335110     0.000000000 -0.094445153  0.154747888
     5.747146990  0.000000000  0.000000000     0.173999378  0.047222576 -0.077373944
     0.000000000 33.065691007 20.180529009     0.000000000  0.022035073  0.013448363

  length of vectors
     6.219587508  5.747146990 38.737496987     0.181292017  0.196195011  0.025814781


 FORCES acting on ions
    electron-ion (+dipol)            ewald-force                    non-local-force                 convergence-correction
 -----------------------------------------------------------------------------------------------
   -.390E+01 0.425E+04 0.260E+04   0.399E+01 -.426E+04 -.262E+04   -.483E-01 0.525E+00 0.193E+01   0.746E-01 0.156E+02 0.105E+02
   -.755E+01 -.148E+04 -.865E+03   0.402E+01 0.145E+04 0.847E+03   0.101E+01 -.129E+01 -.155E+01   0.211E+01 0.285E+02 0.195E+02
   -.757E+01 0.137E+04 0.823E+03   0.692E+01 -.139E+04 -.841E+03   0.117E+00 -.157E+01 0.383E-01   0.444E+00 0.294E+02 0.174E+02
   0.141E+01 -.433E+04 -.263E+04   -.212E+01 0.432E+04 0.262E+04   0.261E+01 -.432E+01 0.169E+01   -.284E+01 0.127E+02 0.539E+01
   -.311E+01 0.136E+04 0.834E+03   0.372E+01 -.138E+04 -.851E+03   0.173E+00 -.603E+00 -.850E+00   -.840E+00 0.285E+02 0.174E+02
   -.217E+02 -.418E+04 -.254E+04   0.226E+02 0.417E+04 0.254E+04   -.833E+00 0.167E+01 -.365E+01   -.287E+00 0.106E+02 0.104E+02
   0.452E+01 0.135E+04 0.845E+03   -.510E+01 -.138E+04 -.860E+03   -.262E+00 -.542E+00 -.128E+01   0.848E+00 0.286E+02 0.170E+02
   0.133E+02 -.422E+04 -.256E+04   -.135E+02 0.421E+04 0.255E+04   0.603E+00 0.169E+01 -.205E+01   -.119E+00 0.106E+02 0.693E+01
   0.760E+01 0.352E+04 0.215E+04   -.621E+01 -.355E+04 -.217E+04   -.885E+00 0.218E+01 0.116E+01   -.454E+00 0.266E+02 0.176E+02
   0.554E+00 -.219E+04 -.133E+04   0.217E+01 0.216E+04 0.131E+04   -.176E+01 -.153E+01 -.102E+01   -.555E+00 0.265E+02 0.145E+02
   0.837E+01 -.733E+03 -.469E+03   -.775E+01 0.702E+03 0.450E+03   0.331E-01 0.345E+00 0.829E+00   -.656E+00 0.306E+02 0.186E+02
   -.446E+01 0.473E+04 0.285E+04   0.373E+01 -.475E+04 -.286E+04   0.246E+00 0.187E+01 -.475E+00   0.427E+00 0.126E+02 0.615E+01
   0.114E+02 -.269E+04 -.139E+04   -.862E+01 0.271E+04 0.136E+04   0.780E+00 -.949E+01 0.324E+02   -.370E+01 -.276E+01 0.870E+00
   -.109E+02 0.249E+04 0.148E+04   0.129E+02 -.248E+04 -.146E+04   -.228E+01 -.191E+02 -.180E+02   -.386E-03 0.248E+01 0.156E+01
   0.186E+01 -.152E+03 0.418E+02   -.175E+01 0.148E+03 -.467E+02   -.118E+00 -.888E+01 -.355E+01   -.304E-01 0.136E+02 0.849E+01
   -.138E+01 0.136E+04 0.759E+03   0.138E+01 -.138E+04 -.762E+03   -.483E-02 0.903E+01 -.341E+01   -.293E-01 0.116E+02 0.670E+01
   0.109E+02 -.119E+04 -.809E+03   -.769E+01 0.116E+04 0.807E+03   -.391E+00 0.103E+02 -.329E+01   -.356E+01 0.127E+02 0.592E+01
   0.161E+03 0.127E+04 0.806E+03   -.172E+03 -.128E+04 -.812E+03   0.946E+01 0.147E+00 -.257E+01   0.172E+01 0.112E+02 0.867E+01
   -.165E+03 -.144E+04 -.785E+03   0.172E+03 0.143E+04 0.774E+03   -.753E+01 -.176E+01 -.358E+00   0.163E+00 0.873E+01 0.105E+02
   -.152E+02 -.262E+04 -.152E+04   0.142E+02 0.262E+04 0.150E+04   -.171E+01 0.953E+01 0.222E+02   0.307E+01 -.191E+01 0.107E+01
   0.293E+02 0.251E+04 0.156E+04   -.509E+02 -.251E+04 -.157E+04   0.253E+02 -.117E+02 0.792E+01   -.277E+00 0.137E+01 0.233E+00
   -.563E+01 -.129E+03 -.132E+02   0.603E+01 0.126E+03 0.339E+01   -.464E+00 -.109E+02 0.170E+01   0.563E-01 0.139E+02 0.833E+01
   0.948E+00 0.141E+04 0.733E+03   -.121E+01 -.143E+04 -.741E+03   0.260E+00 0.932E+01 0.237E+01   0.849E-01 0.135E+02 0.541E+01
   -.612E+01 -.114E+04 -.861E+03   0.284E+01 0.112E+04 0.853E+03   -.299E+00 0.963E+01 0.174E+01   0.389E+01 0.129E+02 0.626E+01
   -.153E+03 -.589E+01 -.312E+02   0.162E+03 -.665E+01 0.193E+02   -.774E+01 -.122E+01 0.338E+01   -.301E+00 0.143E+02 0.875E+01
   -.125E+03 -.254E+04 -.164E+04   0.111E+03 0.256E+04 0.164E+04   0.183E+02 -.188E+02 0.604E+01   -.538E+00 0.658E+00 -.166E+00
   0.200E+02 0.251E+04 0.153E+04   -.209E+02 -.250E+04 -.152E+04   0.116E+00 -.173E+02 -.121E+02   -.772E-01 0.250E+01 0.173E+01
   0.170E+03 -.242E+04 -.162E+04   -.181E+03 0.243E+04 0.163E+04   0.107E+02 -.954E+01 -.122E+02   0.476E+00 0.197E+01 -.412E+01
   0.153E+03 0.150E+02 -.158E+02   -.161E+03 -.273E+02 0.374E+01   0.759E+01 -.119E+01 0.381E+01   0.372E+00 0.140E+02 0.852E+01
   -.202E+02 0.251E+04 0.154E+04   0.208E+02 -.250E+04 -.153E+04   0.402E+00 -.179E+02 -.110E+02   0.473E-02 0.262E+01 0.170E+01
   0.166E+03 -.135E+04 -.757E+03   -.175E+03 0.135E+04 0.753E+03   0.890E+01 -.167E+01 -.272E+01   0.324E+00 0.100E+02 0.617E+01
   -.161E+03 0.127E+04 0.807E+03   0.172E+03 -.128E+04 -.813E+03   -.930E+01 0.361E-01 -.270E+01   -.171E+01 0.112E+02 0.860E+01
   0.865E+00 0.494E+03 0.303E+03   -.414E+00 -.494E+03 -.303E+03   0.106E+00 0.420E+01 0.266E+01   0.925E-02 -.208E+00 -.109E+00
   -.333E+02 0.473E+03 0.269E+03   0.324E+02 -.471E+03 -.269E+03   -.370E+01 0.326E+01 0.129E+00   0.127E+01 -.114E+01 -.181E-01
   -.203E+01 0.493E+03 0.304E+03   0.162E+01 -.493E+03 -.304E+03   -.231E+00 0.422E+01 0.263E+01   -.127E-01 -.258E+00 -.132E+00
   -.103E+01 0.494E+03 0.297E+03   0.140E+01 -.494E+03 -.297E+03   0.327E-02 0.428E+01 0.233E+01   -.865E-02 -.359E+00 -.190E+00
   0.150E+01 -.506E+03 -.321E+03   -.181E+01 0.510E+03 0.325E+03   0.341E+00 -.517E+01 -.492E+01   0.191E+00 -.549E+00 -.226E+00
   0.140E+01 -.484E+03 -.334E+03   -.105E+01 0.486E+03 0.341E+03   -.191E+00 -.215E+01 -.688E+01   -.344E+00 -.617E+00 -.450E+00
   -.588E+02 -.398E+03 -.289E+03   0.602E+02 0.398E+03 0.289E+03   -.447E+01 0.978E+00 -.214E+01   0.270E+00 0.774E-01 -.194E-01
 -----------------------------------------------------------------------------------------------
   -.441E+02 -.339E+03 -.254E+03   -.369E-12 0.171E-12 0.114E-11   0.449E+02 -.734E+02 -.183E+01   -.541E+00 0.413E+03 0.255E+03
 
 
 POSITION                                       TOTAL-FORCE (eV/Angst)
 -----------------------------------------------------------------------------------
      5.76288      2.30925      2.83538         0.115856     -1.410638     -1.523028
      2.87629      5.32875      7.60643        -0.409522     -1.660447     -0.493617
      2.88931      2.30925      7.54371        -0.091745      0.634951      0.052264
      2.81821      8.28507      7.56529        -0.933705      0.589577     -0.309036
      4.32610      3.74603      5.18954        -0.061215      0.337659      0.291118
      4.29467      6.74015      9.90122        -0.159212     -0.500626      2.007209
      1.45252      3.74603      5.18954        -0.001540      0.331022      0.296243
      7.12934      6.76075      9.94219         0.188032     -0.351927     -0.216378
      5.76288      0.87246      6.36663         0.045641     -1.139379     -0.707976
      5.67665      6.75532      6.45394         0.403847     -0.117240     -0.222248
      5.76867      3.80132      8.73300        -0.012516     -0.278829     -0.267618
      2.88931      0.87246      4.01246        -0.057825     -0.329344      0.454875
      5.71113      8.10741      9.98036        -0.162224      0.622592      0.919895
      2.88931     -0.69884      5.25540        -0.335258     -3.773944     -2.014334
      2.88801      5.04549      5.28817        -0.045663      0.413243     -0.029141
      2.88931      2.44376      5.25540        -0.040459      0.040278      0.155700
      2.88448      8.28909      5.23882        -0.701005      0.300344     -0.007126
      4.46061      3.74603      2.90123         0.228936      0.014290      0.328982
      4.16340      6.77881      7.85984         0.225369      0.262242     -0.138299
      2.79202      8.11978      9.80235         0.374253      1.327255      1.217424
      5.76288     -0.69884      5.12368         3.470701     -3.283278     -0.130844
      5.76003      5.05743      5.12310        -0.011351      0.417358      0.202020
      5.76288      2.44376      5.12368         0.078931      0.104809     -0.454393
      5.67264      8.30050      5.09306         0.309881      0.266141     -0.073667
      4.15847      3.75856      7.45398         0.107057      0.519290      0.204423
      4.10284      9.72755      7.32844         3.331407     -0.892680      2.086538
      4.46061      0.87246      2.76952        -0.926159     -3.686838     -2.253748
      1.37352      9.51059      7.15887         0.194695     -0.126227     -0.918376
      7.34242      3.73010      7.41836        -0.116875      0.551847      0.282423
      1.31801      0.87246      2.76952         1.030008     -3.771221     -2.027350
      1.56734      6.72977      7.68984        -0.019677      0.116020     -0.226404
      1.31801      3.74603      2.90123        -0.100112     -0.005480      0.291217
      4.44914     -0.05819      2.16465         0.561480      3.847055      2.328052
      6.59433     -1.43378      5.09818        -3.397028      3.742798      0.458175
      1.35527     -0.06710      2.17965        -0.659621      4.015162      2.124420
      2.87242     -1.67143      4.72073         0.366527      3.769174      2.227073
      2.74465      8.84834     10.50780         0.221430     -1.303935     -1.170798
      5.73873      8.40357     10.95040        -0.184992     -0.478995     -1.094252
      5.08084      9.48268      7.79734        -2.826346      0.887922     -1.649420
 -----------------------------------------------------------------------------------
    total drift:                                0.184316     -0.180498      0.102953


--------------------------------------------------------------------------------------------------------



  FREE ENERGIE OF THE ION-ELECTRON SYSTEM (eV)
  ---------------------------------------------------
  free  energy   TOTEN  =      -260.99937309 eV

  energy  without entropy=     -261.02372508  energy(sigma->0) =     -261.00749042
 
 d Force =-0.1180684E+00[-0.105E+01, 0.814E+00]  d Energy =-0.8151650E+00 0.697E+00
 d Force = 0.8667502E+02[ 0.829E+02, 0.905E+02]  d Ewald  = 0.8657753E+02 0.975E-01


--------------------------------------------------------------------------------------------------------


    POTLOK:  cpu time    0.5131: real time    0.5132


--------------------------------------------------------------------------------------------------------


 stress matrix after NEB project (eV)
      0.00000      0.00000      0.00000
      0.00000      0.00000      0.00000
      0.00000      0.00000      0.00000
  FORCES: max atom, RMS     4.030979    1.124389
  FORCE total and by dimension    7.021806    3.331407
  Stress total and by dimension    0.000000    0.000000
 Steepest descent step on ions:
 trial-energy change:    0.815165  1 .order    0.118068   -0.813988    1.050125
  (g-gl).g = 0.814E+00      g.g   = 0.814E+00  gl.gl    = 0.000E+00
 g(Force)  = 0.814E+00   g(Stress)= 0.000E+00 ortho     = 0.000E+00
 gamma     =   0.00000
 trial     =   1.00000
 opt step  =   0.43666  (harmonic =   0.43666) maximal distance =0.02952687
 next E    =  -261.992257   (d E  =  -0.17772)


--------------------------------------------------------------------------------------------------------


    WAVPRE:  cpu time    0.0834: real time    0.1263
    FEWALD:  cpu time    0.0020: real time    0.0020

 real space projection operators:
  total allocation   :      16350.23 KBytes
  max/ min on nodes  :        751.25        249.80

    ORTHCH:  cpu time    3.8883: real time    3.9042
     LOOP+:  cpu time 2095.3254: real time 2114.2123


--------------------------------------- Iteration      3(   1)  ---------------------------------------


    POTLOK:  cpu time    0.4709: real time    0.4959
    SETDIJ:  cpu time    0.0411: real time    0.0412
     EDDAV:  cpu time   42.2745: real time   42.7817
       DOS:  cpu time    0.0250: real time    0.0250
    CHARGE:  cpu time    3.0411: real time    3.0443
    MIXING:  cpu time    0.0097: real time    0.0097
    --------------------------------------------
      LOOP:  cpu time   45.8625: real time   46.3980

 eigenvalue-minimisations  :  8918
 total energy-change (2. order) : 0.9426755E-02  (-0.6176243E+01)
 number of electron     282.9999979 magnetization      18.2337589
 augmentation part      100.2715952 magnetization      11.8414376

  free energy =  -0.260758234307E+03  energy without entropy=  -0.260775601084E+03


--------------------------------------------------------------------------------------------------------




--------------------------------------- Iteration      3(   2)  ---------------------------------------


    POTLOK:  cpu time    0.4643: real time    0.4658
    SETDIJ:  cpu time    0.0422: real time    0.0421
    EDDIAG:  cpu time    7.7140: real time    7.9640
  RMM-DIIS:  cpu time   26.4527: real time   26.7437
    ORTHCH:  cpu time    0.3853: real time    0.3862
       DOS:  cpu time    0.0256: real time    0.0256
    CHARGE:  cpu time    2.9991: real time    3.0020
    MIXING:  cpu time    0.0091: real time    0.0091
    --------------------------------------------
      LOOP:  cpu time   38.0922: real time   38.6384

 eigenvalue-minimisations  :  8841
 total energy-change (2. order) :-0.3597055E+01  (-0.1023089E+01)
 number of electron     282.9999981 magnetization      18.2315038
 augmentation part      101.3167095 magnetization      12.3803599

 eigenvalues of (default mixing * dielectric matrix)
  average eigenvalue GAMMA=   0.1861
  0.1861

  free energy =  -0.264355288890E+03  energy without entropy=  -0.264363142340E+03


--------------------------------------------------------------------------------------------------------




--------------------------------------- Iteration      3(   3)  ---------------------------------------


    POTLOK:  cpu time    0.4637: real time    0.4650
    SETDIJ:  cpu time    0.0408: real time    0.0408
    EDDIAG:  cpu time    7.5515: real time    7.5595
  RMM-DIIS:  cpu time   22.9390: real time   23.0237
    ORTHCH:  cpu time    0.3866: real time    0.3866
       DOS:  cpu time    0.0253: real time    0.0310
    CHARGE:  cpu time    3.0291: real time    3.0457
    MIXING:  cpu time    0.0093: real time    0.0094
    --------------------------------------------
      LOOP:  cpu time   34.4454: real time   34.5617

 eigenvalue-minimisations  :  7721
 total energy-change (2. order) : 0.3244235E+01  (-0.2913333E+00)
 number of electron     282.9999979 magnetization      18.2465784
 augmentation part      100.3702780 magnetization      11.8690579

 eigenvalues of (default mixing * dielectric matrix)
  average eigenvalue GAMMA=   0.3487
  0.5349  0.1626

  free energy =  -0.261111054274E+03  energy without entropy=  -0.261125099815E+03


--------------------------------------------------------------------------------------------------------




--------------------------------------- Iteration      3(   4)  ---------------------------------------


    POTLOK:  cpu time    0.4637: real time    0.4649
    SETDIJ:  cpu time    0.0407: real time    0.0407
    EDDIAG:  cpu time    8.1708: real time    8.4840
  RMM-DIIS:  cpu time   23.2891: real time   23.3183
    ORTHCH:  cpu time    0.3861: real time    0.3870
       DOS:  cpu time    0.0253: real time    0.0253
    CHARGE:  cpu time    3.0061: real time    3.0152
    MIXING:  cpu time    0.0095: real time    0.0095
    --------------------------------------------
      LOOP:  cpu time   35.3913: real time   35.7449

 eigenvalue-minimisations  :  7811
 total energy-change (2. order) :-0.4304971E+00  (-0.2590600E-01)
 number of electron     282.9999979 magnetization      18.2619824
 augmentation part      100.2425452 magnetization      11.8792375

 eigenvalues of (default mixing * dielectric matrix)
  average eigenvalue GAMMA=   0.4165
  0.6671  0.4066  0.1758

  free energy =  -0.261541551371E+03  energy without entropy=  -0.261555501299E+03


--------------------------------------------------------------------------------------------------------




--------------------------------------- Iteration      3(   5)  ---------------------------------------


    POTLOK:  cpu time    0.4637: real time    0.4650
    SETDIJ:  cpu time    0.0412: real time    0.0412
    EDDIAG:  cpu time    7.5523: real time    7.5602
  RMM-DIIS:  cpu time   23.7108: real time   24.1434
    ORTHCH:  cpu time    0.3920: real time    0.3939
       DOS:  cpu time    0.0253: real time    0.0253
    CHARGE:  cpu time    3.0373: real time    3.0483
    MIXING:  cpu time    0.0095: real time    0.0095
    --------------------------------------------
      LOOP:  cpu time   35.2320: real time   35.6867

 eigenvalue-minimisations  :  7721
 total energy-change (2. order) : 0.6556672E-01  (-0.1001596E-01)
 number of electron     282.9999979 magnetization      18.2883709
 augmentation part      100.2787223 magnetization      11.8995652

 eigenvalues of (default mixing * dielectric matrix)
  average eigenvalue GAMMA=   0.5061
  0.1717  0.6704  0.6704  0.5118

  free energy =  -0.261475984647E+03  energy without entropy=  -0.261486093808E+03


--------------------------------------------------------------------------------------------------------




--------------------------------------- Iteration      3(   6)  ---------------------------------------


    POTLOK:  cpu time    0.4643: real time    0.4647
    SETDIJ:  cpu time    0.0408: real time    0.0408
    EDDIAG:  cpu time    7.5767: real time    7.5845
  RMM-DIIS:  cpu time   23.1016: real time   23.1447
    ORTHCH:  cpu time    0.3854: real time    0.3863
       DOS:  cpu time    0.0246: real time    0.0246
    CHARGE:  cpu time    3.0168: real time    3.0198
    MIXING:  cpu time    0.0100: real time    0.0100
    --------------------------------------------
      LOOP:  cpu time   34.6202: real time   34.6755

 eigenvalue-minimisations  :  7742
 total energy-change (2. order) : 0.1128793E+00  (-0.9078391E-02)
 number of electron     282.9999980 magnetization      18.2907486
 augmentation part      100.3761739 magnetization      11.9620074

 eigenvalues of (default mixing * dielectric matrix)
  average eigenvalue GAMMA=   0.4127
  0.6819  0.6819  0.4805  0.1718  0.0476

  free energy =  -0.261363105299E+03  energy without entropy=  -0.261349111111E+03


--------------------------------------------------------------------------------------------------------




--------------------------------------- Iteration      3(   7)  ---------------------------------------


    POTLOK:  cpu time    0.4637: real time    0.4643
    SETDIJ:  cpu time    0.0413: real time    0.0413
    EDDIAG:  cpu time    7.5768: real time    7.6406
  RMM-DIIS:  cpu time   24.4321: real time   24.8225
    ORTHCH:  cpu time    0.3868: real time    0.3878
       DOS:  cpu time    0.0249: real time    0.0249
    CHARGE:  cpu time    3.0269: real time    3.0298
    MIXING:  cpu time    0.0100: real time    0.0100
    --------------------------------------------
      LOOP:  cpu time   35.9624: real time   36.4211

 eigenvalue-minimisations  :  7960
 total energy-change (2. order) :-0.8638751E-01  (-0.2002503E-02)
 number of electron     282.9999980 magnetization      18.3141574
 augmentation part      100.4200918 magnetization      12.0293169

 eigenvalues of (default mixing * dielectric matrix)
  average eigenvalue GAMMA=   0.5239
  0.8610  0.8610  0.1719  0.6414  0.5134  0.0949

  free energy =  -0.261449492812E+03  energy without entropy=  -0.261436475846E+03


--------------------------------------------------------------------------------------------------------




--------------------------------------- Iteration      3(   8)  ---------------------------------------


    POTLOK:  cpu time    0.4641: real time    0.4654
    SETDIJ:  cpu time    0.0410: real time    0.0410
    EDDIAG:  cpu time    7.5732: real time    7.5809
  RMM-DIIS:  cpu time   23.8442: real time   24.0943
    ORTHCH:  cpu time    0.3885: real time    0.3885
       DOS:  cpu time    0.0246: real time    0.0246
    CHARGE:  cpu time    3.0116: real time    3.0313
    MIXING:  cpu time    0.0102: real time    0.0102
    --------------------------------------------
      LOOP:  cpu time   35.3572: real time   35.6360

 eigenvalue-minimisations  :  8006
 total energy-change (2. order) :-0.2250614E+00  (-0.7008334E-02)
 number of electron     282.9999980 magnetization      18.3210463
 augmentation part      100.4747850 magnetization      12.0816483

 eigenvalues of (default mixing * dielectric matrix)
  average eigenvalue GAMMA=   0.5304
  1.0868  1.0868  0.5046  0.5046  0.1719  0.2471  0.1112

  free energy =  -0.261674554184E+03  energy without entropy=  -0.261663511877E+03


--------------------------------------------------------------------------------------------------------




--------------------------------------- Iteration      3(   9)  ---------------------------------------


    POTLOK:  cpu time    0.4645: real time    0.4651
    SETDIJ:  cpu time    0.0410: real time    0.0410
    EDDIAG:  cpu time    7.9594: real time    8.1427
  RMM-DIIS:  cpu time   23.8198: real time   24.0259
    ORTHCH:  cpu time    0.3863: real time    0.3863
       DOS:  cpu time    0.0259: real time    0.0259
    CHARGE:  cpu time    3.0129: real time    3.0229
    MIXING:  cpu time    0.0106: real time    0.0106
    --------------------------------------------
      LOOP:  cpu time   35.7205: real time   36.1204

 eigenvalue-minimisations  :  7889
 total energy-change (2. order) :-0.1148651E+00  (-0.2385870E-02)
 number of electron     282.9999981 magnetization      18.3134626
 augmentation part      100.5068524 magnetization      12.1021776

 eigenvalues of (default mixing * dielectric matrix)
  average eigenvalue GAMMA=   0.4724
  1.0749  1.0749  0.4915  0.4915  0.1137  0.1717  0.1804  0.1804

  free energy =  -0.261789419323E+03  energy without entropy=  -0.261764229866E+03


--------------------------------------------------------------------------------------------------------




--------------------------------------- Iteration      3(  10)  ---------------------------------------


    POTLOK:  cpu time    0.4637: real time    0.4642
    SETDIJ:  cpu time    0.0410: real time    0.0410
    EDDIAG:  cpu time    7.5525: real time    7.5613
  RMM-DIIS:  cpu time   22.5601: real time   22.6525
    ORTHCH:  cpu time    0.4024: real time    0.4076
       DOS:  cpu time    0.0258: real time    0.0258
    CHARGE:  cpu time    3.4714: real time    3.9065
    MIXING:  cpu time    0.0107: real time    0.0107
    --------------------------------------------
      LOOP:  cpu time   34.5275: real time   35.0696

 eigenvalue-minimisations  :  7502
 total energy-change (2. order) : 0.9140702E-01  (-0.1427287E-02)
 number of electron     282.9999981 magnetization      18.3063871
 augmentation part      100.5164936 magnetization      12.1124478

 eigenvalues of (default mixing * dielectric matrix)
  average eigenvalue GAMMA=   0.4863
  0.8989  0.8989  0.5154  0.5154  0.4710  0.4710  0.1718  0.3176  0.1172

  free energy =  -0.261698012299E+03  energy without entropy=  -0.261672022052E+03


--------------------------------------------------------------------------------------------------------




--------------------------------------- Iteration      3(  11)  ---------------------------------------


    POTLOK:  cpu time    0.5490: real time    0.5555
    SETDIJ:  cpu time    0.0601: real time    0.0602
    EDDIAG:  cpu time    7.5944: real time    7.6104
