unknown system                          
           1
     2.873573   -2.873573    4.708335
     5.747147    0.000000    0.000000
     0.000000   33.065691   20.180529
   Mn   O    H 
  12  20   7
Direct configuration=     1
   0.22067121  0.89240241  0.08901558
   0.67389937  0.16237221  0.21827073
   0.94927612  0.02809995  0.15233499
   0.38633364  0.29418417  0.28449430
   0.44927612  0.52809995  0.15233499
   0.90650720  0.29139970  0.28196211
   0.44927612  0.02809995  0.15233499
   0.89820602  0.79140296  0.28224614
   0.90282244  0.55132680  0.10484543
   0.36000816  0.81035651  0.23503909
   0.99227253  0.50769466  0.20048038
   0.53851998  0.23347802  0.07318573
   0.77847598  0.60666349  0.31356823
   0.87926422  0.06310591  0.05527763
   0.34055766  0.33339197  0.18312636
   0.58246139  0.21150732  0.12452493
   0.02836844  0.49039464  0.25277041
   0.09516526  0.72856013  0.12156099
   0.57716950  0.43544111  0.25577871
   0.74864261  0.10968922  0.31160676
   0.85888103  0.57329750  0.05350623
   0.31502762  0.84395470  0.18127751
   0.56207820  0.72169891  0.12275353
   0.00410594  0.98265931  0.25148158
   0.79722254  0.32595454  0.18436521
   0.22929003  0.60700731  0.31321114
   0.34617716  0.60305419  0.05647018
   0.20023002  0.14449904  0.30467503
   0.79476762  0.87934949  0.18313980
   0.34617716  0.05624469  0.05647018
   0.54755512  0.00070224  0.25138033
   0.09516526  0.18175063  0.12156099
   0.34047062  0.60391201  0.02782883
   0.92434681  0.68523651  0.03696881
   0.34363348  0.06399961  0.02783421
   0.88838126  0.05560908  0.02665597
   0.78990440  0.08241728  0.33599465
   0.90006620  0.54830583  0.33205685
   0.30775343  0.72114080  0.31384192
Direct configuration=     2
   0.22067121  0.89240241  0.08901558
   0.67380392  0.16357132  0.21971332
   0.94927612  0.02809995  0.15233499
   0.38822787  0.29625308  0.28430290
   0.44927612  0.52809995  0.15233499
   0.89561801  0.29946086  0.28167494
   0.44927612  0.02809995  0.15233499
   0.90001242  0.79049416  0.28267991
   0.90282244  0.55132680  0.10484543
   0.36072568  0.80737000  0.23564892
   0.99239594  0.50754704  0.20120697
   0.53851998  0.23347802  0.07318573
   0.77873465  0.60436579  0.31286693
   0.87926422  0.06310591  0.05527763
   0.34181135  0.33160630  0.18229486
   0.58246139  0.21150732  0.12452493
   0.02783296  0.48798169  0.25310420
   0.09516526  0.72856013  0.12156099
   0.57606703  0.43639475  0.25507355
   0.75001859  0.11080078  0.31074552
   0.85888103  0.57329750  0.05350623
   0.31513925  0.84467278  0.18033813
   0.56207820  0.72169891  0.12275353
   0.00419906  0.98493700  0.25139544
   0.79851015  0.32431553  0.18306415
   0.21534057  0.60622067  0.31290281
   0.34617716  0.60305419  0.05647018
   0.20959141  0.13419632  0.30584164
   0.79568599  0.87973281  0.18195794
   0.34617716  0.05624469  0.05647018
   0.55439274 -0.00448056  0.25170670
   0.09516526  0.18175063  0.12156099
   0.34047062  0.60391201  0.02782883
   0.92434681  0.68523651  0.03696881
   0.34363348  0.06399961  0.02783421
   0.88838126  0.05560908  0.02665597
   0.79037669  0.08237979  0.33628657
   0.90087411  0.54809893  0.33243827
   0.31102764  0.72855000  0.31381302
