Mn O  H 
 1.0000000000000000
     5.7471469900000001    0.0000000000000000    0.0000000000000000
     0.0000000000000000    5.7471469900000001    0.0000000000000000
     0.0000000000000000    0.0000000000000000   38.3523056924327008
 Mn  O   H  
  15  21   3
Selective dynamics
Direct
 -0.0093835343744717  0.2391760241319369  0.2623916092900749   F   F   F
  0.7489864879576713  0.4968346817732093  0.3235847127412249   F   F   F
  0.4822636887857442  0.2474904101412591  0.3960939261642260   T   T   T
  0.7289630839202732 -0.0058300280641042  0.4609407432167104   T   T   T
  0.2304486074620941 -0.0049295850267135  0.4602202063452689   T   T   T
  0.2510151206674320  0.4955812159049278  0.3269556710605909   F   F   F
  0.4834780099394667  0.7479135361586331  0.3960096397070285   T   T   T
 -0.0100916428494874  0.7513987945614823  0.2627757334990781   F   F   F
  0.0024768544779153 -0.0045784375955736  0.3571699137271092   F   F   F
 -0.0192898958374596  0.4948748893988035  0.4280851060243119   T   T   T
  0.4699214471807293  0.5029741158469354  0.4921286914481334   T   T   T
  0.4872487909802456 -0.0043314717839424  0.2917774653642574   F   F   F
  0.4730731896952049  0.1218273397730330  0.5512030651158784   T   T   T
  0.9836394021768016  0.2236613133397591  0.5228250838472986   T   T   T
  0.9885212954112255  0.7210885017675723  0.5227830289848632   T   T   T
 -0.0217070628229929  0.2249204425180950  0.4642670348501845   T   T   T
  0.7747574636748692  0.4958631552600724  0.2647010163483396   F   F   F
  0.4994775423373534  0.2678073900728424  0.3280746410023943   F   F   F
  0.7110945022974628 -0.0028169089648864  0.3993274034863040   T   T   T
  0.0037645548922136  0.2690184215424850  0.3222536979589821   F   F   F
  0.7692367725186661 -0.0055241815224737  0.2597891457639432   F   F   F
  0.4811115908780095  0.2251407873683195  0.4577241999716020   T   T   T
  0.7097479702545224  0.4982449079209145  0.3929775150105144   T   T   T
  0.2111692605782599 -0.0057975698878655  0.2583053953367737   F   F   F
  0.2532532842706929  0.4986919198658115  0.3930449248853186   T   T   T
  0.2272536477132092  0.4962741366236937  0.2626329689737672   F   F   F
  0.2535617340290874 -0.0034415531657348  0.3993474188390915   T   T   T
  0.4987015056994976  0.7247605740973498  0.3278246169346272   F   F   F
 -0.0198539573849637  0.7621434497130862  0.4641596515258411   T   T   T
  0.4816163060402235  0.7656718484210031  0.4569827290184573   T   T   T
  0.0041034282560547  0.7236694402594225  0.3222276800561435   F   F   F
  0.7382268330038102  0.4660953162934913  0.5309803435762587   T   T   T
  0.6462500079426224  0.2899153050560482  0.5887228646022565   T   T   T
  0.2215435358495941  0.4487985521101885  0.5296249367659961   T   T   T
  0.7464991695868070 -0.0091374625969015  0.5218583299706897   T   T   T
  0.2165511022968039 -0.0140723293679055  0.5238349460602286   T   T   T
  0.3862807976787250  0.4992215041381847  0.2532026820654570   F   F   F
  0.6971777963878959  0.4419659533279489  0.5575423187659558   T   T   T
  0.5797963228052413  0.3551694998187533  0.6097672074369992   T   T   T
