Mn  O  H                                
   1.00000000000000     
     5.7471469900000001    0.0000000000000000    0.0000000000000000
     0.0000000000000000    5.7471469900000001    0.0000000000000000
     0.0000000000000000    0.0000000000000000   38.3054457869999965
   Mn   O    H 
    15    21     2
Selective dynamics
Direct
  0.0005898578905175  0.2476707142651335  0.2914703058693817   F   F   F
  0.4930568167006300  0.7461824114576885  0.4168148855069234   F   F   F
  0.4928775973415611  0.2468076773515762  0.4165700117087638   F   F   F
  0.0005898578905175  0.7476701061373063  0.2914703058693817   F   F   F
  0.7505898156956690  0.4976695402043276  0.3529281469578436   F   F   F
  0.7450713315059908  0.9950898670248441  0.4820522786874486   T   T   T
  0.2505904238234891  0.4976695402043276  0.3529281469578436   F   F   F
  0.2460835708382959  0.9961913474812294  0.4803969406608206   T   T   T
  0.9961829773906672  0.9974009730347930  0.3853666155481719   F   F   F
  0.4748649322959259  0.5006386520829785  0.5142257363362808   T   T   T
  0.9937909794099415  0.4926580035044963  0.4496614496831293   T   T   T
  0.5005892497626903  0.9976706720702850  0.3221990958838745   F   F   F
  0.9797027692930739  0.2329508450756708  0.5504902484275905   T   T   T
 -0.0094822457168994  0.7249974838571811  0.5447672668622923   T   T   T
  0.5047999482603630  0.0854657148803793  0.5742515045417914   T   T   T
 -0.0024280983009978  0.2189628342329625  0.4840927312139695   T   T   T
  0.5005892497626903  0.7242654498384411  0.3546474847346772   F   F   F
  0.5005892497626903  0.2710753705639988  0.3546474847346772   F   F   F
  0.0015278541613873  0.7649989739977923  0.4848528635453772   T   T   T
  0.7739944719945271  0.4976695402043276  0.2931896436462154   F   F   F
  0.7231936136716044  0.9978377114729042  0.4203219586459994   F   F   F
  0.4930771533989750  0.2246849496007702  0.4789699579568399   T   T   T
  0.0005898578905175  0.7242654498384411  0.3512088091810099   F   F   F
  0.0005898578905175  0.2710753705639988  0.3512088091810099   F   F   F
  0.4938567575270711  0.7678489350637331  0.4781662683488977   T   T   T
  0.7215649794960299  0.4960826658794062  0.4147144008800794   F   F   F
  0.7739944719945271  0.9976706720702850  0.2897509680925552   F   F   F
  0.2648775127291429  0.4961540056242768  0.4137443038289561   F   F   F
  0.2271857675246238  0.9976706720702850  0.2897509680925552   F   F   F
  0.2679486017461343  0.9971782538313008  0.4196901946891316   F   F   F
  0.2271857675246238  0.4976695402043276  0.2931896436462154   F   F   F
  0.7620182473838749  0.4840310841026990  0.5458522870965463   T   T   T
  0.2104527326419088  0.9847121657136473  0.5512215025690396   T   T   T
  0.2129214453482328  0.4752232755696769  0.5519866264779788   T   T   T
  0.7615161376921858  0.9752500357607312  0.5400387267432957   T   T   T
  0.7775770836256883  0.1573984730214658  0.6040111382797186   T   T   T
  0.3544680523300840  0.4873861769803085  0.2714496538643303   F   F   F
  0.7723803954496841  0.2780404688726117  0.6217424374218502   T   T   T
 
  0.00000000E+00  0.00000000E+00  0.00000000E+00
  0.00000000E+00  0.00000000E+00  0.00000000E+00
  0.00000000E+00  0.00000000E+00  0.00000000E+00
  0.00000000E+00  0.00000000E+00  0.00000000E+00
  0.00000000E+00  0.00000000E+00  0.00000000E+00
  0.00000000E+00  0.00000000E+00  0.00000000E+00
  0.00000000E+00  0.00000000E+00  0.00000000E+00
  0.00000000E+00  0.00000000E+00  0.00000000E+00
  0.00000000E+00  0.00000000E+00  0.00000000E+00
  0.00000000E+00  0.00000000E+00  0.00000000E+00
  0.00000000E+00  0.00000000E+00  0.00000000E+00
  0.00000000E+00  0.00000000E+00  0.00000000E+00
  0.00000000E+00  0.00000000E+00  0.00000000E+00
  0.00000000E+00  0.00000000E+00  0.00000000E+00
  0.00000000E+00  0.00000000E+00  0.00000000E+00
  0.00000000E+00  0.00000000E+00  0.00000000E+00
  0.00000000E+00  0.00000000E+00  0.00000000E+00
  0.00000000E+00  0.00000000E+00  0.00000000E+00
  0.00000000E+00  0.00000000E+00  0.00000000E+00
  0.00000000E+00  0.00000000E+00  0.00000000E+00
  0.00000000E+00  0.00000000E+00  0.00000000E+00
  0.00000000E+00  0.00000000E+00  0.00000000E+00
  0.00000000E+00  0.00000000E+00  0.00000000E+00
  0.00000000E+00  0.00000000E+00  0.00000000E+00
  0.00000000E+00  0.00000000E+00  0.00000000E+00
  0.00000000E+00  0.00000000E+00  0.00000000E+00
  0.00000000E+00  0.00000000E+00  0.00000000E+00
  0.00000000E+00  0.00000000E+00  0.00000000E+00
  0.00000000E+00  0.00000000E+00  0.00000000E+00
  0.00000000E+00  0.00000000E+00  0.00000000E+00
  0.00000000E+00  0.00000000E+00  0.00000000E+00
  0.00000000E+00  0.00000000E+00  0.00000000E+00
  0.00000000E+00  0.00000000E+00  0.00000000E+00
  0.00000000E+00  0.00000000E+00  0.00000000E+00
  0.00000000E+00  0.00000000E+00  0.00000000E+00
  0.00000000E+00  0.00000000E+00  0.00000000E+00
  0.00000000E+00  0.00000000E+00  0.00000000E+00
  0.00000000E+00  0.00000000E+00  0.00000000E+00
