Mn O 
 1.0000000000000000
     5.7471469900000001    0.0000000000000000    0.0000000000000000
     0.0000000000000000    5.7471469900000001    0.0000000000000000
     0.0000000000000000    0.0000000000000000   38.3523056924327008
 Mn  O  
  14  19
Selective dynamics
Direct
 -0.0093835343744717  0.2391760241319369  0.2623916092900749   F   F   F
  0.7489864879576713  0.4968346817732093  0.3235847127412249   F   F   F
  0.4940413274250464  0.2532970330381074  0.3926472816585929   T   T   T
  0.7504165673666405  0.0069606187001055  0.4559828401543927   T   T   T
  0.2444768051705877  0.0117331936217984  0.4552898255598952   T   T   T
  0.2510151206674320  0.4955812159049278  0.3269556710605909   F   F   F
  0.4941718566334752  0.7535736647484197  0.3919099278080581   T   T   T
 -0.0100916428494874  0.7513987945614823  0.2627757334990781   F   F   F
  0.0024768544779153 -0.0045784375955736  0.3571699137271092   F   F   F
 -0.0169300691323638  0.5162669533730652  0.4234815794345000   T   T   T
  0.4777886510182010  0.5109445718875865  0.4878121058786510   T   T   T
  0.4872487909802456 -0.0043314717839424  0.2917774653642574   F   F   F
  0.4887118177764615  0.3512048789685279  0.5578068422501939   T   T   T
 -0.0235683237774566  0.4940912014982917  0.5028587370054257   T   T   T
 -0.0165301151271621  0.2487273533300697  0.4604239281309173   T   T   T
  0.7747574636748692  0.4958631552600724  0.2647010163483396   F   F   F
  0.4994775423373534  0.2678073900728424  0.3280746410023943   F   F   F
  0.7225440718496062 -0.0001608681838771  0.3967323966454066   T   T   T
  0.0037645548922136  0.2690184215424850  0.3222536979589821   F   F   F
  0.7692367725186661 -0.0055241815224737  0.2597891457639432   F   F   F
  0.5137429945561376  0.2417199314082112  0.4533428901421604   T   T   T
  0.7250294215445491  0.5041857602324954  0.3858193977087715   T   T   T
  0.2111692605782599 -0.0057975698878655  0.2583053953367737   F   F   F
  0.2701161859355412  0.5057813207419535  0.3923361447310938   T   T   T
  0.2272536477132092  0.4962741366236937  0.2626329689737672   F   F   F
  0.2659456359153313  0.0013506353804244  0.3972600267338196   T   T   T
  0.4987015056994976  0.7247605740973498  0.3278246169346272   F   F   F
 -0.0108830298381802  0.7662946847080866  0.4639756891997464   T   T   T
  0.5080293374995603  0.7773608951788411  0.4548405593770191   T   T   T
  0.0041034282560547  0.7236694402594225  0.3222276800561435   F   F   F
  0.6952871968310410  0.5150581401396904  0.5315038236076618   T   T   T
  0.2583647650141596  0.3748681542963692  0.5254319791003251   T   T   T
  0.5376191025011289  0.1233801524201198  0.5825539159509830   T   T   T
