 running on   64 total cores
 distrk:  each k-point on   64 cores,    1 groups
 distr:  one band on   32 cores,    2 groups
 using from now: INCAR     
 vasp.5.4.4.18Apr17-6-g9f103f2a35 (build Sep 24 2019 09:38:50) complex          
  
 POSCAR found type information on POSCAR  Mn O  H 
 POSCAR found :  3 types and      46 ions

 ----------------------------------------------------------------------------- 
|                                                                             |
|           W    W    AA    RRRRR   N    N  II  N    N   GGGG   !!!           |
|           W    W   A  A   R    R  NN   N  II  NN   N  G    G  !!!           |
|           W    W  A    A  R    R  N N  N  II  N N  N  G       !!!           |
|           W WW W  AAAAAA  RRRRR   N  N N  II  N  N N  G  GGG   !            |
|           WW  WW  A    A  R   R   N   NN  II  N   NN  G    G                |
|           W    W  A    A  R    R  N    N  II  N    N   GGGG   !!!           |
|                                                                             |
|      For optimal performance we recommend to set                            |
|        NCORE= 4 - approx SQRT( number of cores)                             |
|      NCORE specifies how many cores store one orbital (NPAR=cpu/NCORE).     |
|      This setting can  greatly improve the performance of VASP for DFT.     |
|      The default,   NCORE=1            might be grossly inefficient         |
|      on modern multi-core architectures or massively parallel machines.     |
|      Do your own testing !!!!                                               |
|      Unfortunately you need to use the default for GW and RPA calculations. |
|      (for HF NCORE is supported but not extensively tested yet)             |
|                                                                             |
 ----------------------------------------------------------------------------- 

 LDA part: xc-table for Pade appr. of Perdew
 POSCAR found type information on POSCAR  Mn O  H 
 POSCAR found :  3 types and      46 ions
 POSCAR, INCAR and KPOINTS ok, starting setup
 FFT: planning ...
 WAVECAR not read
 entering main loop
       N       E                     dE             d eps       ncg     rms          rms(c)
DAV:   1     0.370395079357E+04    0.37040E+04   -0.17918E+05  9856   0.149E+03
DAV:   2     0.254367658495E+03   -0.34496E+04   -0.32344E+04  9128   0.410E+02
DAV:   3    -0.319541978126E+03   -0.57391E+03   -0.56303E+03  9940   0.163E+02
DAV:   4    -0.346901671655E+03   -0.27360E+02   -0.26953E+02 10144   0.356E+01
DAV:   5    -0.347555329087E+03   -0.65366E+00   -0.65004E+00  9840   0.631E+00    0.836E+01
RMM:   6    -0.490878551200E+03   -0.14332E+03   -0.10681E+03 10889   0.665E+01    0.175E+02
RMM:   7    -0.362801897006E+03    0.12808E+03   -0.76025E+01  8332   0.222E+01    0.960E+01
RMM:   8    -0.342338235174E+03    0.20464E+02   -0.99631E+01  9175   0.194E+01    0.889E+01
RMM:   9    -0.324193146520E+03    0.18145E+02   -0.91152E+00  9235   0.733E+00    0.732E+01
RMM:  10    -0.306235055556E+03    0.17958E+02   -0.44606E+01  8392   0.142E+01    0.527E+01
RMM:  11    -0.336341023765E+03   -0.30106E+02   -0.17731E+01  8952   0.857E+00    0.586E+01
RMM:  12    -0.304363132000E+03    0.31978E+02   -0.15359E+01  9395   0.776E+00    0.444E+01
RMM:  13    -0.300892409400E+03    0.34707E+01   -0.69966E+00  9333   0.558E+00    0.421E+01
RMM:  14    -0.298120427505E+03    0.27720E+01   -0.30245E+00  9016   0.395E+00    0.179E+01
RMM:  15    -0.301827186471E+03   -0.37068E+01   -0.18373E+00  8456   0.272E+00    0.214E+01
RMM:  16    -0.301860381280E+03   -0.33195E-01   -0.13675E+00  8703   0.218E+00    0.196E+01
RMM:  17    -0.300993870758E+03    0.86651E+00   -0.92389E-01  8536   0.208E+00    0.170E+01
RMM:  18    -0.300544248068E+03    0.44962E+00   -0.91143E-01  8704   0.199E+00    0.127E+01
RMM:  19    -0.301823192846E+03   -0.12789E+01   -0.30363E-01  8703   0.126E+00    0.104E+01
RMM:  20    -0.302183579148E+03   -0.36039E+00   -0.52240E-01  8256   0.158E+00    0.904E+00
RMM:  21    -0.303101857695E+03   -0.91828E+00   -0.25741E-01  8646   0.969E-01    0.994E+00
RMM:  22    -0.303418766567E+03   -0.31691E+00   -0.13384E-01  8873   0.653E-01    0.103E+01
RMM:  23    -0.303526441738E+03   -0.10768E+00   -0.62194E-02  8427   0.433E-01    0.103E+01
RMM:  24    -0.303620728084E+03   -0.94286E-01   -0.63473E-02  8215   0.443E-01    0.105E+01
RMM:  25    -0.303693643718E+03   -0.72916E-01   -0.48335E-02  8093   0.376E-01    0.106E+01
RMM:  26    -0.303740649444E+03   -0.47006E-01   -0.22877E-02  8043   0.278E-01    0.107E+01
RMM:  27    -0.303486496721E+03    0.25415E+00   -0.22258E-01  8257   0.913E-01    0.108E+01
RMM:  28    -0.302733486061E+03    0.75301E+00   -0.76842E-01  8246   0.165E+00    0.114E+01
RMM:  29    -0.298563086090E+03    0.41704E+01   -0.28033E+00  8250   0.317E+00    0.149E+01
RMM:  30    -0.296120454559E+03    0.24426E+01   -0.12516E+00  8339   0.202E+00    0.167E+01
RMM:  31    -0.297410035522E+03   -0.12896E+01   -0.29147E-01  8379   0.959E-01    0.160E+01
RMM:  32    -0.297731572570E+03   -0.32154E+00   -0.11449E-01  8501   0.562E-01    0.158E+01
RMM:  33    -0.297490251184E+03    0.24132E+00   -0.53120E-02  8402   0.369E-01    0.161E+01
RMM:  34    -0.298724681432E+03   -0.12344E+01   -0.91080E-02  8296   0.587E-01    0.159E+01
RMM:  35    -0.297577994362E+03    0.11467E+01   -0.18412E-01  8356   0.860E-01    0.158E+01
RMM:  36    -0.291030815636E+03    0.65472E+01   -0.13130E+00  8269   0.239E+00    0.186E+01
RMM:  37    -0.287787014920E+03    0.32438E+01   -0.57597E-01  8335   0.160E+00    0.206E+01
RMM:  38    -0.283968675862E+03    0.38183E+01   -0.49747E-01  8390   0.151E+00    0.228E+01
RMM:  39    -0.283951624698E+03    0.17051E-01   -0.99558E-02  9011   0.549E-01    0.229E+01
RMM:  40    -0.284872528648E+03   -0.92090E+00   -0.37723E-02  8125   0.378E-01    0.225E+01
RMM:  41    -0.286078626985E+03   -0.12061E+01   -0.64312E-02  8267   0.540E-01    0.219E+01
RMM:  42    -0.289494113415E+03   -0.34155E+01   -0.24358E-01  8251   0.108E+00    0.201E+01
RMM:  43    -0.296271951341E+03   -0.67778E+01   -0.12180E+00  8251   0.237E+00    0.162E+01
RMM:  44    -0.296626136279E+03   -0.35418E+00   -0.17882E-01  8936   0.843E-01    0.158E+01
RMM:  45    -0.297064210732E+03   -0.43807E+00   -0.10723E-01  8732   0.625E-01    0.156E+01
RMM:  46    -0.296786532066E+03    0.27768E+00   -0.49924E-02  8417   0.410E-01    0.160E+01
RMM:  47    -0.296138332115E+03    0.64820E+00   -0.38968E-02  8361   0.370E-01    0.166E+01
RMM:  48    -0.296093010300E+03    0.45322E-01   -0.29589E-02  8054   0.324E-01    0.169E+01
RMM:  49    -0.296162054624E+03   -0.69044E-01   -0.13151E-02  8054   0.270E-01    0.166E+01
RMM:  50    -0.296006129766E+03    0.15592E+00   -0.11728E-02  8281   0.211E-01    0.170E+01
RMM:  51    -0.292013850470E+03    0.39923E+01   -0.62974E-01  8540   0.157E+00    0.240E+01
RMM:  52    -0.293290276932E+03   -0.12764E+01   -0.10594E-01  8679   0.770E-01    0.256E+01
RMM:  53    -0.293701729871E+03   -0.41145E+00   -0.37751E-02  9022   0.408E-01    0.275E+01
RMM:  54    -0.293859418905E+03   -0.15769E+00   -0.25831E-02  8261   0.293E-01    0.285E+01
RMM:  55    -0.296581843897E+03   -0.27224E+01   -0.34365E-01  8272   0.117E+00    0.263E+01
RMM:  56    -0.297550237779E+03   -0.96839E+00   -0.31265E-01  8395   0.124E+00    0.238E+01
RMM:  57    -0.297958869611E+03   -0.40863E+00   -0.56661E-02  9031   0.461E-01    0.231E+01
RMM:  58    -0.297916645080E+03    0.42225E-01   -0.73112E-02  8493   0.552E-01    0.198E+01
RMM:  59    -0.298829968378E+03   -0.91332E+00   -0.14007E-01  8321   0.759E-01    0.187E+01
RMM:  60    -0.298991717245E+03   -0.16175E+00   -0.39876E-02  8662   0.446E-01
   1 F= -.29899172E+03 E0= -.29898992E+03  d E =-.298992E+03  mag=    18.7093
 curvature:   0.00 expect dE= 0.000E+00 dE for cont linesearch  0.000E+00
 trial: gam= 0.00000 g(F)=  0.434E+00 g(S)=  0.000E+00 ort = 0.000E+00 (trialstep = 0.100E+01)
 search vector abs. value=  0.434E+00
 bond charge predicted
       N       E                     dE             d eps       ncg     rms          rms(c)
DAV:   1    -0.299169946758E+03   -0.33998E+00   -0.11208E+02  9690   0.433E+01    0.183E+01
RMM:   2    -0.303395670934E+03   -0.42257E+01   -0.20025E+01 10012   0.107E+01    0.264E+01
RMM:   3    -0.302480158207E+03    0.91551E+00   -0.29314E+00  8862   0.385E+00    0.101E+01
RMM:   4    -0.302349407949E+03    0.13075E+00   -0.11576E+00  8933   0.180E+00    0.527E+00
RMM:   5    -0.302545104843E+03   -0.19570E+00   -0.43052E-01  8663   0.131E+00    0.883E+00
RMM:   6    -0.302580035019E+03   -0.34930E-01   -0.41992E-01  8775   0.114E+00    0.480E+00
RMM:   7    -0.302707874847E+03   -0.12784E+00   -0.14723E-01  8827   0.813E-01    0.378E+00
RMM:   8    -0.302727012743E+03   -0.19138E-01   -0.92383E-02  9051   0.567E-01    0.418E+00
RMM:   9    -0.302755718532E+03   -0.28706E-01   -0.87503E-02  8779   0.544E-01    0.155E+00
RMM:  10    -0.302893381216E+03   -0.13766E+00   -0.20946E-02  9196   0.278E-01    0.774E-01
RMM:  11    -0.302905041402E+03   -0.11660E-01   -0.13093E-02  8960   0.171E-01    0.922E-01
RMM:  12    -0.302916149905E+03   -0.11109E-01   -0.12413E-02  8489   0.164E-01    0.655E-01
RMM:  13    -0.302980888149E+03   -0.64738E-01   -0.22971E-02  8304   0.224E-01    0.728E-01
RMM:  14    -0.302992632824E+03   -0.11745E-01   -0.10270E-02  8566   0.151E-01    0.134E+00
RMM:  15    -0.302955876504E+03    0.36756E-01   -0.43266E-03  8636   0.103E-01    0.211E+00
RMM:  16    -0.302949977312E+03    0.58992E-02   -0.51233E-03  8085   0.120E-01    0.284E+00
RMM:  17    -0.302965221623E+03   -0.15244E-01   -0.25822E-03  8071   0.106E-01    0.393E+00
RMM:  18    -0.302971280457E+03   -0.60588E-02   -0.15165E-03  7873   0.915E-02    0.471E+00
RMM:  19    -0.302986251724E+03   -0.14971E-01   -0.15524E-03  8014   0.850E-02    0.516E+00
RMM:  20    -0.302987961389E+03   -0.17097E-02   -0.41752E-04  7867   0.477E-02    0.536E+00
RMM:  21    -0.302988089792E+03   -0.12840E-03   -0.11883E-04  7186   0.253E-02    0.544E+00
RMM:  22    -0.303001359193E+03   -0.13269E-01   -0.54823E-04  8058   0.441E-02    0.557E+00
RMM:  23    -0.303045438333E+03   -0.44079E-01   -0.35764E-03  8129   0.110E-01    0.586E+00
RMM:  24    -0.303100176528E+03   -0.54738E-01   -0.68058E-03  8615   0.145E-01    0.615E+00
RMM:  25    -0.303182182639E+03   -0.82006E-01   -0.14875E-02  8706   0.210E-01    0.653E+00
RMM:  26    -0.303234636165E+03   -0.52454E-01   -0.74647E-03  8875   0.141E-01    0.677E+00
RMM:  27    -0.303256846298E+03   -0.22210E-01   -0.38676E-03  8810   0.986E-02    0.693E+00
RMM:  28    -0.303284754779E+03   -0.27908E-01   -0.48246E-03  8470   0.109E-01    0.714E+00
RMM:  29    -0.303270486335E+03    0.14268E-01   -0.12464E-03  7950   0.829E-02    0.701E+00
RMM:  30    -0.303303901986E+03   -0.33416E-01   -0.20479E-03  8470   0.846E-02    0.722E+00
RMM:  31    -0.303328808120E+03   -0.24906E-01   -0.10895E-03  8376   0.627E-02    0.735E+00
RMM:  32    -0.303330994875E+03   -0.21868E-02   -0.15882E-04  8585   0.232E-02    0.737E+00
RMM:  33    -0.303325663830E+03    0.53310E-02   -0.29636E-04  7599   0.381E-02    0.731E+00
RMM:  34    -0.303303672334E+03    0.21991E-01   -0.17798E-03  7973   0.854E-02    0.712E+00
RMM:  35    -0.303271588626E+03    0.32084E-01   -0.44167E-03  8194   0.129E-01    0.684E+00
RMM:  36    -0.303227456258E+03    0.44132E-01   -0.11529E-02  8469   0.208E-01    0.642E+00
RMM:  37    -0.303217838064E+03    0.96182E-02   -0.33454E-03  8425   0.102E-01    0.630E+00
RMM:  38    -0.303235246778E+03   -0.17409E-01   -0.40474E-03  8595   0.112E-01    0.617E+00
RMM:  39    -0.303208538223E+03    0.26709E-01   -0.97628E-02  8611   0.619E-01    0.455E+00
RMM:  40    -0.303246415064E+03   -0.37877E-01   -0.31401E-02  9037   0.312E-01    0.381E+00
RMM:  41    -0.303327739462E+03   -0.81324E-01   -0.72819E-03  8377   0.203E-01    0.453E+00
RMM:  42    -0.303353715640E+03   -0.25976E-01   -0.79986E-02  8724   0.553E-01    0.339E+00
RMM:  43    -0.303386386971E+03   -0.32671E-01   -0.12775E-02  9289   0.257E-01    0.332E+00
RMM:  44    -0.303397470402E+03   -0.11083E-01   -0.33108E-03  8379   0.127E-01    0.330E+00
RMM:  45    -0.303403186720E+03   -0.57163E-02   -0.89886E-04  8809   0.677E-02    0.351E+00
RMM:  46    -0.303412587947E+03   -0.94012E-02   -0.16640E-02  8517   0.256E-01    0.282E+00
RMM:  47    -0.303448953199E+03   -0.36365E-01   -0.61686E-03  8545   0.167E-01    0.300E+00
RMM:  48    -0.303473389121E+03   -0.24436E-01   -0.91422E-03  8179   0.160E-01    0.292E+00
RMM:  49    -0.303487877679E+03   -0.14489E-01   -0.45668E-03  8450   0.110E-01    0.286E+00
RMM:  50    -0.303491812717E+03   -0.39350E-02   -0.11164E-03  8901   0.539E-02    0.283E+00
RMM:  51    -0.303524557903E+03   -0.32745E-01   -0.64894E-03  8505   0.160E-01    0.363E+00
RMM:  52    -0.303528540584E+03   -0.39827E-02   -0.12104E-02  8449   0.223E-01    0.363E+00
RMM:  53    -0.303532807067E+03   -0.42665E-02   -0.11042E-03  9394   0.707E-02    0.357E+00
RMM:  54    -0.303532834133E+03   -0.27066E-04   -0.20212E-04  7687   0.233E-02    0.357E+00
RMM:  55    -0.303538807815E+03   -0.59737E-02   -0.28571E-03  8529   0.101E-01    0.292E+00
RMM:  56    -0.303559237412E+03   -0.20430E-01   -0.53626E-03  8679   0.136E-01    0.286E+00
RMM:  57    -0.303581557731E+03   -0.22320E-01   -0.65204E-03  8211   0.179E-01    0.411E+00
RMM:  58    -0.303611757673E+03   -0.30200E-01   -0.38021E-03  7987   0.147E-01    0.663E+00
RMM:  59    -0.303642850187E+03   -0.31093E-01   -0.51542E-03  7809   0.160E-01    0.912E+00
RMM:  60    -0.303665228129E+03   -0.22378E-01   -0.59560E-03  7640   0.170E-01
   2 F= -.30366523E+03 E0= -.30366806E+03  d E =-.467351E+01  mag=    20.3107
 trial-energy change:   -4.673511  1 .order   -0.250845   -0.434301   -0.067388
 step:   1.0025(harm=  1.1837)  dis= 0.07766  next Energy=  -303.665312 (dE=-0.467E+01)
 bond charge predicted
       N       E                     dE             d eps       ncg     rms          rms(c)
DAV:   1    -0.303688934668E+03   -0.46084E-01   -0.11167E-01 11412   0.466E-01    0.115E+01
RMM:   2    -0.304669365036E+03   -0.98043E+00   -0.62941E+00  8659   0.434E+00    0.226E+01
RMM:   3    -0.303909417493E+03    0.75995E+00   -0.15111E+00  9292   0.259E+00    0.931E+00
RMM:   4    -0.303771919067E+03    0.13750E+00   -0.37623E-01  8801   0.117E+00    0.688E+00
RMM:   5    -0.303647745368E+03    0.12417E+00   -0.14650E-01  9005   0.764E-01    0.494E+00
RMM:   6    -0.303674280958E+03   -0.26536E-01   -0.43487E-02  9413   0.354E-01    0.505E+00
RMM:   7    -0.303647001679E+03    0.27279E-01   -0.18664E-02  9256   0.253E-01    0.397E+00
RMM:   8    -0.303630859414E+03    0.16142E-01   -0.95580E-03  8873   0.182E-01    0.227E+00
RMM:   9    -0.303642316467E+03   -0.11457E-01   -0.32795E-03  8388   0.121E-01    0.166E+00
RMM:  10    -0.303659590975E+03   -0.17275E-01   -0.10964E-02  8830   0.218E-01    0.399E+00
RMM:  11    -0.303721185528E+03   -0.61595E-01   -0.93406E-03  8292   0.246E-01    0.862E+00
RMM:  12    -0.303782939933E+03   -0.61754E-01   -0.10645E-02  7974   0.237E-01    0.112E+01
RMM:  13    -0.303783748636E+03   -0.80870E-03   -0.37264E-03  7838   0.134E-01    0.112E+01
RMM:  14    -0.303780386179E+03    0.33625E-02   -0.44053E-04  7951   0.401E-02    0.112E+01
RMM:  15    -0.303792456836E+03   -0.12071E-01   -0.54833E-04  8251   0.460E-02    0.113E+01
RMM:  16    -0.303795262508E+03   -0.28057E-02   -0.90261E-05  7631   0.183E-02    0.113E+01
RMM:  17    -0.303796217062E+03   -0.95455E-03   -0.16722E-05  5116   0.869E-03    0.113E+01
RMM:  18    -0.303794216596E+03    0.20005E-02   -0.81867E-05  5720   0.170E-02    0.113E+01
RMM:  19    -0.303792765696E+03    0.14509E-02   -0.97948E-05  6099   0.168E-02    0.112E+01
RMM:  20    -0.303754440078E+03    0.38326E-01   -0.78089E-03  8185   0.170E-01    0.108E+01
RMM:  21    -0.303696212923E+03    0.58227E-01   -0.95993E-03  8502   0.187E-01    0.990E+00
RMM:  22    -0.303655428168E+03    0.40785E-01   -0.84127E-03  8561   0.165E-01    0.842E+00
RMM:  23    -0.303630281434E+03    0.25147E-01   -0.11686E-02  8524   0.214E-01    0.523E+00
RMM:  24    -0.303655101446E+03   -0.24820E-01   -0.90155E-03  8435   0.205E-01    0.244E+00
RMM:  25    -0.303682746944E+03   -0.27645E-01   -0.54319E-03  8214   0.166E-01    0.136E+00
RMM:  26    -0.303691841957E+03   -0.90950E-02   -0.21242E-03  8079   0.108E-01    0.762E-01
RMM:  27    -0.303694209347E+03   -0.23674E-02   -0.10051E-03  7931   0.845E-02    0.709E-01
RMM:  28    -0.303695832328E+03   -0.16230E-02   -0.41353E-04  7549   0.573E-02    0.125E+00
RMM:  29    -0.303695543670E+03    0.28866E-03   -0.57222E-04  7538   0.623E-02    0.186E+00
RMM:  30    -0.303706776897E+03   -0.11233E-01   -0.24766E-03  8131   0.114E-01    0.315E+00
RMM:  31    -0.303713113719E+03   -0.63368E-02   -0.14860E-03  7998   0.917E-02    0.422E+00
RMM:  32    -0.303720219100E+03   -0.71054E-02   -0.16077E-03  7940   0.940E-02    0.523E+00
RMM:  33    -0.303729519952E+03   -0.93009E-02   -0.14527E-03  8125   0.864E-02    0.578E+00
RMM:  34    -0.303733181097E+03   -0.36611E-02   -0.80097E-04  8005   0.622E-02    0.582E+00
RMM:  35    -0.303733059293E+03    0.12180E-03   -0.72766E-04  7871   0.522E-02    0.578E+00
RMM:  36    -0.303738998245E+03   -0.59390E-02   -0.37526E-04  8448   0.353E-02    0.587E+00
RMM:  37    -0.303716703289E+03    0.22295E-01   -0.31409E-03  8318   0.106E-01    0.542E+00
RMM:  38    -0.303718265976E+03   -0.15627E-02   -0.13278E-04  8885   0.265E-02    0.541E+00
RMM:  39    -0.303719797256E+03   -0.15313E-02   -0.38321E-04  8049   0.398E-02    0.549E+00
RMM:  40    -0.303712523005E+03    0.72743E-02   -0.18348E-03  8116   0.878E-02    0.527E+00
RMM:  41    -0.303712364047E+03    0.15896E-03   -0.42781E-03  8288   0.133E-01    0.498E+00
RMM:  42    -0.303712076828E+03    0.28722E-03   -0.12219E-03  8371   0.672E-02    0.475E+00
RMM:  43    -0.303712155969E+03   -0.79141E-04   -0.11344E-03  8315   0.577E-02    0.453E+00
RMM:  44    -0.303713972556E+03   -0.18166E-02   -0.12700E-03  7828   0.604E-02    0.436E+00
RMM:  45    -0.303719805550E+03   -0.58330E-02   -0.16928E-03  7999   0.651E-02    0.431E+00
RMM:  46    -0.303725132530E+03   -0.53270E-02   -0.19365E-03  7850   0.663E-02    0.429E+00
RMM:  47    -0.303723601700E+03    0.15308E-02   -0.11735E-03  8016   0.622E-02    0.405E+00
RMM:  48    -0.303724836757E+03   -0.12351E-02   -0.42307E-04  8118   0.342E-02    0.390E+00
RMM:  49    -0.303722532537E+03    0.23042E-02   -0.38599E-04  7813   0.474E-02    0.358E+00
RMM:  50    -0.303721025638E+03    0.15069E-02   -0.68142E-04  7593   0.585E-02    0.332E+00
RMM:  51    -0.303722108937E+03   -0.10833E-02   -0.23254E-04  7414   0.315E-02    0.310E+00
RMM:  52    -0.303722843431E+03   -0.73449E-03   -0.19519E-04  7404   0.343E-02    0.274E+00
RMM:  53    -0.303722292924E+03    0.55051E-03   -0.91153E-04  7891   0.602E-02    0.219E+00
RMM:  54    -0.303724257168E+03   -0.19642E-02   -0.79529E-04  7902   0.568E-02    0.143E+00
RMM:  55    -0.303727454363E+03   -0.31972E-02   -0.39947E-04  7292   0.497E-02    0.855E-01
RMM:  56    -0.303729922463E+03   -0.24681E-02   -0.36860E-04  7661   0.494E-02    0.397E-01
RMM:  57    -0.303732341516E+03   -0.24191E-02   -0.49423E-04  7372   0.608E-02    0.106E+00
RMM:  58    -0.303734892369E+03   -0.25509E-02   -0.46618E-04  7311   0.587E-02    0.185E+00
RMM:  59    -0.303736054814E+03   -0.11624E-02   -0.44038E-04  7210   0.570E-02    0.270E+00
RMM:  60    -0.303736623784E+03   -0.56897E-03   -0.45386E-04  7208   0.558E-02
   3 F= -.30373662E+03 E0= -.30373618E+03  d E =-.474491E+01  mag=    20.2928
 curvature:  -0.02 expect dE=-0.175E-02 dE for cont linesearch -0.435E-04
 ZBRENT: interpolating
 opt :   1.0017  next Energy=  -303.736638 (dE=-0.474E+01)
 bond charge predicted
       N       E                     dE             d eps       ncg     rms          rms(c)
DAV:   1    -0.303736556321E+03   -0.50151E-03   -0.98015E-04 11284   0.149E-01    0.435E+00
RMM:   2    -0.304054015125E+03   -0.31746E+00   -0.74697E-01  8840   0.156E+00    0.105E+01
RMM:   3    -0.303878325210E+03    0.17569E+00   -0.26403E-01  9219   0.965E-01    0.661E+00
RMM:   4    -0.303723963067E+03    0.15436E+00   -0.14385E-01  9136   0.656E-01    0.497E+00
RMM:   5    -0.303744629295E+03   -0.20666E-01   -0.15074E-02  8990   0.248E-01    0.495E+00
RMM:   6    -0.303742684718E+03    0.19446E-02   -0.37786E-03  8948   0.119E-01    0.479E+00
RMM:   7    -0.303727354052E+03    0.15331E-01   -0.35466E-03  8732   0.113E-01    0.407E+00
RMM:   8    -0.303716639293E+03    0.10715E-01   -0.33673E-03  8615   0.113E-01    0.271E+00
RMM:   9    -0.303721565984E+03   -0.49267E-02   -0.37277E-03  8153   0.131E-01    0.771E-01
RMM:  10    -0.303737549286E+03   -0.15983E-01   -0.40623E-03  7983   0.139E-01    0.109E+00
RMM:  11    -0.303751637045E+03   -0.14088E-01   -0.30814E-03  7965   0.137E-01    0.294E+00
RMM:  12    -0.303759212002E+03   -0.75750E-02   -0.27619E-03  7933   0.135E-01    0.463E+00
RMM:  13    -0.303764976304E+03   -0.57643E-02   -0.20340E-03  7664   0.113E-01    0.633E+00
RMM:  14    -0.303777120015E+03   -0.12144E-01   -0.20828E-03  7659   0.109E-01    0.821E+00
RMM:  15    -0.303790813475E+03   -0.13693E-01   -0.24248E-03  7719   0.113E-01    0.960E+00
RMM:  16    -0.303794343032E+03   -0.35296E-02   -0.21612E-03  7609   0.102E-01    0.102E+01
RMM:  17    -0.303807546820E+03   -0.13204E-01   -0.23118E-03  7562   0.917E-02    0.104E+01
RMM:  18    -0.303816100386E+03   -0.85536E-02   -0.35850E-03  7495   0.104E-01    0.108E+01
RMM:  19    -0.303844489521E+03   -0.28389E-01   -0.64171E-03  7345   0.137E-01    0.116E+01
RMM:  20    -0.303894133300E+03   -0.49644E-01   -0.11608E-02  7519   0.186E-01    0.125E+01
RMM:  21    -0.303912670681E+03   -0.18537E-01   -0.13162E-02  7616   0.185E-01    0.127E+01
RMM:  22    -0.303914869492E+03   -0.21988E-02   -0.76090E-03  7539   0.122E-01    0.128E+01
RMM:  23    -0.303912923265E+03    0.19462E-02   -0.32872E-03  7490   0.815E-02    0.129E+01
RMM:  24    -0.303911556207E+03    0.13671E-02   -0.13966E-03  7391   0.570E-02    0.129E+01
RMM:  25    -0.303909305950E+03    0.22503E-02   -0.62948E-04  6905   0.411E-02    0.130E+01
RMM:  26    -0.303907706561E+03    0.15994E-02   -0.35752E-04  6647   0.314E-02    0.130E+01
RMM:  27    -0.303906746801E+03    0.95976E-03   -0.24417E-04  6662   0.264E-02    0.130E+01
RMM:  28    -0.303906549888E+03    0.19691E-03   -0.15922E-04  6109   0.209E-02    0.130E+01
RMM:  29    -0.303903010700E+03    0.35392E-02   -0.13782E-04  6315   0.206E-02    0.130E+01
RMM:  30    -0.303902742002E+03    0.26870E-03   -0.95802E-05  5604   0.154E-02    0.130E+01
RMM:  31    -0.303900269871E+03    0.24721E-02   -0.77348E-05  5623   0.157E-02    0.130E+01
RMM:  32    -0.303900818992E+03   -0.54912E-03   -0.58160E-05  5304   0.120E-02    0.130E+01
RMM:  33    -0.303902599706E+03   -0.17807E-02   -0.56928E-05  5681   0.122E-02    0.131E+01
RMM:  34    -0.303906596929E+03   -0.39972E-02   -0.26155E-04  7254   0.298E-02    0.131E+01
RMM:  35    -0.303907645093E+03   -0.10482E-02   -0.43613E-04  7391   0.385E-02    0.131E+01
RMM:  36    -0.303907971114E+03   -0.32602E-03   -0.19223E-04  6631   0.229E-02    0.131E+01
RMM:  37    -0.303913109291E+03   -0.51382E-02   -0.36307E-04  7780   0.346E-02    0.131E+01
RMM:  38    -0.303907015382E+03    0.60939E-02   -0.27371E-04  7573   0.362E-02    0.131E+01
RMM:  39    -0.303901911242E+03    0.51041E-02   -0.12852E-04  7303   0.198E-02    0.131E+01
RMM:  40    -0.303877434526E+03    0.24477E-01   -0.93143E-04  7960   0.586E-02    0.130E+01
RMM:  41    -0.303884177314E+03   -0.67428E-02   -0.12667E-04  7859   0.262E-02    0.130E+01
RMM:  42    -0.303888684852E+03   -0.45075E-02   -0.80171E-05  6456   0.195E-02    0.130E+01
RMM:  43    -0.303892592650E+03   -0.39078E-02   -0.73753E-05  6788   0.172E-02    0.130E+01
RMM:  44    -0.303876959958E+03    0.15633E-01   -0.33534E-04  8050   0.351E-02    0.129E+01
RMM:  45    -0.303865496990E+03    0.11463E-01   -0.23154E-04  7984   0.307E-02    0.129E+01
RMM:  46    -0.303861207517E+03    0.42895E-02   -0.87931E-05  6917   0.204E-02    0.128E+01
RMM:  47    -0.303852139853E+03    0.90677E-02   -0.28417E-04  7990   0.336E-02    0.128E+01
RMM:  48    -0.303832411894E+03    0.19728E-01   -0.13344E-03  7876   0.654E-02    0.127E+01
RMM:  49    -0.303810901217E+03    0.21511E-01   -0.30359E-03  8014   0.959E-02    0.125E+01
RMM:  50    -0.303805665710E+03    0.52355E-02   -0.10404E-03  7902   0.481E-02    0.125E+01
RMM:  51    -0.303801814145E+03    0.38516E-02   -0.35272E-04  7619   0.348E-02    0.125E+01
RMM:  52    -0.303820092684E+03   -0.18279E-01   -0.17239E-03  8150   0.782E-02    0.126E+01
RMM:  53    -0.303814141577E+03    0.59511E-02   -0.57093E-04  8094   0.450E-02    0.125E+01
RMM:  54    -0.303816392230E+03   -0.22507E-02   -0.24673E-04  7843   0.284E-02    0.126E+01
RMM:  55    -0.303820766355E+03   -0.43741E-02   -0.11454E-04  7106   0.203E-02    0.126E+01
RMM:  56    -0.303813037314E+03    0.77290E-02   -0.17069E-03  7852   0.757E-02    0.127E+01
RMM:  57    -0.306517004736E+03   -0.27040E+01   -0.75441E+00  8807   0.505E+00    0.286E+01
RMM:  58    -0.307756031230E+03   -0.12390E+01   -0.77521E-01 10195   0.197E+00    0.316E+01
RMM:  59    -0.307773641716E+03   -0.17610E-01   -0.10155E-01 10579   0.650E-01    0.331E+01
RMM:  60    -0.307758995968E+03    0.14646E-01   -0.16675E-02  9773   0.263E-01
   4 F= -.30775900E+03 E0= -.30775756E+03  d E =-.876728E+01  mag=    19.6769
 curvature:  -0.01 expect dE=-0.346E-02 dE for cont linesearch -0.132E-04
 trial: gam= 1.56819 g(F)=  0.648E+00 g(S)=  0.000E+00 ort =-0.327E-01 (trialstep = 0.269E+00)
 search vector abs. value=  0.161E+01
 bond charge predicted
       N       E                     dE             d eps       ncg     rms          rms(c)
DAV:   1    -0.307564605201E+03    0.20904E+00   -0.29573E+01  9284   0.207E+01    0.348E+01
RMM:   2    -0.378290972418E+03   -0.70726E+02   -0.11157E+02 10807   0.196E+01    0.116E+02
RMM:   3    -0.340539917193E+03    0.37751E+02   -0.54645E+01  8855   0.150E+01    0.759E+01
RMM:   4    -0.298835260904E+03    0.41705E+02   -0.13562E+01  9619   0.861E+00    0.364E+01
RMM:   5    -0.305409296269E+03   -0.65740E+01   -0.21133E+01  8480   0.930E+00    0.407E+01
RMM:   6    -0.301436512449E+03    0.39728E+01   -0.49072E+00  9604   0.469E+00    0.182E+01
RMM:   7    -0.303057736798E+03   -0.16212E+01   -0.10567E+00  8889   0.218E+00    0.154E+01
RMM:   8    -0.303345818688E+03   -0.28808E+00   -0.34251E-01  8899   0.114E+00    0.140E+01
RMM:   9    -0.303590267098E+03   -0.24445E+00   -0.10186E+00  8535   0.194E+00    0.145E+01
RMM:  10    -0.304090322533E+03   -0.50006E+00   -0.41789E-01  8818   0.140E+00    0.153E+01
RMM:  11    -0.304474848481E+03   -0.38453E+00   -0.83157E-02  9360   0.725E-01    0.154E+01
RMM:  12    -0.304457015989E+03    0.17832E-01   -0.10489E-02  9729   0.229E-01    0.154E+01
RMM:  13    -0.304194482597E+03    0.26253E+00   -0.87647E-02  8456   0.541E-01    0.150E+01
RMM:  14    -0.303250147412E+03    0.94434E+00   -0.93406E-01  8336   0.175E+00    0.131E+01
RMM:  15    -0.302723265145E+03    0.52688E+00   -0.25210E+00  8415   0.283E+00    0.158E+01
RMM:  16    -0.303510580683E+03   -0.78732E+00   -0.45896E-01 10082   0.113E+00    0.192E+01
RMM:  17    -0.303614454480E+03   -0.10387E+00   -0.55560E-02  9882   0.458E-01    0.225E+01
RMM:  18    -0.303474442208E+03    0.14001E+00   -0.93112E-02  8334   0.660E-01    0.223E+01
RMM:  19    -0.303392059219E+03    0.82383E-01   -0.20495E-02  9096   0.270E-01    0.222E+01
RMM:  20    -0.303298803959E+03    0.93255E-01   -0.22372E-01  8604   0.671E-01    0.185E+01
RMM:  21    -0.303664331562E+03   -0.36553E+00   -0.77613E-02  8432   0.635E-01    0.189E+01
RMM:  22    -0.303657709910E+03    0.66217E-02   -0.11989E-01  8729   0.701E-01    0.201E+01
RMM:  23    -0.303660111510E+03   -0.24016E-02   -0.15347E-02  9675   0.248E-01    0.208E+01
RMM:  24    -0.303658250844E+03    0.18607E-02   -0.33960E-02  8843   0.377E-01    0.206E+01
RMM:  25    -0.303665726569E+03   -0.74757E-02   -0.26354E-03  9831   0.112E-01    0.204E+01
RMM:  26    -0.303616051811E+03    0.49675E-01   -0.14484E-01  8500   0.694E-01    0.182E+01
RMM:  27    -0.303599133392E+03    0.16918E-01   -0.15105E-01  8488   0.796E-01    0.142E+01
RMM:  28    -0.303487586844E+03    0.11155E+00   -0.18140E-01  8575   0.815E-01    0.105E+01
RMM:  29    -0.303504480311E+03   -0.16893E-01   -0.73561E-02  8740   0.577E-01    0.946E+00
RMM:  30    -0.303535002816E+03   -0.30523E-01   -0.45842E-02  8858   0.421E-01    0.842E+00
RMM:  31    -0.303690397792E+03   -0.15539E+00   -0.40212E-01  8585   0.125E+00    0.122E+01
RMM:  32    -0.303886817816E+03   -0.19642E+00   -0.14291E-01  8796   0.847E-01    0.137E+01
RMM:  33    -0.303862135502E+03    0.24682E-01   -0.24427E-02  8816   0.331E-01    0.135E+01
RMM:  34    -0.303817341823E+03    0.44794E-01   -0.19064E-02  8605   0.256E-01    0.129E+01
RMM:  35    -0.303702636370E+03    0.11471E+00   -0.82453E-02  8597   0.523E-01    0.116E+01
RMM:  36    -0.303967125055E+03   -0.26449E+00   -0.28994E-01  8540   0.991E-01    0.624E+00
RMM:  37    -0.304243513577E+03   -0.27639E+00   -0.16485E-01  8540   0.807E-01    0.638E+00
RMM:  38    -0.304221024899E+03    0.22489E-01   -0.10460E-01  8486   0.642E-01    0.473E+00
RMM:  39    -0.304464659540E+03   -0.24363E+00   -0.10109E-01  8813   0.587E-01    0.822E+00
RMM:  40    -0.304677337204E+03   -0.21268E+00   -0.46047E-02  8556   0.484E-01    0.110E+01
RMM:  41    -0.304562997298E+03    0.11434E+00   -0.31056E-02  8347   0.371E-01    0.104E+01
RMM:  42    -0.304577761454E+03   -0.14764E-01   -0.79069E-02  8359   0.520E-01    0.809E+00
RMM:  43    -0.304815663898E+03   -0.23790E+00   -0.52213E-02  8462   0.405E-01    0.849E+00
RMM:  44    -0.305128802024E+03   -0.31314E+00   -0.18539E-01  8550   0.757E-01    0.920E+00
RMM:  45    -0.305423803082E+03   -0.29500E+00   -0.85840E-02  8767   0.529E-01    0.109E+01
RMM:  46    -0.305350560340E+03    0.73243E-01   -0.11968E-02  8525   0.264E-01    0.125E+01
RMM:  47    -0.305590709743E+03   -0.24015E+00   -0.68285E-02  8782   0.530E-01    0.173E+01
RMM:  48    -0.305596720278E+03   -0.60105E-02   -0.14101E-02  9118   0.265E-01    0.185E+01
RMM:  49    -0.305588657307E+03    0.80630E-02   -0.25778E-03  9026   0.973E-02    0.187E+01
RMM:  50    -0.305623303411E+03   -0.34646E-01   -0.18455E-03  8292   0.877E-02    0.189E+01
RMM:  51    -0.305710573278E+03   -0.87270E-01   -0.31002E-03  8398   0.108E-01    0.191E+01
RMM:  52    -0.305430380088E+03    0.28019E+00   -0.16051E-02  8541   0.249E-01    0.187E+01
RMM:  53    -0.305466399294E+03   -0.36019E-01   -0.16765E-03  9070   0.909E-02    0.187E+01
RMM:  54    -0.305540943480E+03   -0.74544E-01   -0.15965E-03  8186   0.792E-02    0.189E+01
RMM:  55    -0.305832957907E+03   -0.29201E+00   -0.15762E-02  8542   0.216E-01    0.193E+01
RMM:  56    -0.305819387526E+03    0.13570E-01   -0.31128E-03  8626   0.122E-01    0.196E+01
RMM:  57    -0.306874586560E+03   -0.10552E+01   -0.11229E-01  8754   0.609E-01    0.242E+01
RMM:  58    -0.306777082378E+03    0.97504E-01   -0.45362E-02  8901   0.451E-01    0.263E+01
RMM:  59    -0.306724658144E+03    0.52424E-01   -0.10397E-02  8902   0.208E-01    0.265E+01
RMM:  60    -0.306698819154E+03    0.25839E-01   -0.15912E-03  9437   0.831E-02
   5 F= -.30669882E+03 E0= -.30669844E+03  d E =0.106018E+01  mag=    23.4302
 trial-energy change:    1.060177  1 .order   -0.044518   -0.160726    0.071691
 step:   0.1862(harm=  0.1862)  dis= 0.02123  next Energy=  -307.814571 (dE=-0.556E-01)
 bond charge predicted
       N       E                     dE             d eps       ncg     rms          rms(c)
DAV:   1    -0.306556186489E+03    0.16847E+00   -0.29606E+00  9574   0.670E+00    0.264E+01
RMM:   2    -0.350527077216E+03   -0.43971E+02   -0.56261E+01  9611   0.107E+01    0.966E+01
RMM:   3    -0.315552889040E+03    0.34974E+02   -0.24592E+01  8867   0.102E+01    0.540E+01
RMM:   4    -0.304328995343E+03    0.11224E+02   -0.56813E+00  9545   0.517E+00    0.216E+01
RMM:   5    -0.306418713456E+03   -0.20897E+01   -0.83514E+00  8520   0.540E+00    0.220E+01
RMM:   6    -0.305250183948E+03    0.11685E+01   -0.19798E+00  9226   0.312E+00    0.139E+01
RMM:   7    -0.305661685989E+03   -0.41150E+00   -0.98875E-01  8829   0.210E+00    0.118E+01
RMM:   8    -0.306105771805E+03   -0.44409E+00   -0.43065E-01  9105   0.134E+00    0.108E+01
RMM:   9    -0.306031621957E+03    0.74150E-01   -0.30930E-01  9039   0.111E+00    0.897E+00
RMM:  10    -0.305836747630E+03    0.19487E+00   -0.19504E-01  8970   0.800E-01    0.738E+00
RMM:  11    -0.305595371948E+03    0.24138E+00   -0.17810E-01  9011   0.673E-01    0.546E+00
RMM:  12    -0.305442110086E+03    0.15326E+00   -0.24341E-01  8869   0.701E-01    0.393E+00
RMM:  13    -0.305633484389E+03   -0.19137E+00   -0.26799E-02  8941   0.371E-01    0.478E+00
RMM:  14    -0.305568444579E+03    0.65040E-01   -0.58537E-03  8862   0.182E-01    0.718E+00
RMM:  15    -0.305556533180E+03    0.11911E-01   -0.15745E-02  8579   0.249E-01    0.916E+00
RMM:  16    -0.305584603271E+03   -0.28070E-01   -0.14508E-02  8458   0.258E-01    0.105E+01
RMM:  17    -0.305621051441E+03   -0.36448E-01   -0.10041E-02  8492   0.198E-01    0.105E+01
RMM:  18    -0.305629901257E+03   -0.88498E-02   -0.31111E-03  8617   0.101E-01    0.103E+01
RMM:  19    -0.305619297985E+03    0.10603E-01   -0.99074E-04  7962   0.692E-02    0.105E+01
RMM:  20    -0.305656136913E+03   -0.36839E-01   -0.28451E-02  8581   0.279E-01    0.835E+00
RMM:  21    -0.305734414223E+03   -0.78277E-01   -0.22825E-02  8705   0.290E-01    0.535E+00
RMM:  22    -0.305829248377E+03   -0.94834E-01   -0.14726E-02  8605   0.245E-01    0.409E+00
RMM:  23    -0.305937188193E+03   -0.10794E+00   -0.23485E-02  8551   0.279E-01    0.113E+00
RMM:  24    -0.305986814268E+03   -0.49626E-01   -0.55128E-03  8488   0.165E-01    0.910E-01
RMM:  25    -0.306037160279E+03   -0.50346E-01   -0.24542E-03  7935   0.127E-01    0.241E+00
RMM:  26    -0.306064690260E+03   -0.27530E-01   -0.36443E-03  8131   0.133E-01    0.316E+00
RMM:  27    -0.306109252325E+03   -0.44562E-01   -0.26836E-03  8303   0.118E-01    0.479E+00
RMM:  28    -0.306122679072E+03   -0.13427E-01   -0.14921E-03  7680   0.960E-02    0.599E+00
RMM:  29    -0.306190600010E+03   -0.67921E-01   -0.23165E-03  8083   0.107E-01    0.680E+00
RMM:  30    -0.306241391559E+03   -0.50792E-01   -0.15868E-03  8072   0.901E-02    0.753E+00
RMM:  31    -0.306241904489E+03   -0.51293E-03   -0.71177E-04  7547   0.666E-02    0.804E+00
RMM:  32    -0.306291431640E+03   -0.49527E-01   -0.73988E-04  8012   0.590E-02    0.822E+00
RMM:  33    -0.306331367313E+03   -0.39936E-01   -0.30857E-04  7564   0.358E-02    0.835E+00
RMM:  34    -0.306381110171E+03   -0.49743E-01   -0.30068E-04  7574   0.342E-02    0.857E+00
RMM:  35    -0.306424228319E+03   -0.43118E-01   -0.26749E-04  7367   0.320E-02    0.879E+00
RMM:  36    -0.306476389355E+03   -0.52161E-01   -0.54161E-04  7686   0.435E-02    0.912E+00
RMM:  37    -0.306490349166E+03   -0.13960E-01   -0.27538E-04  7475   0.339E-02    0.950E+00
RMM:  38    -0.306490346833E+03    0.23332E-05   -0.11371E-04  6531   0.256E-02    0.975E+00
RMM:  39    -0.306491466474E+03   -0.11196E-02   -0.61345E-05  5864   0.184E-02    0.993E+00
RMM:  40    -0.306491019774E+03    0.44670E-03   -0.25902E-05  5207   0.124E-02    0.100E+01
RMM:  41    -0.306491037929E+03   -0.18155E-04   -0.11561E-05  4760   0.846E-03    0.101E+01
RMM:  42    -0.306490987682E+03    0.50247E-04   -0.57245E-06  4513   0.583E-03    0.102E+01
RMM:  43    -0.306490862933E+03    0.12475E-03   -0.32712E-06  4400   0.451E-03    0.102E+01
RMM:  44    -0.306492706688E+03   -0.18438E-02   -0.77843E-06  4772   0.659E-03    0.103E+01
RMM:  45    -0.306494249659E+03   -0.15430E-02   -0.46021E-05  6459   0.135E-02    0.104E+01
RMM:  46    -0.306492304561E+03    0.19451E-02   -0.74727E-05  6936   0.187E-02    0.104E+01
RMM:  47    -0.306474202513E+03    0.18102E-01   -0.29250E-04  7692   0.342E-02    0.105E+01
RMM:  48    -0.306481690191E+03   -0.74877E-02   -0.39906E-04  7939   0.379E-02    0.108E+01
RMM:  49    -0.306477937253E+03    0.37529E-02   -0.35709E-04  7800   0.396E-02    0.112E+01
RMM:  50    -0.306477585935E+03    0.35132E-03   -0.89886E-05  6602   0.225E-02    0.114E+01
RMM:  51    -0.306478073496E+03   -0.48756E-03   -0.26088E-04  7906   0.334E-02    0.116E+01
RMM:  52    -0.306470559050E+03    0.75144E-02   -0.15900E-04  7405   0.300E-02    0.115E+01
RMM:  53    -0.306470966630E+03   -0.40758E-03   -0.20316E-05  5279   0.107E-02    0.115E+01
RMM:  54    -0.306470909231E+03    0.57399E-04   -0.44842E-06  4603   0.659E-03    0.116E+01
RMM:  55    -0.306470106752E+03    0.80248E-03   -0.12901E-05  4715   0.852E-03    0.115E+01
RMM:  56    -0.306467807528E+03    0.22992E-02   -0.12827E-04  7061   0.229E-02    0.115E+01
RMM:  57    -0.306458793957E+03    0.90136E-02   -0.48871E-04  7713   0.399E-02    0.110E+01
RMM:  58    -0.306463549041E+03   -0.47551E-02   -0.32197E-04  7719   0.369E-02    0.109E+01
RMM:  59    -0.306468113383E+03   -0.45643E-02   -0.25695E-03  7869   0.104E-01    0.108E+01
RMM:  60    -0.306479027309E+03   -0.10914E-01   -0.43332E-03  8041   0.135E-01
   6 F= -.30647903E+03 E0= -.30647717E+03  d E =0.127997E+01  mag=    24.0862
 curvature:  -0.25 expect dE=-0.103E+00 dE for cont linesearch -0.194E-01
 ZBRENT: interpolating
 opt :   0.1170  next Energy=  -306.491226 (dE= 0.127E+01)
 bond charge predicted
       N       E                     dE             d eps       ncg     rms          rms(c)
DAV:   1    -0.306490215655E+03   -0.22102E-01   -0.20128E+00  9224   0.553E+00    0.109E+01
RMM:   2    -0.306890259461E+03   -0.40004E+00   -0.31600E+00  8823   0.352E+00    0.154E+01
RMM:   3    -0.306665218003E+03    0.22504E+00   -0.61769E-01  9940   0.157E+00    0.761E+00
RMM:   4    -0.306596239097E+03    0.68979E-01   -0.29765E-01  8496   0.115E+00    0.422E+00
RMM:   5    -0.306534725546E+03    0.61514E-01   -0.12016E-01  8811   0.664E-01    0.305E+00
RMM:   6    -0.306527616735E+03    0.71088E-02   -0.40560E-02  9384   0.364E-01    0.233E+00
RMM:   7    -0.306522216787E+03    0.53999E-02   -0.77922E-03  9489   0.166E-01    0.231E+00
RMM:   8    -0.306523596810E+03   -0.13800E-02   -0.15169E-03  9510   0.796E-02    0.244E+00
RMM:   9    -0.306532188944E+03   -0.85921E-02   -0.33950E-03  8932   0.109E-01    0.446E+00
RMM:  10    -0.306540961751E+03   -0.87728E-02   -0.28096E-03  7905   0.126E-01    0.605E+00
RMM:  11    -0.306572221026E+03   -0.31259E-01   -0.31195E-03  8448   0.127E-01    0.859E+00
RMM:  12    -0.306524767635E+03    0.47453E-01   -0.73533E-03  8626   0.170E-01    0.803E+00
RMM:  13    -0.306512798592E+03    0.11969E-01   -0.97924E-04  9025   0.571E-02    0.732E+00
RMM:  14    -0.306510469040E+03    0.23296E-02   -0.29272E-04  8015   0.353E-02    0.666E+00
RMM:  15    -0.306502488483E+03    0.79806E-02   -0.97618E-04  8051   0.621E-02    0.529E+00
RMM:  16    -0.306508961974E+03   -0.64735E-02   -0.20906E-02  8873   0.279E-01    0.155E+00
RMM:  17    -0.306610876054E+03   -0.10191E+00   -0.16678E-02  8529   0.321E-01    0.528E+00
RMM:  18    -0.306641088435E+03   -0.30212E-01   -0.84549E-03  7875   0.252E-01    0.631E+00
RMM:  19    -0.306622723922E+03    0.18365E-01   -0.30220E-03  8053   0.129E-01    0.642E+00
RMM:  20    -0.306605380712E+03    0.17343E-01   -0.18004E-03  8455   0.822E-02    0.638E+00
RMM:  21    -0.306579190079E+03    0.26191E-01   -0.33083E-03  8618   0.106E-01    0.617E+00
RMM:  22    -0.306550196839E+03    0.28993E-01   -0.48181E-03  8558   0.134E-01    0.570E+00
RMM:  23    -0.306543736069E+03    0.64608E-02   -0.19973E-03  8187   0.918E-02    0.536E+00
RMM:  24    -0.306542497425E+03    0.12386E-02   -0.37859E-04  8175   0.396E-02    0.518E+00
RMM:  25    -0.306545309406E+03   -0.28120E-02   -0.98685E-05  7431   0.241E-02    0.515E+00
RMM:  26    -0.306529438106E+03    0.15871E-01   -0.28670E-03  8241   0.109E-01    0.444E+00
RMM:  27    -0.306515863588E+03    0.13575E-01   -0.31822E-03  8504   0.111E-01    0.316E+00
RMM:  28    -0.306521670281E+03   -0.58067E-02   -0.11843E-03  7875   0.837E-02    0.206E+00
RMM:  29    -0.306529793271E+03   -0.81230E-02   -0.94543E-04  7498   0.790E-02    0.108E+00
RMM:  30    -0.306536464509E+03   -0.66712E-02   -0.96293E-04  7477   0.780E-02    0.534E-01
RMM:  31    -0.306540112477E+03   -0.36480E-02   -0.65062E-04  7408   0.688E-02    0.855E-01
RMM:  32    -0.306542539574E+03   -0.24271E-02   -0.45827E-04  7217   0.611E-02    0.165E+00
RMM:  33    -0.306544234068E+03   -0.16945E-02   -0.48029E-04  7206   0.615E-02    0.253E+00
RMM:  34    -0.306544872703E+03   -0.63863E-03   -0.47072E-04  7194   0.583E-02    0.336E+00
RMM:  35    -0.306544261437E+03    0.61127E-03   -0.41371E-04  7130   0.523E-02    0.405E+00
RMM:  36    -0.306542147638E+03    0.21138E-02   -0.31926E-04  7118   0.442E-02    0.451E+00
RMM:  37    -0.306537535164E+03    0.46125E-02   -0.24931E-04  7350   0.357E-02    0.452E+00
RMM:  38    -0.306527434489E+03    0.10101E-01   -0.83710E-04  8402   0.475E-02    0.327E+00
RMM:  39    -0.306532668356E+03   -0.52339E-02   -0.52999E-04  7461   0.528E-02    0.229E+00
RMM:  40    -0.306538319397E+03   -0.56510E-02   -0.57202E-04  7193   0.602E-02    0.168E+00
RMM:  41    -0.306541359108E+03   -0.30397E-02   -0.48920E-04  7368   0.554E-02    0.142E+00
RMM:  42    -0.306542228410E+03   -0.86930E-03   -0.35117E-04  7706   0.425E-02    0.144E+00
RMM:  43    -0.306542462925E+03   -0.23451E-03   -0.44012E-05  6360   0.137E-02    0.154E+00
RMM:  44    -0.306542367538E+03    0.95387E-04   -0.10393E-05  4818   0.907E-03    0.164E+00
RMM:  45    -0.306542174942E+03    0.19260E-03   -0.99911E-06  4551   0.881E-03    0.169E+00
RMM:  46    -0.306541939929E+03    0.23501E-03   -0.70641E-06  4531   0.684E-03    0.168E+00
RMM:  47    -0.306543142219E+03   -0.12023E-02   -0.12881E-04  7431   0.206E-02    0.211E+00
RMM:  48    -0.306544419348E+03   -0.12771E-02   -0.11712E-04  7159   0.273E-02    0.266E+00
RMM:  49    -0.306543955383E+03    0.46397E-03   -0.17218E-04  6688   0.341E-02    0.305E+00
RMM:  50    -0.306543014974E+03    0.94041E-03   -0.12450E-04  6756   0.283E-02    0.328E+00
RMM:  51    -0.306542597603E+03    0.41737E-03   -0.11449E-04  7381   0.243E-02    0.336E+00
RMM:  52    -0.306544151878E+03   -0.15543E-02   -0.20654E-04  7879   0.293E-02    0.358E+00
RMM:  53    -0.306544231294E+03   -0.79416E-04   -0.34384E-05  5557   0.143E-02    0.379E+00
RMM:  54    -0.306543507143E+03    0.72415E-03   -0.54782E-05  6518   0.174E-02    0.391E+00
RMM:  55    -0.306543165970E+03    0.34117E-03   -0.16485E-05  4954   0.103E-02    0.400E+00
RMM:  56    -0.306541831585E+03    0.13344E-02   -0.92558E-05  7687   0.198E-02    0.393E+00
RMM:  57    -0.306549850863E+03   -0.80193E-02   -0.25171E-03  8316   0.110E-01    0.466E+00
RMM:  58    -0.306563435135E+03   -0.13584E-01   -0.11031E-03  8322   0.672E-02    0.613E+00
RMM:  59    -0.306574963897E+03   -0.11529E-01   -0.12527E-03  7893   0.800E-02    0.750E+00
RMM:  60    -0.306575531386E+03   -0.56749E-03   -0.10135E-03  7425   0.729E-02
   7 F= -.30657553E+03 E0= -.30657492E+03  d E =0.118346E+01  mag=    24.1872
 curvature:  -0.16 expect dE=-0.170E-01 dE for cont linesearch -0.166E-02
 ZBRENT: interpolating
 opt :   0.1357  next Energy=  -306.576747 (dE= 0.118E+01)
 bond charge predicted
       N       E                     dE             d eps       ncg     rms          rms(c)
DAV:   1    -0.306575149419E+03   -0.18552E-03   -0.14878E-01  9312   0.150E+00    0.848E+00
RMM:   2    -0.307580518106E+03   -0.10054E+01   -0.31682E+00  8951   0.303E+00    0.176E+01
RMM:   3    -0.307132442172E+03    0.44808E+00   -0.76007E-01  9387   0.170E+00    0.889E+00
RMM:   4    -0.306796318522E+03    0.33612E+00   -0.38306E-01  8961   0.103E+00    0.726E+00
RMM:   5    -0.306606695043E+03    0.18962E+00   -0.10359E-01  9560   0.510E-01    0.649E+00
RMM:   6    -0.306552860786E+03    0.53834E-01   -0.20918E-02  9453   0.275E-01    0.566E+00
RMM:   7    -0.306559377065E+03   -0.65163E-02   -0.39254E-03  8985   0.127E-01    0.549E+00
RMM:   8    -0.306539813558E+03    0.19564E-01   -0.23231E-03  9112   0.894E-02    0.481E+00
RMM:   9    -0.306523620597E+03    0.16193E-01   -0.25392E-03  8684   0.986E-02    0.346E+00
RMM:  10    -0.306535158273E+03   -0.11538E-01   -0.13148E-03  8023   0.807E-02    0.284E+00
RMM:  11    -0.306540032784E+03   -0.48745E-02   -0.99599E-04  7723   0.739E-02    0.232E+00
RMM:  12    -0.306538274405E+03    0.17584E-02   -0.45927E-03  8327   0.141E-01    0.722E-01
RMM:  13    -0.306552435849E+03   -0.14161E-01   -0.18814E-03  7860   0.111E-01    0.203E+00
RMM:  14    -0.306557171953E+03   -0.47361E-02   -0.28370E-03  7826   0.141E-01    0.295E+00
RMM:  15    -0.306562497565E+03   -0.53256E-02   -0.10452E-03  7806   0.842E-02    0.443E+00
RMM:  16    -0.306584289283E+03   -0.21792E-01   -0.20655E-03  7991   0.111E-01    0.681E+00
RMM:  17    -0.306579281342E+03    0.50079E-02   -0.30593E-03  7777   0.127E-01    0.776E+00
RMM:  18    -0.306570253753E+03    0.90276E-02   -0.10683E-03  7694   0.737E-02    0.804E+00
RMM:  19    -0.306566154214E+03    0.40995E-02   -0.46107E-04  7960   0.505E-02    0.812E+00
RMM:  20    -0.306554267793E+03    0.11886E-01   -0.41377E-04  7964   0.400E-02    0.774E+00
RMM:  21    -0.306540680775E+03    0.13587E-01   -0.68997E-04  8009   0.520E-02    0.689E+00
RMM:  22    -0.306530786663E+03    0.98941E-02   -0.10809E-03  8111   0.691E-02    0.554E+00
RMM:  23    -0.306539721015E+03   -0.89344E-02   -0.81097E-04  7568   0.656E-02    0.478E+00
RMM:  24    -0.306543450729E+03   -0.37297E-02   -0.68063E-04  7600   0.603E-02    0.409E+00
RMM:  25    -0.306551267733E+03   -0.78170E-02   -0.75440E-04  7804   0.608E-02    0.399E+00
RMM:  26    -0.306560622561E+03   -0.93548E-02   -0.25481E-03  8226   0.102E-01    0.446E+00
RMM:  27    -0.306564134721E+03   -0.35122E-02   -0.10573E-03  8119   0.663E-02    0.503E+00
RMM:  28    -0.306567446543E+03   -0.33118E-02   -0.51391E-04  7837   0.488E-02    0.568E+00
RMM:  29    -0.306562854280E+03    0.45923E-02   -0.35208E-04  7405   0.430E-02    0.590E+00
RMM:  30    -0.306570074222E+03   -0.72199E-02   -0.33278E-04  7824   0.461E-02    0.657E+00
RMM:  31    -0.306567006106E+03    0.30681E-02   -0.19252E-04  6936   0.306E-02    0.683E+00
RMM:  32    -0.306562884847E+03    0.41213E-02   -0.88725E-05  6685   0.228E-02    0.688E+00
RMM:  33    -0.306564562922E+03   -0.16781E-02   -0.13953E-05  5003   0.981E-03    0.701E+00
RMM:  34    -0.306564554781E+03    0.81413E-05   -0.85019E-06  4718   0.725E-03
   8 F= -.30656455E+03 E0= -.30656292E+03  d E =0.119444E+01  mag=    24.2050
 curvature:  -0.12 expect dE=-0.125E-01 dE for cont linesearch -0.551E-03
 ZBRENT: interpolating
 opt :   0.1665  next Energy=  -306.566176 (dE= 0.119E+01)
 bond charge predicted
       N       E                     dE             d eps       ncg     rms          rms(c)
DAV:   1    -0.306562582788E+03    0.19801E-02   -0.40511E-01  9162   0.246E+00    0.725E+00
RMM:   2    -0.307419541666E+03   -0.85696E+00   -0.23582E+00  8922   0.270E+00    0.154E+01
RMM:   3    -0.307106586114E+03    0.31296E+00   -0.57674E-01  9518   0.147E+00    0.863E+00
RMM:   4    -0.306727944366E+03    0.37864E+00   -0.34558E-01  8989   0.101E+00    0.703E+00
RMM:   5    -0.306559577036E+03    0.16837E+00   -0.89890E-02  9509   0.473E-01    0.593E+00
RMM:   6    -0.306560415088E+03   -0.83805E-03   -0.10591E-02  9510   0.214E-01    0.555E+00
RMM:   7    -0.306569970958E+03   -0.95559E-02   -0.35692E-03  8771   0.113E-01    0.552E+00
RMM:   8    -0.306526168193E+03    0.43803E-01   -0.82395E-03  9032   0.164E-01    0.375E+00
RMM:   9    -0.306528634725E+03   -0.24665E-02   -0.43669E-03  8746   0.142E-01    0.143E+00
RMM:  10    -0.306550591642E+03   -0.21957E-01   -0.46228E-03  8087   0.155E-01    0.497E-01
RMM:  11    -0.306559067925E+03   -0.84763E-02   -0.31100E-03  8025   0.129E-01    0.514E-01
RMM:  12    -0.306564829099E+03   -0.57612E-02   -0.13892E-03  7940   0.958E-02    0.204E+00
RMM:  13    -0.306572186764E+03   -0.73577E-02   -0.13292E-03  7536   0.993E-02    0.371E+00
RMM:  14    -0.306565534641E+03    0.66521E-02   -0.21869E-03  7846   0.113E-01    0.420E+00
RMM:  15    -0.306554537176E+03    0.10997E-01   -0.14425E-03  8055   0.796E-02    0.376E+00
RMM:  16    -0.306571526619E+03   -0.16989E-01   -0.10660E-03  8296   0.584E-02    0.517E+00
RMM:  17    -0.306579129628E+03   -0.76030E-02   -0.81274E-04  7817   0.657E-02    0.645E+00
RMM:  18    -0.306569089924E+03    0.10040E-01   -0.14225E-03  7815   0.844E-02    0.673E+00
RMM:  19    -0.306546565417E+03    0.22525E-01   -0.22551E-03  8243   0.911E-02    0.582E+00
RMM:  20    -0.306529107106E+03    0.17458E-01   -0.39384E-03  8350   0.121E-01    0.351E+00
RMM:  21    -0.306541901896E+03   -0.12795E-01   -0.24234E-03  7970   0.115E-01    0.162E+00
RMM:  22    -0.306555846755E+03   -0.13945E-01   -0.16825E-03  7677   0.104E-01    0.445E-01
RMM:  23    -0.306564495262E+03   -0.86485E-02   -0.13529E-03  7610   0.988E-02    0.102E+00
RMM:  24    -0.306566312103E+03   -0.18168E-02   -0.18148E-03  8005   0.100E-01    0.129E+00
RMM:  25    -0.306565620143E+03    0.69196E-03   -0.54739E-04  7826   0.553E-02    0.146E+00
RMM:  26    -0.306564742671E+03    0.87747E-03   -0.14995E-04  7449   0.349E-02    0.160E+00
RMM:  27    -0.306562362252E+03    0.23804E-02   -0.11043E-03  8087   0.657E-02    0.102E+00
RMM:  28    -0.306563981676E+03   -0.16194E-02   -0.15192E-03  8278   0.791E-02    0.683E-01
RMM:  29    -0.306575754452E+03   -0.11773E-01   -0.12859E-03  7966   0.910E-02    0.278E+00
RMM:  30    -0.306586583058E+03   -0.10829E-01   -0.21411E-03  7609   0.120E-01    0.478E+00
RMM:  31    -0.306585981391E+03    0.60167E-03   -0.27133E-03  7737   0.125E-01    0.604E+00
RMM:  32    -0.306575918856E+03    0.10063E-01   -0.19449E-03  7769   0.997E-02    0.647E+00
RMM:  33    -0.306573124264E+03    0.27946E-02   -0.45228E-04  7526   0.490E-02    0.677E+00
RMM:  34    -0.306571171573E+03    0.19527E-02   -0.13672E-04  7012   0.275E-02    0.692E+00
RMM:  35    -0.306570657519E+03    0.51405E-03   -0.37303E-05  5565   0.154E-02    0.702E+00
RMM:  36    -0.306571101760E+03   -0.44424E-03   -0.13153E-05  4930   0.950E-03    0.711E+00
RMM:  37    -0.306570792509E+03    0.30925E-03   -0.70030E-06  4663   0.690E-03    0.715E+00
RMM:  38    -0.306570489976E+03    0.30253E-03   -0.33534E-06  4485   0.443E-03    0.717E+00
RMM:  39    -0.306569912446E+03    0.57753E-03   -0.23447E-06  4339   0.359E-03    0.716E+00
RMM:  40    -0.306568805711E+03    0.11067E-02   -0.49701E-06  4596   0.515E-03    0.711E+00
RMM:  41    -0.306566278472E+03    0.25272E-02   -0.41647E-05  6095   0.157E-02    0.698E+00
RMM:  42    -0.306566676854E+03   -0.39838E-03   -0.12062E-05  4549   0.105E-02    0.693E+00
RMM:  43    -0.306566854945E+03   -0.17809E-03   -0.50070E-06  4252   0.576E-03    0.690E+00
RMM:  44    -0.306567082228E+03   -0.22728E-03   -0.34659E-06  4157   0.401E-03    0.688E+00
RMM:  45    -0.306566856527E+03    0.22570E-03   -0.22616E-06  3982   0.323E-03    0.686E+00
RMM:  46    -0.306569862070E+03   -0.30055E-02   -0.58378E-05  6506   0.201E-02    0.700E+00
RMM:  47    -0.306573346178E+03   -0.34841E-02   -0.18637E-04  7361   0.357E-02    0.725E+00
RMM:  48    -0.306574206151E+03   -0.85997E-03   -0.11563E-04  6864   0.249E-02    0.743E+00
RMM:  49    -0.306574333924E+03   -0.12777E-03   -0.98539E-05  6413   0.206E-02    0.755E+00
RMM:  50    -0.306575401966E+03   -0.10680E-02   -0.54664E-05  5813   0.210E-02    0.762E+00
RMM:  51    -0.306576610685E+03   -0.12087E-02   -0.27983E-05  5219   0.156E-02    0.768E+00
RMM:  52    -0.306579150800E+03   -0.25401E-02   -0.22437E-05  5473   0.105E-02    0.777E+00
RMM:  53    -0.306579402078E+03   -0.25128E-03   -0.89200E-06  4651   0.718E-03    0.782E+00
RMM:  54    -0.306579810327E+03   -0.40825E-03   -0.14996E-05  4894   0.114E-02    0.786E+00
RMM:  55    -0.306580146458E+03   -0.33613E-03   -0.37366E-06  4319   0.517E-03    0.788E+00
RMM:  56    -0.306580997976E+03   -0.85152E-03   -0.80287E-06  4414   0.644E-03    0.792E+00
RMM:  57    -0.306579481391E+03    0.15166E-02   -0.37186E-05  5542   0.159E-02    0.790E+00
RMM:  58    -0.306584134917E+03   -0.46535E-02   -0.95589E-05  7014   0.226E-02    0.802E+00
RMM:  59    -0.306586302679E+03   -0.21678E-02   -0.57333E-05  6030   0.204E-02    0.809E+00
RMM:  60    -0.306583453962E+03    0.28487E-02   -0.49068E-04  7126   0.588E-02
   9 F= -.30658345E+03 E0= -.30658309E+03  d E =0.117554E+01  mag=    24.2029
 curvature:  -0.34 expect dE=-0.388E-01 dE for cont linesearch -0.130E-02
 ZBRENT: bisectioning
 opt :   0.1763  next Energy=  -306.584213 (dE= 0.117E+01)
 bond charge predicted
       N       E                     dE             d eps       ncg     rms          rms(c)
DAV:   1    -0.306583367395E+03    0.29353E-02   -0.41582E-02  9268   0.794E-01    0.798E+00
RMM:   2    -0.307544287055E+03   -0.96092E+00   -0.28579E+00  8895   0.291E+00    0.168E+01
RMM:   3    -0.307144519129E+03    0.39977E+00   -0.70722E-01  9325   0.164E+00    0.879E+00
RMM:   4    -0.306797787434E+03    0.34673E+00   -0.37480E-01  8977   0.103E+00    0.725E+00
RMM:   5    -0.306621297047E+03    0.17649E+00   -0.90290E-02  9630   0.482E-01    0.656E+00
RMM:   6    -0.306560931785E+03    0.60365E-01   -0.21145E-02  9473   0.270E-01    0.561E+00
RMM:   7    -0.306569795315E+03   -0.88635E-02   -0.26167E-03  9121   0.108E-01    0.549E+00
RMM:   8    -0.306558559560E+03    0.11236E-01   -0.24607E-03  8886   0.956E-02    0.497E+00
RMM:   9    -0.306528876222E+03    0.29683E-01   -0.68774E-03  8994   0.152E-01    0.273E+00
RMM:  10    -0.306547612135E+03   -0.18736E-01   -0.29865E-03  8183   0.123E-01    0.136E+00
RMM:  11    -0.306559401232E+03   -0.11789E-01   -0.30287E-03  7897   0.132E-01    0.317E-01
RMM:  12    -0.306568455120E+03   -0.90539E-02   -0.15096E-03  7747   0.999E-02    0.132E+00
RMM:  13    -0.306576148771E+03   -0.76937E-02   -0.14014E-03  7587   0.102E-01    0.298E+00
RMM:  14    -0.306585269019E+03   -0.91202E-02   -0.17719E-03  7699   0.111E-01    0.489E+00
RMM:  15    -0.306592192305E+03   -0.69233E-02   -0.18676E-03  7706   0.108E-01    0.653E+00
RMM:  16    -0.306590110433E+03    0.20819E-02   -0.14322E-03  7535   0.892E-02    0.742E+00
RMM:  17    -0.306589887618E+03    0.22281E-03   -0.63990E-04  7343   0.596E-02    0.794E+00
RMM:  18    -0.306576655986E+03    0.13232E-01   -0.43406E-04  7807   0.439E-02    0.780E+00
RMM:  19    -0.306567226216E+03    0.94298E-02   -0.16163E-04  7583   0.235E-02    0.746E+00
RMM:  20    -0.306572832476E+03   -0.56063E-02   -0.58556E-05  6634   0.179E-02    0.749E+00
RMM:  21    -0.306567051633E+03    0.57808E-02   -0.55895E-05  7549   0.144E-02    0.729E+00
RMM:  22    -0.306558944914E+03    0.81067E-02   -0.17627E-04  7938   0.233E-02    0.682E+00
RMM:  23    -0.306558958423E+03   -0.13508E-04   -0.12761E-04  7236   0.252E-02    0.646E+00
RMM:  24    -0.306560012831E+03   -0.10544E-02   -0.74195E-05  5892   0.210E-02    0.619E+00
RMM:  25    -0.306560573873E+03   -0.56104E-03   -0.85052E-05  6877   0.205E-02    0.597E+00
RMM:  26    -0.306561164890E+03   -0.59102E-03   -0.36786E-05  5470   0.143E-02    0.580E+00
RMM:  27    -0.306561815915E+03   -0.65103E-03   -0.18336E-05  4932   0.102E-02    0.568E+00
RMM:  28    -0.306563118524E+03   -0.13026E-02   -0.18697E-05  5027   0.997E-03    0.565E+00
RMM:  29    -0.306556135802E+03    0.69827E-02   -0.34134E-04  7761   0.360E-02    0.506E+00
RMM:  30    -0.306549941327E+03    0.61945E-02   -0.11114E-03  8096   0.663E-02    0.394E+00
RMM:  31    -0.306550619142E+03   -0.67782E-03   -0.14610E-03  7984   0.837E-02    0.255E+00
RMM:  32    -0.306557698234E+03   -0.70791E-02   -0.11505E-03  7753   0.827E-02    0.150E+00
RMM:  33    -0.306563006611E+03   -0.53084E-02   -0.10099E-03  7674   0.812E-02    0.710E-01
RMM:  34    -0.306568347090E+03   -0.53405E-02   -0.96410E-04  7775   0.827E-02    0.114E+00
RMM:  35    -0.306571656685E+03   -0.33096E-02   -0.12120E-03  7859   0.856E-02    0.185E+00
RMM:  36    -0.306571697532E+03   -0.40847E-04   -0.97183E-04  7846   0.735E-02    0.233E+00
RMM:  37    -0.306570641314E+03    0.10562E-02   -0.51788E-04  7647   0.545E-02    0.260E+00
RMM:  38    -0.306566744676E+03    0.38966E-02   -0.10651E-03  8080   0.668E-02    0.236E+00
RMM:  39    -0.306563193437E+03    0.35512E-02   -0.44980E-04  7968   0.383E-02    0.173E+00
RMM:  40    -0.306564941447E+03   -0.17480E-02   -0.19782E-04  7147   0.364E-02    0.127E+00
RMM:  41    -0.306566514719E+03   -0.15733E-02   -0.15527E-04  6803   0.351E-02    0.874E-01
RMM:  42    -0.306567846761E+03   -0.13320E-02   -0.17213E-04  6968   0.353E-02    0.609E-01
RMM:  43    -0.306568677905E+03   -0.83114E-03   -0.12413E-04  6543   0.317E-02    0.586E-01
RMM:  44    -0.306569134728E+03   -0.45682E-03   -0.12466E-04  6463   0.314E-02    0.815E-01
RMM:  45    -0.306569132447E+03    0.22808E-05   -0.13253E-04  6631   0.316E-02    0.110E+00
RMM:  46    -0.306568652050E+03    0.48040E-03   -0.13095E-04  6760   0.301E-02    0.134E+00
RMM:  47    -0.306567747272E+03    0.90478E-03   -0.10303E-04  6711   0.255E-02    0.146E+00
RMM:  48    -0.306568744022E+03   -0.99675E-03   -0.85034E-05  7198   0.223E-02    0.187E+00
RMM:  49    -0.306570841568E+03   -0.20975E-02   -0.22305E-04  7634   0.357E-02    0.259E+00
RMM:  50    -0.306572991594E+03   -0.21500E-02   -0.32647E-04  7492   0.455E-02    0.347E+00
RMM:  51    -0.306573869427E+03   -0.87783E-03   -0.41944E-04  7400   0.516E-02    0.430E+00
RMM:  52    -0.306572962264E+03    0.90716E-03   -0.38029E-04  7235   0.484E-02    0.497E+00
RMM:  53    -0.306570021139E+03    0.29411E-02   -0.28860E-04  7230   0.407E-02    0.536E+00
RMM:  54    -0.306567397794E+03    0.26233E-02   -0.13150E-04  6688   0.273E-02    0.557E+00
RMM:  55    -0.306567220890E+03    0.17690E-03   -0.39138E-05  5492   0.153E-02    0.575E+00
RMM:  56    -0.306566243781E+03    0.97711E-03   -0.32320E-05  5341   0.133E-02    0.586E+00
RMM:  57    -0.306564524535E+03    0.17192E-02   -0.16001E-04  7326   0.245E-02    0.583E+00
RMM:  58    -0.306560644721E+03    0.38798E-02   -0.21457E-04  7565   0.283E-02    0.562E+00
RMM:  59    -0.306555969922E+03    0.46748E-02   -0.29520E-04  7815   0.331E-02    0.517E+00
RMM:  60    -0.306554859596E+03    0.11103E-02   -0.17162E-04  7566   0.286E-02
  10 F= -.30655486E+03 E0= -.30655072E+03  d E =0.120414E+01  mag=    24.1619
 curvature:  -0.20 expect dE=-0.232E-01 dE for cont linesearch -0.198E-03
 ZBRENT: interpolating
 opt :   0.1730  next Energy=  -306.554926 (dE= 0.120E+01)
 bond charge predicted
       N       E                     dE             d eps       ncg     rms          rms(c)
DAV:   1    -0.306555680992E+03    0.28893E-03   -0.47501E-03  9470   0.283E-01    0.422E+00
RMM:   2    -0.306998230811E+03   -0.44255E+00   -0.96517E-01  8859   0.171E+00    0.112E+01
RMM:   3    -0.306824678882E+03    0.17355E+00   -0.27028E-01  9169   0.100E+00    0.764E+00
RMM:   4    -0.306605202269E+03    0.21948E+00   -0.14335E-01  9062   0.631E-01    0.653E+00
RMM:   5    -0.306575683410E+03    0.29519E-01   -0.19543E-02  9478   0.265E-01    0.597E+00
RMM:   6    -0.306582392913E+03   -0.67095E-02   -0.20206E-03  9196   0.896E-02    0.596E+00
RMM:   7    -0.306577793113E+03    0.45998E-02   -0.59474E-04  8689   0.464E-02    0.582E+00
RMM:   8    -0.306574787018E+03    0.30061E-02   -0.16699E-04  8220   0.245E-02    0.571E+00
RMM:   9    -0.306584161339E+03   -0.93743E-02   -0.93437E-04  7885   0.745E-02    0.601E+00
RMM:  10    -0.306556668870E+03    0.27492E-01   -0.68658E-03  8536   0.168E-01    0.499E+00
RMM:  11    -0.306539193595E+03    0.17475E-01   -0.39875E-03  8705   0.120E-01    0.350E+00
RMM:  12    -0.306546938337E+03   -0.77447E-02   -0.10925E-03  7851   0.792E-02    0.218E+00
RMM:  13    -0.306556871588E+03   -0.99333E-02   -0.28938E-03  8069   0.125E-01    0.447E-01
RMM:  14    -0.306576612811E+03   -0.19741E-01   -0.24257E-03  7617   0.130E-01    0.238E+00
RMM:  15    -0.306577117224E+03   -0.50441E-03   -0.66305E-03  8053   0.193E-01    0.288E+00
RMM:  16    -0.306566789943E+03    0.10327E-01   -0.49143E-03  8289   0.145E-01    0.213E+00
RMM:  17    -0.306566355359E+03    0.43458E-03   -0.57936E-04  8238   0.447E-02    0.149E+00
RMM:  18    -0.306568193764E+03   -0.18384E-02   -0.27191E-04  7448   0.408E-02    0.897E-01
RMM:  19    -0.306571029399E+03   -0.28356E-02   -0.30317E-04  7058   0.459E-02    0.714E-01
RMM:  20    -0.306572338528E+03   -0.13091E-02   -0.28894E-04  7122   0.457E-02    0.747E-01
RMM:  21    -0.306571984728E+03    0.35380E-03   -0.33028E-04  7706   0.417E-02    0.607E-01
RMM:  22    -0.306571819828E+03    0.16490E-03   -0.27923E-04  7821   0.328E-02    0.671E-01
RMM:  23    -0.306572921182E+03   -0.11014E-02   -0.17743E-04  7486   0.345E-02    0.126E+00
RMM:  24    -0.306573348943E+03   -0.42776E-03   -0.28117E-04  7136   0.452E-02    0.178E+00
RMM:  25    -0.306572027696E+03    0.13212E-02   -0.35012E-04  7346   0.456E-02    0.197E+00
RMM:  26    -0.306568977956E+03    0.30497E-02   -0.13115E-03  7979   0.722E-02    0.141E+00
RMM:  27    -0.306569355009E+03   -0.37705E-03   -0.10614E-03  8036   0.652E-02    0.581E-01
RMM:  28    -0.306572487894E+03   -0.31329E-02   -0.60838E-04  7619   0.635E-02    0.441E-01
RMM:  29    -0.306572910485E+03   -0.42259E-03   -0.89318E-04  7869   0.693E-02    0.149E-01
RMM:  30    -0.306574230446E+03   -0.13200E-02   -0.43846E-04  7770   0.432E-02    0.733E-01
RMM:  31    -0.306574659384E+03   -0.42894E-03   -0.35781E-04  7471   0.456E-02    0.107E+00
RMM:  32    -0.306573845453E+03    0.81393E-03   -0.26087E-04  7368   0.380E-02    0.113E+00
RMM:  33    -0.306573810709E+03    0.34745E-04   -0.56369E-05  6111   0.216E-02    0.130E+00
RMM:  34    -0.306573020320E+03    0.79039E-03   -0.66055E-05  6779   0.193E-02    0.129E+00
RMM:  35    -0.306572551540E+03    0.46878E-03   -0.28799E-05  5547   0.118E-02    0.117E+00
RMM:  36    -0.306572781222E+03   -0.22968E-03   -0.11958E-05  4692   0.884E-03    0.112E+00
RMM:  37    -0.306572799665E+03   -0.18443E-04   -0.88190E-06  4411   0.775E-03    0.103E+00
RMM:  38    -0.306572922414E+03   -0.12275E-03   -0.86054E-06  4493   0.766E-03    0.924E-01
RMM:  39    -0.306573179324E+03   -0.25691E-03   -0.11200E-05  4693   0.883E-03    0.835E-01
RMM:  40    -0.306573320618E+03   -0.14129E-03   -0.14280E-05  4779   0.975E-03    0.706E-01
RMM:  41    -0.306573541486E+03   -0.22087E-03   -0.21732E-05  5046   0.119E-02    0.553E-01
RMM:  42    -0.306573761460E+03   -0.21997E-03   -0.20247E-05  5016   0.116E-02    0.378E-01
RMM:  43    -0.306574039192E+03   -0.27773E-03   -0.23038E-05  5115   0.127E-02    0.205E-01
RMM:  44    -0.306574283764E+03   -0.24457E-03   -0.23249E-05  5100   0.133E-02    0.949E-02
RMM:  45    -0.306574429663E+03   -0.14590E-03   -0.20969E-05  5066   0.129E-02    0.184E-01
RMM:  46    -0.306574503881E+03   -0.74218E-04   -0.18478E-05  4987   0.122E-02    0.345E-01
RMM:  47    -0.306574530360E+03   -0.26479E-04   -0.18648E-05  4972   0.123E-02    0.527E-01
RMM:  48    -0.306574490617E+03    0.39743E-04   -0.20806E-05  5055   0.130E-02    0.707E-01
RMM:  49    -0.306574429750E+03    0.60867E-04   -0.20552E-05  5049   0.128E-02    0.892E-01
RMM:  50    -0.306574339278E+03    0.90471E-04   -0.21180E-05  5023   0.130E-02    0.108E+00
RMM:  51    -0.306574217958E+03    0.12132E-03   -0.22147E-05  5092   0.132E-02    0.127E+00
RMM:  52    -0.306574146047E+03    0.71911E-04   -0.22947E-05  5145   0.137E-02    0.150E+00
RMM:  53    -0.306573977894E+03    0.16815E-03   -0.27781E-05  5207   0.148E-02    0.172E+00
RMM:  54    -0.306573763559E+03    0.21434E-03   -0.30840E-05  5327   0.154E-02    0.195E+00
RMM:  55    -0.306573543755E+03    0.21980E-03   -0.33137E-05  5289   0.158E-02    0.219E+00
RMM:  56    -0.306573296003E+03    0.24775E-03   -0.36225E-05  5361   0.164E-02    0.243E+00
RMM:  57    -0.306573829773E+03   -0.53377E-03   -0.47923E-05  5793   0.187E-02    0.279E+00
RMM:  58    -0.306573578455E+03    0.25132E-03   -0.68449E-05  5770   0.223E-02    0.313E+00
RMM:  59    -0.306573285843E+03    0.29261E-03   -0.75922E-05  5933   0.231E-02    0.346E+00
RMM:  60    -0.306572901362E+03    0.38448E-03   -0.78426E-05  6012   0.235E-02
  11 F= -.30657290E+03 E0= -.30657282E+03  d E =0.118609E+01  mag=    24.1639
 curvature:  -0.07 expect dE=-0.165E-01 dE for cont linesearch -0.439E-02
 ZBRENT: interpolating
 opt :   0.1677  next Energy=  -306.583504 (dE= 0.118E+01)
 bond charge predicted
       N       E                     dE             d eps       ncg     rms          rms(c)
DAV:   1    -0.306574036495E+03   -0.75065E-03   -0.11717E-02  9322   0.428E-01    0.412E+00
RMM:   2    -0.307138089728E+03   -0.56405E+00   -0.82835E-01  9060   0.168E+00    0.174E+01
RMM:   3    -0.306506348756E+03    0.63174E+00   -0.45187E-01  8800   0.123E+00    0.103E+01
RMM:   4    -0.306574626205E+03   -0.68277E-01   -0.15093E-01  8687   0.801E-01    0.787E+00
RMM:   5    -0.306540849646E+03    0.33777E-01   -0.52167E-02  8823   0.453E-01    0.546E+00
RMM:   6    -0.306543553432E+03   -0.27038E-02   -0.11469E-02  9027   0.208E-01    0.324E+00
RMM:   7    -0.306558969929E+03   -0.15416E-01   -0.43215E-03  8467   0.143E-01    0.164E+00
RMM:   8    -0.306569928740E+03   -0.10959E-01   -0.21166E-03  8026   0.112E-01    0.678E-01
RMM:   9    -0.306575057344E+03   -0.51286E-02   -0.10194E-03  7653   0.831E-02    0.292E-01
RMM:  10    -0.306576553883E+03   -0.14965E-02   -0.83934E-04  8038   0.690E-02    0.154E-01
RMM:  11    -0.306576986380E+03   -0.43250E-03   -0.36917E-04  7962   0.416E-02    0.190E-01
RMM:  12    -0.306577200162E+03   -0.21378E-03   -0.60814E-05  6735   0.185E-02    0.373E-01
RMM:  13    -0.306577334435E+03   -0.13427E-03   -0.11754E-04  7337   0.288E-02    0.717E-01
RMM:  14    -0.306576707979E+03    0.62646E-03   -0.36220E-04  7839   0.386E-02    0.576E-01
RMM:  15    -0.306576798683E+03   -0.90704E-04   -0.32237E-04  7546   0.406E-02    0.354E-01
RMM:  16    -0.306577137818E+03   -0.33913E-03   -0.15177E-04  7260   0.265E-02    0.100E-01
RMM:  17    -0.306577595463E+03   -0.45764E-03   -0.89833E-05  6420   0.226E-02    0.210E-01
RMM:  18    -0.306577973259E+03   -0.37780E-03   -0.65735E-05  5940   0.218E-02    0.501E-01
RMM:  19    -0.306578073967E+03   -0.10071E-03   -0.79650E-05  6436   0.275E-02    0.845E-01
RMM:  20    -0.306578154150E+03   -0.80183E-04   -0.66032E-05  5788   0.230E-02    0.116E+00
RMM:  21    -0.306578121382E+03    0.32768E-04   -0.64906E-05  5860   0.228E-02    0.149E+00
RMM:  22    -0.306577970234E+03    0.15115E-03   -0.66603E-05  5884   0.228E-02    0.181E+00
RMM:  23    -0.306577779953E+03    0.19028E-03   -0.65926E-05  5888   0.226E-02    0.214E+00
RMM:  24    -0.306577461039E+03    0.31891E-03   -0.72079E-05  6038   0.234E-02    0.247E+00
RMM:  25    -0.306577206323E+03    0.25472E-03   -0.71967E-05  5957   0.233E-02    0.281E+00
RMM:  26    -0.306576780970E+03    0.42535E-03   -0.80189E-05  6107   0.242E-02    0.315E+00
RMM:  27    -0.306576394676E+03    0.38629E-03   -0.81627E-05  6093   0.244E-02    0.350E+00
RMM:  28    -0.306575943491E+03    0.45119E-03   -0.85121E-05  6147   0.247E-02    0.384E+00
RMM:  29    -0.306575477021E+03    0.46647E-03   -0.85691E-05  6169   0.247E-02    0.418E+00
RMM:  30    -0.306574978067E+03    0.49895E-03   -0.84327E-05  6162   0.244E-02    0.451E+00
RMM:  31    -0.306574429593E+03    0.54847E-03   -0.78385E-05  6110   0.235E-02    0.481E+00
RMM:  32    -0.306573845164E+03    0.58443E-03   -0.69790E-05  6092   0.222E-02    0.508E+00
RMM:  33    -0.306573236872E+03    0.60829E-03   -0.58036E-05  5884   0.203E-02    0.532E+00
RMM:  34    -0.306572630530E+03    0.60634E-03   -0.44593E-05  5692   0.180E-02    0.551E+00
RMM:  35    -0.306572056956E+03    0.57357E-03   -0.31676E-05  5359   0.153E-02    0.566E+00
RMM:  36    -0.306571550102E+03    0.50685E-03   -0.21222E-05  5039   0.126E-02    0.578E+00
RMM:  37    -0.306571128019E+03    0.42208E-03   -0.13201E-05  4812   0.999E-03    0.587E+00
RMM:  38    -0.306570801064E+03    0.32696E-03   -0.79950E-06  4535   0.776E-03    0.594E+00
RMM:  39    -0.306570553182E+03    0.24788E-03   -0.47025E-06  4402   0.594E-03    0.598E+00
RMM:  40    -0.306570359672E+03    0.19351E-03   -0.26328E-06  4226   0.455E-03    0.602E+00
RMM:  41    -0.306570222643E+03    0.13703E-03   -0.15012E-06  3976   0.348E-03    0.605E+00
RMM:  42    -0.306570123795E+03    0.98848E-04   -0.85028E-07  3700   0.274E-03    0.606E+00
RMM:  43    -0.306570050083E+03    0.73712E-04   -0.46160E-07  3134   0.221E-03    0.608E+00
RMM:  44    -0.306569990918E+03    0.59165E-04   -0.30330E-07  2811   0.197E-03    0.609E+00
RMM:  45    -0.306570016830E+03   -0.25912E-04   -0.18568E-07  2383   0.172E-03    0.610E+00
RMM:  46    -0.306570771189E+03   -0.75436E-03   -0.30225E-06  4232   0.408E-03    0.611E+00
RMM:  47    -0.306570531949E+03    0.23924E-03   -0.12311E-06  3794   0.355E-03    0.611E+00
RMM:  48    -0.306570199455E+03    0.33249E-03   -0.57570E-07  2977   0.213E-03    0.611E+00
RMM:  49    -0.306569575031E+03    0.62442E-03   -0.27752E-06  4070   0.377E-03    0.610E+00
RMM:  50    -0.306569663866E+03   -0.88835E-04   -0.60068E-07  3430   0.249E-03    0.610E+00
RMM:  51    -0.306570447253E+03   -0.78339E-03   -0.37528E-06  4289   0.431E-03    0.610E+00
RMM:  52    -0.306572363046E+03   -0.19158E-02   -0.36030E-05  5842   0.112E-02    0.614E+00
RMM:  53    -0.306573726729E+03   -0.13637E-02   -0.21381E-05  5135   0.923E-03    0.616E+00
RMM:  54    -0.306574793158E+03   -0.10664E-02   -0.15497E-05  4872   0.800E-03    0.618E+00
RMM:  55    -0.306575118534E+03   -0.32538E-03   -0.56533E-06  4423   0.551E-03    0.618E+00
RMM:  56    -0.306574844654E+03    0.27388E-03   -0.19740E-06  4132   0.393E-03    0.618E+00
RMM:  57    -0.306574542002E+03    0.30265E-03   -0.18417E-05  4770   0.119E-02    0.616E+00
RMM:  58    -0.306573495510E+03    0.10465E-02   -0.15598E-05  4542   0.764E-03    0.612E+00
RMM:  59    -0.306573240533E+03    0.25498E-03   -0.74722E-06  4126   0.538E-03    0.611E+00
RMM:  60    -0.306573237294E+03    0.32394E-05   -0.25869E-06  3888   0.504E-03
  12 F= -.30657324E+03 E0= -.30657628E+03  d E =0.118576E+01  mag=    24.1575
 curvature:  -0.00 expect dE=-0.229E-03 dE for cont linesearch -0.662E-04
 ZBRENT: interpolating
 opt :   0.1667  next Energy=  -306.583463 (dE= 0.118E+01)
 bond charge predicted
       N       E                     dE             d eps       ncg     rms          rms(c)
DAV:   1    -0.306573578526E+03   -0.33799E-03   -0.46796E-04  9334   0.843E-02    0.609E+00
RMM:   2    -0.307226479691E+03   -0.65290E+00   -0.16831E+00  9083   0.241E+00    0.191E+01
RMM:   3    -0.306495196519E+03    0.73128E+00   -0.83799E-01  8912   0.162E+00    0.950E+00
RMM:   4    -0.306591628859E+03   -0.96432E-01   -0.27621E-01  8783   0.103E+00    0.640E+00
RMM:   5    -0.306562509050E+03    0.29120E-01   -0.10067E-01  8751   0.637E-01    0.402E+00
RMM:   6    -0.306564643995E+03   -0.21349E-02   -0.23025E-02  9264   0.287E-01    0.217E+00
RMM:   7    -0.306574522418E+03   -0.98784E-02   -0.49582E-03  8733   0.155E-01    0.132E+00
RMM:   8    -0.306578240600E+03   -0.37182E-02   -0.13214E-03  8126   0.866E-02    0.108E+00
RMM:   9    -0.306580032429E+03   -0.17918E-02   -0.79081E-04  8188   0.582E-02    0.149E+00
RMM:  10    -0.306580487405E+03   -0.45498E-03   -0.43776E-04  7957   0.440E-02    0.190E+00
RMM:  11    -0.306578159961E+03    0.23274E-02   -0.66578E-04  7899   0.549E-02    0.183E+00
RMM:  12    -0.306576212068E+03    0.19479E-02   -0.63902E-04  8075   0.475E-02    0.135E+00
RMM:  13    -0.306576475026E+03   -0.26296E-03   -0.21018E-03  7983   0.958E-02    0.436E-01
RMM:  14    -0.306578904070E+03   -0.24290E-02   -0.53548E-04  7835   0.581E-02    0.134E-01
RMM:  15    -0.306580054178E+03   -0.11501E-02   -0.24933E-04  7313   0.419E-02    0.462E-01
RMM:  16    -0.306580511560E+03   -0.45738E-03   -0.13524E-04  6777   0.322E-02    0.823E-01
RMM:  17    -0.306580767611E+03   -0.25605E-03   -0.12221E-04  6798   0.317E-02    0.126E+00
RMM:  18    -0.306581393466E+03   -0.62585E-03   -0.13181E-04  6989   0.332E-02    0.182E+00
RMM:  19    -0.306581752762E+03   -0.35930E-03   -0.15917E-04  6756   0.358E-02    0.239E+00
RMM:  20    -0.306581487532E+03    0.26523E-03   -0.22860E-04  7029   0.402E-02    0.289E+00
RMM:  21    -0.306580747374E+03    0.74016E-03   -0.25929E-04  7138   0.410E-02    0.332E+00
RMM:  22    -0.306579980725E+03    0.76665E-03   -0.21176E-04  7015   0.370E-02    0.372E+00
RMM:  23    -0.306579724030E+03    0.25669E-03   -0.14115E-04  6719   0.316E-02    0.412E+00
RMM:  24    -0.306579898767E+03   -0.17474E-03   -0.12089E-04  6434   0.297E-02    0.454E+00
RMM:  25    -0.306579051591E+03    0.84718E-03   -0.12651E-04  6561   0.294E-02    0.488E+00
RMM:  26    -0.306578400436E+03    0.65116E-03   -0.97452E-05  6327   0.264E-02    0.518E+00
RMM:  27    -0.306577854854E+03    0.54558E-03   -0.74997E-05  6149   0.232E-02    0.543E+00
RMM:  28    -0.306576945499E+03    0.90936E-03   -0.53633E-05  5849   0.198E-02    0.562E+00
RMM:  29    -0.306576424808E+03    0.52069E-03   -0.35100E-05  5483   0.163E-02    0.576E+00
RMM:  30    -0.306575617222E+03    0.80759E-03   -0.24404E-05  5301   0.137E-02    0.588E+00
RMM:  31    -0.306575404597E+03    0.21263E-03   -0.15640E-05  4873   0.110E-02    0.597E+00
RMM:  32    -0.306574104295E+03    0.13003E-02   -0.21885E-05  5514   0.117E-02    0.604E+00
RMM:  33    -0.306573688736E+03    0.41556E-03   -0.12711E-05  4804   0.956E-03    0.611E+00
RMM:  34    -0.306573260695E+03    0.42804E-03   -0.13239E-05  4943   0.924E-03    0.618E+00
RMM:  35    -0.306572729400E+03    0.53130E-03   -0.10839E-05  4810   0.868E-03    0.623E+00
RMM:  36    -0.306572494431E+03    0.23497E-03   -0.65931E-06  4412   0.647E-03    0.628E+00
RMM:  37    -0.306572384817E+03    0.10961E-03   -0.36502E-06  4209   0.494E-03    0.632E+00
RMM:  38    -0.306571949867E+03    0.43495E-03   -0.53580E-06  4688   0.560E-03    0.636E+00
RMM:  39    -0.306571903536E+03    0.46331E-04   -0.33117E-06  4044   0.496E-03    0.639E+00
RMM:  40    -0.306571737661E+03    0.16588E-03   -0.18683E-06  3933   0.367E-03    0.642E+00
RMM:  41    -0.306571739329E+03   -0.16682E-05   -0.12509E-06  3854   0.300E-03
  13 F= -.30657174E+03 E0= -.30657392E+03  d E =0.118726E+01  mag=    24.1595
 curvature:  -0.00 expect dE=-0.305E-04 dE for cont linesearch -0.853E-05
 ZBRENT: interpolating
 opt :   0.1665  next Energy=  -306.583455 (dE= 0.118E+01)
 bond charge predicted
       N       E                     dE             d eps       ncg     rms          rms(c)
DAV:   1    -0.306571740202E+03   -0.25411E-05   -0.12781E-05  5922   0.173E-02    0.646E+00
RMM:   2    -0.306958080309E+03   -0.38634E+00   -0.16778E+00  9011   0.245E+00    0.169E+01
RMM:   3    -0.306563168355E+03    0.39491E+00   -0.80730E-01  9057   0.161E+00    0.688E+00
RMM:   4    -0.306598445830E+03   -0.35277E-01   -0.20665E-01  8900   0.864E-01    0.382E+00
RMM:   5    -0.306587714399E+03    0.10731E-01   -0.60823E-02  8779   0.507E-01    0.325E+00
RMM:   6    -0.306579194068E+03    0.85203E-02   -0.19417E-02  9113   0.259E-01    0.246E+00
RMM:   7    -0.306577689255E+03    0.15048E-02   -0.67059E-03  8880   0.155E-01    0.164E+00
RMM:   8    -0.306579314698E+03   -0.16254E-02   -0.17503E-03  8587   0.870E-02    0.138E+00
RMM:   9    -0.306579944064E+03   -0.62937E-03   -0.70396E-04  8491   0.537E-02    0.136E+00
RMM:  10    -0.306579262996E+03    0.68107E-03   -0.79992E-04  8114   0.555E-02    0.107E+00
RMM:  11    -0.306579124415E+03    0.13858E-03   -0.12180E-03  8068   0.689E-02    0.412E-01
RMM:  12    -0.306580658870E+03   -0.15345E-02   -0.45887E-04  7844   0.512E-02    0.254E-01
RMM:  13    -0.306581239521E+03   -0.58065E-03   -0.27102E-04  7435   0.413E-02    0.326E-01
RMM:  14    -0.306581318644E+03   -0.79123E-04   -0.10106E-04  6999   0.258E-02    0.397E-01
RMM:  15    -0.306581311779E+03    0.68653E-05   -0.13362E-04  7106   0.336E-02    0.659E-01
RMM:  16    -0.306581079213E+03    0.23257E-03   -0.30687E-04  7438   0.373E-02    0.614E-01
RMM:  17    -0.306580632565E+03    0.44665E-03   -0.24692E-04  7644   0.310E-02    0.352E-01
RMM:  18    -0.306580875009E+03   -0.24244E-03   -0.29980E-04  7605   0.382E-02    0.177E-01
RMM:  19    -0.306581599911E+03   -0.72490E-03   -0.14118E-04  6662   0.298E-02    0.522E-01
RMM:  20    -0.306581864350E+03   -0.26444E-03   -0.12251E-04  6643   0.293E-02    0.802E-01
RMM:  21    -0.306582175386E+03   -0.31104E-03   -0.92980E-05  6610   0.274E-02    0.124E+00
RMM:  22    -0.306582155033E+03    0.20353E-04   -0.10398E-04  6270   0.284E-02    0.162E+00
RMM:  23    -0.306582283577E+03   -0.12854E-03   -0.96614E-05  6039   0.272E-02    0.206E+00
RMM:  24    -0.306582132772E+03    0.15080E-03   -0.10546E-04  6156   0.277E-02    0.248E+00
RMM:  25    -0.306581815535E+03    0.31724E-03   -0.10280E-04  6075   0.268E-02    0.289E+00
RMM:  26    -0.306581388533E+03    0.42700E-03   -0.94758E-05  6052   0.251E-02    0.328E+00
RMM:  27    -0.306580873965E+03    0.51457E-03   -0.84023E-05  5924   0.232E-02    0.363E+00
RMM:  28    -0.306580312072E+03    0.56189E-03   -0.71651E-05  5776   0.212E-02    0.395E+00
RMM:  29    -0.306579739598E+03    0.57247E-03   -0.58112E-05  5623   0.189E-02    0.423E+00
RMM:  30    -0.306579166862E+03    0.57274E-03   -0.45266E-05  5480   0.165E-02    0.446E+00
RMM:  31    -0.306578642254E+03    0.52461E-03   -0.33405E-05  5271   0.141E-02    0.466E+00
RMM:  32    -0.306578140162E+03    0.50209E-03   -0.23898E-05  5086   0.119E-02    0.482E+00
RMM:  33    -0.306577725842E+03    0.41432E-03   -0.16061E-05  4905   0.975E-03    0.495E+00
RMM:  34    -0.306577333395E+03    0.39245E-03   -0.10690E-05  4681   0.797E-03    0.505E+00
RMM:  35    -0.306577045989E+03    0.28741E-03   -0.65523E-06  4478   0.626E-03    0.513E+00
RMM:  36    -0.306576756184E+03    0.28980E-03   -0.41909E-06  4311   0.506E-03    0.519E+00
RMM:  37    -0.306576573507E+03    0.18268E-03   -0.23896E-06  4142   0.386E-03    0.523E+00
RMM:  38    -0.306576369284E+03    0.20422E-03   -0.14938E-06  3792   0.316E-03    0.526E+00
RMM:  39    -0.306576247842E+03    0.12144E-03   -0.78083E-07  3410   0.252E-03    0.528E+00
RMM:  40    -0.306576175874E+03    0.71968E-04   -0.44436E-07  2924   0.207E-03    0.530E+00
RMM:  41    -0.306575971736E+03    0.20414E-03   -0.63959E-07  3580   0.245E-03    0.530E+00
RMM:  42    -0.306575906250E+03    0.65487E-04   -0.88980E-08  1691   0.136E-03    0.531E+00
RMM:  43    -0.306575057608E+03    0.84864E-03   -0.60483E-06  4261   0.597E-03    0.525E+00
RMM:  44    -0.306575043442E+03    0.14166E-04   -0.17171E-06  3713   0.352E-03    0.521E+00
RMM:  45    -0.306575104165E+03   -0.60723E-04   -0.10088E-06  3529   0.280E-03    0.518E+00
RMM:  46    -0.306575250266E+03   -0.14610E-03   -0.10029E-06  3706   0.297E-03    0.515E+00
RMM:  47    -0.306573827884E+03    0.14224E-02   -0.17776E-05  5047   0.116E-02    0.503E+00
RMM:  48    -0.306574247410E+03   -0.41953E-03   -0.66382E-06  4290   0.735E-03    0.496E+00
RMM:  49    -0.306574284983E+03   -0.37573E-04   -0.45398E-06  4208   0.551E-03    0.489E+00
RMM:  50    -0.306574389223E+03   -0.10424E-03   -0.35041E-06  4148   0.470E-03    0.482E+00
RMM:  51    -0.306574427292E+03   -0.38069E-04   -0.39662E-06  4164   0.515E-03    0.475E+00
RMM:  52    -0.306574698052E+03   -0.27076E-03   -0.75864E-06  4461   0.698E-03    0.472E+00
RMM:  53    -0.306574899434E+03   -0.20138E-03   -0.17146E-05  4807   0.950E-03    0.469E+00
RMM:  54    -0.306575129341E+03   -0.22991E-03   -0.15214E-04  7474   0.248E-02    0.468E+00
RMM:  55    -0.306575095493E+03    0.33848E-04   -0.11848E-04  7360   0.223E-02    0.467E+00
RMM:  56    -0.306575299310E+03   -0.20382E-03   -0.11784E-04  7392   0.210E-02    0.467E+00
RMM:  57    -0.306578266189E+03   -0.29669E-02   -0.87208E-05  7221   0.221E-02    0.491E+00
RMM:  58    -0.306578233344E+03    0.32845E-04   -0.31642E-05  5431   0.130E-02    0.508E+00
RMM:  59    -0.306577652638E+03    0.58071E-03   -0.28686E-05  5315   0.124E-02    0.520E+00
RMM:  60    -0.306577407362E+03    0.24528E-03   -0.12748E-05  4709   0.878E-03
  14 F= -.30657741E+03 E0= -.30657409E+03  d E =0.118159E+01  mag=    24.1629
 curvature:  -0.00 expect dE=-0.197E-05 dE for cont linesearch -0.602E-09
 trial: gam= 0.08576 g(F)=  0.114E+00 g(S)=  0.000E+00 ort =-0.750E-02 (trialstep = 0.249E+00)
 search vector abs. value=  0.125E+00
 bond charge predicted
       N       E                     dE             d eps       ncg     rms          rms(c)
DAV:   1    -0.306565514202E+03    0.12138E-01   -0.17550E+00 11210   0.825E+00    0.548E+00
RMM:   2    -0.307212854805E+03   -0.64734E+00   -0.17912E+00  9218   0.269E+00    0.131E+01
RMM:   3    -0.306952442947E+03    0.26041E+00   -0.44629E-01  9447   0.133E+00    0.789E+00
RMM:   4    -0.306680440256E+03    0.27200E+00   -0.21395E-01  9026   0.786E-01    0.671E+00
RMM:   5    -0.306586334349E+03    0.94106E-01   -0.48703E-02  9633   0.391E-01    0.529E+00
RMM:   6    -0.306616154407E+03   -0.29820E-01   -0.55787E-03  8976   0.150E-01    0.549E+00
RMM:   7    -0.306589919001E+03    0.26235E-01   -0.48666E-03  9002   0.128E-01    0.462E+00
RMM:   8    -0.306559331131E+03    0.30588E-01   -0.20570E-02  9093   0.254E-01    0.900E-01
RMM:   9    -0.306607004767E+03   -0.47674E-01   -0.12502E-02  8234   0.250E-01    0.266E+00
RMM:  10    -0.306620152968E+03   -0.13148E-01   -0.82104E-03  8130   0.223E-01    0.435E+00
RMM:  11    -0.306630975227E+03   -0.10822E-01   -0.30152E-03  7947   0.134E-01    0.629E+00
RMM:  12    -0.306623958791E+03    0.70164E-02   -0.31647E-03  7971   0.124E-01    0.707E+00
RMM:  13    -0.306588229816E+03    0.35729E-01   -0.55553E-03  8404   0.144E-01    0.598E+00
RMM:  14    -0.306578982326E+03    0.92475E-02   -0.13715E-03  8265   0.700E-02    0.465E+00
RMM:  15    -0.306585231443E+03   -0.62491E-02   -0.56092E-04  7337   0.548E-02    0.378E+00
RMM:  16    -0.306592273754E+03   -0.70423E-02   -0.48669E-04  7329   0.518E-02    0.335E+00
RMM:  17    -0.306600916456E+03   -0.86427E-02   -0.70957E-04  7813   0.589E-02    0.364E+00
RMM:  18    -0.306614797994E+03   -0.13882E-01   -0.73785E-04  8289   0.491E-02    0.489E+00
RMM:  19    -0.306605065536E+03    0.97325E-02   -0.25184E-03  8054   0.104E-01    0.501E+00
RMM:  20    -0.306577876663E+03    0.27189E-01   -0.59388E-03  8548   0.144E-01    0.303E+00
RMM:  21    -0.306582329542E+03   -0.44529E-02   -0.47932E-03  8497   0.143E-01    0.189E-01
RMM:  22    -0.306608400171E+03   -0.26071E-01   -0.32565E-03  7715   0.147E-01    0.230E+00
RMM:  23    -0.306620857062E+03   -0.12457E-01   -0.28741E-03  7621   0.147E-01    0.391E+00
RMM:  24    -0.306625806493E+03   -0.49494E-02   -0.23431E-03  7629   0.124E-01    0.507E+00
RMM:  25    -0.306627224280E+03   -0.14178E-02   -0.18569E-03  7594   0.105E-01    0.578E+00
RMM:  26    -0.306627594033E+03   -0.36975E-03   -0.22976E-03  8004   0.103E-01    0.606E+00
RMM:  27    -0.306630629051E+03   -0.30350E-02   -0.91402E-04  7946   0.639E-02    0.621E+00
RMM:  28    -0.306635903869E+03   -0.52748E-02   -0.26841E-04  7923   0.340E-02    0.633E+00
RMM:  29    -0.306627818675E+03    0.80852E-02   -0.15178E-04  7804   0.264E-02    0.624E+00
RMM:  30    -0.306618536643E+03    0.92820E-02   -0.67258E-04  8367   0.463E-02    0.614E+00
RMM:  31    -0.306620579883E+03   -0.20432E-02   -0.18294E-04  7718   0.289E-02    0.620E+00
RMM:  32    -0.306615075794E+03    0.55041E-02   -0.17440E-04  7768   0.267E-02    0.610E+00
RMM:  33    -0.306603978597E+03    0.11097E-01   -0.10089E-03  8189   0.588E-02    0.581E+00
RMM:  34    -0.306595059755E+03    0.89188E-02   -0.13623E-03  8164   0.700E-02    0.538E+00
RMM:  35    -0.306586741917E+03    0.83178E-02   -0.11299E-03  8145   0.665E-02    0.476E+00
RMM:  36    -0.306582203436E+03    0.45385E-02   -0.60343E-04  8005   0.531E-02    0.404E+00
RMM:  37    -0.306581912168E+03    0.29127E-03   -0.52045E-04  7741   0.544E-02    0.318E+00
RMM:  38    -0.306584353231E+03   -0.24411E-02   -0.53850E-04  7561   0.585E-02    0.215E+00
RMM:  39    -0.306590930317E+03   -0.65771E-02   -0.65710E-04  7403   0.663E-02    0.115E+00
RMM:  40    -0.306597936762E+03   -0.70064E-02   -0.97235E-04  7502   0.798E-02    0.392E-01
RMM:  41    -0.306603117355E+03   -0.51806E-02   -0.13062E-03  7612   0.886E-02    0.678E-01
RMM:  42    -0.306605742889E+03   -0.26255E-02   -0.95510E-04  7594   0.771E-02    0.125E+00
RMM:  43    -0.306605916992E+03   -0.17410E-03   -0.70387E-04  7667   0.652E-02    0.161E+00
RMM:  44    -0.306604917626E+03    0.99937E-03   -0.34830E-04  7590   0.456E-02    0.180E+00
RMM:  45    -0.306605090501E+03   -0.17287E-03   -0.11175E-04  6999   0.308E-02    0.217E+00
RMM:  46    -0.306602676755E+03    0.24137E-02   -0.36424E-04  7917   0.393E-02    0.207E+00
RMM:  47    -0.306599990661E+03    0.26861E-02   -0.42116E-04  8058   0.391E-02    0.151E+00
RMM:  48    -0.306600092640E+03   -0.10198E-03   -0.70608E-04  7933   0.561E-02    0.672E-01
RMM:  49    -0.306602602909E+03   -0.25103E-02   -0.56720E-04  7661   0.608E-02    0.208E-01
RMM:  50    -0.306604921237E+03   -0.23183E-02   -0.45529E-04  7432   0.584E-02    0.934E-01
RMM:  51    -0.306606014445E+03   -0.10932E-02   -0.35368E-04  7294   0.526E-02    0.158E+00
RMM:  52    -0.306606123028E+03   -0.10858E-03   -0.35361E-04  7291   0.499E-02    0.208E+00
RMM:  53    -0.306605103662E+03    0.10194E-02   -0.34861E-04  7390   0.467E-02    0.242E+00
RMM:  54    -0.306604364151E+03    0.73951E-03   -0.20358E-04  7108   0.362E-02    0.273E+00
RMM:  55    -0.306603915553E+03    0.44860E-03   -0.10546E-04  6566   0.285E-02    0.308E+00
RMM:  56    -0.306603465094E+03    0.45046E-03   -0.94098E-05  6338   0.265E-02    0.343E+00
RMM:  57    -0.306603072803E+03    0.39229E-03   -0.92308E-05  6360   0.259E-02    0.377E+00
RMM:  58    -0.306602512604E+03    0.56020E-03   -0.90213E-05  6227   0.251E-02    0.410E+00
RMM:  59    -0.306601342306E+03    0.11703E-02   -0.10222E-04  6555   0.256E-02    0.436E+00
RMM:  60    -0.306600437732E+03    0.90457E-03   -0.77848E-05  6239   0.227E-02
  15 F= -.30660044E+03 E0= -.30660117E+03  d E =-.230304E-01  mag=    24.1523
 trial-energy change:   -0.023030  1 .order   -0.021084   -0.028210   -0.013957
 step:   0.4922(harm=  0.4922)  dis= 0.01361  next Energy=  -306.605325 (dE=-0.279E-01)
 bond charge predicted
       N       E                     dE             d eps       ncg     rms          rms(c)
DAV:   1    -0.306575339020E+03    0.26003E-01   -0.16762E+00 11162   0.806E+00    0.474E+00
RMM:   2    -0.307167717475E+03   -0.59238E+00   -0.14327E+00  9542   0.262E+00    0.171E+01
RMM:   3    -0.306556854779E+03    0.61086E+00   -0.55444E-01  8938   0.141E+00    0.964E+00
RMM:   4    -0.306615080995E+03   -0.58226E-01   -0.18757E-01  8786   0.882E-01    0.688E+00
RMM:   5    -0.306583298734E+03    0.31782E-01   -0.70670E-02  8825   0.532E-01    0.378E+00
RMM:   6    -0.306597119187E+03   -0.13820E-01   -0.19574E-02  9086   0.279E-01    0.115E+00
RMM:   7    -0.306616726696E+03   -0.19608E-01   -0.52747E-03  8445   0.173E-01    0.785E-01
RMM:   8    -0.306622081518E+03   -0.53548E-02   -0.23808E-03  8013   0.125E-01    0.126E+00
RMM:   9    -0.306620320641E+03    0.17609E-02   -0.15880E-03  8069   0.880E-02    0.126E+00
RMM:  10    -0.306617092394E+03    0.32282E-02   -0.27112E-03  8431   0.966E-02    0.454E-01
RMM:  11    -0.306622602682E+03   -0.55103E-02   -0.91659E-04  8222   0.678E-02    0.167E+00
RMM:  12    -0.306623271418E+03   -0.66874E-03   -0.29642E-03  7909   0.126E-01    0.226E+00
RMM:  13    -0.306619526255E+03    0.37452E-02   -0.16635E-03  8157   0.911E-02    0.240E+00
RMM:  14    -0.306611401285E+03    0.81250E-02   -0.34786E-03  8441   0.111E-01    0.117E+00
RMM:  15    -0.306616294969E+03   -0.48937E-02   -0.41649E-03  8504   0.131E-01    0.110E+00
RMM:  16    -0.306622942846E+03   -0.66479E-02   -0.28689E-03  7770   0.127E-01    0.186E+00
RMM:  17    -0.306622907384E+03    0.35462E-04   -0.11431E-03  7639   0.832E-02    0.245E+00
RMM:  18    -0.306622441587E+03    0.46580E-03   -0.40863E-04  7380   0.552E-02    0.302E+00
RMM:  19    -0.306619396049E+03    0.30455E-02   -0.51467E-04  7733   0.534E-02    0.327E+00
RMM:  20    -0.306616440330E+03    0.29557E-02   -0.41880E-04  7736   0.439E-02    0.334E+00
RMM:  21    -0.306616949274E+03   -0.50894E-03   -0.62763E-05  6569   0.215E-02    0.359E+00
RMM:  22    -0.306608771248E+03    0.81780E-02   -0.22354E-03  8136   0.877E-02    0.295E+00
RMM:  23    -0.306605095217E+03    0.36760E-02   -0.19306E-03  8362   0.855E-02    0.164E+00
RMM:  24    -0.306611742698E+03   -0.66475E-02   -0.78027E-04  7683   0.697E-02    0.304E-01
RMM:  25    -0.306620124869E+03   -0.83822E-02   -0.14493E-03  7542   0.945E-02    0.957E-01
RMM:  26    -0.306622644698E+03   -0.25198E-02   -0.14272E-03  7627   0.941E-02    0.161E+00
RMM:  27    -0.306623486604E+03   -0.84191E-03   -0.53205E-04  7353   0.636E-02    0.234E+00
RMM:  28    -0.306622629314E+03    0.85729E-03   -0.46548E-04  7426   0.544E-02    0.289E+00
RMM:  29    -0.306622154689E+03    0.47462E-03   -0.24272E-04  6988   0.404E-02    0.342E+00
RMM:  30    -0.306621480787E+03    0.67390E-03   -0.18066E-04  6641   0.337E-02    0.388E+00
RMM:  31    -0.306620792285E+03    0.68850E-03   -0.13116E-04  6348   0.286E-02    0.427E+00
RMM:  32    -0.306620073155E+03    0.71913E-03   -0.94429E-05  6001   0.238E-02    0.459E+00
RMM:  33    -0.306619410928E+03    0.66223E-03   -0.63521E-05  5717   0.194E-02    0.485E+00
RMM:  34    -0.306618804341E+03    0.60659E-03   -0.40721E-05  5397   0.154E-02    0.504E+00
RMM:  35    -0.306618295178E+03    0.50916E-03   -0.24552E-05  5129   0.120E-02    0.519E+00
RMM:  36    -0.306617876255E+03    0.41892E-03   -0.14207E-05  4823   0.912E-03    0.529E+00
RMM:  37    -0.306617558205E+03    0.31805E-03   -0.78661E-06  4587   0.685E-03    0.537E+00
RMM:  38    -0.306617304010E+03    0.25420E-03   -0.42644E-06  4395   0.511E-03    0.543E+00
RMM:  39    -0.306617119409E+03    0.18460E-03   -0.22611E-06  4150   0.378E-03    0.546E+00
RMM:  40    -0.306616947953E+03    0.17146E-03   -0.11828E-06  3631   0.286E-03    0.549E+00
RMM:  41    -0.306616879498E+03    0.68456E-04   -0.54380E-07  3168   0.225E-03    0.551E+00
RMM:  42    -0.306616811853E+03    0.67645E-04   -0.32979E-07  2831   0.189E-03    0.552E+00
RMM:  43    -0.306616870542E+03   -0.58689E-04   -0.25723E-07  2629   0.183E-03    0.553E+00
RMM:  44    -0.306616688525E+03    0.18202E-03   -0.42266E-07  2860   0.201E-03    0.553E+00
RMM:  45    -0.306614850110E+03    0.18384E-02   -0.42105E-05  5991   0.127E-02    0.543E+00
RMM:  46    -0.306615665705E+03   -0.81560E-03   -0.71570E-06  4200   0.699E-03    0.541E+00
RMM:  47    -0.306614327575E+03    0.13381E-02   -0.58111E-06  4610   0.632E-03    0.529E+00
RMM:  48    -0.306613957442E+03    0.37013E-03   -0.67393E-06  4464   0.621E-03    0.517E+00
RMM:  49    -0.306615052277E+03   -0.10948E-02   -0.91358E-06  4417   0.730E-03    0.515E+00
RMM:  50    -0.306615979693E+03   -0.92742E-03   -0.10145E-05  4627   0.697E-03    0.518E+00
RMM:  51    -0.306615812716E+03    0.16698E-03   -0.36813E-06  3973   0.542E-03    0.517E+00
RMM:  52    -0.306615288701E+03    0.52401E-03   -0.28681E-05  5447   0.105E-02    0.514E+00
RMM:  53    -0.306615269350E+03    0.19351E-04   -0.24632E-06  3925   0.362E-03    0.512E+00
RMM:  54    -0.306615330894E+03   -0.61545E-04   -0.69789E-07  3486   0.226E-03    0.511E+00
RMM:  55    -0.306615455675E+03   -0.12478E-03   -0.20708E-07  2625   0.163E-03    0.511E+00
RMM:  56    -0.306615780583E+03   -0.32491E-03   -0.43652E-06  4153   0.495E-03    0.513E+00
RMM:  57    -0.306616998897E+03   -0.12183E-02   -0.25013E-05  4978   0.954E-03    0.522E+00
RMM:  58    -0.306615282571E+03    0.17163E-02   -0.23940E-05  4833   0.114E-02    0.518E+00
RMM:  59    -0.306612087532E+03    0.31950E-02   -0.70838E-05  7463   0.149E-02    0.495E+00
RMM:  60    -0.306609734579E+03    0.23530E-02   -0.10611E-04  7567   0.207E-02
  16 F= -.30660973E+03 E0= -.30660601E+03  d E =-.323272E-01  mag=    24.1535
 curvature:  -0.27 expect dE=-0.115E-01 dE for cont linesearch -0.527E-02
 ZBRENT: increasing intervall
 opt :   0.9793  next Energy=  -306.630397 (dE=-0.530E-01)
 bond charge predicted
       N       E                     dE             d eps       ncg     rms          rms(c)
DAV:   1    -0.306479319105E+03    0.13277E+00   -0.67407E+00 11122   0.162E+01    0.443E+00
RMM:   2    -0.307054131949E+03   -0.57481E+00   -0.21385E+00  9951   0.347E+00    0.110E+01
RMM:   3    -0.306885323715E+03    0.16881E+00   -0.34265E-01  8850   0.121E+00    0.755E+00
RMM:   4    -0.306650117836E+03    0.23521E+00   -0.15476E-01  8865   0.696E-01    0.609E+00
RMM:   5    -0.306560960475E+03    0.89157E-01   -0.79793E-02  9298   0.495E-01    0.143E+00
RMM:   6    -0.306618563664E+03   -0.57603E-01   -0.23164E-02  8677   0.322E-01    0.810E-01
RMM:   7    -0.306625793825E+03   -0.72302E-02   -0.12094E-02  8650   0.240E-01    0.676E-01
RMM:   8    -0.306624373850E+03    0.14200E-02   -0.24307E-03  8628   0.107E-01    0.453E-01
RMM:   9    -0.306624351432E+03    0.22418E-04   -0.17075E-03  8723   0.894E-02    0.592E-01
RMM:  10    -0.306624959443E+03   -0.60801E-03   -0.11908E-03  8448   0.787E-02    0.941E-01
RMM:  11    -0.306622700017E+03    0.22594E-02   -0.10981E-03  8373   0.702E-02    0.547E-01
RMM:  12    -0.306623720136E+03   -0.10201E-02   -0.18400E-03  8450   0.801E-02    0.870E-01
RMM:  13    -0.306626053369E+03   -0.23332E-02   -0.79500E-04  7568   0.709E-02    0.148E+00
RMM:  14    -0.306622765806E+03    0.32876E-02   -0.11090E-03  7995   0.732E-02    0.123E+00
RMM:  15    -0.306621387720E+03    0.13781E-02   -0.13301E-03  8141   0.678E-02    0.341E-01
RMM:  16    -0.306624038312E+03   -0.26506E-02   -0.41645E-04  7678   0.505E-02    0.460E-01
RMM:  17    -0.306624619987E+03   -0.58168E-03   -0.51702E-04  7483   0.558E-02    0.683E-01
RMM:  18    -0.306625375665E+03   -0.75568E-03   -0.13784E-04  7140   0.323E-02    0.118E+00
RMM:  19    -0.306625446200E+03   -0.70536E-04   -0.16058E-04  6716   0.331E-02    0.161E+00
RMM:  20    -0.306623225166E+03    0.22210E-02   -0.28800E-04  7393   0.391E-02    0.163E+00
RMM:  21    -0.306622186373E+03    0.10388E-02   -0.75080E-05  6687   0.183E-02    0.155E+00
RMM:  22    -0.306622571460E+03   -0.38509E-03   -0.90422E-06  4708   0.764E-03    0.159E+00
RMM:  23    -0.306621632098E+03    0.93936E-03   -0.56680E-05  6622   0.147E-02    0.141E+00
RMM:  24    -0.306619884103E+03    0.17480E-02   -0.50322E-04  7989   0.460E-02    0.681E-01
RMM:  25    -0.306621602587E+03   -0.17185E-02   -0.37498E-04  7650   0.484E-02    0.173E-01
RMM:  26    -0.306624049764E+03   -0.24472E-02   -0.32501E-04  7057   0.498E-02    0.842E-01
RMM:  27    -0.306624979694E+03   -0.92993E-03   -0.28606E-04  6918   0.471E-02    0.136E+00
RMM:  28    -0.306625213361E+03   -0.23367E-03   -0.19741E-04  6746   0.394E-02    0.183E+00
RMM:  29    -0.306625033474E+03    0.17989E-03   -0.15437E-04  6612   0.346E-02    0.224E+00
RMM:  30    -0.306624778379E+03    0.25510E-03   -0.12131E-04  6385   0.302E-02    0.261E+00
RMM:  31    -0.306624457606E+03    0.32077E-03   -0.97703E-05  6061   0.267E-02    0.293E+00
RMM:  32    -0.306624091697E+03    0.36591E-03   -0.78792E-05  5871   0.236E-02    0.321E+00
RMM:  33    -0.306623659076E+03    0.43262E-03   -0.62993E-05  5699   0.208E-02    0.346E+00
RMM:  34    -0.306623165274E+03    0.49380E-03   -0.49471E-05  5601   0.183E-02    0.367E+00
RMM:  35    -0.306622607382E+03    0.55789E-03   -0.37514E-05  5431   0.159E-02    0.384E+00
RMM:  36    -0.306622003251E+03    0.60413E-03   -0.27629E-05  5262   0.136E-02    0.397E+00
RMM:  37    -0.306621354836E+03    0.64841E-03   -0.19356E-05  5074   0.113E-02    0.407E+00
RMM:  38    -0.306620678656E+03    0.67618E-03   -0.13307E-05  4885   0.930E-03    0.414E+00
RMM:  39    -0.306619863158E+03    0.81550E-03   -0.10054E-05  4766   0.769E-03    0.417E+00
RMM:  40    -0.306617947950E+03    0.19152E-02   -0.31751E-05  6005   0.109E-02    0.409E+00
RMM:  41    -0.306614122929E+03    0.38250E-02   -0.14074E-04  7652   0.218E-02    0.378E+00
RMM:  42    -0.306611577591E+03    0.25453E-02   -0.16811E-04  7556   0.276E-02    0.330E+00
RMM:  43    -0.306611692899E+03   -0.11531E-03   -0.17371E-04  7399   0.315E-02    0.272E+00
RMM:  44    -0.306614178010E+03   -0.24851E-02   -0.22147E-04  7044   0.366E-02    0.220E+00
RMM:  45    -0.306616894832E+03   -0.27168E-02   -0.23179E-04  6985   0.377E-02    0.176E+00
RMM:  46    -0.306619056729E+03   -0.21619E-02   -0.18063E-04  6768   0.348E-02    0.137E+00
RMM:  47    -0.306621091049E+03   -0.20343E-02   -0.17477E-04  7179   0.330E-02    0.116E+00
RMM:  48    -0.306621941694E+03   -0.85064E-03   -0.61988E-05  6017   0.220E-02    0.956E-01
RMM:  49    -0.306622533032E+03   -0.59134E-03   -0.37798E-05  5421   0.175E-02    0.758E-01
RMM:  50    -0.306623002507E+03   -0.46947E-03   -0.29229E-05  5247   0.154E-02    0.571E-01
RMM:  51    -0.306623382382E+03   -0.37988E-03   -0.24817E-05  5190   0.140E-02    0.401E-01
RMM:  52    -0.306623657466E+03   -0.27508E-03   -0.26368E-05  5380   0.140E-02    0.320E-01
RMM:  53    -0.306623783849E+03   -0.12638E-03   -0.12194E-05  4843   0.948E-03    0.278E-01
RMM:  54    -0.306623847020E+03   -0.63171E-04   -0.15561E-05  5288   0.861E-03    0.341E-01
RMM:  55    -0.306623979883E+03   -0.13286E-03   -0.15585E-05  5354   0.715E-03    0.523E-01
RMM:  56    -0.306624061172E+03   -0.81289E-04   -0.16976E-05  4935   0.107E-02    0.684E-01
RMM:  57    -0.306623951181E+03    0.10999E-03   -0.27297E-05  5364   0.133E-02    0.843E-01
RMM:  58    -0.306623681567E+03    0.26961E-03   -0.24643E-05  5055   0.125E-02    0.909E-01
RMM:  59    -0.306623237655E+03    0.44391E-03   -0.33672E-05  5767   0.116E-02    0.835E-01
RMM:  60    -0.306623228572E+03    0.90831E-05   -0.38714E-06  4150   0.473E-03
  17 F= -.30662323E+03 E0= -.30662010E+03  d E =-.458212E-01  mag=    24.1279
 curvature:  -1.06 expect dE=-0.125E+00 dE for cont linesearch -0.546E-02
 ZBRENT: bracketing found
 ZBRENT: interpolating
 opt :   0.8139  next Energy=  -306.625323 (dE=-0.479E-01)
 bond charge predicted
       N       E                     dE             d eps       ncg     rms          rms(c)
DAV:   1    -0.306609964620E+03    0.13273E-01   -0.77464E-01 11150   0.551E+00    0.978E-01
RMM:   2    -0.306667187636E+03   -0.57223E-01   -0.18435E-01 10197   0.107E+00    0.581E+00
RMM:   3    -0.306623847239E+03    0.43340E-01   -0.37138E-02  8745   0.434E-01    0.440E+00
RMM:   4    -0.306612623253E+03    0.11224E-01   -0.42678E-03  9023   0.142E-01    0.346E+00
RMM:   5    -0.306607773600E+03    0.48497E-02   -0.55790E-03  8731   0.151E-01    0.143E+00
RMM:   6    -0.306620610788E+03   -0.12837E-01   -0.26947E-03  8247   0.124E-01    0.768E-01
RMM:   7    -0.306631941054E+03   -0.11330E-01   -0.27214E-03  7920   0.136E-01    0.194E+00
RMM:   8    -0.306637915996E+03   -0.59749E-02   -0.12202E-03  7666   0.961E-02    0.319E+00
RMM:   9    -0.306628837075E+03    0.90789E-02   -0.20913E-03  8010   0.104E-01    0.336E+00
RMM:  10    -0.306625263156E+03    0.35739E-02   -0.75363E-04  8013   0.600E-02    0.345E+00
RMM:  11    -0.306624912571E+03    0.35058E-03   -0.16900E-04  7576   0.299E-02    0.360E+00
RMM:  12    -0.306624171014E+03    0.74156E-03   -0.73865E-05  6900   0.223E-02    0.376E+00
RMM:  13    -0.306618335337E+03    0.58357E-02   -0.12992E-03  8015   0.683E-02    0.337E+00
RMM:  14    -0.306613513847E+03    0.48215E-02   -0.13622E-03  8123   0.708E-02    0.251E+00
RMM:  15    -0.306614789887E+03   -0.12760E-02   -0.97386E-04  8077   0.684E-02    0.127E+00
RMM:  16    -0.306622170064E+03   -0.73802E-02   -0.88972E-04  7738   0.770E-02    0.216E-01
RMM:  17    -0.306629502363E+03   -0.73323E-02   -0.15922E-03  7636   0.100E-01    0.118E+00
RMM:  18    -0.306630015138E+03   -0.51278E-03   -0.13879E-03  7708   0.916E-02    0.164E+00
RMM:  19    -0.306631313622E+03   -0.12985E-02   -0.33751E-04  7307   0.517E-02    0.238E+00
RMM:  20    -0.306626998017E+03    0.43156E-02   -0.84389E-04  7979   0.630E-02    0.243E+00
RMM:  21    -0.306624045586E+03    0.29524E-02   -0.27743E-04  7804   0.335E-02    0.222E+00
RMM:  22    -0.306623582122E+03    0.46346E-03   -0.56867E-05  6675   0.153E-02    0.199E+00
RMM:  23    -0.306623981396E+03   -0.39927E-03   -0.53676E-05  6288   0.181E-02    0.175E+00
RMM:  24    -0.306623348105E+03    0.63329E-03   -0.22197E-04  7724   0.323E-02    0.123E+00
RMM:  25    -0.306624302067E+03   -0.95396E-03   -0.19973E-04  7405   0.359E-02    0.598E-01
RMM:  26    -0.306626195139E+03   -0.18931E-02   -0.19304E-04  6821   0.384E-02    0.695E-02
RMM:  27    -0.306627584847E+03   -0.13897E-02   -0.18732E-04  6784   0.383E-02    0.403E-01
RMM:  28    -0.306628101266E+03   -0.51642E-03   -0.13994E-04  6566   0.331E-02    0.741E-01
RMM:  29    -0.306628208026E+03   -0.10676E-03   -0.89217E-05  6103   0.272E-02    0.105E+00
RMM:  30    -0.306628143942E+03    0.64084E-04   -0.68519E-05  5882   0.237E-02    0.134E+00
RMM:  31    -0.306627953130E+03    0.19081E-03   -0.56632E-05  5673   0.214E-02    0.161E+00
RMM:  32    -0.306627648577E+03    0.30455E-03   -0.49626E-05  5659   0.195E-02    0.184E+00
RMM:  33    -0.306627278158E+03    0.37042E-03   -0.41980E-05  5489   0.177E-02    0.205E+00
RMM:  34    -0.306626866676E+03    0.41148E-03   -0.35291E-05  5450   0.158E-02    0.222E+00
RMM:  35    -0.306626467797E+03    0.39888E-03   -0.27398E-05  5224   0.139E-02    0.237E+00
RMM:  36    -0.306626081874E+03    0.38592E-03   -0.21582E-05  5102   0.121E-02    0.250E+00
RMM:  37    -0.306625738162E+03    0.34371E-03   -0.15981E-05  4932   0.104E-02    0.261E+00
RMM:  38    -0.306625427746E+03    0.31042E-03   -0.11847E-05  4756   0.889E-03    0.270E+00
RMM:  39    -0.306625154497E+03    0.27325E-03   -0.89247E-06  4645   0.772E-03    0.279E+00
RMM:  40    -0.306624906513E+03    0.24798E-03   -0.67148E-06  4470   0.676E-03    0.287E+00
RMM:  41    -0.306624697162E+03    0.20935E-03   -0.50364E-06  4464   0.597E-03    0.293E+00
RMM:  42    -0.306624509761E+03    0.18740E-03   -0.39024E-06  4334   0.535E-03    0.300E+00
RMM:  43    -0.306624345618E+03    0.16414E-03   -0.31149E-06  4279   0.488E-03    0.306E+00
RMM:  44    -0.306624201247E+03    0.14437E-03   -0.25791E-06  4198   0.450E-03    0.311E+00
RMM:  45    -0.306624057986E+03    0.14326E-03   -0.22379E-06  4148   0.423E-03    0.316E+00
RMM:  46    -0.306623920414E+03    0.13757E-03   -0.19363E-06  4107   0.396E-03    0.321E+00
RMM:  47    -0.306623394992E+03    0.52542E-03   -0.46057E-06  4348   0.555E-03    0.322E+00
RMM:  48    -0.306623279292E+03    0.11570E-03   -0.14725E-06  3795   0.293E-03    0.323E+00
RMM:  49    -0.306622988703E+03    0.29059E-03   -0.15630E-06  4106   0.321E-03    0.322E+00
RMM:  50    -0.306622017715E+03    0.97099E-03   -0.29301E-05  5622   0.109E-02    0.311E+00
RMM:  51    -0.306622180200E+03   -0.16249E-03   -0.51319E-06  4230   0.597E-03    0.304E+00
RMM:  52    -0.306622995600E+03   -0.81540E-03   -0.72975E-06  4318   0.678E-03    0.303E+00
RMM:  53    -0.306623018023E+03   -0.22423E-04   -0.14543E-06  3834   0.357E-03    0.300E+00
RMM:  54    -0.306622561694E+03    0.45633E-03   -0.34000E-06  4236   0.444E-03    0.293E+00
RMM:  55    -0.306621569622E+03    0.99207E-03   -0.18990E-05  5353   0.925E-03    0.277E+00
RMM:  56    -0.306621481642E+03    0.87980E-04   -0.44146E-05  6257   0.156E-02    0.259E+00
RMM:  57    -0.306623697076E+03   -0.22154E-02   -0.19810E-04  7310   0.292E-02    0.265E+00
RMM:  58    -0.306623887775E+03   -0.19070E-03   -0.13885E-05  4787   0.878E-03    0.266E+00
RMM:  59    -0.306623945238E+03   -0.57463E-04   -0.32710E-06  4127   0.502E-03    0.267E+00
RMM:  60    -0.306623770252E+03    0.17499E-03   -0.15559E-06  3918   0.337E-03
  18 F= -.30662377E+03 E0= -.30662207E+03  d E =-.463629E-01  mag=    24.1146
 curvature:  -0.41 expect dE=-0.513E-01 dE for cont linesearch -0.227E-03
 trial: gam= 0.98651 g(F)=  0.126E+00 g(S)=  0.000E+00 ort =-0.834E-02 (trialstep = 0.195E+00)
 search vector abs. value=  0.231E+00
 bond charge predicted
       N       E                     dE             d eps       ncg     rms          rms(c)
DAV:   1    -0.306602900414E+03    0.21045E-01   -0.20963E+00 10742   0.861E+00    0.314E+00
RMM:   2    -0.307002457283E+03   -0.39956E+00   -0.84473E-01  9868   0.211E+00    0.142E+01
RMM:   3    -0.306596620941E+03    0.40584E+00   -0.29332E-01  8787   0.106E+00    0.809E+00
RMM:   4    -0.306615429043E+03   -0.18808E-01   -0.74006E-02  8818   0.575E-01    0.548E+00
RMM:   5    -0.306607153761E+03    0.82753E-02   -0.31536E-02  8876   0.358E-01    0.237E+00
RMM:   6    -0.306630172093E+03   -0.23018E-01   -0.10682E-02  8843   0.221E-01    0.437E-01
RMM:   7    -0.306649151902E+03   -0.18980E-01   -0.41933E-03  8029   0.162E-01    0.190E+00
RMM:   8    -0.306653207530E+03   -0.40556E-02   -0.26824E-03  7787   0.132E-01    0.282E+00
RMM:   9    -0.306656461517E+03   -0.32540E-02   -0.10350E-03  7679   0.861E-02    0.378E+00
RMM:  10    -0.306653700153E+03    0.27614E-02   -0.87859E-04  7521   0.719E-02    0.428E+00
RMM:  11    -0.306648098086E+03    0.56021E-02   -0.11497E-03  7811   0.753E-02    0.442E+00
RMM:  12    -0.306644601970E+03    0.34961E-02   -0.89629E-04  7767   0.591E-02    0.440E+00
RMM:  13    -0.306643000696E+03    0.16013E-02   -0.17698E-04  7488   0.247E-02    0.437E+00
RMM:  14    -0.306646878959E+03   -0.38783E-02   -0.45714E-04  7908   0.426E-02    0.462E+00
RMM:  15    -0.306672096282E+03   -0.25217E-01   -0.12490E-02  8469   0.214E-01    0.589E+00
RMM:  16    -0.306703594061E+03   -0.31498E-01   -0.79465E-03  8501   0.177E-01    0.689E+00
RMM:  17    -0.306702635377E+03    0.95868E-03   -0.77819E-04  7954   0.639E-02    0.697E+00
RMM:  18    -0.306711023836E+03   -0.83885E-02   -0.66433E-04  8501   0.510E-02    0.706E+00
RMM:  19    -0.306713672129E+03   -0.26483E-02   -0.15451E-04  7811   0.238E-02    0.709E+00
RMM:  20    -0.306699791003E+03    0.13881E-01   -0.41569E-03  8112   0.123E-01    0.691E+00
RMM:  21    -0.306698743333E+03    0.10477E-02   -0.85679E-04  8190   0.517E-02    0.688E+00
RMM:  22    -0.306679120132E+03    0.19623E-01   -0.23982E-03  8755   0.889E-02    0.669E+00
RMM:  23    -0.306646587551E+03    0.32533E-01   -0.41721E-03  9110   0.105E-01    0.624E+00
RMM:  24    -0.306600774926E+03    0.45813E-01   -0.29277E-02  8645   0.327E-01    0.428E+00
RMM:  25    -0.306592570800E+03    0.82041E-02   -0.11863E-02  8930   0.212E-01    0.101E+00
RMM:  26    -0.306635224646E+03   -0.42654E-01   -0.54779E-03  7888   0.177E-01    0.253E+00
RMM:  27    -0.306672607429E+03   -0.37383E-01   -0.58435E-03  7709   0.201E-01    0.550E+00
RMM:  28    -0.306689867333E+03   -0.17260E-01   -0.52690E-03  7675   0.180E-01    0.758E+00
RMM:  29    -0.306698435958E+03   -0.85686E-02   -0.30039E-03  7631   0.126E-01    0.859E+00
RMM:  30    -0.306696988379E+03    0.14476E-02   -0.87640E-04  7488   0.655E-02    0.881E+00
RMM:  31    -0.306674932253E+03    0.22056E-01   -0.22772E-03  8153   0.915E-02    0.844E+00
RMM:  32    -0.306663294315E+03    0.11638E-01   -0.25397E-03  8181   0.962E-02    0.808E+00
RMM:  33    -0.306660213022E+03    0.30813E-02   -0.45108E-04  8082   0.407E-02    0.791E+00
RMM:  34    -0.306664249809E+03   -0.40368E-02   -0.10750E-03  8448   0.627E-02    0.794E+00
RMM:  35    -0.306665280316E+03   -0.10305E-02   -0.15517E-04  7852   0.226E-02    0.797E+00
RMM:  36    -0.306661096970E+03    0.41833E-02   -0.14241E-04  7586   0.271E-02    0.789E+00
RMM:  37    -0.306644105672E+03    0.16991E-01   -0.67537E-04  8135   0.442E-02    0.742E+00
RMM:  38    -0.306626940369E+03    0.17165E-01   -0.67090E-04  8317   0.455E-02    0.648E+00
RMM:  39    -0.306605550473E+03    0.21390E-01   -0.19792E-03  8494   0.806E-02    0.401E+00
RMM:  40    -0.306619183093E+03   -0.13633E-01   -0.29087E-03  8191   0.123E-01    0.127E+00
RMM:  41    -0.306642897337E+03   -0.23714E-01   -0.39960E-03  7789   0.157E-01    0.123E+00
RMM:  42    -0.306656535241E+03   -0.13638E-01   -0.23368E-03  7615   0.132E-01    0.268E+00
RMM:  43    -0.306660780720E+03   -0.42455E-02   -0.17563E-03  7524   0.111E-01    0.369E+00
RMM:  44    -0.306663585221E+03   -0.28045E-02   -0.10289E-03  7491   0.830E-02    0.447E+00
RMM:  45    -0.306663187975E+03    0.39725E-03   -0.59204E-04  7250   0.608E-02    0.493E+00
RMM:  46    -0.306662003558E+03    0.11844E-02   -0.28101E-04  7087   0.416E-02    0.521E+00
RMM:  47    -0.306659708861E+03    0.22947E-02   -0.18475E-04  7423   0.323E-02    0.533E+00
RMM:  48    -0.306656302130E+03    0.34067E-02   -0.34448E-04  7843   0.344E-02    0.533E+00
RMM:  49    -0.306649309885E+03    0.69922E-02   -0.31266E-03  8621   0.102E-01    0.516E+00
RMM:  50    -0.306635040496E+03    0.14269E-01   -0.10693E-02  8974   0.189E-01    0.460E+00
RMM:  51    -0.306628546003E+03    0.64945E-02   -0.26601E-03  8599   0.977E-02    0.390E+00
RMM:  52    -0.306626508827E+03    0.20372E-02   -0.57857E-04  7882   0.555E-02    0.304E+00
RMM:  53    -0.306629469016E+03   -0.29602E-02   -0.53222E-04  7610   0.566E-02    0.225E+00
RMM:  54    -0.306633256700E+03   -0.37877E-02   -0.73224E-04  7641   0.645E-02    0.146E+00
RMM:  55    -0.306637361985E+03   -0.41053E-02   -0.10169E-03  7869   0.723E-02    0.672E-01
RMM:  56    -0.306641160798E+03   -0.37988E-02   -0.55811E-04  7522   0.613E-02    0.211E-01
RMM:  57    -0.306643574285E+03   -0.24135E-02   -0.46216E-04  7274   0.573E-02    0.686E-01
RMM:  58    -0.306644122570E+03   -0.54828E-03   -0.31239E-04  7199   0.480E-02    0.107E+00
RMM:  59    -0.306644040262E+03    0.82307E-04   -0.15694E-04  6747   0.354E-02    0.143E+00
RMM:  60    -0.306643916396E+03    0.12387E-03   -0.97856E-05  6144   0.279E-02
  19 F= -.30664392E+03 E0= -.30663978E+03  d E =-.201461E-01  mag=    24.1492
 trial-energy change:   -0.020146  1 .order   -0.015689   -0.023006   -0.008372
 step:   0.2307(harm=  0.3070)  dis= 0.00617  next Energy=  -306.644701 (dE=-0.209E-01)
 bond charge predicted
       N       E                     dE             d eps       ncg     rms          rms(c)
DAV:   1    -0.306643579517E+03    0.46075E-03   -0.69030E-02 11030   0.156E+00    0.202E+00
RMM:   2    -0.306792320695E+03   -0.14874E+00   -0.25056E-01  8924   0.945E-01    0.829E+00
RMM:   3    -0.306690354770E+03    0.10197E+00   -0.11294E-01  9106   0.644E-01    0.605E+00
RMM:   4    -0.306627890755E+03    0.62464E-01   -0.34888E-02  9128   0.330E-01    0.466E+00
RMM:   5    -0.306633790713E+03   -0.59000E-02   -0.20200E-03  9124   0.965E-02    0.431E+00
RMM:   6    -0.306636275882E+03   -0.24852E-02   -0.36155E-04  7923   0.429E-02    0.407E+00
RMM:   7    -0.306631871900E+03    0.44040E-02   -0.35165E-04  8186   0.387E-02    0.349E+00
RMM:   8    -0.306629178709E+03    0.26932E-02   -0.57328E-04  8010   0.528E-02    0.257E+00
RMM:   9    -0.306631759141E+03   -0.25804E-02   -0.11107E-03  7902   0.778E-02    0.142E+00
RMM:  10    -0.306637737007E+03   -0.59779E-02   -0.12460E-03  7952   0.868E-02    0.286E-01
RMM:  11    -0.306647718053E+03   -0.99810E-02   -0.12855E-03  7530   0.966E-02    0.166E+00
RMM:  12    -0.306651833788E+03   -0.41157E-02   -0.13609E-03  7509   0.101E-01    0.277E+00
RMM:  13    -0.306656171530E+03   -0.43377E-02   -0.88003E-04  7487   0.787E-02    0.405E+00
RMM:  14    -0.306655128216E+03    0.10433E-02   -0.94572E-04  7381   0.756E-02    0.492E+00
RMM:  15    -0.306655019903E+03    0.10831E-03   -0.53884E-04  7250   0.557E-02    0.564E+00
RMM:  16    -0.306653872920E+03    0.11470E-02   -0.33058E-04  6998   0.426E-02    0.611E+00
RMM:  17    -0.306652934825E+03    0.93809E-03   -0.16150E-04  6566   0.298E-02    0.642E+00
RMM:  18    -0.306652177645E+03    0.75718E-03   -0.71267E-05  5861   0.199E-02    0.661E+00
RMM:  19    -0.306652164335E+03    0.13310E-04   -0.29127E-05  5293   0.128E-02    0.675E+00
RMM:  20    -0.306652159017E+03    0.53172E-05   -0.13623E-05  4861   0.877E-03
  20 F= -.30665216E+03 E0= -.30665031E+03  d E =-.283888E-01  mag=    24.1591
 curvature:  -0.16 expect dE=-0.906E-02 dE for cont linesearch -0.149E-04
 trial: gam= 0.41064 g(F)=  0.565E-01 g(S)=  0.000E+00 ort =-0.464E-02 (trialstep = 0.202E+00)
 search vector abs. value=  0.916E-01
 bond charge predicted
       N       E                     dE             d eps       ncg     rms          rms(c)
DAV:   1    -0.306653305436E+03   -0.11411E-02   -0.81298E-01 10130   0.437E+00    0.703E+00
RMM:   2    -0.307489440926E+03   -0.83614E+00   -0.24201E+00  9040   0.285E+00    0.150E+01
RMM:   3    -0.307188156145E+03    0.30128E+00   -0.57313E-01  9541   0.148E+00    0.850E+00
RMM:   4    -0.306817404897E+03    0.37075E+00   -0.34126E-01  8943   0.998E-01    0.696E+00
RMM:   5    -0.306656480829E+03    0.16092E+00   -0.84658E-02  9565   0.461E-01    0.566E+00
RMM:   6    -0.306619395757E+03    0.37085E-01   -0.16704E-02  9573   0.245E-01    0.386E+00
RMM:   7    -0.306636953463E+03   -0.17558E-01   -0.44699E-03  8533   0.136E-01    0.321E+00
RMM:   8    -0.306632043803E+03    0.49097E-02   -0.20382E-03  8987   0.922E-02    0.140E+00
RMM:   9    -0.306645376411E+03   -0.13333E-01   -0.21804E-03  7770   0.118E-01    0.322E-01
RMM:  10    -0.306653189292E+03   -0.78129E-02   -0.28187E-03  8060   0.125E-01    0.672E-01
RMM:  11    -0.306654383798E+03   -0.11945E-02   -0.53599E-04  7770   0.622E-02    0.124E+00
RMM:  12    -0.306654564668E+03   -0.18087E-03   -0.38196E-04  7424   0.492E-02    0.176E+00
RMM:  13    -0.306654577974E+03   -0.13305E-04   -0.48316E-04  7670   0.526E-02    0.229E+00
RMM:  14    -0.306656140397E+03   -0.15624E-02   -0.55452E-04  8009   0.515E-02    0.300E+00
RMM:  15    -0.306659499192E+03   -0.33588E-02   -0.42878E-04  7754   0.500E-02    0.394E+00
RMM:  16    -0.306658427842E+03    0.10713E-02   -0.45462E-04  7302   0.530E-02    0.459E+00
RMM:  17    -0.306657388859E+03    0.10390E-02   -0.26889E-04  6894   0.398E-02    0.509E+00
RMM:  18    -0.306654905850E+03    0.24830E-02   -0.20183E-04  6991   0.328E-02    0.535E+00
RMM:  19    -0.306652994209E+03    0.19116E-02   -0.83265E-05  6359   0.212E-02    0.547E+00
RMM:  20    -0.306653783497E+03   -0.78929E-03   -0.26989E-05  5279   0.124E-02    0.564E+00
RMM:  21    -0.306653018067E+03    0.76543E-03   -0.15592E-05  4916   0.984E-03    0.573E+00
RMM:  22    -0.306652533520E+03    0.48455E-03   -0.71728E-06  4565   0.668E-03    0.577E+00
RMM:  23    -0.306652422205E+03    0.11131E-03   -0.30173E-06  4366   0.412E-03    0.581E+00
RMM:  24    -0.306652437436E+03   -0.15230E-04   -0.16787E-06  4011   0.324E-03    0.584E+00
RMM:  25    -0.306651064180E+03    0.13733E-02   -0.24323E-06  4420   0.365E-03    0.579E+00
RMM:  26    -0.306651483731E+03   -0.41955E-03   -0.53776E-06  4237   0.556E-03    0.580E+00
RMM:  27    -0.306653557111E+03   -0.20734E-02   -0.93579E-06  4565   0.720E-03    0.589E+00
RMM:  28    -0.306654406459E+03   -0.84935E-03   -0.65719E-06  4646   0.529E-03    0.599E+00
RMM:  29    -0.306650588515E+03    0.38179E-02   -0.28534E-05  5646   0.111E-02    0.586E+00
RMM:  30    -0.306647207435E+03    0.33811E-02   -0.52109E-05  6672   0.125E-02    0.560E+00
RMM:  31    -0.306637559774E+03    0.96477E-02   -0.71532E-04  8123   0.498E-02    0.471E+00
RMM:  32    -0.306633410914E+03    0.41489E-02   -0.98402E-04  8090   0.661E-02    0.346E+00
RMM:  33    -0.306639643205E+03   -0.62323E-02   -0.76011E-04  7516   0.657E-02    0.256E+00
RMM:  34    -0.306644851582E+03   -0.52084E-02   -0.52181E-04  7477   0.579E-02    0.196E+00
RMM:  35    -0.306647346810E+03   -0.24952E-02   -0.28609E-04  7260   0.448E-02    0.141E+00
RMM:  36    -0.306649163593E+03   -0.18168E-02   -0.20536E-04  7078   0.387E-02    0.928E-01
RMM:  37    -0.306650327208E+03   -0.11636E-02   -0.16498E-04  6958   0.354E-02    0.401E-01
RMM:  38    -0.306651799856E+03   -0.14726E-02   -0.19400E-04  6910   0.371E-02    0.492E-02
RMM:  39    -0.306652667517E+03   -0.86766E-03   -0.14086E-04  6591   0.326E-02    0.367E-01
RMM:  40    -0.306653003902E+03   -0.33639E-03   -0.82592E-05  5944   0.268E-02    0.709E-01
RMM:  41    -0.306653046912E+03   -0.43009E-04   -0.78600E-05  6055   0.249E-02    0.978E-01
RMM:  42    -0.306652991726E+03    0.55186E-04   -0.54812E-05  5662   0.210E-02    0.122E+00
RMM:  43    -0.306652812755E+03    0.17897E-03   -0.41845E-05  5466   0.184E-02    0.145E+00
RMM:  44    -0.306652608032E+03    0.20472E-03   -0.34232E-05  5314   0.165E-02    0.166E+00
RMM:  45    -0.306652370381E+03    0.23765E-03   -0.29484E-05  5293   0.151E-02    0.185E+00
RMM:  46    -0.306652124080E+03    0.24630E-03   -0.25386E-05  5164   0.139E-02    0.202E+00
RMM:  47    -0.306652266008E+03   -0.14193E-03   -0.23431E-05  5275   0.135E-02    0.225E+00
RMM:  48    -0.306651955539E+03    0.31047E-03   -0.28040E-05  5184   0.145E-02    0.244E+00
RMM:  49    -0.306651701150E+03    0.25439E-03   -0.25071E-05  5188   0.134E-02    0.261E+00
RMM:  50    -0.306651396245E+03    0.30490E-03   -0.21349E-05  5092   0.123E-02    0.276E+00
RMM:  51    -0.306651102544E+03    0.29370E-03   -0.17761E-05  4949   0.111E-02    0.290E+00
RMM:  52    -0.306650783097E+03    0.31945E-03   -0.15066E-05  4976   0.107E-02    0.304E+00
RMM:  53    -0.306650482225E+03    0.30087E-03   -0.12902E-05  4928   0.996E-03    0.316E+00
RMM:  54    -0.306650252654E+03    0.22957E-03   -0.10459E-05  4711   0.880E-03    0.327E+00
RMM:  55    -0.306649866478E+03    0.38618E-03   -0.10861E-05  4730   0.853E-03    0.335E+00
RMM:  56    -0.306649640079E+03    0.22640E-03   -0.67422E-06  4462   0.697E-03    0.343E+00
RMM:  57    -0.306649557809E+03    0.82270E-04   -0.67350E-06  4617   0.734E-03    0.352E+00
RMM:  58    -0.306649324123E+03    0.23369E-03   -0.53841E-06  4458   0.648E-03    0.360E+00
RMM:  59    -0.306649112646E+03    0.21148E-03   -0.44279E-06  4325   0.583E-03    0.366E+00
RMM:  60    -0.306648913903E+03    0.19874E-03   -0.34865E-06  4292   0.516E-03
  21 F= -.30664891E+03 E0= -.30664903E+03  d E =0.324511E-02  mag=    24.1411
 trial-energy change:    0.003245  1 .order   -0.007536   -0.011048   -0.004023
 step:   0.3183(harm=  0.3183)  dis= 0.00662  next Energy=  -306.660846 (dE=-0.869E-02)
 bond charge predicted
       N       E                     dE             d eps       ncg     rms          rms(c)
DAV:   1    -0.306646995854E+03    0.21168E-02   -0.26586E-01 10182   0.250E+00    0.374E+00
RMM:   2    -0.307273418146E+03   -0.62642E+00   -0.79570E-01  9216   0.171E+00    0.176E+01
RMM:   3    -0.306605108548E+03    0.66831E+00   -0.40051E-01  8875   0.120E+00    0.102E+01
RMM:   4    -0.306654123538E+03   -0.49015E-01   -0.12617E-01  8727   0.747E-01    0.779E+00
RMM:   5    -0.306618060423E+03    0.36063E-01   -0.48629E-02  8872   0.435E-01    0.525E+00
RMM:   6    -0.306620727656E+03   -0.26672E-02   -0.12757E-02  9062   0.220E-01    0.273E+00
RMM:   7    -0.306638956004E+03   -0.18228E-01   -0.49033E-03  8322   0.151E-01    0.880E-01
RMM:   8    -0.306652085933E+03   -0.13130E-01   -0.25190E-03  8062   0.123E-01    0.451E-01
RMM:   9    -0.306657684593E+03   -0.55987E-02   -0.13247E-03  7707   0.983E-02    0.122E+00
RMM:  10    -0.306658156306E+03   -0.47171E-03   -0.94979E-04  7714   0.763E-02    0.168E+00
RMM:  11    -0.306657544875E+03    0.61143E-03   -0.38848E-04  7444   0.492E-02    0.202E+00
RMM:  12    -0.306656308732E+03    0.12361E-02   -0.16667E-04  7256   0.357E-02    0.225E+00
RMM:  13    -0.306658108933E+03   -0.18002E-02   -0.80939E-04  7967   0.597E-02    0.278E+00
RMM:  14    -0.306660116015E+03   -0.20071E-02   -0.36287E-04  7785   0.449E-02    0.337E+00
RMM:  15    -0.306658794691E+03    0.13213E-02   -0.19514E-04  6882   0.359E-02    0.372E+00
RMM:  16    -0.306655564423E+03    0.32303E-02   -0.34803E-04  7459   0.411E-02    0.382E+00
RMM:  17    -0.306656031450E+03   -0.46703E-03   -0.60019E-05  6205   0.200E-02    0.404E+00
RMM:  18    -0.306658482599E+03   -0.24511E-02   -0.94495E-05  7063   0.227E-02    0.437E+00
RMM:  19    -0.306654449889E+03    0.40327E-02   -0.11711E-04  7090   0.243E-02    0.441E+00
RMM:  20    -0.306647327488E+03    0.71224E-02   -0.61050E-04  7850   0.467E-02    0.408E+00
RMM:  21    -0.306641494976E+03    0.58325E-02   -0.10826E-03  7936   0.630E-02    0.337E+00
RMM:  22    -0.306638892415E+03    0.26026E-02   -0.16984E-03  8019   0.835E-02    0.211E+00
RMM:  23    -0.306644745975E+03   -0.58536E-02   -0.15331E-03  8082   0.913E-02    0.352E-01
RMM:  24    -0.306656583862E+03   -0.11838E-01   -0.17158E-03  7571   0.105E-01    0.104E+00
RMM:  25    -0.306660802591E+03   -0.42187E-02   -0.19121E-03  7718   0.111E-01    0.186E+00
RMM:  26    -0.306661338588E+03   -0.53600E-03   -0.78073E-04  7468   0.749E-02    0.261E+00
RMM:  27    -0.306659731441E+03    0.16071E-02   -0.55763E-04  7523   0.583E-02    0.311E+00
RMM:  28    -0.306659674524E+03    0.56917E-04   -0.22443E-04  6935   0.380E-02    0.364E+00
RMM:  29    -0.306657014227E+03    0.26603E-02   -0.25004E-04  7423   0.362E-02    0.388E+00
RMM:  30    -0.306655932109E+03    0.10821E-02   -0.75420E-05  6087   0.210E-02    0.408E+00
RMM:  31    -0.306655438701E+03    0.49341E-03   -0.34950E-05  5339   0.144E-02    0.424E+00
RMM:  32    -0.306652116928E+03    0.33218E-02   -0.82765E-05  7110   0.179E-02    0.414E+00
RMM:  33    -0.306645096363E+03    0.70206E-02   -0.39181E-04  7886   0.355E-02    0.343E+00
RMM:  34    -0.306641961690E+03    0.31347E-02   -0.58383E-04  7990   0.503E-02    0.224E+00
RMM:  35    -0.306646303219E+03   -0.43415E-02   -0.67035E-04  7639   0.633E-02    0.931E-01
RMM:  36    -0.306653142179E+03   -0.68390E-02   -0.74847E-04  7337   0.719E-02    0.178E-01
RMM:  37    -0.306656661751E+03   -0.35196E-02   -0.80188E-04  7416   0.731E-02    0.552E-01
RMM:  38    -0.306656774119E+03   -0.11237E-03   -0.53626E-04  7514   0.543E-02    0.607E-01
RMM:  39    -0.306656226328E+03    0.54779E-03   -0.42880E-04  7831   0.397E-02    0.244E-01
RMM:  40    -0.306656708870E+03   -0.48254E-03   -0.86414E-05  7252   0.212E-02    0.157E-01
RMM:  41    -0.306657014662E+03   -0.30579E-03   -0.96083E-05  6352   0.249E-02    0.327E-01
RMM:  42    -0.306657003672E+03    0.10990E-04   -0.40969E-05  5454   0.175E-02    0.469E-01
RMM:  43    -0.306656758485E+03    0.24519E-03   -0.31809E-05  5503   0.152E-02    0.514E-01
RMM:  44    -0.306656552116E+03    0.20637E-03   -0.24996E-05  5229   0.104E-02    0.468E-01
RMM:  45    -0.306656599215E+03   -0.47099E-04   -0.16385E-05  4663   0.102E-02    0.415E-01
RMM:  46    -0.306656715573E+03   -0.11636E-03   -0.27624E-05  5057   0.124E-02    0.373E-01
RMM:  47    -0.306656743787E+03   -0.28214E-04   -0.22661E-05  4855   0.947E-03    0.284E-01
RMM:  48    -0.306656823437E+03   -0.79650E-04   -0.16696E-05  4674   0.896E-03    0.176E-01
RMM:  49    -0.306656939712E+03   -0.11627E-03   -0.14224E-05  4680   0.896E-03    0.774E-02
RMM:  50    -0.306657036664E+03   -0.96951E-04   -0.10950E-05  4596   0.839E-03    0.231E-02
RMM:  51    -0.306657087970E+03   -0.51306E-04   -0.80350E-06  4468   0.774E-03    0.884E-02
RMM:  52    -0.306657096661E+03   -0.86907E-05   -0.58399E-06  4398   0.700E-03
  22 F= -.30665710E+03 E0= -.30665376E+03  d E =-.493764E-02  mag=    24.1305
 curvature:  -0.27 expect dE=-0.944E-02 dE for cont linesearch -0.838E-03
 ZBRENT: increasing intervall
 opt :   0.5500  next Energy=  -306.660351 (dE=-0.819E-02)
 bond charge predicted
       N       E                     dE             d eps       ncg     rms          rms(c)
DAV:   1    -0.306644914346E+03    0.12174E-01   -0.10644E+00 10086   0.500E+00    0.509E-01
RMM:   2    -0.306657654407E+03   -0.12740E-01   -0.12884E-01 10196   0.935E-01    0.873E-01
RMM:   3    -0.306658249018E+03   -0.59461E-03   -0.98164E-03  8738   0.219E-01    0.465E-01
RMM:   4    -0.306659142714E+03   -0.89370E-03   -0.10719E-03  8502   0.804E-02    0.435E-01
RMM:   5    -0.306658688799E+03    0.45392E-03   -0.41351E-04  8068   0.451E-02    0.150E-01
RMM:   6    -0.306658877505E+03   -0.18871E-03   -0.19815E-04  7622   0.298E-02    0.156E-01
RMM:   7    -0.306658926139E+03   -0.48634E-04   -0.26145E-04  7568   0.376E-02    0.169E-01
RMM:   8    -0.306658861567E+03    0.64572E-04   -0.16846E-04  7538   0.257E-02    0.132E-01
RMM:   9    -0.306658934991E+03   -0.73424E-04   -0.60261E-05  6197   0.186E-02    0.155E-01
RMM:  10    -0.306658902431E+03    0.32561E-04   -0.69390E-05  6612   0.163E-02    0.160E-02
RMM:  11    -0.306658978070E+03   -0.75639E-04   -0.11218E-05  4730   0.864E-03    0.117E-01
RMM:  12    -0.306659014708E+03   -0.36639E-04   -0.98550E-06  4649   0.927E-03    0.230E-01
RMM:  13    -0.306658975319E+03    0.39390E-04   -0.14877E-05  4902   0.993E-03    0.276E-01
RMM:  14    -0.306658942216E+03    0.33103E-04   -0.69232E-06  4405   0.665E-03    0.314E-01
RMM:  15    -0.306658881047E+03    0.61169E-04   -0.65091E-06  4426   0.582E-03    0.310E-01
RMM:  16    -0.306658852221E+03    0.28826E-04   -0.42927E-06  4021   0.379E-03    0.284E-01
RMM:  17    -0.306658852417E+03   -0.19671E-06   -0.30983E-06  3879   0.358E-03
  23 F= -.30665885E+03 E0= -.30665533E+03  d E =-.669340E-02  mag=    24.1277
 curvature:  -1.04 expect dE=-0.481E-01 dE for cont linesearch -0.632E-04
 trial: gam= 0.96770 g(F)=  0.464E-01 g(S)=  0.000E+00 ort =-0.236E-02 (trialstep = 0.195E+00)
 search vector abs. value=  0.128E+00
 bond charge predicted
       N       E                     dE             d eps       ncg     rms          rms(c)
DAV:   1    -0.306652822541E+03    0.60297E-02   -0.97492E-01 10214   0.484E+00    0.486E-01
RMM:   2    -0.306664436588E+03   -0.11614E-01   -0.12108E-01 10181   0.906E-01    0.731E-01
RMM:   3    -0.306665889125E+03   -0.14525E-02   -0.91790E-03  8633   0.213E-01    0.560E-01
RMM:   4    -0.306666370963E+03   -0.48184E-03   -0.10652E-03  8588   0.777E-02    0.442E-01
RMM:   5    -0.306665928569E+03    0.44239E-03   -0.33421E-04  7919   0.407E-02    0.150E-01
RMM:   6    -0.306666130451E+03   -0.20188E-03   -0.12398E-04  7377   0.255E-02    0.153E-01
RMM:   7    -0.306666157657E+03   -0.27207E-04   -0.24477E-04  7600   0.351E-02    0.746E-02
RMM:   8    -0.306666258386E+03   -0.10073E-03   -0.12975E-04  7516   0.234E-02    0.194E-01
RMM:   9    -0.306666232504E+03    0.25881E-04   -0.58019E-05  6124   0.182E-02    0.187E-01
RMM:  10    -0.306666168588E+03    0.63917E-04   -0.32449E-05  5678   0.115E-02    0.846E-02
RMM:  11    -0.306666218816E+03   -0.50228E-04   -0.91538E-06  4642   0.711E-03    0.152E-02
RMM:  12    -0.306666268277E+03   -0.49461E-04   -0.81358E-06  4504   0.703E-03    0.359E-02
RMM:  13    -0.306666279084E+03   -0.10807E-04   -0.46227E-06  4249   0.606E-03    0.802E-02
RMM:  14    -0.306666305354E+03   -0.26269E-04   -0.69340E-06  4550   0.617E-03    0.132E-01
RMM:  15    -0.306666314755E+03   -0.94016E-05   -0.44114E-06  4320   0.578E-03
  24 F= -.30666631E+03 E0= -.30666314E+03  d E =-.746234E-02  mag=    24.1263
 trial-energy change:   -0.007462  1 .order   -0.007048   -0.008614   -0.005481
 step:   0.3388(harm=  0.5367)  dis= 0.00669  next Energy=  -306.668497 (dE=-0.964E-02)
 bond charge predicted
       N       E                     dE             d eps       ncg     rms          rms(c)
DAV:   1    -0.306662374258E+03    0.39311E-02   -0.52752E-01 10268   0.356E+00    0.432E-01
RMM:   2    -0.306672117802E+03   -0.97435E-02   -0.68868E-02 10315   0.684E-01    0.180E+00
RMM:   3    -0.306667904450E+03    0.42134E-02   -0.72794E-03  8485   0.196E-01    0.111E+00
RMM:   4    -0.306666952620E+03    0.95183E-03   -0.23795E-03  8586   0.990E-02    0.276E-01
RMM:   5    -0.306670029113E+03   -0.30765E-02   -0.92773E-04  8012   0.780E-02    0.584E-01
RMM:   6    -0.306669555801E+03    0.47331E-03   -0.52881E-04  7555   0.533E-02    0.538E-01
RMM:   7    -0.306669060099E+03    0.49570E-03   -0.46033E-04  8066   0.399E-02    0.156E-01
RMM:   8    -0.306669788954E+03   -0.72886E-03   -0.21447E-04  7767   0.331E-02    0.461E-01
RMM:   9    -0.306670192567E+03   -0.40361E-03   -0.22004E-04  7138   0.383E-02    0.741E-01
RMM:  10    -0.306669499254E+03    0.69331E-03   -0.21920E-04  7311   0.342E-02    0.712E-01
RMM:  11    -0.306668909445E+03    0.58981E-03   -0.14871E-04  7425   0.229E-02    0.441E-01
RMM:  12    -0.306669091520E+03   -0.18207E-03   -0.11063E-04  7345   0.223E-02    0.334E-02
RMM:  13    -0.306669646050E+03   -0.55453E-03   -0.81579E-05  5837   0.236E-02    0.207E-01
RMM:  14    -0.306669711445E+03   -0.65395E-04   -0.89495E-05  6625   0.227E-02    0.249E-01
RMM:  15    -0.306669904361E+03   -0.19292E-03   -0.56081E-05  6706   0.182E-02    0.550E-01
RMM:  16    -0.306669873851E+03    0.30511E-04   -0.38554E-05  5240   0.170E-02    0.738E-01
RMM:  17    -0.306669714089E+03    0.15976E-03   -0.28443E-05  5141   0.147E-02    0.868E-01
RMM:  18    -0.306669603418E+03    0.11067E-03   -0.14577E-05  4852   0.107E-02    0.990E-01
RMM:  19    -0.306669531237E+03    0.72181E-04   -0.10129E-05  4656   0.905E-03    0.111E+00
RMM:  20    -0.306669401541E+03    0.12970E-03   -0.93165E-06  4616   0.858E-03    0.122E+00
RMM:  21    -0.306669271449E+03    0.13009E-03   -0.75075E-06  4565   0.775E-03    0.132E+00
RMM:  22    -0.306669141972E+03    0.12948E-03   -0.61525E-06  4489   0.700E-03    0.141E+00
RMM:  23    -0.306669038395E+03    0.10358E-03   -0.50460E-06  4401   0.640E-03    0.150E+00
RMM:  24    -0.306668915549E+03    0.12285E-03   -0.45394E-06  4379   0.609E-03    0.157E+00
RMM:  25    -0.306668804436E+03    0.11111E-03   -0.38578E-06  4316   0.563E-03    0.165E+00
RMM:  26    -0.306668677902E+03    0.12653E-03   -0.33694E-06  4264   0.526E-03    0.171E+00
RMM:  27    -0.306668561783E+03    0.11612E-03   -0.27596E-06  4246   0.475E-03    0.177E+00
RMM:  28    -0.306668452909E+03    0.10887E-03   -0.22342E-06  4137   0.431E-03    0.182E+00
RMM:  29    -0.306668365196E+03    0.87713E-04   -0.17958E-06  4063   0.390E-03    0.187E+00
RMM:  30    -0.306668272918E+03    0.92278E-04   -0.15176E-06  3977   0.363E-03    0.192E+00
RMM:  31    -0.306668198635E+03    0.74283E-04   -0.12341E-06  3857   0.331E-03    0.196E+00
RMM:  32    -0.306668120892E+03    0.77743E-04   -0.10546E-06  3769   0.312E-03    0.199E+00
RMM:  33    -0.306668057433E+03    0.63458E-04   -0.85363E-07  3548   0.287E-03    0.202E+00
RMM:  34    -0.306667989366E+03    0.68067E-04   -0.75660E-07  3545   0.276E-03    0.205E+00
RMM:  35    -0.306667940607E+03    0.48760E-04   -0.57923E-07  3166   0.252E-03    0.208E+00
RMM:  36    -0.306667868847E+03    0.71760E-04   -0.57807E-07  3327   0.251E-03    0.210E+00
RMM:  37    -0.306667817548E+03    0.51299E-04   -0.38703E-07  2920   0.219E-03    0.212E+00
RMM:  38    -0.306667584650E+03    0.23290E-03   -0.19119E-06  4017   0.358E-03    0.211E+00
RMM:  39    -0.306666866588E+03    0.71806E-03   -0.18793E-05  5054   0.821E-03    0.199E+00
RMM:  40    -0.306666997570E+03   -0.13098E-03   -0.55556E-06  4262   0.657E-03    0.190E+00
RMM:  41    -0.306667235741E+03   -0.23817E-03   -0.46132E-06  4225   0.606E-03    0.183E+00
RMM:  42    -0.306667412073E+03   -0.17633E-03   -0.37078E-06  4321   0.558E-03    0.176E+00
RMM:  43    -0.306667532852E+03   -0.12078E-03   -0.41485E-06  4437   0.595E-03    0.168E+00
RMM:  44    -0.306667601608E+03   -0.68756E-04   -0.44811E-06  4481   0.584E-03    0.158E+00
RMM:  45    -0.306667783672E+03   -0.18206E-03   -0.47507E-06  4440   0.604E-03    0.150E+00
RMM:  46    -0.306668018461E+03   -0.23479E-03   -0.43946E-06  4400   0.583E-03    0.143E+00
RMM:  47    -0.306668237303E+03   -0.21884E-03   -0.38565E-06  4368   0.543E-03    0.139E+00
RMM:  48    -0.306668531338E+03   -0.29404E-03   -0.52537E-06  4423   0.616E-03    0.138E+00
RMM:  49    -0.306668541740E+03   -0.10402E-04   -0.19544E-06  4063   0.356E-03    0.135E+00
RMM:  50    -0.306668643228E+03   -0.10149E-03   -0.22219E-06  4115   0.364E-03    0.133E+00
RMM:  51    -0.306668676150E+03   -0.32922E-04   -0.12059E-06  3710   0.294E-03    0.132E+00
RMM:  52    -0.306668813757E+03   -0.13761E-03   -0.69357E-06  4331   0.830E-03    0.135E+00
RMM:  53    -0.306668941249E+03   -0.12749E-03   -0.37080E-06  4046   0.593E-03    0.140E+00
RMM:  54    -0.306668904122E+03    0.37127E-04   -0.15798E-06  3903   0.357E-03    0.143E+00
RMM:  55    -0.306668777134E+03    0.12699E-03   -0.14970E-06  3846   0.446E-03    0.145E+00
RMM:  56    -0.306668765991E+03    0.11143E-04   -0.98691E-07  3721   0.321E-03    0.148E+00
RMM:  57    -0.306668235136E+03    0.53086E-03   -0.22623E-05  4857   0.145E-02    0.143E+00
RMM:  58    -0.306667925271E+03    0.30986E-03   -0.92192E-06  4537   0.618E-03    0.133E+00
RMM:  59    -0.306668028995E+03   -0.10372E-03   -0.65726E-06  4563   0.740E-03    0.124E+00
RMM:  60    -0.306668363799E+03   -0.33480E-03   -0.11089E-05  4538   0.110E-02
  25 F= -.30666836E+03 E0= -.30666601E+03  d E =-.951138E-02  mag=    24.1255
 curvature:  -0.52 expect dE=-0.193E-01 dE for cont linesearch -0.125E-02
 ZBRENT: increasing intervall
 opt :   0.6260  next Energy=  -306.670415 (dE=-0.116E-01)
 bond charge predicted
       N       E                     dE             d eps       ncg     rms          rms(c)
DAV:   1    -0.306641566420E+03    0.26463E-01   -0.21081E+00 10160   0.712E+00    0.140E+00
RMM:   2    -0.306754560425E+03   -0.11299E+00   -0.33892E-01 10333   0.149E+00    0.824E+00
RMM:   3    -0.306664094043E+03    0.90466E-01   -0.78455E-02  8706   0.601E-01    0.579E+00
RMM:   4    -0.306643270732E+03    0.20823E-01   -0.10734E-02  8961   0.218E-01    0.386E+00
RMM:   5    -0.306644433365E+03   -0.11626E-02   -0.94885E-03  8948   0.195E-01    0.750E-01
RMM:   6    -0.306671058620E+03   -0.26625E-01   -0.44892E-03  8039   0.162E-01    0.155E+00
RMM:   7    -0.306681000780E+03   -0.99422E-02   -0.37389E-03  7934   0.160E-01    0.265E+00
RMM:   8    -0.306684428447E+03   -0.34277E-02   -0.12908E-03  7654   0.965E-02    0.362E+00
RMM:   9    -0.306667916162E+03    0.16512E-01   -0.26624E-03  8274   0.108E-01    0.326E+00
RMM:  10    -0.306662636677E+03    0.52795E-02   -0.86999E-04  8401   0.563E-02    0.274E+00
RMM:  11    -0.306661984507E+03    0.65217E-03   -0.70110E-04  7980   0.559E-02    0.209E+00
RMM:  12    -0.306661137489E+03    0.84702E-03   -0.15054E-03  8397   0.802E-02    0.708E-01
RMM:  13    -0.306668732219E+03   -0.75947E-02   -0.93055E-04  7736   0.790E-02    0.767E-01
RMM:  14    -0.306674414814E+03   -0.56826E-02   -0.13681E-03  7572   0.970E-02    0.176E+00
RMM:  15    -0.306673190723E+03    0.12241E-02   -0.13039E-03  7614   0.884E-02    0.219E+00
RMM:  16    -0.306673003910E+03    0.18681E-03   -0.30491E-04  7277   0.458E-02    0.268E+00
RMM:  17    -0.306666002316E+03    0.70016E-02   -0.11265E-03  8268   0.651E-02    0.218E+00
RMM:  18    -0.306665326196E+03    0.67612E-03   -0.19498E-04  8084   0.271E-02    0.161E+00
RMM:  19    -0.306667606758E+03   -0.22806E-02   -0.13828E-04  6490   0.291E-02    0.137E+00
RMM:  20    -0.306668975143E+03   -0.13684E-02   -0.86486E-05  6396   0.235E-02    0.128E+00
RMM:  21    -0.306669635390E+03   -0.66025E-03   -0.28401E-05  5486   0.133E-02    0.129E+00
RMM:  22    -0.306669979449E+03   -0.34406E-03   -0.11719E-05  4811   0.750E-03    0.135E+00
RMM:  23    -0.306669940770E+03    0.38679E-04   -0.60008E-06  4429   0.581E-03    0.139E+00
RMM:  24    -0.306669839047E+03    0.10172E-03   -0.49187E-06  4186   0.494E-03    0.140E+00
RMM:  25    -0.306669640988E+03    0.19806E-03   -0.34251E-06  4195   0.597E-03    0.139E+00
RMM:  26    -0.306669695284E+03   -0.54296E-04   -0.10533E-06  3685   0.308E-03    0.139E+00
RMM:  27    -0.306669601181E+03    0.94103E-04   -0.71900E-07  3359   0.241E-03    0.137E+00
RMM:  28    -0.306669329778E+03    0.27140E-03   -0.66010E-06  4324   0.527E-03    0.127E+00
RMM:  29    -0.306669147567E+03    0.18221E-03   -0.21470E-05  5186   0.965E-03    0.108E+00
RMM:  30    -0.306669329196E+03   -0.18163E-03   -0.28144E-05  5294   0.134E-02    0.845E-01
RMM:  31    -0.306669658159E+03   -0.32896E-03   -0.37301E-05  5625   0.161E-02    0.577E-01
RMM:  32    -0.306670150705E+03   -0.49255E-03   -0.38994E-05  5460   0.176E-02    0.341E-01
RMM:  33    -0.306670534213E+03   -0.38351E-03   -0.35061E-05  5332   0.168E-02    0.151E-01
RMM:  34    -0.306670767780E+03   -0.23357E-03   -0.27551E-05  5199   0.144E-02    0.590E-02
RMM:  35    -0.306670860389E+03   -0.92608E-04   -0.19086E-05  5035   0.117E-02    0.952E-02
RMM:  36    -0.306670864706E+03   -0.43173E-05   -0.87693E-06  4598   0.820E-03
  26 F= -.30667086E+03 E0= -.30666793E+03  d E =-.120123E-01  mag=    24.1285
 curvature:  -0.84 expect dE=-0.331E-01 dE for cont linesearch -0.574E-03
 ZBRENT: bracketing found
 ZBRENT: interpolating
 opt :   0.5266  next Energy=  -306.671328 (dE=-0.125E-01)
 bond charge predicted
       N       E                     dE             d eps       ncg     rms          rms(c)
DAV:   1    -0.306667960048E+03    0.29003E-02   -0.25244E-01 10326   0.246E+00    0.297E-01
RMM:   2    -0.306671791805E+03   -0.38318E-02   -0.33175E-02 10098   0.478E-01    0.993E-01
RMM:   3    -0.306670581253E+03    0.12106E-02   -0.30631E-03  8480   0.124E-01    0.437E-01
RMM:   4    -0.306671220948E+03   -0.63969E-03   -0.88475E-04  8405   0.638E-02    0.445E-01
RMM:   5    -0.306671660913E+03   -0.43996E-03   -0.57230E-04  7759   0.569E-02    0.472E-01
RMM:   6    -0.306671260617E+03    0.40030E-03   -0.18277E-04  7398   0.287E-02    0.360E-01
RMM:   7    -0.306671145800E+03    0.11482E-03   -0.22134E-04  7891   0.286E-02    0.445E-02
RMM:   8    -0.306671701654E+03   -0.55585E-03   -0.97809E-05  7170   0.239E-02    0.442E-01
RMM:   9    -0.306671683317E+03    0.18336E-04   -0.15519E-04  6991   0.311E-02    0.576E-01
RMM:  10    -0.306671309872E+03    0.37344E-03   -0.99484E-05  6782   0.220E-02    0.536E-01
RMM:  11    -0.306671154421E+03    0.15545E-03   -0.29059E-05  5457   0.108E-02    0.428E-01
RMM:  12    -0.306671170085E+03   -0.15664E-04   -0.30480E-05  5517   0.131E-02    0.275E-01
RMM:  13    -0.306671285217E+03   -0.11513E-03   -0.10035E-04  7475   0.202E-02    0.114E-01
RMM:  14    -0.306671691546E+03   -0.40633E-03   -0.70468E-05  5731   0.229E-02    0.340E-01
RMM:  15    -0.306671522433E+03    0.16911E-03   -0.10687E-04  6991   0.237E-02    0.327E-01
RMM:  16    -0.306671503522E+03    0.18912E-04   -0.65584E-06  4505   0.786E-03    0.380E-01
RMM:  17    -0.306671424441E+03    0.79080E-04   -0.51779E-06  4380   0.588E-03    0.386E-01
RMM:  18    -0.306671412274E+03    0.12167E-04   -0.12709E-06  4058   0.335E-03    0.408E-01
RMM:  19    -0.306671399964E+03    0.12310E-04   -0.66912E-07  3646   0.250E-03    0.429E-01
RMM:  20    -0.306671388024E+03    0.11941E-04   -0.57311E-07  3780   0.269E-03    0.454E-01
RMM:  21    -0.306671241557E+03    0.14647E-03   -0.13020E-05  4743   0.773E-03    0.357E-01
RMM:  22    -0.306671269170E+03   -0.27613E-04   -0.77715E-06  4403   0.656E-03    0.234E-01
RMM:  23    -0.306671396984E+03   -0.12781E-03   -0.74787E-06  4374   0.785E-03    0.149E-01
RMM:  24    -0.306671484020E+03   -0.87036E-04   -0.63982E-06  4347   0.712E-03    0.888E-02
RMM:  25    -0.306671529298E+03   -0.45278E-04   -0.40275E-06  4273   0.538E-03    0.445E-02
RMM:  26    -0.306671537435E+03   -0.81367E-05   -0.31118E-06  4369   0.570E-03
  27 F= -.30667154E+03 E0= -.30666844E+03  d E =-.126850E-01  mag=    24.1290
 curvature:  -0.68 expect dE=-0.215E-01 dE for cont linesearch -0.538E-05
 trial: gam= 0.32871 g(F)=  0.316E-01 g(S)=  0.000E+00 ort =-0.100E-02 (trialstep = 0.261E+00)
 search vector abs. value=  0.448E-01
 bond charge predicted
       N       E                     dE             d eps       ncg     rms          rms(c)
DAV:   1    -0.306672635114E+03   -0.11058E-02   -0.61179E-01  9500   0.342E+00    0.360E-01
RMM:   2    -0.306679341818E+03   -0.67067E-02   -0.59512E-02 10160   0.666E-01    0.109E+00
RMM:   3    -0.306677604378E+03    0.17374E-02   -0.47480E-03  8483   0.169E-01    0.392E-01
RMM:   4    -0.306678537866E+03   -0.93349E-03   -0.91505E-04  8402   0.663E-02    0.430E-01
RMM:   5    -0.306678760732E+03   -0.22287E-03   -0.66636E-04  7966   0.610E-02    0.412E-01
RMM:   6    -0.306678313736E+03    0.44700E-03   -0.28078E-04  7646   0.339E-02    0.197E-01
RMM:   7    -0.306678418982E+03   -0.10525E-03   -0.24031E-04  7995   0.323E-02    0.261E-01
RMM:   8    -0.306678633877E+03   -0.21490E-03   -0.20485E-04  7310   0.327E-02    0.426E-01
RMM:   9    -0.306678338146E+03    0.29573E-03   -0.14374E-04  7111   0.265E-02    0.344E-01
RMM:  10    -0.306678250389E+03    0.87757E-04   -0.89761E-05  7041   0.174E-02    0.109E-01
RMM:  11    -0.306678441963E+03   -0.19157E-03   -0.28439E-05  5346   0.136E-02    0.839E-02
RMM:  12    -0.306678518919E+03   -0.76956E-04   -0.27888E-05  5206   0.143E-02    0.164E-01
RMM:  13    -0.306678529108E+03   -0.10189E-04   -0.99389E-06  4589   0.930E-03    0.250E-01
RMM:  14    -0.306678529108E+03   -0.80036E-10   -0.64016E-06  4549   0.761E-03
  28 F= -.30667853E+03 E0= -.30667578E+03  d E =-.699167E-02  mag=    24.1323
 trial-energy change:   -0.006992  1 .order   -0.007103   -0.008181   -0.006026
 step:   0.9924(harm=  0.9924)  dis= 0.01433  next Energy=  -306.687064 (dE=-0.155E-01)
 bond charge predicted
       N       E                     dE             d eps       ncg     rms          rms(c)
DAV:   1    -0.306640465723E+03    0.38063E-01   -0.47798E+00  9488   0.956E+00    0.141E+00
RMM:   2    -0.306750346161E+03   -0.10988E+00   -0.51634E-01 10302   0.193E+00    0.733E+00
RMM:   3    -0.306666288329E+03    0.84058E-01   -0.75970E-02  8751   0.635E-01    0.428E+00
RMM:   4    -0.306664532139E+03    0.17562E-02   -0.11129E-02  8796   0.227E-01    0.240E+00
RMM:   5    -0.306673695913E+03   -0.91638E-02   -0.69737E-03  8485   0.183E-01    0.358E-01
RMM:   6    -0.306688217598E+03   -0.14522E-01   -0.36700E-03  7962   0.152E-01    0.151E+00
RMM:   7    -0.306691286456E+03   -0.30689E-02   -0.32636E-03  8098   0.142E-01    0.221E+00
RMM:   8    -0.306698970620E+03   -0.76842E-02   -0.15485E-03  8011   0.985E-02    0.354E+00
RMM:   9    -0.306682330636E+03    0.16640E-01   -0.40480E-03  8336   0.130E-01    0.322E+00
RMM:  10    -0.306680045982E+03    0.22847E-02   -0.62397E-04  8409   0.512E-02    0.310E+00
RMM:  11    -0.306681161042E+03   -0.11151E-02   -0.14555E-04  7870   0.259E-02    0.313E+00
RMM:  12    -0.306676303092E+03    0.48580E-02   -0.29183E-03  8006   0.106E-01    0.254E+00
RMM:  13    -0.306670103412E+03    0.61997E-02   -0.66614E-03  8564   0.155E-01    0.743E-01
RMM:  14    -0.306682049065E+03   -0.11946E-01   -0.20746E-03  8079   0.111E-01    0.150E+00
RMM:  15    -0.306689023632E+03   -0.69746E-02   -0.48178E-03  7929   0.164E-01    0.239E+00
RMM:  16    -0.306682806301E+03    0.62173E-02   -0.41486E-03  8074   0.135E-01    0.217E+00
RMM:  17    -0.306677648663E+03    0.51576E-02   -0.41522E-03  8376   0.118E-01    0.608E-01
RMM:  18    -0.306683379338E+03   -0.57307E-02   -0.84197E-04  7842   0.704E-02    0.458E-01
RMM:  19    -0.306685939590E+03   -0.25603E-02   -0.65708E-04  7290   0.683E-02    0.102E+00
RMM:  20    -0.306685179681E+03    0.75991E-03   -0.56482E-04  7448   0.570E-02    0.123E+00
RMM:  21    -0.306685140924E+03    0.38757E-04   -0.11941E-04  6794   0.291E-02    0.153E+00
RMM:  22    -0.306684752144E+03    0.38878E-03   -0.76532E-05  6090   0.243E-02    0.178E+00
RMM:  23    -0.306684469036E+03    0.28311E-03   -0.49370E-05  5587   0.196E-02    0.202E+00
RMM:  24    -0.306684140069E+03    0.32897E-03   -0.40589E-05  5419   0.175E-02    0.223E+00
RMM:  25    -0.306683842332E+03    0.29774E-03   -0.33972E-05  5372   0.158E-02    0.243E+00
RMM:  26    -0.306683513782E+03    0.32855E-03   -0.29613E-05  5246   0.146E-02    0.262E+00
RMM:  27    -0.306683175629E+03    0.33815E-03   -0.25628E-05  5195   0.135E-02    0.279E+00
RMM:  28    -0.306682932185E+03    0.24344E-03   -0.22224E-05  5084   0.125E-02    0.296E+00
RMM:  29    -0.306682500182E+03    0.43200E-03   -0.20798E-05  5082   0.121E-02    0.311E+00
RMM:  30    -0.306682139492E+03    0.36069E-03   -0.17516E-05  5000   0.110E-02    0.324E+00
RMM:  31    -0.306681848571E+03    0.29092E-03   -0.14367E-05  4852   0.101E-02    0.337E+00
RMM:  32    -0.306681668001E+03    0.18057E-03   -0.12290E-05  4806   0.935E-03    0.350E+00
RMM:  33    -0.306681550464E+03    0.11754E-03   -0.11286E-05  4815   0.898E-03    0.362E+00
RMM:  34    -0.306681350341E+03    0.20012E-03   -0.10939E-05  4768   0.875E-03    0.374E+00
RMM:  35    -0.306681157001E+03    0.19334E-03   -0.99323E-06  4684   0.838E-03    0.385E+00
RMM:  36    -0.306680890002E+03    0.26700E-03   -0.90865E-06  4738   0.799E-03    0.395E+00
RMM:  37    -0.306680631030E+03    0.25897E-03   -0.76595E-06  4564   0.734E-03    0.404E+00
RMM:  38    -0.306680322646E+03    0.30838E-03   -0.65029E-06  4528   0.678E-03    0.412E+00
RMM:  39    -0.306680030554E+03    0.29209E-03   -0.51397E-06  4438   0.605E-03    0.419E+00
RMM:  40    -0.306679612535E+03    0.41802E-03   -0.43867E-06  4494   0.564E-03    0.423E+00
RMM:  41    -0.306679334773E+03    0.27776E-03   -0.12221E-05  4839   0.866E-03    0.428E+00
RMM:  42    -0.306679735245E+03   -0.40047E-03   -0.42465E-05  6051   0.127E-02    0.437E+00
RMM:  43    -0.306679956097E+03   -0.22085E-03   -0.28569E-05  5561   0.119E-02    0.448E+00
RMM:  44    -0.306679515190E+03    0.44091E-03   -0.16238E-05  5033   0.987E-03    0.456E+00
RMM:  45    -0.306678762074E+03    0.75312E-03   -0.13981E-05  4973   0.911E-03    0.461E+00
RMM:  46    -0.306678293954E+03    0.46812E-03   -0.81739E-06  4584   0.710E-03    0.465E+00
RMM:  47    -0.306676494578E+03    0.17994E-02   -0.22860E-05  5591   0.102E-02    0.461E+00
RMM:  48    -0.306676444005E+03    0.50573E-04   -0.60649E-06  4455   0.680E-03    0.460E+00
RMM:  49    -0.306676448881E+03   -0.48756E-05   -0.19395E-06  4062   0.394E-03
  29 F= -.30667645E+03 E0= -.30667756E+03  d E =-.491145E-02  mag=    24.1526
 curvature:  -0.71 expect dE=-0.541E-01 dE for cont linesearch -0.210E-02
 ZBRENT: increasing intervall
 opt :   2.4543  next Energy=  -306.676440 (dE=-0.490E-02)
 bond charge predicted
       N       E                     dE             d eps       ncg     rms          rms(c)
DAV:   1    -0.306467980276E+03    0.20846E+00   -0.19035E+01  9516   0.191E+01    0.555E+00
RMM:   2    -0.307283820178E+03   -0.81584E+00   -0.29929E+00 10260   0.437E+00    0.201E+01
RMM:   3    -0.306470407523E+03    0.81341E+00   -0.71479E-01  8777   0.172E+00    0.841E+00
RMM:   4    -0.306632656661E+03   -0.16225E+00   -0.21802E-01  8722   0.101E+00    0.463E+00
RMM:   5    -0.306627484337E+03    0.51723E-02   -0.85567E-02  8636   0.627E-01    0.270E+00
RMM:   6    -0.306633174637E+03   -0.56903E-02   -0.23620E-02  9222   0.307E-01    0.156E+00
RMM:   7    -0.306636289430E+03   -0.31148E-02   -0.65515E-03  8829   0.167E-01    0.388E-01
RMM:   8    -0.306640758569E+03   -0.44691E-02   -0.26632E-03  8131   0.125E-01    0.833E-01
RMM:   9    -0.306640903301E+03   -0.14473E-03   -0.23467E-03  8314   0.111E-01    0.102E+00
RMM:  10    -0.306639259898E+03    0.16434E-02   -0.13844E-03  8178   0.754E-02    0.896E-01
RMM:  11    -0.306637571879E+03    0.16880E-02   -0.21189E-03  8183   0.912E-02    0.336E-01
RMM:  12    -0.306639516114E+03   -0.19442E-02   -0.25577E-03  8634   0.101E-01    0.140E+00
RMM:  13    -0.306640129243E+03   -0.61313E-03   -0.44124E-03  8165   0.139E-01    0.162E+00
RMM:  14    -0.306636524005E+03    0.36052E-02   -0.30762E-03  8326   0.107E-01    0.102E+00
RMM:  15    -0.306637205938E+03   -0.68193E-03   -0.21524E-03  8430   0.865E-02    0.201E-01
RMM:  16    -0.306639796404E+03   -0.25905E-02   -0.72898E-04  7622   0.623E-02    0.802E-01
RMM:  17    -0.306640350228E+03   -0.55382E-03   -0.47790E-04  7360   0.543E-02    0.127E+00
RMM:  18    -0.306641951511E+03   -0.16013E-02   -0.28666E-04  7538   0.470E-02    0.199E+00
RMM:  19    -0.306645714197E+03   -0.37627E-02   -0.54677E-04  7666   0.585E-02    0.299E+00
RMM:  20    -0.306647432701E+03   -0.17185E-02   -0.46326E-04  7210   0.570E-02    0.381E+00
RMM:  21    -0.306648051458E+03   -0.61876E-03   -0.44892E-04  7122   0.555E-02    0.447E+00
RMM:  22    -0.306647712767E+03    0.33869E-03   -0.35328E-04  7065   0.485E-02    0.493E+00
RMM:  23    -0.306647096613E+03    0.61615E-03   -0.21193E-04  6867   0.378E-02    0.522E+00
RMM:  24    -0.306646434921E+03    0.66169E-03   -0.10036E-04  6417   0.266E-02    0.539E+00
RMM:  25    -0.306646094850E+03    0.34007E-03   -0.40560E-05  5676   0.175E-02    0.549E+00
RMM:  26    -0.306645819790E+03    0.27506E-03   -0.15643E-05  4980   0.113E-02    0.555E+00
RMM:  27    -0.306645825708E+03   -0.59183E-05   -0.66767E-06  4664   0.736E-03
  30 F= -.30664583E+03 E0= -.30664829E+03  d E =0.257117E-01  mag=    24.1818
 curvature:   0.00 expect dE= 0.998E-03 dE for cont linesearch  0.825E-04
 ZBRENT: bracketing found
 ZBRENT: interpolating
 opt :   1.3462  next Energy=  -306.678487 (dE=-0.695E-02)
 bond charge predicted
       N       E                     dE             d eps       ncg     rms          rms(c)
DAV:   1    -0.306556638719E+03    0.89181E-01   -0.10946E+01  9510   0.145E+01    0.558E+00
RMM:   2    -0.307099955357E+03   -0.54332E+00   -0.24089E+00  9999   0.378E+00    0.169E+01
RMM:   3    -0.306642360505E+03    0.45759E+00   -0.72558E-01  8957   0.164E+00    0.693E+00
RMM:   4    -0.306684622896E+03   -0.42262E-01   -0.17690E-01  8832   0.853E-01    0.367E+00
RMM:   5    -0.306679547741E+03    0.50752E-02   -0.53695E-02  8815   0.498E-01    0.230E+00
RMM:   6    -0.306678582468E+03    0.96527E-03   -0.17512E-02  9047   0.269E-01    0.168E+00
RMM:   7    -0.306678044173E+03    0.53829E-03   -0.90457E-03  8945   0.194E-01    0.143E+00
RMM:   8    -0.306676253615E+03    0.17906E-02   -0.57504E-03  8818   0.151E-01    0.479E-01
RMM:   9    -0.306679819465E+03   -0.35658E-02   -0.27477E-03  8559   0.115E-01    0.843E-01
RMM:  10    -0.306680995881E+03   -0.11764E-02   -0.94974E-04  8107   0.750E-02    0.123E+00
RMM:  11    -0.306679283411E+03    0.17125E-02   -0.10705E-03  7890   0.711E-02    0.117E+00
RMM:  12    -0.306677560258E+03    0.17232E-02   -0.80497E-04  7898   0.546E-02    0.741E-01
RMM:  13    -0.306677832448E+03   -0.27219E-03   -0.98647E-04  8046   0.625E-02    0.224E-01
RMM:  14    -0.306680215171E+03   -0.23827E-02   -0.38563E-04  7426   0.497E-02    0.858E-01
RMM:  15    -0.306680222159E+03   -0.69873E-05   -0.66288E-04  7533   0.597E-02    0.102E+00
RMM:  16    -0.306679842006E+03    0.38015E-03   -0.16232E-04  7206   0.305E-02    0.116E+00
RMM:  17    -0.306679561191E+03    0.28082E-03   -0.45676E-05  5911   0.181E-02    0.130E+00
RMM:  18    -0.306679419819E+03    0.14137E-03   -0.17251E-05  4973   0.120E-02    0.144E+00
RMM:  19    -0.306679735684E+03   -0.31586E-03   -0.18773E-05  5161   0.116E-02    0.167E+00
RMM:  20    -0.306679110578E+03    0.62511E-03   -0.58766E-05  6222   0.170E-02    0.173E+00
RMM:  21    -0.306678848226E+03    0.26235E-03   -0.12472E-05  4763   0.924E-03    0.179E+00
RMM:  22    -0.306678746410E+03    0.10182E-03   -0.45572E-06  4466   0.615E-03    0.186E+00
RMM:  23    -0.306678732237E+03    0.14174E-04   -0.48426E-06  4484   0.630E-03    0.194E+00
RMM:  24    -0.306678758207E+03   -0.25970E-04   -0.46071E-06  4530   0.606E-03    0.205E+00
RMM:  25    -0.306678173968E+03    0.58424E-03   -0.19820E-05  5086   0.100E-02    0.202E+00
RMM:  26    -0.306677185789E+03    0.98818E-03   -0.13429E-04  7626   0.199E-02    0.168E+00
RMM:  27    -0.306677233350E+03   -0.47561E-04   -0.22653E-04  7707   0.314E-02    0.109E+00
RMM:  28    -0.306678920804E+03   -0.16875E-02   -0.15995E-04  6988   0.329E-02    0.548E-01
RMM:  29    -0.306680423277E+03   -0.15025E-02   -0.20140E-04  6994   0.365E-02    0.299E-01
RMM:  30    -0.306681005332E+03   -0.58205E-03   -0.11315E-04  6631   0.269E-02    0.145E-01
RMM:  31    -0.306681245755E+03   -0.24042E-03   -0.56976E-05  6009   0.187E-02    0.418E-02
RMM:  32    -0.306681371301E+03   -0.12555E-03   -0.19073E-05  4990   0.120E-02    0.688E-02
RMM:  33    -0.306681361677E+03    0.96247E-05   -0.12378E-05  4797   0.993E-03
  31 F= -.30668136E+03 E0= -.30667874E+03  d E =-.982424E-02  mag=    24.1909
 curvature:  -0.07 expect dE=-0.517E-02 dE for cont linesearch -0.399E-03
 ZBRENT: interpolating
 opt :   1.1407  next Energy=  -306.677303 (dE=-0.577E-02)
 bond charge predicted
       N       E                     dE             d eps       ncg     rms          rms(c)
DAV:   1    -0.306680274115E+03    0.10972E-02   -0.37746E-01  9632   0.269E+00    0.255E-01
RMM:   2    -0.306683867622E+03   -0.35935E-02   -0.35896E-02 10024   0.518E-01    0.278E-01
RMM:   3    -0.306684435195E+03   -0.56757E-03   -0.24295E-03  8525   0.121E-01    0.486E-01
RMM:   4    -0.306684236346E+03    0.19885E-03   -0.44411E-04  8199   0.512E-02    0.359E-01
RMM:   5    -0.306684159251E+03    0.77095E-04   -0.39879E-05  6443   0.155E-02    0.354E-01
RMM:   6    -0.306683956560E+03    0.20269E-03   -0.10275E-04  7626   0.214E-02    0.210E-01
RMM:   7    -0.306684101853E+03   -0.14529E-03   -0.17301E-05  5082   0.122E-02    0.152E-01
RMM:   8    -0.306684196399E+03   -0.94546E-04   -0.53513E-05  6595   0.183E-02    0.930E-02
RMM:   9    -0.306684366736E+03   -0.17034E-03   -0.14610E-04  7451   0.266E-02    0.126E-01
RMM:  10    -0.306684453656E+03   -0.86920E-04   -0.41842E-05  6138   0.155E-02    0.101E-01
RMM:  11    -0.306684507815E+03   -0.54160E-04   -0.15409E-05  4862   0.925E-03    0.332E-02
RMM:  12    -0.306684571447E+03   -0.63631E-04   -0.74222E-06  4724   0.704E-03    0.103E-01
RMM:  13    -0.306684581996E+03   -0.10549E-04   -0.59559E-06  4515   0.731E-03    0.176E-01
RMM:  14    -0.306684702637E+03   -0.12064E-03   -0.11782E-05  4842   0.892E-03    0.324E-01
RMM:  15    -0.306684821077E+03   -0.11844E-03   -0.15380E-05  4898   0.101E-02    0.513E-01
RMM:  16    -0.306684783980E+03    0.37097E-04   -0.16944E-05  4889   0.114E-02    0.666E-01
RMM:  17    -0.306684808818E+03   -0.24838E-04   -0.15857E-05  5024   0.115E-02    0.844E-01
RMM:  18    -0.306684730248E+03    0.78570E-04   -0.16680E-05  4912   0.115E-02    0.100E+00
RMM:  19    -0.306684613215E+03    0.11703E-03   -0.15356E-05  4931   0.111E-02    0.115E+00
RMM:  20    -0.306684468631E+03    0.14458E-03   -0.13693E-05  4830   0.103E-02    0.129E+00
RMM:  21    -0.306684300588E+03    0.16804E-03   -0.12228E-05  4811   0.972E-03    0.142E+00
RMM:  22    -0.306684126749E+03    0.17384E-03   -0.10971E-05  4754   0.920E-03    0.154E+00
RMM:  23    -0.306683942764E+03    0.18399E-03   -0.97543E-06  4682   0.864E-03    0.166E+00
RMM:  24    -0.306683760438E+03    0.18233E-03   -0.88325E-06  4654   0.825E-03    0.177E+00
RMM:  25    -0.306683579558E+03    0.18088E-03   -0.79381E-06  4603   0.779E-03    0.187E+00
RMM:  26    -0.306683394001E+03    0.18556E-03   -0.73196E-06  4601   0.751E-03    0.197E+00
RMM:  27    -0.306683219615E+03    0.17439E-03   -0.65676E-06  4537   0.709E-03    0.207E+00
RMM:  28    -0.306683038091E+03    0.18152E-03   -0.61105E-06  4493   0.687E-03    0.216E+00
RMM:  29    -0.306682873766E+03    0.16432E-03   -0.54902E-06  4478   0.649E-03    0.225E+00
RMM:  30    -0.306682700390E+03    0.17338E-03   -0.51450E-06  4421   0.632E-03    0.233E+00
RMM:  31    -0.306682540250E+03    0.16014E-03   -0.46638E-06  4386   0.600E-03    0.241E+00
RMM:  32    -0.306682374093E+03    0.16616E-03   -0.43795E-06  4400   0.586E-03    0.249E+00
RMM:  33    -0.306682213463E+03    0.16063E-03   -0.40225E-06  4339   0.558E-03    0.256E+00
RMM:  34    -0.306682054085E+03    0.15938E-03   -0.37073E-06  4313   0.541E-03    0.263E+00
RMM:  35    -0.306681891129E+03    0.16296E-03   -0.34288E-06  4276   0.516E-03    0.270E+00
RMM:  36    -0.306681738356E+03    0.15277E-03   -0.30957E-06  4273   0.496E-03    0.277E+00
RMM:  37    -0.306681575218E+03    0.16314E-03   -0.28746E-06  4171   0.473E-03    0.283E+00
RMM:  38    -0.306681431808E+03    0.14341E-03   -0.25364E-06  4177   0.451E-03    0.288E+00
RMM:  39    -0.306681271665E+03    0.16014E-03   -0.23566E-06  4129   0.431E-03    0.294E+00
RMM:  40    -0.306681139303E+03    0.13236E-03   -0.20410E-06  4072   0.407E-03    0.299E+00
RMM:  41    -0.306680989421E+03    0.14988E-03   -0.18821E-06  4055   0.390E-03    0.303E+00
RMM:  42    -0.306680868035E+03    0.12139E-03   -0.16228E-06  3982   0.366E-03    0.308E+00
RMM:  43    -0.306680739537E+03    0.12850E-03   -0.14723E-06  3923   0.351E-03    0.312E+00
RMM:  44    -0.306680627700E+03    0.11184E-03   -0.12989E-06  3872   0.332E-03    0.316E+00
RMM:  45    -0.306680519861E+03    0.10784E-03   -0.11759E-06  3828   0.320E-03    0.320E+00
RMM:  46    -0.306680418709E+03    0.10115E-03   -0.10478E-06  3662   0.305E-03    0.324E+00
RMM:  47    -0.306680524795E+03   -0.10609E-03   -0.16386E-06  4253   0.362E-03    0.328E+00
RMM:  48    -0.306680180924E+03    0.34387E-03   -0.30886E-06  4053   0.443E-03    0.330E+00
RMM:  49    -0.306679769866E+03    0.41106E-03   -0.44777E-06  4182   0.413E-03    0.330E+00
RMM:  50    -0.306679623734E+03    0.14613E-03   -0.24018E-06  3546   0.285E-03    0.329E+00
RMM:  51    -0.306679568678E+03    0.55056E-04   -0.12113E-06  2987   0.213E-03    0.327E+00
RMM:  52    -0.306679328792E+03    0.23989E-03   -0.37859E-06  4108   0.439E-03    0.324E+00
RMM:  53    -0.306679437588E+03   -0.10880E-03   -0.11838E-06  3687   0.328E-03    0.322E+00
RMM:  54    -0.306679378790E+03    0.58797E-04   -0.23183E-06  3980   0.402E-03    0.318E+00
RMM:  55    -0.306679267658E+03    0.11113E-03   -0.35265E-06  4199   0.415E-03    0.312E+00
RMM:  56    -0.306679300669E+03   -0.33012E-04   -0.25476E-06  4214   0.397E-03    0.307E+00
RMM:  57    -0.306679390024E+03   -0.89354E-04   -0.10419E-05  4593   0.760E-03    0.299E+00
RMM:  58    -0.306679648664E+03   -0.25864E-03   -0.51638E-06  4231   0.653E-03    0.295E+00
RMM:  59    -0.306680052203E+03   -0.40354E-03   -0.91550E-06  4374   0.693E-03    0.294E+00
RMM:  60    -0.306680467265E+03   -0.41506E-03   -0.11605E-05  4366   0.622E-03
  32 F= -.30668047E+03 E0= -.30668006E+03  d E =-.892983E-02  mag=    24.1873
 curvature:  -0.15 expect dE=-0.995E-02 dE for cont linesearch -0.120E-04
 trial: gam= 2.06543 g(F)=  0.664E-01 g(S)=  0.000E+00 ort = 0.189E-02 (trialstep = 0.738E-01)
 search vector abs. value=  0.265E+00
 bond charge predicted
       N       E                     dE             d eps       ncg     rms          rms(c)
DAV:   1    -0.306683410029E+03   -0.33578E-02   -0.32965E-01  9154   0.213E+00    0.319E+00
RMM:   2    -0.307085318564E+03   -0.40191E+00   -0.55434E-01  9146   0.140E+00    0.154E+01
RMM:   3    -0.306619637787E+03    0.46568E+00   -0.32387E-01  8876   0.106E+00    0.847E+00
RMM:   4    -0.306665204825E+03   -0.45567E-01   -0.81445E-02  8785   0.593E-01    0.616E+00
RMM:   5    -0.306657059671E+03    0.81452E-02   -0.26343E-02  8832   0.325E-01    0.402E+00
RMM:   6    -0.306665559087E+03   -0.84994E-02   -0.62721E-03  8844   0.159E-01    0.223E+00
RMM:   7    -0.306676873765E+03   -0.11315E-01   -0.25544E-03  8253   0.115E-01    0.971E-01
RMM:   8    -0.306683685666E+03   -0.68119E-02   -0.12702E-03  7768   0.907E-02    0.170E-01
RMM:   9    -0.306686864537E+03   -0.31789E-02   -0.66967E-04  7545   0.692E-02    0.539E-01
RMM:  10    -0.306688102150E+03   -0.12376E-02   -0.43338E-04  7388   0.551E-02    0.105E+00
RMM:  11    -0.306688579271E+03   -0.47712E-03   -0.23510E-04  7087   0.417E-02    0.153E+00
RMM:  12    -0.306687887998E+03    0.69127E-03   -0.18125E-04  7067   0.374E-02    0.188E+00
RMM:  13    -0.306687768691E+03    0.11931E-03   -0.11149E-04  6539   0.297E-02    0.225E+00
RMM:  14    -0.306687832507E+03   -0.63816E-04   -0.94824E-05  6189   0.274E-02    0.264E+00
RMM:  15    -0.306687158936E+03    0.67357E-03   -0.10205E-04  6342   0.270E-02    0.296E+00
RMM:  16    -0.306686927293E+03    0.23164E-03   -0.81160E-05  5973   0.248E-02    0.329E+00
RMM:  17    -0.306686534576E+03    0.39272E-03   -0.78164E-05  6084   0.238E-02    0.360E+00
RMM:  18    -0.306685919675E+03    0.61490E-03   -0.70122E-05  5962   0.224E-02    0.387E+00
RMM:  19    -0.306685408768E+03    0.51091E-03   -0.59952E-05  5904   0.205E-02    0.412E+00
RMM:  20    -0.306684887641E+03    0.52113E-03   -0.49436E-05  5686   0.187E-02    0.435E+00
RMM:  21    -0.306684415777E+03    0.47186E-03   -0.40601E-05  5572   0.169E-02    0.454E+00
RMM:  22    -0.306683955590E+03    0.46019E-03   -0.31175E-05  5327   0.148E-02    0.471E+00
RMM:  23    -0.306683532577E+03    0.42301E-03   -0.23607E-05  5178   0.129E-02    0.485E+00
RMM:  24    -0.306683145454E+03    0.38712E-03   -0.17026E-05  4957   0.110E-02    0.497E+00
RMM:  25    -0.306682821061E+03    0.32439E-03   -0.11731E-05  4714   0.919E-03    0.506E+00
RMM:  26    -0.306682539772E+03    0.28129E-03   -0.80051E-06  4554   0.760E-03    0.514E+00
RMM:  27    -0.306682305816E+03    0.23396E-03   -0.52397E-06  4420   0.621E-03    0.520E+00
RMM:  28    -0.306682112495E+03    0.19332E-03   -0.33003E-06  4231   0.503E-03    0.524E+00
RMM:  29    -0.306681960664E+03    0.15183E-03   -0.21458E-06  4099   0.410E-03    0.528E+00
RMM:  30    -0.306681849248E+03    0.11142E-03   -0.13575E-06  3982   0.334E-03    0.531E+00
RMM:  31    -0.306681781597E+03    0.67651E-04   -0.84944E-07  3656   0.277E-03    0.533E+00
RMM:  32    -0.306681903474E+03   -0.12188E-03   -0.10259E-06  4056   0.297E-03    0.535E+00
RMM:  33    -0.306681831540E+03    0.71933E-04   -0.66733E-07  3399   0.239E-03    0.537E+00
RMM:  34    -0.306681767229E+03    0.64311E-04   -0.31290E-07  2651   0.186E-03    0.537E+00
RMM:  35    -0.306681750926E+03    0.16303E-04   -0.22864E-06  4174   0.378E-03    0.538E+00
RMM:  36    -0.306682253020E+03   -0.50209E-03   -0.45457E-06  4457   0.467E-03    0.538E+00
RMM:  37    -0.306682590161E+03   -0.33714E-03   -0.67103E-06  4553   0.566E-03    0.538E+00
RMM:  38    -0.306682546209E+03    0.43952E-04   -0.20775E-06  4002   0.373E-03    0.537E+00
RMM:  39    -0.306681830755E+03    0.71545E-03   -0.72123E-06  4466   0.620E-03    0.536E+00
RMM:  40    -0.306680709900E+03    0.11209E-02   -0.75011E-05  7455   0.163E-02    0.538E+00
RMM:  41    -0.306678737018E+03    0.19729E-02   -0.25097E-04  7969   0.316E-02    0.544E+00
RMM:  42    -0.306678064983E+03    0.67203E-03   -0.27224E-04  7946   0.355E-02    0.560E+00
RMM:  43    -0.306678261467E+03   -0.19648E-03   -0.90122E-05  6342   0.235E-02    0.574E+00
RMM:  44    -0.306678149875E+03    0.11159E-03   -0.86394E-05  7556   0.210E-02    0.594E+00
RMM:  45    -0.306677946192E+03    0.20368E-03   -0.46417E-05  5560   0.161E-02    0.611E+00
RMM:  46    -0.306677629194E+03    0.31700E-03   -0.31710E-05  5394   0.137E-02    0.628E+00
RMM:  47    -0.306677332048E+03    0.29715E-03   -0.29821E-05  5278   0.134E-02    0.641E+00
RMM:  48    -0.306677001273E+03    0.33078E-03   -0.12775E-05  4694   0.945E-03    0.652E+00
RMM:  49    -0.306676640145E+03    0.36113E-03   -0.84285E-06  4597   0.777E-03    0.662E+00
RMM:  50    -0.306676298910E+03    0.34123E-03   -0.73243E-06  4620   0.702E-03    0.671E+00
