unknown system                          
           1
     2.873573   -2.873573    4.708335
     5.747147    0.000000    0.000000
     0.000000   33.065691   20.180529
   Mn   O    H 
  14  23   9
Direct configuration=     1
   0.22067121  0.89240241  0.08901558
   0.67727009  0.17064773  0.21845748
   0.94927612  0.02809995  0.15233499
   0.40600031  0.31373857  0.28495180
   0.44927612  0.52809995  0.15233499
   0.91404163  0.30912277  0.28486216
   0.44927612  0.02809995  0.15233499
   0.90753780  0.80843362  0.28292726
   0.90282244  0.55132680  0.10484543
   0.36786478  0.82710304  0.23328858
   0.99847217  0.50557340  0.20270027
   0.44644924  0.80056407  0.33481854
   0.53851998  0.23347802  0.07318573
   0.10186321  0.49813326  0.35023482
   0.79261544  0.62312183  0.31371118
   0.87926422  0.06310591  0.05527763
   0.34339675  0.33134382  0.18363647
   0.58246139  0.21150732  0.12452493
   0.05104440  0.48660740  0.25589834
   0.55507178  0.67847616  0.38583624
   0.09516526  0.72856013  0.12156099
   0.56587778  0.45553124  0.25313222
   0.77333575  0.12353775  0.31391936
   0.85888103  0.57329750  0.05350623
   0.31178660  0.84727840  0.18084622
   0.56207820  0.72169891  0.12275353
   0.02337991  0.00400504  0.25450788
   0.80048687  0.33103148  0.18455195
   0.25862392  0.62108866  0.31514457
   0.34617716  0.60305419  0.05647018
   0.25324681  0.17813300  0.31966088
   0.79924753  0.87993666  0.18526147
   0.34617716  0.05624469  0.05647018
   0.56014555  0.00601323  0.25373393
   0.09516526  0.18175063  0.12156099
   0.98686629  0.85189889  0.37276327
   0.98293550  0.35088421  0.38713254
   0.34047062  0.60391201  0.02782883
   0.92434681  0.68523651  0.03696881
   0.34363348  0.06399961  0.02783421
   0.88838126  0.05560908  0.02665597
   0.44284712  0.67276947  0.40283240
   0.83521640  0.05512097  0.33784721
   0.88236296  0.86515763  0.39224470
   0.00461671  0.17182633  0.38262427
   0.74367901  0.51725305  0.38882849
Direct configuration=     2
   0.22067121  0.89240241  0.08901558
   0.67713046  0.17058218  0.21867069
   0.94927612  0.02809995  0.15233499
   0.40515913  0.31199753  0.28469295
   0.44927612  0.52809995  0.15233499
   0.91562772  0.30802500  0.28477930
   0.44927612  0.02809995  0.15233499
   0.90840953  0.80910930  0.28265721
   0.90282244  0.55132680  0.10484543
   0.36930841  0.82666864  0.23340083
   0.99847400  0.50593363  0.20275930
   0.44374493  0.80359301  0.33467226
   0.53851998  0.23347802  0.07318573
   0.10455698  0.49540275  0.34905449
   0.79782509  0.62270228  0.31480408
   0.87926422  0.06310591  0.05527763
   0.34407239  0.33024004  0.18353341
   0.58246139  0.21150732  0.12452493
   0.05256961  0.48674965  0.25589346
   0.55652813  0.67675396  0.38597655
   0.09516526  0.72856013  0.12156099
   0.56830627  0.45827613  0.25242702
   0.77226406  0.12390730  0.31400897
   0.85888103  0.57329750  0.05350623
   0.31226111  0.84802157  0.18079968
   0.56207820  0.72169891  0.12275353
   0.02349951  0.00294477  0.25440774
   0.80080043  0.32921306  0.18441588
   0.25233202  0.62528132  0.31694057
   0.34617716  0.60305419  0.05647018
   0.24838365  0.18000580  0.32087758
   0.79949427  0.88138975  0.18516185
   0.34617716  0.05624469  0.05647018
   0.56244804  0.00066879  0.25293606
   0.09516526  0.18175063  0.12156099
   0.98811197  0.84888411  0.37278844
   0.98545356  0.35272611  0.38637824
   0.34047062  0.60391201  0.02782883
   0.92434681  0.68523651  0.03696881
   0.34363348  0.06399961  0.02783421
   0.88838126  0.05560908  0.02665597
   0.44314167  0.67314073  0.40278770
   0.83502052  0.05524138  0.33781061
   0.88222531  0.86516639  0.39226159
   0.00480840  0.17295239  0.38254668
   0.74112130  0.51987499  0.38889093
Direct configuration=     3
   0.22067121  0.89240241  0.08901558
   0.67713011  0.17058202  0.21867122
   0.94927612  0.02809995  0.15233499
   0.40515703  0.31199318  0.28469231
   0.44927612  0.52809995  0.15233499
   0.91563168  0.30802226  0.28477909
   0.44927612  0.02809995  0.15233499
   0.90841171  0.80911099  0.28265654
   0.90282244  0.55132680  0.10484543
   0.36931202  0.82666756  0.23340111
   0.99847401  0.50593453  0.20275944
   0.44373817  0.80360058  0.33467190
   0.53851998  0.23347802  0.07318573
   0.10456372  0.49539592  0.34905154
   0.79783811  0.62270123  0.31480681
   0.87926422  0.06310591  0.05527763
   0.34407408  0.33023728  0.18353316
   0.58246139  0.21150732  0.12452493
   0.05257342  0.48675001  0.25589345
   0.55653177  0.67674966  0.38597690
   0.09516526  0.72856013  0.12156099
   0.56831233  0.45828299  0.25242525
   0.77226138  0.12390822  0.31400919
   0.85888103  0.57329750  0.05350623
   0.31226230  0.84802343  0.18079956
   0.56207820  0.72169891  0.12275353
   0.02349981  0.00294212  0.25440749
   0.80080122  0.32920851  0.18441554
   0.25231629  0.62529180  0.31694506
   0.34617716  0.60305419  0.05647018
   0.24837150  0.18001048  0.32088062
   0.79949489  0.88139338  0.18516160
   0.34617716  0.05624469  0.05647018
   0.56245379  0.00065543  0.25293406
   0.09516526  0.18175063  0.12156099
   0.98811508  0.84887658  0.37278851
   0.98545985  0.35273071  0.38637636
   0.34047062  0.60391201  0.02782883
   0.92434681  0.68523651  0.03696881
   0.34363348  0.06399961  0.02783421
   0.88838126  0.05560908  0.02665597
   0.44314241  0.67314166  0.40278759
   0.83502003  0.05524168  0.33781052
   0.88222497  0.86516641  0.39226163
   0.00480888  0.17295521  0.38254649
   0.74111491  0.51988154  0.38889109
Direct configuration=     4
   0.22067121  0.89240241  0.08901558
   0.67713022  0.17058207  0.21867104
   0.94927612  0.02809995  0.15233499
   0.40515774  0.31199464  0.28469252
   0.44927612  0.52809995  0.15233499
   0.91563034  0.30802318  0.28477916
   0.44927612  0.02809995  0.15233499
   0.90841098  0.80911042  0.28265677
   0.90282244  0.55132680  0.10484543
   0.36931080  0.82666792  0.23340101
   0.99847401  0.50593423  0.20275939
   0.44374045  0.80359803  0.33467202
   0.53851998  0.23347802  0.07318573
   0.10456144  0.49539823  0.34905253
   0.79783371  0.62270158  0.31480589
   0.87926422  0.06310591  0.05527763
   0.34407351  0.33023821  0.18353324
   0.58246139  0.21150732  0.12452493
   0.05257214  0.48674989  0.25589345
   0.55653054  0.67675111  0.38597678
   0.09516526  0.72856013  0.12156099
   0.56831028  0.45828067  0.25242585
   0.77226228  0.12390791  0.31400912
   0.85888103  0.57329750  0.05350623
   0.31226190  0.84802280  0.18079960
   0.56207820  0.72169891  0.12275353
   0.02349971  0.00294301  0.25440757
   0.80080095  0.32921005  0.18441566
   0.25232160  0.62528826  0.31694354
   0.34617716  0.60305419  0.05647018
   0.24837560  0.18000890  0.32087959
   0.79949468  0.88139215  0.18516169
   0.34617716  0.05624469  0.05647018
   0.56245185  0.00065994  0.25293474
   0.09516526  0.18175063  0.12156099
   0.98811403  0.84887912  0.37278848
   0.98545773  0.35272916  0.38637700
   0.34047062  0.60391201  0.02782883
   0.92434681  0.68523651  0.03696881
   0.34363348  0.06399961  0.02783421
   0.88838126  0.05560908  0.02665597
   0.44314216  0.67314135  0.40278763
   0.83502019  0.05524158  0.33781055
   0.88222508  0.86516641  0.39226162
   0.00480872  0.17295426  0.38254655
   0.74111707  0.51987933  0.38889104
Direct configuration=     5
   0.22067121  0.89240241  0.08901558
   0.67640002  0.17079858  0.21907598
   0.94927612  0.02809995  0.15233499
   0.40459422  0.31209898  0.28470092
   0.44927612  0.52809995  0.15233499
   0.91566921  0.30828375  0.28499343
   0.44927612  0.02809995  0.15233499
   0.90833986  0.80923811  0.28276399
   0.90282244  0.55132680  0.10484543
   0.36983437  0.82633724  0.23355010
   0.99889881  0.50595880  0.20291809
   0.44142268  0.80514400  0.33467291
   0.53851998  0.23347802  0.07318573
   0.10407107  0.49563980  0.34897303
   0.80027077  0.62285200  0.31505816
   0.87926422  0.06310591  0.05527763
   0.34303783  0.33116651  0.18354813
   0.58246139  0.21150732  0.12452493
   0.05459060  0.48651837  0.25592934
   0.55694064  0.67663777  0.38591384
   0.09516526  0.72856013  0.12156099
   0.57095127  0.45886935  0.25198489
   0.77101431  0.12443452  0.31369135
   0.85888103  0.57329750  0.05350623
   0.31143787  0.84797448  0.18084932
   0.56207820  0.72169891  0.12275353
   0.02379351  0.00165311  0.25428561
   0.80134853  0.32819558  0.18403122
   0.24978809  0.62793499  0.31765190
   0.34617716  0.60305419  0.05647018
   0.24506292  0.17976547  0.32128936
   0.79997363  0.88161802  0.18478495
   0.34617716  0.05624469  0.05647018
   0.56455381 -0.00239514  0.25239647
   0.09516526  0.18175063  0.12156099
   0.98877721  0.84676773  0.37269939
   0.98696208  0.35354426  0.38595301
   0.34047062  0.60391201  0.02782883
   0.92434681  0.68523651  0.03696881
   0.34363348  0.06399961  0.02783421
   0.88838126  0.05560908  0.02665597
   0.44289702  0.67323375  0.40281411
   0.83522953  0.05482811  0.33793207
   0.88211910  0.86486505  0.39226636
   0.00514373  0.17380579  0.38249410
   0.74040241  0.52084959  0.38893237
Direct configuration=     6
   0.22067121  0.89240241  0.08901558
   0.67662526  0.17073180  0.21895107
   0.94927612  0.02809995  0.15233499
   0.40476804  0.31206679  0.28469833
   0.44927612  0.52809995  0.15233499
   0.91565722  0.30820337  0.28492734
   0.44927612  0.02809995  0.15233499
   0.90836180  0.80919872  0.28273092
   0.90282244  0.55132680  0.10484543
   0.36967287  0.82643924  0.23350411
   0.99876778  0.50595122  0.20286914
   0.44213762  0.80466713  0.33467264
   0.53851998  0.23347802  0.07318573
   0.10422233  0.49556528  0.34899755
   0.79951904  0.62280560  0.31498035
   0.87926422  0.06310591  0.05527763
   0.34335729  0.33088016  0.18354354
   0.58246139  0.21150732  0.12452493
   0.05396799  0.48658978  0.25591827
   0.55681414  0.67667273  0.38593326
   0.09516526  0.72856013  0.12156099
   0.57013663  0.45868777  0.25212091
   0.77139926  0.12427208  0.31378937
   0.85888103  0.57329750  0.05350623
   0.31169205  0.84798938  0.18083398
   0.56207820  0.72169891  0.12275353
   0.02370288  0.00205099  0.25432323
   0.80117963  0.32850850  0.18414980
   0.25056957  0.62711858  0.31743340
   0.34617716  0.60305419  0.05647018
   0.24608474  0.17984056  0.32116296
   0.79982589  0.88154835  0.18490116
   0.34617716  0.05624469  0.05647018
   0.56390544 -0.00145277  0.25256250
   0.09516526  0.18175063  0.12156099
   0.98857265  0.84741900  0.37272687
   0.98649805  0.35329284  0.38608379
   0.34047062  0.60391201  0.02782883
   0.92434681  0.68523651  0.03696881
   0.34363348  0.06399961  0.02783421
   0.88838126  0.05560908  0.02665597
   0.44297263  0.67320525  0.40280594
   0.83516496  0.05495565  0.33789459
   0.88215179  0.86495801  0.39226490
   0.00504039  0.17354313  0.38251028
   0.74062285  0.52055031  0.38891962
Direct configuration=     7
   0.22067121  0.89240241  0.08901558
   0.67681282  0.17067618  0.21884706
   0.94927612  0.02809995  0.15233499
   0.40491279  0.31203999  0.28469617
   0.44927612  0.52809995  0.15233499
   0.91564724  0.30813644  0.28487230
   0.44927612  0.02809995  0.15233499
   0.90838007  0.80916592  0.28270338
   0.90282244  0.55132680  0.10484543
   0.36953838  0.82652418  0.23346582
   0.99865866  0.50594491  0.20282838
   0.44273297  0.80427002  0.33467241
   0.53851998  0.23347802  0.07318573
   0.10434829  0.49550323  0.34901797
   0.79889304  0.62276697  0.31491554
   0.87926422  0.06310591  0.05527763
   0.34362333  0.33064172  0.18353971
   0.58246139  0.21150732  0.12452493
   0.05344951  0.48664925  0.25590905
   0.55670880  0.67670185  0.38594942
   0.09516526  0.72856013  0.12156099
   0.56945825  0.45853656  0.25223418
   0.77171982  0.12413682  0.31387099
   0.85888103  0.57329750  0.05350623
   0.31190372  0.84800180  0.18082121
   0.56207820  0.72169891  0.12275353
   0.02362742  0.00238232  0.25435456
   0.80103897  0.32876908  0.18424855
   0.25122035  0.62643873  0.31725145
   0.34617716  0.60305419  0.05647018
   0.24693566  0.17990309  0.32105771
   0.79970287  0.88149033  0.18499793
   0.34617716  0.05624469  0.05647018
   0.56336552 -0.00066803  0.25270077
   0.09516526  0.18175063  0.12156099
   0.98840230  0.84796135  0.37274976
   0.98611163  0.35308346  0.38619270
   0.34047062  0.60391201  0.02782883
   0.92434681  0.68523651  0.03696881
   0.34363348  0.06399961  0.02783421
   0.88838126  0.05560908  0.02665597
   0.44303560  0.67318151  0.40279914
   0.83511119  0.05506186  0.33786337
   0.88217902  0.86503542  0.39226368
   0.00495434  0.17332440  0.38252375
   0.74080643  0.52030108  0.38890901
Direct configuration=     8
   0.22067121  0.89240241  0.08901558
   0.67676223  0.17069118  0.21887512
   0.94927612  0.02809995  0.15233499
   0.40487375  0.31204722  0.28469675
   0.44927612  0.52809995  0.15233499
   0.91564993  0.30815450  0.28488714
   0.44927612  0.02809995  0.15233499
   0.90837514  0.80917477  0.28271080
   0.90282244  0.55132680  0.10484543
   0.36957466  0.82650127  0.23347615
   0.99868809  0.50594661  0.20283937
   0.44257239  0.80437714  0.33467247
   0.53851998  0.23347802  0.07318573
   0.10431431  0.49551997  0.34901246
   0.79906189  0.62277739  0.31493302
   0.87926422  0.06310591  0.05527763
   0.34355157  0.33070603  0.18354074
   0.58246139  0.21150732  0.12452493
   0.05358936  0.48663321  0.25591154
   0.55673722  0.67669399  0.38594506
   0.09516526  0.72856013  0.12156099
   0.56964123  0.45857734  0.25220363
   0.77163335  0.12417330  0.31384897
   0.85888103  0.57329750  0.05350623
   0.31184662  0.84799845  0.18082466
   0.56207820  0.72169891  0.12275353
   0.02364777  0.00229295  0.25434611
   0.80107691  0.32869880  0.18422192
   0.25104481  0.62662211  0.31730052
   0.34617716  0.60305419  0.05647018
   0.24670614  0.17988622  0.32108610
   0.79973605  0.88150598  0.18497183
   0.34617716  0.05624469  0.05647018
   0.56351115 -0.00087970  0.25266347
   0.09516526  0.18175063  0.12156099
   0.98844825  0.84781506  0.37274358
   0.98621586  0.35313994  0.38616332
   0.34047062  0.60391201  0.02782883
   0.92434681  0.68523651  0.03696881
   0.34363348  0.06399961  0.02783421
   0.88838126  0.05560908  0.02665597
   0.44301862  0.67318792  0.40280097
   0.83512569  0.05503321  0.33787179
   0.88217167  0.86501454  0.39226401
   0.00497755  0.17338340  0.38252012
   0.74075691  0.52036830  0.38891187
Direct configuration=     9
   0.22067121  0.89240241  0.08901558
   0.67667867  0.17071596  0.21892145
   0.94927612  0.02809995  0.15233499
   0.40480926  0.31205916  0.28469771
   0.44927612  0.52809995  0.15233499
   0.91565438  0.30818431  0.28491166
   0.44927612  0.02809995  0.15233499
   0.90836700  0.80918938  0.28272307
   0.90282244  0.55132680  0.10484543
   0.36963457  0.82646343  0.23349321
   0.99873671  0.50594943  0.20285753
   0.44230715  0.80455405  0.33467257
   0.53851998  0.23347802  0.07318573
   0.10425820  0.49554761  0.34900337
   0.79934078  0.62279460  0.31496189
   0.87926422  0.06310591  0.05527763
   0.34343305  0.33081226  0.18354245
   0.58246139  0.21150732  0.12452493
   0.05382035  0.48660672  0.25591564
   0.55678415  0.67668102  0.38593786
   0.09516526  0.72856013  0.12156099
   0.56994346  0.45864471  0.25215316
   0.77149054  0.12423356  0.31381261
   0.85888103  0.57329750  0.05350623
   0.31175232  0.84799292  0.18083035
   0.56207820  0.72169891  0.12275353
   0.02368139  0.00214534  0.25433215
   0.80113957  0.32858270  0.18417792
   0.25075489  0.62692499  0.31738159
   0.34617716  0.60305419  0.05647018
   0.24632705  0.17985836  0.32113299
   0.79979086  0.88153183  0.18492871
   0.34617716  0.05624469  0.05647018
   0.56375169 -0.00122931  0.25260187
   0.09516526  0.18175063  0.12156099
   0.98852414  0.84757344  0.37273339
   0.98638801  0.35323321  0.38611480
   0.34047062  0.60391201  0.02782883
   0.92434681  0.68523651  0.03696881
   0.34363348  0.06399961  0.02783421
   0.88838126  0.05560908  0.02665597
   0.44299056  0.67319849  0.40280400
   0.83514964  0.05498589  0.33788570
   0.88215955  0.86498005  0.39226455
   0.00501589  0.17348084  0.38251412
   0.74067513  0.52047934  0.38891660
Direct configuration=    10
   0.22067121  0.89240241  0.08901558
   0.67665196  0.17072388  0.21893626
   0.94927612  0.02809995  0.15233499
   0.40478865  0.31206298  0.28469802
   0.44927612  0.52809995  0.15233499
   0.91565580  0.30819384  0.28491950
   0.44927612  0.02809995  0.15233499
   0.90836440  0.80919405  0.28272700
   0.90282244  0.55132680  0.10484543
   0.36965372  0.82645134  0.23349866
   0.99875224  0.50595032  0.20286334
   0.44222238  0.80461059  0.33467260
   0.53851998  0.23347802  0.07318573
   0.10424026  0.49555645  0.34900046
   0.79942991  0.62280010  0.31497112
   0.87926422  0.06310591  0.05527763
   0.34339517  0.33084621  0.18354299
   0.58246139  0.21150732  0.12452493
   0.05389417  0.48659825  0.25591696
   0.55679914  0.67667688  0.38593556
   0.09516526  0.72856013  0.12156099
   0.57004005  0.45866624  0.25213704
   0.77144490  0.12425282  0.31380099
   0.85888103  0.57329750  0.05350623
   0.31172219  0.84799115  0.18083216
   0.56207820  0.72169891  0.12275353
   0.02369214  0.00209816  0.25432769
   0.80115960  0.32854560  0.18416386
   0.25066223  0.62702179  0.31740749
   0.34617716  0.60305419  0.05647018
   0.24620590  0.17984946  0.32114798
   0.79980838  0.88154009  0.18491494
   0.34617716  0.05624469  0.05647018
   0.56382857 -0.00134104  0.25258219
   0.09516526  0.18175063  0.12156099
   0.98854839  0.84749622  0.37273013
   0.98644303  0.35326302  0.38609930
   0.34047062  0.60391201  0.02782883
   0.92434681  0.68523651  0.03696881
   0.34363348  0.06399961  0.02783421
   0.88838126  0.05560908  0.02665597
   0.44298160  0.67320187  0.40280497
   0.83515730  0.05497077  0.33789014
   0.88215567  0.86496903  0.39226472
   0.00502814  0.17351198  0.38251220
   0.74064899  0.52051482  0.38891811
Direct configuration=    11
   0.22067121  0.89240241  0.08901558
   0.67666099  0.17072120  0.21893126
   0.94927612  0.02809995  0.15233499
   0.40479562  0.31206169  0.28469792
   0.44927612  0.52809995  0.15233499
   0.91565532  0.30819062  0.28491685
   0.44927612  0.02809995  0.15233499
   0.90836528  0.80919247  0.28272567
   0.90282244  0.55132680  0.10484543
   0.36964725  0.82645542  0.23349682
   0.99874699  0.50595002  0.20286138
   0.44225103  0.80459149  0.33467259
   0.53851998  0.23347802  0.07318573
   0.10424632  0.49555346  0.34900144
   0.79939979  0.62279824  0.31496800
   0.87926422  0.06310591  0.05527763
   0.34340797  0.33083474  0.18354281
   0.58246139  0.21150732  0.12452493
   0.05386922  0.48660111  0.25591651
   0.55679408  0.67667828  0.38593634
   0.09516526  0.72856013  0.12156099
   0.57000741  0.45865896  0.25214249
   0.77146032  0.12424632  0.31380492
   0.85888103  0.57329750  0.05350623
   0.31173237  0.84799175  0.18083155
   0.56207820  0.72169891  0.12275353
   0.02368851  0.00211411  0.25432920
   0.80115283  0.32855814  0.18416862
   0.25069354  0.62698907  0.31739874
   0.34617716  0.60305419  0.05647018
   0.24624684  0.17985247  0.32114291
   0.79980246  0.88153730  0.18491959
   0.34617716  0.05624469  0.05647018
   0.56380259 -0.00130328  0.25258884
   0.09516526  0.18175063  0.12156099
   0.98854020  0.84752232  0.37273123
   0.98642444  0.35325295  0.38610454
   0.34047062  0.60391201  0.02782883
   0.92434681  0.68523651  0.03696881
   0.34363348  0.06399961  0.02783421
   0.88838126  0.05560908  0.02665597
   0.44298463  0.67320073  0.40280465
   0.83515471  0.05497588  0.33788864
   0.88215698  0.86497275  0.39226466
   0.00502400  0.17350146  0.38251285
   0.74065782  0.52050283  0.38891760
Direct configuration=    12
   0.22067121  0.89240241  0.08901558
   0.67667523  0.17071698  0.21892336
   0.94927612  0.02809995  0.15233499
   0.40480661  0.31205965  0.28469775
   0.44927612  0.52809995  0.15233499
   0.91565456  0.30818554  0.28491267
   0.44927612  0.02809995  0.15233499
   0.90836667  0.80918998  0.28272358
   0.90282244  0.55132680  0.10484543
   0.36963704  0.82646187  0.23349391
   0.99873871  0.50594954  0.20285828
   0.44229624  0.80456133  0.33467258
   0.53851998  0.23347802  0.07318573
   0.10425589  0.49554875  0.34900299
   0.79935225  0.62279531  0.31496308
   0.87926422  0.06310591  0.05527763
   0.34342817  0.33081663  0.18354252
   0.58246139  0.21150732  0.12452493
   0.05382985  0.48660563  0.25591581
   0.55678608  0.67668049  0.38593756
   0.09516526  0.72856013  0.12156099
   0.56995589  0.45864748  0.25215109
   0.77148467  0.12423604  0.31381111
   0.85888103  0.57329750  0.05350623
   0.31174845  0.84799269  0.18083058
   0.56207820  0.72169891  0.12275353
   0.02368278  0.00213927  0.25433158
   0.80114215  0.32857793  0.18417611
   0.25074296  0.62693745  0.31738492
   0.34617716  0.60305419  0.05647018
   0.24631146  0.17985722  0.32113492
   0.79979311  0.88153289  0.18492694
   0.34617716  0.05624469  0.05647018
   0.56376159 -0.00124369  0.25259934
   0.09516526  0.18175063  0.12156099
   0.98852726  0.84756350  0.37273297
   0.98639510  0.35323705  0.38611281
   0.34047062  0.60391201  0.02782883
   0.92434681  0.68523651  0.03696881
   0.34363348  0.06399961  0.02783421
   0.88838126  0.05560908  0.02665597
   0.44298941  0.67319893  0.40280413
   0.83515063  0.05498395  0.33788627
   0.88215905  0.86497863  0.39226457
   0.00501747  0.17348485  0.38251387
   0.74067176  0.52048390  0.38891679
Direct configuration=    13
   0.22067121  0.89240241  0.08901558
   0.67667808  0.17071614  0.21892178
   0.94927612  0.02809995  0.15233499
   0.40480880  0.31205925  0.28469772
   0.44927612  0.52809995  0.15233499
   0.91565441  0.30818453  0.28491184
   0.44927612  0.02809995  0.15233499
   0.90836694  0.80918949  0.28272316
   0.90282244  0.55132680  0.10484543
   0.36963500  0.82646316  0.23349333
   0.99873705  0.50594945  0.20285766
   0.44230526  0.80455531  0.33467257
   0.53851998  0.23347802  0.07318573
   0.10425780  0.49554781  0.34900330
   0.79934277  0.62279472  0.31496210
   0.87926422  0.06310591  0.05527763
   0.34343221  0.33081302  0.18354246
   0.58246139  0.21150732  0.12452493
   0.05382199  0.48660653  0.25591567
   0.55678448  0.67668093  0.38593781
   0.09516526  0.72856013  0.12156099
   0.56994561  0.45864519  0.25215281
   0.77148952  0.12423399  0.31381235
   0.85888103  0.57329750  0.05350623
   0.31175165  0.84799288  0.18083039
   0.56207820  0.72169891  0.12275353
   0.02368163  0.00214429  0.25433205
   0.80114002  0.32858188  0.18417761
   0.25075282  0.62692714  0.31738216
   0.34617716  0.60305419  0.05647018
   0.24632435  0.17985816  0.32113332
   0.79979125  0.88153202  0.18492841
   0.34617716  0.05624469  0.05647018
   0.56375340 -0.00123180  0.25260144
   0.09516526  0.18175063  0.12156099
   0.98852468  0.84757172  0.37273331
   0.98638924  0.35323388  0.38611446
   0.34047062  0.60391201  0.02782883
   0.92434681  0.68523651  0.03696881
   0.34363348  0.06399961  0.02783421
   0.88838126  0.05560908  0.02665597
   0.44299036  0.67319857  0.40280403
   0.83514982  0.05498556  0.33788580
   0.88215946  0.86497981  0.39226455
   0.00501616  0.17348154  0.38251407
   0.74067455  0.52048013  0.38891663
Direct configuration=    14
   0.22067121  0.89240241  0.08901558
   0.67667857  0.17071599  0.21892151
   0.94927612  0.02809995  0.15233499
   0.40480918  0.31205918  0.28469771
   0.44927612  0.52809995  0.15233499
   0.91565438  0.30818435  0.28491169
   0.44927612  0.02809995  0.15233499
   0.90836699  0.80918940  0.28272309
   0.90282244  0.55132680  0.10484543
   0.36963464  0.82646338  0.23349323
   0.99873677  0.50594943  0.20285756
   0.44230682  0.80455427  0.33467257
   0.53851998  0.23347802  0.07318573
   0.10425813  0.49554765  0.34900335
   0.79934113  0.62279462  0.31496193
   0.87926422  0.06310591  0.05527763
   0.34343290  0.33081239  0.18354245
   0.58246139  0.21150732  0.12452493
   0.05382063  0.48660669  0.25591565
   0.55678420  0.67668101  0.38593785
   0.09516526  0.72856013  0.12156099
   0.56994383  0.45864479  0.25215310
   0.77149036  0.12423364  0.31381257
   0.85888103  0.57329750  0.05350623
   0.31175221  0.84799291  0.18083035
   0.56207820  0.72169891  0.12275353
   0.02368144  0.00214516  0.25433213
   0.80113965  0.32858256  0.18417787
   0.25075453  0.62692536  0.31738169
   0.34617716  0.60305419  0.05647018
   0.24632658  0.17985833  0.32113305
   0.79979093  0.88153186  0.18492866
   0.34617716  0.05624469  0.05647018
   0.56375199 -0.00122974  0.25260180
   0.09516526  0.18175063  0.12156099
   0.98852423  0.84757314  0.37273337
   0.98638823  0.35323333  0.38611474
   0.34047062  0.60391201  0.02782883
   0.92434681  0.68523651  0.03696881
   0.34363348  0.06399961  0.02783421
   0.88838126  0.05560908  0.02665597
   0.44299053  0.67319850  0.40280401
   0.83514967  0.05498583  0.33788572
   0.88215953  0.86498001  0.39226455
   0.00501594  0.17348096  0.38251411
   0.74067503  0.52047947  0.38891661
Direct configuration=    15
   0.22067121  0.89240241  0.08901558
   0.67701041  0.17060258  0.21879564
   0.94927612  0.02809995  0.15233499
   0.40458085  0.31245121  0.28473729
   0.44927612  0.52809995  0.15233499
   0.91547978  0.30877166  0.28497262
   0.44927612  0.02809995  0.15233499
   0.90832254  0.80880669  0.28281709
   0.90282244  0.55132680  0.10484543
   0.36957945  0.82637058  0.23344102
   0.99847004  0.50606268  0.20283576
   0.44263139  0.80436247  0.33475828
   0.53851998  0.23347802  0.07318573
   0.10302522  0.49622106  0.34910410
   0.79960597  0.62252800  0.31486923
   0.87926422  0.06310591  0.05527763
   0.34341779  0.33060502  0.18350277
   0.58246139  0.21150732  0.12452493
   0.05380678  0.48652625  0.25599097
   0.55635959  0.67714166  0.38591853
   0.09516526  0.72856013  0.12156099
   0.57071565  0.45833510  0.25212564
   0.77172712  0.12403472  0.31379793
   0.85888103  0.57329750  0.05350623
   0.31191669  0.84799468  0.18079929
   0.56207820  0.72169891  0.12275353
   0.02363375  0.00232743  0.25438131
   0.80132628  0.32841836  0.18415236
   0.25039157  0.62727182  0.31735474
   0.34617716  0.60305419  0.05647018
   0.24548800  0.18008470  0.32120936
   0.79994424  0.88142225  0.18490090
   0.34617716  0.05624469  0.05647018
   0.56455357 -0.00196515  0.25255343
   0.09516526  0.18175063  0.12156099
   0.98843868  0.84681061  0.37270982
   0.98693127  0.35296897  0.38600053
   0.34047062  0.60391201  0.02782883
   0.92434681  0.68523651  0.03696881
   0.34363348  0.06399961  0.02783421
   0.88838126  0.05560908  0.02665597
   0.44301313  0.67314685  0.40280886
   0.83512055  0.05500939  0.33782904
   0.88242463  0.86462132  0.39221235
   0.00526664  0.17413405  0.38248978
   0.74074712  0.52062759  0.38892031
Direct configuration=    16
   0.22067121  0.89240241  0.08901558
   0.67733539  0.17049152  0.21867237
   0.94927612  0.02809995  0.15233499
   0.40435724  0.31283512  0.28477605
   0.44927612  0.52809995  0.15233499
   0.91530880  0.30934681  0.28503229
   0.44927612  0.02809995  0.15233499
   0.90827901  0.80843191  0.28290913
   0.90282244  0.55132680  0.10484543
   0.36952541  0.82627970  0.23338990
   0.99820885  0.50617358  0.20281442
   0.44294924  0.80417465  0.33484221
   0.53851998  0.23347802  0.07318573
   0.10181785  0.49688054  0.34920277
   0.79986532  0.62226690  0.31477844
   0.87926422  0.06310591  0.05527763
   0.34340298  0.33040193  0.18346392
   0.58246139  0.21150732  0.12452493
   0.05379321  0.48644748  0.25606473
   0.55594376  0.67759277  0.38589960
   0.09516526  0.72856013  0.12156099
   0.57147149  0.45803183  0.25209874
   0.77195898  0.12383992  0.31378361
   0.85888103  0.57329750  0.05350623
   0.31207776  0.84799642  0.18076888
   0.56207820  0.72169891  0.12275353
   0.02358705  0.00250592  0.25442946
   0.80150905  0.32825756  0.18412738
   0.25003613  0.62761110  0.31732834
   0.34617716  0.60305419  0.05647018
   0.24466677  0.18030639  0.32128409
   0.80009437  0.88131491  0.18487371
   0.34617716  0.05624469  0.05647018
   0.56533854 -0.00268533  0.25250607
   0.09516526  0.18175063  0.12156099
   0.98835490  0.84606387  0.37268675
   0.98746308  0.35271008  0.38588869
   0.34047062  0.60391201  0.02782883
   0.92434681  0.68523651  0.03696881
   0.34363348  0.06399961  0.02783421
   0.88838126  0.05560908  0.02665597
   0.44303526  0.67309627  0.40281362
   0.83509202  0.05503246  0.33777355
   0.88268424  0.86427005  0.39216124
   0.00551216  0.17477361  0.38246596
   0.74081773  0.52077264  0.38892394
Direct configuration=    17
   0.22067121  0.89240241  0.08901558
   0.67798534  0.17026939  0.21842583
   0.94927612  0.02809995  0.15233499
   0.40391003  0.31360295  0.28485356
   0.44927612  0.52809995  0.15233499
   0.91496683  0.31049711  0.28515162
   0.44927612  0.02809995  0.15233499
   0.90819195  0.80768234  0.28309323
   0.90282244  0.55132680  0.10484543
   0.36941731  0.82609794  0.23328765
   0.99768645  0.50639538  0.20277174
   0.44358494  0.80379899  0.33501007
   0.53851998  0.23347802  0.07318573
   0.09940310  0.49819948  0.34940010
   0.80038403  0.62174469  0.31459687
   0.87926422  0.06310591  0.05527763
   0.34337337  0.32999576  0.18338621
   0.58246139  0.21150732  0.12452493
   0.05376608  0.48628993  0.25621225
   0.55511212  0.67849500  0.38586175
   0.09516526  0.72856013  0.12156099
   0.57298316  0.45742527  0.25204495
   0.77242269  0.12345031  0.31375495
   0.85888103  0.57329750  0.05350623
   0.31239990  0.84799988  0.18070804
   0.56207820  0.72169891  0.12275353
   0.02349366  0.00286291  0.25452577
   0.80187459  0.32793597  0.18407741
   0.24932524  0.62828966  0.31727556
   0.34617716  0.60305419  0.05647018
   0.24302433  0.18074977  0.32143355
   0.80039464  0.88110022  0.18481932
   0.34617716  0.05624469  0.05647018
   0.56690850 -0.00412569  0.25241134
   0.09516526  0.18175063  0.12156099
   0.98818735  0.84457039  0.37264060
   0.98852668  0.35219230  0.38566500
   0.34047062  0.60391201  0.02782883
   0.92434681  0.68523651  0.03696881
   0.34363348  0.06399961  0.02783421
   0.88838126  0.05560908  0.02665597
   0.44307953  0.67299511  0.40282314
   0.83503497  0.05507860  0.33766255
   0.88320347  0.86356752  0.39205901
   0.00600320  0.17605274  0.38241831
   0.74095894  0.52106275  0.38893119
Direct configuration=    18
   0.22067121  0.89240241  0.08901558
   0.67776467  0.17034481  0.21850953
   0.94927612  0.02809995  0.15233499
   0.40406186  0.31334227  0.28482724
   0.44927612  0.52809995  0.15233499
   0.91508293  0.31010657  0.28511110
   0.44927612  0.02809995  0.15233499
   0.90822151  0.80793683  0.28303073
   0.90282244  0.55132680  0.10484543
   0.36945401  0.82615965  0.23332237
   0.99786381  0.50632008  0.20278623
   0.44336911  0.80392653  0.33495308
   0.53851998  0.23347802  0.07318573
   0.10022293  0.49775168  0.34933310
   0.80020793  0.62192199  0.31465852
   0.87926422  0.06310591  0.05527763
   0.34338342  0.33013366  0.18341259
   0.58246139  0.21150732  0.12452493
   0.05377529  0.48634342  0.25616217
   0.55539447  0.67818868  0.38587460
   0.09516526  0.72856013  0.12156099
   0.57246994  0.45763121  0.25206321
   0.77226525  0.12358259  0.31376468
   0.85888103  0.57329750  0.05350623
   0.31229053  0.84799871  0.18072870
   0.56207820  0.72169891  0.12275353
   0.02352537  0.00274171  0.25449307
   0.80175048  0.32804515  0.18409438
   0.24956659  0.62805928  0.31729348
   0.34617716  0.60305419  0.05647018
   0.24358196  0.18059924  0.32138281
   0.80029269  0.88117311  0.18483779
   0.34617716  0.05624469  0.05647018
   0.56637548 -0.00363667  0.25244350
   0.09516526  0.18175063  0.12156099
   0.98824424  0.84507744  0.37265627
   0.98816558  0.35236809  0.38574094
   0.34047062  0.60391201  0.02782883
   0.92434681  0.68523651  0.03696881
   0.34363348  0.06399961  0.02783421
   0.88838126  0.05560908  0.02665597
   0.44306450  0.67302945  0.40281991
   0.83505434  0.05506293  0.33770023
   0.88302719  0.86380603  0.39209372
   0.00583648  0.17561847  0.38243449
   0.74091100  0.52096425  0.38892873
Direct configuration=    19
   0.22067121  0.89240241  0.08901558
   0.67832074  0.17002258  0.21835175
   0.94927612  0.02809995  0.15233499
   0.40396113  0.31383016  0.28487970
   0.44927612  0.52809995  0.15233499
   0.91498089  0.31029486  0.28513061
   0.44927612  0.02809995  0.15233499
   0.90832954  0.80780502  0.28308266
   0.90282244  0.55132680  0.10484543
   0.36903618  0.82621805  0.23324439
   0.99757547  0.50641302  0.20276312
   0.44403955  0.80353769  0.33505034
   0.53851998  0.23347802  0.07318573
   0.09894303  0.49859368  0.34937997
   0.80006007  0.62177122  0.31458899
   0.87926422  0.06310591  0.05527763
   0.34335182  0.32986231  0.18336299
   0.58246139  0.21150732  0.12452493
   0.05364066  0.48632192  0.25623763
   0.55535452  0.67841220  0.38588085
   0.09516526  0.72856013  0.12156099
   0.57294071  0.45672390  0.25215308
   0.77252094  0.12334616  0.31376436
   0.85888103  0.57329750  0.05350623
   0.31254064  0.84797518  0.18068321
   0.56207820  0.72169891  0.12275353
   0.02347231  0.00296938  0.25458912
   0.80200507  0.32794393  0.18406492
   0.24948505  0.62763384  0.31714328
   0.34617716  0.60305419  0.05647018
   0.24295045  0.18126344  0.32138015
   0.80051302  0.88093449  0.18480444
   0.34617716  0.05624469  0.05647018
   0.56694633 -0.00350857  0.25251585
   0.09516526  0.18175063  0.12156099
   0.98837838  0.84412906  0.37258098
   0.98828755  0.35304213  0.38569307
   0.34047062  0.60391201  0.02782883
   0.92434681  0.68523651  0.03696881
   0.34363348  0.06399961  0.02783421
   0.88838126  0.05560908  0.02665597
   0.44302140  0.67295224  0.40283389
   0.83503865  0.05509210  0.33763291
   0.88301621  0.86336673  0.39209628
   0.00634231  0.17545229  0.38237316
   0.74078344  0.52137459  0.38892189
Direct configuration=    20
   0.22067121  0.89240241  0.08901558
   0.67842146  0.16996421  0.21832317
   0.94927612  0.02809995  0.15233499
   0.40394289  0.31391854  0.28488920
   0.44927612  0.52809995  0.15233499
   0.91496240  0.31032897  0.28513414
   0.44927612  0.02809995  0.15233499
   0.90834911  0.80778114  0.28309207
   0.90282244  0.55132680  0.10484543
   0.36896050  0.82622863  0.23323026
   0.99752324  0.50642986  0.20275893
   0.44416099  0.80346726  0.33506795
   0.53851998  0.23347802  0.07318573
   0.09871119  0.49874620  0.34938846
   0.80003328  0.62174391  0.31457639
   0.87926422  0.06310591  0.05527763
   0.34334610  0.32981316  0.18335401
   0.58246139  0.21150732  0.12452493
   0.05361627  0.48631802  0.25625130
   0.55534728  0.67845268  0.38588198
   0.09516526  0.72856013  0.12156099
   0.57302598  0.45655956  0.25216936
   0.77256726  0.12330334  0.31376431
   0.85888103  0.57329750  0.05350623
   0.31258594  0.84797092  0.18067497
   0.56207820  0.72169891  0.12275353
   0.02346270  0.00301062  0.25460651
   0.80205118  0.32792559  0.18405958
   0.24947028  0.62755678  0.31711608
   0.34617716  0.60305419  0.05647018
   0.24283606  0.18138375  0.32137967
   0.80055293  0.88089126  0.18479839
   0.34617716  0.05624469  0.05647018
   0.56704973 -0.00348537  0.25252895
   0.09516526  0.18175063  0.12156099
   0.98840268  0.84395728  0.37256735
   0.98830965  0.35316422  0.38568440
   0.34047062  0.60391201  0.02782883
   0.92434681  0.68523651  0.03696881
   0.34363348  0.06399961  0.02783421
   0.88838126  0.05560908  0.02665597
   0.44301360  0.67293825  0.40283642
   0.83503580  0.05509738  0.33762071
   0.88301422  0.86328715  0.39209674
   0.00643394  0.17542219  0.38236205
   0.74076034  0.52144892  0.38892065
Direct configuration=    21
   0.22067121  0.89240241  0.08901558
   0.67867997  0.16973532  0.21828980
   0.94927612  0.02809995  0.15233499
   0.40398152  0.31393844  0.28489314
   0.44927612  0.52809995  0.15233499
   0.91498671  0.31007059  0.28510144
   0.44927612  0.02809995  0.15233499
   0.90852359  0.80797681  0.28307771
   0.90282244  0.55132680  0.10484543
   0.36892870  0.82613877  0.23320185
   0.99733548  0.50647460  0.20275760
   0.44428513  0.80339005  0.33508957
   0.53851998  0.23347802  0.07318573
   0.09828210  0.49922811  0.34928724
   0.79957819  0.62173494  0.31456358
   0.87926422  0.06310591  0.05527763
   0.34329438  0.32964783  0.18332284
   0.58246139  0.21150732  0.12452493
   0.05355962  0.48622633  0.25629479
   0.55557786  0.67840822  0.38592235
   0.09516526  0.72856013  0.12156099
   0.57352766  0.45611719  0.25216459
   0.77259511  0.12331408  0.31375274
   0.85888103  0.57329750  0.05350623
   0.31278483  0.84793190  0.18064253
   0.56207820  0.72169891  0.12275353
   0.02346364  0.00323737  0.25469915
   0.80225980  0.32792422  0.18403446
   0.24922014  0.62772902  0.31708809
   0.34617716  0.60305419  0.05647018
   0.24229320  0.18163375  0.32145981
   0.80076279  0.88064224  0.18477082
   0.34617716  0.05624469  0.05647018
   0.56759965 -0.00366480  0.25252123
   0.09516526  0.18175063  0.12156099
   0.98846255  0.84337140  0.37252017
   0.98802208  0.35391232  0.38571899
   0.34047062  0.60391201  0.02782883
   0.92434681  0.68523651  0.03696881
   0.34363348  0.06399961  0.02783421
   0.88838126  0.05560908  0.02665597
   0.44299414  0.67287457  0.40284321
   0.83509963  0.05509653  0.33758490
   0.88293575  0.86291340  0.39211627
   0.00693161  0.17505607  0.38229546
   0.74052816  0.52192420  0.38890832
Direct configuration=    22
   0.22067121  0.89240241  0.08901558
   0.67882799  0.16960425  0.21827068
   0.94927612  0.02809995  0.15233499
   0.40400364  0.31394984  0.28489539
   0.44927612  0.52809995  0.15233499
   0.91500063  0.30992265  0.28508271
   0.44927612  0.02809995  0.15233499
   0.90862351  0.80808885  0.28306948
   0.90282244  0.55132680  0.10484543
   0.36891049  0.82608731  0.23318558
   0.99722797  0.50650022  0.20275684
   0.44435622  0.80334584  0.33510195
   0.53851998  0.23347802  0.07318573
   0.09803639  0.49950406  0.34922928
   0.79931760  0.62172980  0.31455624
   0.87926422  0.06310591  0.05527763
   0.34326476  0.32955316  0.18330500
   0.58246139  0.21150732  0.12452493
   0.05352718  0.48617383  0.25631970
   0.55570989  0.67838276  0.38594546
   0.09516526  0.72856013  0.12156099
   0.57381493  0.45586388  0.25216186
   0.77261106  0.12332023  0.31374612
   0.85888103  0.57329750  0.05350623
   0.31289872  0.84790956  0.18062395
   0.56207820  0.72169891  0.12275353
   0.02346418  0.00336721  0.25475220
   0.80237926  0.32792344  0.18402007
   0.24907690  0.62782765  0.31707206
   0.34617716  0.60305419  0.05647018
   0.24198235  0.18177691  0.32150569
   0.80088296  0.88049964  0.18475503
   0.34617716  0.05624469  0.05647018
   0.56791454 -0.00376754  0.25251681
   0.09516526  0.18175063  0.12156099
   0.98849684  0.84303592  0.37249316
   0.98785741  0.35434069  0.38573880
   0.34047062  0.60391201  0.02782883
   0.92434681  0.68523651  0.03696881
   0.34363348  0.06399961  0.02783421
   0.88838126  0.05560908  0.02665597
   0.44298300  0.67283810  0.40284710
   0.83513617  0.05509604  0.33756439
   0.88289082  0.86269939  0.39212746
   0.00721658  0.17484642  0.38225734
   0.74039522  0.52219635  0.38890126
Direct configuration=    23
   0.22067121  0.89240241  0.08901558
   0.67912404  0.16934212  0.21823245
   0.94927612  0.02809995  0.15233499
   0.40404789  0.31397263  0.28489990
   0.44927612  0.52809995  0.15233499
   0.91502847  0.30962675  0.28504526
   0.44927612  0.02809995  0.15233499
   0.90882333  0.80831293  0.28305304
   0.90282244  0.55132680  0.10484543
   0.36887407  0.82598439  0.23315304
   0.99701294  0.50655146  0.20275532
   0.44449839  0.80325742  0.33512671
   0.53851998  0.23347802  0.07318573
   0.09754499  0.50005596  0.34911337
   0.79879642  0.62171953  0.31454156
   0.87926422  0.06310591  0.05527763
   0.34320553  0.32936382  0.18326931
   0.58246139  0.21150732  0.12452493
   0.05346229  0.48606882  0.25636951
   0.55597395  0.67833183  0.38599169
   0.09516526  0.72856013  0.12156099
   0.57438947  0.45535726  0.25215639
   0.77264296  0.12333253  0.31373288
   0.85888103  0.57329750  0.05350623
   0.31312649  0.84786488  0.18058680
   0.56207820  0.72169891  0.12275353
   0.02346525  0.00362689  0.25485829
   0.80261817  0.32792187  0.18399130
   0.24879043  0.62802490  0.31704000
   0.34617716  0.60305419  0.05647018
   0.24136065  0.18206322  0.32159746
   0.80112330  0.88021445  0.18472346
   0.34617716  0.05624469  0.05647018
   0.56854432 -0.00397303  0.25250797
   0.09516526  0.18175063  0.12156099
   0.98856541  0.84236497  0.37243914
   0.98752808  0.35519743  0.38577841
   0.34047062  0.60391201  0.02782883
   0.92434681  0.68523651  0.03696881
   0.34363348  0.06399961  0.02783421
   0.88838126  0.05560908  0.02665597
   0.44296072  0.67276516  0.40285487
   0.83520926  0.05509507  0.33752337
   0.88280096  0.86227136  0.39214983
   0.00778653  0.17442712  0.38218108
   0.74012933  0.52274066  0.38888715
Direct configuration=    24
   0.22067121  0.89240241  0.08901558
   0.67943774  0.16901922  0.21821041
   0.94927612  0.02809995  0.15233499
   0.40417272  0.31390551  0.28491228
   0.44927612  0.52809995  0.15233499
   0.91501692  0.30933638  0.28501246
   0.44927612  0.02809995  0.15233499
   0.90897522  0.80851514  0.28303535
   0.90282244  0.55132680  0.10484543
   0.36879309  0.82591068  0.23312867
   0.99688449  0.50653603  0.20276664
   0.44464802  0.80316861  0.33514803
   0.53851998  0.23347802  0.07318573
   0.09704418  0.50049375  0.34898993
   0.79810400  0.62175822  0.31451942
   0.87926422  0.06310591  0.05527763
   0.34310485  0.32922184  0.18324095
   0.58246139  0.21150732  0.12452493
   0.05338624  0.48593312  0.25639724
   0.55600739  0.67848142  0.38605890
   0.09516526  0.72856013  0.12156099
   0.57472857  0.45471875  0.25218902
   0.77257212  0.12346984  0.31369980
   0.85888103  0.57329750  0.05350623
   0.31334539  0.84778969  0.18055830
   0.56207820  0.72169891  0.12275353
   0.02368999  0.00382604  0.25495600
   0.80285921  0.32792170  0.18395941
   0.24873129  0.62799891  0.31693659
   0.34617716  0.60305419  0.05647018
   0.24096932  0.18237801  0.32163699
   0.80139875  0.87988841  0.18468735
   0.34617716  0.05624469  0.05647018
   0.56896542 -0.00380428  0.25254500
   0.09516526  0.18175063  0.12156099
   0.98829133  0.84188281  0.37243785
   0.98722636  0.35523966  0.38582390
   0.34047062  0.60391201  0.02782883
   0.92434681  0.68523651  0.03696881
   0.34363348  0.06399961  0.02783421
   0.88838126  0.05560908  0.02665597
   0.44301659  0.67264354  0.40285738
   0.83537193  0.05504331  0.33750301
   0.88296667  0.86166474  0.39212969
   0.00835291  0.17481451  0.38210641
   0.73996026  0.52322935  0.38888071
Direct configuration=    25
   0.22067121  0.89240241  0.08901558
   0.67966856  0.16878164  0.21819419
   0.94927612  0.02809995  0.15233499
   0.40426457  0.31385611  0.28492139
   0.44927612  0.52809995  0.15233499
   0.91500842  0.30912273  0.28498833
   0.44927612  0.02809995  0.15233499
   0.90908699  0.80866392  0.28302233
   0.90282244  0.55132680  0.10484543
   0.36873351  0.82585644  0.23311074
   0.99678997  0.50652468  0.20277497
   0.44475812  0.80310325  0.33516372
   0.53851998  0.23347802  0.07318573
   0.09667568  0.50081588  0.34889910
   0.79759452  0.62178669  0.31450313
   0.87926422  0.06310591  0.05527763
   0.34303077  0.32911737  0.18322009
   0.58246139  0.21150732  0.12452493
   0.05333028  0.48583327  0.25641764
   0.55603200  0.67859149  0.38610835
   0.09516526  0.72856013  0.12156099
   0.57497809  0.45424893  0.25221303
   0.77251999  0.12357087  0.31367546
   0.85888103  0.57329750  0.05350623
   0.31350646  0.84773436  0.18053732
   0.56207820  0.72169891  0.12275353
   0.02385536  0.00397257  0.25502789
   0.80303656  0.32792158  0.18393594
   0.24868777  0.62797979  0.31686049
   0.34617716  0.60305419  0.05647018
   0.24068137  0.18260963  0.32166607
   0.80160143  0.87964850  0.18466079
   0.34617716  0.05624469  0.05647018
   0.56927526 -0.00368011  0.25257225
   0.09516526  0.18175063  0.12156099
   0.98808966  0.84152805  0.37243690
   0.98700435  0.35527073  0.38585737
   0.34047062  0.60391201  0.02782883
   0.92434681  0.68523651  0.03696881
   0.34363348  0.06399961  0.02783421
   0.88838126  0.05560908  0.02665597
   0.44305770  0.67255405  0.40285923
   0.83549163  0.05500522  0.33748802
   0.88308860  0.86121838  0.39211487
   0.00876965  0.17509956  0.38205147
   0.73983587  0.52358894  0.38887598
Direct configuration=    26
   0.22067121  0.89240241  0.08901558
   0.68013020  0.16830647  0.21816175
   0.94927612  0.02809995  0.15233499
   0.40444826  0.31375733  0.28493961
   0.44927612  0.52809995  0.15233499
   0.91499142  0.30869542  0.28494006
   0.44927612  0.02809995  0.15233499
   0.90931051  0.80896148  0.28299630
   0.90282244  0.55132680  0.10484543
   0.36861434  0.82574797  0.23307487
   0.99660093  0.50650198  0.20279163
   0.44497831  0.80297255  0.33519510
   0.53851998  0.23347802  0.07318573
   0.09593869  0.50146014  0.34871745
   0.79657555  0.62184362  0.31447055
   0.87926422  0.06310591  0.05527763
   0.34288260  0.32890844  0.18317836
   0.58246139  0.21150732  0.12452493
   0.05321835  0.48563358  0.25645844
   0.55608121  0.67881162  0.38620725
   0.09516526  0.72856013  0.12156099
   0.57547711  0.45330929  0.25226104
   0.77241574  0.12377294  0.31362679
   0.85888103  0.57329750  0.05350623
   0.31382860  0.84762370  0.18049538
   0.56207820  0.72169891  0.12275353
   0.02418608  0.00426564  0.25517168
   0.80339126  0.32792133  0.18388900
   0.24860074  0.62794154  0.31670830
   0.34617716  0.60305419  0.05647018
   0.24010548  0.18307287  0.32172423
   0.80200678  0.87916869  0.18460767
   0.34617716  0.05624469  0.05647018
   0.56989495 -0.00343177  0.25262674
   0.09516526  0.18175063  0.12156099
   0.98768632  0.84081851  0.37243500
   0.98656034  0.35533287  0.38592431
   0.34047062  0.60391201  0.02782883
   0.92434681  0.68523651  0.03696881
   0.34363348  0.06399961  0.02783421
   0.88838126  0.05560908  0.02665597
   0.44313992  0.67237506  0.40286292
   0.83573101  0.05492905  0.33745804
   0.88333247  0.86032568  0.39208522
   0.00960314  0.17566965  0.38194158
   0.73958707  0.52430811  0.38886651
Direct configuration=    27
   0.22067121  0.89240241  0.08901558
   0.67997046  0.16847089  0.21817298
   0.94927612  0.02809995  0.15233499
   0.40438470  0.31379151  0.28493330
   0.44927612  0.52809995  0.15233499
   0.91499730  0.30884328  0.28495676
   0.44927612  0.02809995  0.15233499
   0.90923317  0.80885852  0.28300531
   0.90282244  0.55132680  0.10484543
   0.36865557  0.82578551  0.23308728
   0.99666634  0.50650983  0.20278587
   0.44490212  0.80301778  0.33518424
   0.53851998  0.23347802  0.07318573
   0.09619371  0.50123721  0.34878030
   0.79692814  0.62182392  0.31448182
   0.87926422  0.06310591  0.05527763
   0.34293387  0.32898073  0.18319280
   0.58246139  0.21150732  0.12452493
   0.05325708  0.48570268  0.25644432
   0.55606418  0.67873545  0.38617303
   0.09516526  0.72856013  0.12156099
   0.57530443  0.45363443  0.25224443
   0.77245182  0.12370302  0.31364363
   0.85888103  0.57329750  0.05350623
   0.31371713  0.84766199  0.18050989
   0.56207820  0.72169891  0.12275353
   0.02407164  0.00416423  0.25512193
   0.80326853  0.32792142  0.18390524
   0.24863085  0.62795478  0.31676097
   0.34617716  0.60305419  0.05647018
   0.24030475  0.18291257  0.32170410
   0.80186652  0.87933472  0.18462605
   0.34617716  0.05624469  0.05647018
   0.56968052 -0.00351770  0.25260788
   0.09516526  0.18175063  0.12156099
   0.98782589  0.84106403  0.37243566
   0.98671398  0.35531137  0.38590115
   0.34047062  0.60391201  0.02782883
   0.92434681  0.68523651  0.03696881
   0.34363348  0.06399961  0.02783421
   0.88838126  0.05560908  0.02665597
   0.44311147  0.67243700  0.40286164
   0.83564818  0.05495541  0.33746841
   0.88324809  0.86063458  0.39209548
   0.00931473  0.17547238  0.38197960
   0.73967316  0.52405926  0.38886979
Direct configuration=    28
   0.22067121  0.89240241  0.08901558
   0.68013486  0.16829774  0.21817194
   0.94927612  0.02809995  0.15233499
   0.40449956  0.31360352  0.28495216
   0.44927612  0.52809995  0.15233499
   0.91482403  0.30908392  0.28497629
   0.44927612  0.02809995  0.15233499
   0.90914375  0.80865691  0.28302207
   0.90282244  0.55132680  0.10484543
   0.36874703  0.82569805  0.23309653
   0.99676806  0.50637716  0.20281015
   0.44485163  0.80302394  0.33520166
   0.53851998  0.23347802  0.07318573
   0.09568048  0.50126686  0.34877825
   0.79651823  0.62193051  0.31443129
   0.87926422  0.06310591  0.05527763
   0.34284251  0.32899943  0.18319762
   0.58246139  0.21150732  0.12452493
   0.05323490  0.48563797  0.25642212
   0.55577074  0.67937398  0.38618140
   0.09516526  0.72856013  0.12156099
   0.57516124  0.45332469  0.25228355
   0.77237510  0.12377734  0.31364136
   0.85888103  0.57329750  0.05350623
   0.31378951  0.84757443  0.18052466
   0.56207820  0.72169891  0.12275353
   0.02466439  0.00399201  0.25512701
   0.80333549  0.32785450  0.18389723
   0.24886925  0.62785361  0.31661997
   0.34617716  0.60305419  0.05647018
   0.24044557  0.18294552  0.32165279
   0.80202842  0.87917986  0.18461148
   0.34617716  0.05624469  0.05647018
   0.56960121 -0.00318180  0.25266363
   0.09516526  0.18175063  0.12156099
   0.98764670  0.84092936  0.37240326
   0.98669833  0.35527723  0.38589862
   0.34047062  0.60391201  0.02782883
   0.92434681  0.68523651  0.03696881
   0.34363348  0.06399961  0.02783421
   0.88838126  0.05560908  0.02665597
   0.44304313  0.67224961  0.40289554
   0.83576588  0.05495218  0.33745670
   0.88328942  0.86008839  0.39210119
   0.00966909  0.17595211  0.38192982
   0.73983403  0.52405127  0.38889050
Direct configuration=    29
   0.22067121  0.89240241  0.08901558
   0.68059448  0.16781366  0.21816902
   0.94927612  0.02809995  0.15233499
   0.40482068  0.31307793  0.28500487
   0.44927612  0.52809995  0.15233499
   0.91433961  0.30975670  0.28503088
   0.44927612  0.02809995  0.15233499
   0.90889378  0.80809328  0.28306892
   0.90282244  0.55132680  0.10484543
   0.36900273  0.82545355  0.23312240
   0.99705245  0.50600625  0.20287805
   0.44471048  0.80304116  0.33525036
   0.53851998  0.23347802  0.07318573
   0.09424563  0.50134977  0.34877250
   0.79537222  0.62222851  0.31429003
   0.87926422  0.06310591  0.05527763
   0.34258708  0.32905171  0.18321111
   0.58246139  0.21150732  0.12452493
   0.05317287  0.48545707  0.25636005
   0.55495034  0.68115916  0.38620480
   0.09516526  0.72856013  0.12156099
   0.57476092  0.45245874  0.25239293
   0.77216062  0.12398513  0.31363500
   0.85888103  0.57329750  0.05350623
   0.31399187  0.84732964  0.18056594
   0.56207820  0.72169891  0.12275353
   0.02632155  0.00351050  0.25514121
   0.80352272  0.32766743  0.18387484
   0.24953576  0.62757076  0.31622577
   0.34617716  0.60305419  0.05647018
   0.24083927  0.18303763  0.32150931
   0.80248105  0.87874692  0.18457073
   0.34617716  0.05624469  0.05647018
   0.56937946 -0.00224273  0.25281947
   0.09516526  0.18175063  0.12156099
   0.98714574  0.84055288  0.37231267
   0.98665459  0.35518181  0.38589154
   0.34047062  0.60391201  0.02782883
   0.92434681  0.68523651  0.03696881
   0.34363348  0.06399961  0.02783421
   0.88838126  0.05560908  0.02665597
   0.44285206  0.67172572  0.40299032
   0.83609496  0.05494315  0.33742397
   0.88340497  0.85856141  0.39211713
   0.01065980  0.17729331  0.38179065
   0.74028379  0.52402893  0.38894839
Direct configuration=    30
   0.22067121  0.89240241  0.08901558
   0.68151372  0.16684549  0.21816320
   0.94927612  0.02809995  0.15233499
   0.40546291  0.31202676  0.28511029
   0.44927612  0.52809995  0.15233499
   0.91337077  0.31110225  0.28514008
   0.44927612  0.02809995  0.15233499
   0.90839384  0.80696602  0.28316262
   0.90282244  0.55132680  0.10484543
   0.36951412  0.82496456  0.23317413
   0.99762123  0.50526443  0.20301384
   0.44442818  0.80307560  0.33534775
   0.53851998  0.23347802  0.07318573
   0.09137592  0.50151560  0.34876101
   0.79308021  0.62282450  0.31400751
   0.87926422  0.06310591  0.05527763
   0.34207622  0.32915627  0.18323808
   0.58246139  0.21150732  0.12452493
   0.05304881  0.48509527  0.25623591
   0.55330955  0.68472952  0.38625160
   0.09516526  0.72856013  0.12156099
   0.57396028  0.45072684  0.25261168
   0.77173167  0.12440071  0.31362228
   0.85888103  0.57329750  0.05350623
   0.31439660  0.84684005  0.18064850
   0.56207820  0.72169891  0.12275353
   0.02963587  0.00254750  0.25516962
   0.80389717  0.32729328  0.18383005
   0.25086877  0.62700507  0.31543739
   0.34617716  0.60305419  0.05647018
   0.24162666  0.18322186  0.32122236
   0.80338632  0.87788104  0.18448925
   0.34617716  0.05624469  0.05647018
   0.56893596 -0.00036459  0.25313115
   0.09516526  0.18175063  0.12156099
   0.98614382  0.83979990  0.37213149
   0.98656710  0.35499095  0.38587739
   0.34047062  0.60391201  0.02782883
   0.92434681  0.68523651  0.03696881
   0.34363348  0.06399961  0.02783421
   0.88838126  0.05560908  0.02665597
   0.44246992  0.67067795  0.40317988
   0.83675310  0.05492509  0.33735849
   0.88363608  0.85550744  0.39214903
   0.01264122  0.17997570  0.38151230
   0.74118330  0.52398426  0.38906418
Direct configuration=    31
   0.22067121  0.89240241  0.08901558
   0.68081695  0.16757935  0.21816761
   0.94927612  0.02809995  0.15233499
   0.40497610  0.31282354  0.28503038
   0.44927612  0.52809995  0.15233499
   0.91410514  0.31008234  0.28505731
   0.44927612  0.02809995  0.15233499
   0.90877279  0.80782047  0.28309160
   0.90282244  0.55132680  0.10484543
   0.36912649  0.82533521  0.23313492
   0.99719010  0.50582672  0.20291091
   0.44464216  0.80304949  0.33527393
   0.53851998  0.23347802  0.07318573
   0.09355112  0.50138991  0.34876972
   0.79481753  0.62237274  0.31422166
   0.87926422  0.06310591  0.05527763
   0.34246344  0.32907702  0.18321763
   0.58246139  0.21150732  0.12452493
   0.05314285  0.48536951  0.25633001
   0.55455325  0.68202323  0.38621613
   0.09516526  0.72856013  0.12156099
   0.57456716  0.45203960  0.25244587
   0.77205681  0.12408571  0.31363192
   0.85888103  0.57329750  0.05350623
   0.31408982  0.84721115  0.18058592
   0.56207820  0.72169891  0.12275353
   0.02712365  0.00327744  0.25514809
   0.80361334  0.32757688  0.18386400
   0.24985836  0.62743386  0.31603498
   0.34617716  0.60305419  0.05647018
   0.24102983  0.18308222  0.32143987
   0.80270014  0.87853737  0.18455101
   0.34617716  0.05624469  0.05647018
   0.56927213 -0.00178820  0.25289490
   0.09516526  0.18175063  0.12156099
   0.98690327  0.84037065  0.37226882
   0.98663341  0.35513562  0.38588812
   0.34047062  0.60391201  0.02782883
   0.92434681  0.68523651  0.03696881
   0.34363348  0.06399961  0.02783421
   0.88838126  0.05560908  0.02665597
   0.44275958  0.67147215  0.40303620
   0.83625423  0.05493878  0.33740812
   0.88346090  0.85782232  0.39212485
   0.01113933  0.17794248  0.38172329
   0.74050148  0.52401812  0.38897641
Direct configuration=    32
   0.22067121  0.89240241  0.08901558
   0.68068772  0.16771546  0.21816843
   0.94927612  0.02809995  0.15233499
   0.40488581  0.31297131  0.28501556
   0.44927612  0.52809995  0.15233499
   0.91424135  0.30989317  0.28504196
   0.44927612  0.02809995  0.15233499
   0.90884307  0.80797895  0.28307842
   0.90282244  0.55132680  0.10484543
   0.36905460  0.82540396  0.23312764
   0.99711014  0.50593101  0.20289182
   0.44468185  0.80304465  0.33526023
   0.53851998  0.23347802  0.07318573
   0.09395456  0.50136659  0.34877133
   0.79513975  0.62228896  0.31426138
   0.87926422  0.06310591  0.05527763
   0.34253526  0.32906232  0.18321384
   0.58246139  0.21150732  0.12452493
   0.05316029  0.48542037  0.25634746
   0.55478392  0.68152129  0.38620955
   0.09516526  0.72856013  0.12156099
   0.57467972  0.45228308  0.25241512
   0.77211712  0.12402728  0.31363371
   0.85888103  0.57329750  0.05350623
   0.31403292  0.84727998  0.18057431
   0.56207820  0.72169891  0.12275353
   0.02665771  0.00341283  0.25514409
   0.80356070  0.32762948  0.18387029
   0.24967096  0.62751339  0.31614581
   0.34617716  0.60305419  0.05647018
   0.24091913  0.18305632  0.32148021
   0.80257287  0.87865910  0.18456247
   0.34617716  0.05624469  0.05647018
   0.56933448 -0.00205224  0.25285108
   0.09516526  0.18175063  0.12156099
   0.98704412  0.84047651  0.37229429
   0.98664571  0.35516245  0.38589011
   0.34047062  0.60391201  0.02782883
   0.92434681  0.68523651  0.03696881
   0.34363348  0.06399961  0.02783421
   0.88838126  0.05560908  0.02665597
   0.44281330  0.67161945  0.40300955
   0.83616171  0.05494132  0.33741733
   0.88342841  0.85825166  0.39212037
   0.01086077  0.17756537  0.38176242
   0.74037502  0.52402440  0.38896014
