unknown system                          
           1
     2.873573   -2.873573    4.708335
     5.747147    0.000000    0.000000
     0.000000   33.065691   20.180529
   Mn   O    H 
  13  21   8
Direct configuration=     1
   0.22067121  0.89240241  0.08901558
   0.67750129  0.16553002  0.21832471
   0.94927612  0.02809995  0.15233499
   0.39191726  0.31193975  0.28515792
   0.44927612  0.52809995  0.15233499
   0.89812897  0.30981739  0.28418520
   0.44927612  0.02809995  0.15233499
   0.89587129  0.80435427  0.28407804
   0.90282244  0.55132680  0.10484543
   0.36299230  0.82464737  0.23363642
   0.99786537  0.50401688  0.20341707
   0.47338310  0.76957492  0.33780258
   0.53851998  0.23347802  0.07318573
   0.77863448  0.61648821  0.31344947
   0.87926422  0.06310591  0.05527763
   0.34164690  0.33175603  0.18331613
   0.58246139  0.21150732  0.12452493
   0.05299138  0.47396883  0.25673763
   0.45432716  0.70069180  0.38495995
   0.09516526  0.72856013  0.12156099
   0.56220620  0.45273464  0.25221928
   0.74453008  0.13937323  0.31433403
   0.85888103  0.57329750  0.05350623
   0.31237021  0.84687236  0.18076719
   0.56207820  0.72169891  0.12275353
   0.01968133  0.99664335  0.25542541
   0.80085127  0.32904117  0.18437607
   0.23780314  0.63869531  0.31814386
   0.34617716  0.60305419  0.05647018
   0.24976783  0.13589315  0.31993667
   0.80121108  0.87682066  0.18461442
   0.34617716  0.05624469  0.05647018
   0.56450041  0.99390147  0.25264219
   0.09516526  0.18175063  0.12156099
   0.34047062  0.60391201  0.02782883
   0.92434681  0.68523651  0.03696881
   0.34363348  0.06399961  0.02783421
   0.88838126  0.05560908  0.02665597
   0.50023273  0.78534761  0.40316699
   0.77534120  0.13243576  0.33903235
   0.17603025  0.25228011  0.33948854
   0.17293941  0.60279418  0.33926553
Direct configuration=     2
   0.22067121  0.89240241  0.08901558
   0.67722505  0.16544958  0.21842397
   0.94927612  0.02809995  0.15233499
   0.39288905  0.31106086  0.28498451
   0.44927612  0.52809995  0.15233499
   0.89805003  0.31220436  0.28426592
   0.44927612  0.02809995  0.15233499
   0.89667579  0.80212175  0.28414161
   0.90282244  0.55132680  0.10484543
   0.36206406  0.82505639  0.23359492
   0.99754020  0.50430177  0.20344626
   0.47118411  0.77103045  0.33760787
   0.53851998  0.23347802  0.07318573
   0.78870364  0.61372695  0.31234046
   0.87926422  0.06310591  0.05527763
   0.34221518  0.33008471  0.18308735
   0.58246139  0.21150732  0.12452493
   0.05033062  0.47796892  0.25686890
   0.45504390  0.70140855  0.38639797
   0.09516526  0.72856013  0.12156099
   0.56212030  0.45086606  0.25248223
   0.74566134  0.13691849  0.31414023
   0.85888103  0.57329750  0.05350623
   0.31275333  0.84749961  0.18055246
   0.56207820  0.72169891  0.12275353
   0.01790306  0.99439193  0.25575458
   0.80165118  0.32704582  0.18414282
   0.23588718  0.63670476  0.31753687
   0.34617716  0.60305419  0.05647018
   0.24703281  0.14205005  0.31936822
   0.80178879  0.87741851  0.18440788
   0.34617716  0.05624469  0.05647018
   0.56500193  0.99547230  0.25301473
   0.09516526  0.18175063  0.12156099
   0.34047062  0.60391201  0.02782883
   0.92434681  0.68523651  0.03696881
   0.34363348  0.06399961  0.02783421
   0.88838126  0.05560908  0.02665597
   0.49925001  0.78300637  0.40295778
   0.77579108  0.13198339  0.33903185
   0.17536979  0.25320144  0.33954347
   0.17252804  0.60215695  0.33934095
Direct configuration=     3
   0.22067121  0.89240241  0.08901558
   0.67740302  0.16550141  0.21836002
   0.94927612  0.02809995  0.15233499
   0.39226296  0.31162710  0.28509623
   0.44927612  0.52809995  0.15233499
   0.89810089  0.31066652  0.28421391
   0.44927612  0.02809995  0.15233499
   0.89615748  0.80356009  0.28410066
   0.90282244  0.55132680  0.10484543
   0.36266209  0.82479287  0.23362166
   0.99774970  0.50411822  0.20342745
   0.47260085  0.77009270  0.33773331
   0.53851998  0.23347802  0.07318573
   0.78221642  0.61550593  0.31305495
   0.87926422  0.06310591  0.05527763
   0.34184905  0.33116149  0.18323475
   0.58246139  0.21150732  0.12452493
   0.05204486  0.47539180  0.25678433
   0.45458213  0.70094677  0.38547150
   0.09516526  0.72856013  0.12156099
   0.56217564  0.45206992  0.25231282
   0.74493251  0.13849999  0.31426509
   0.85888103  0.57329750  0.05350623
   0.31250650  0.84709549  0.18069081
   0.56207820  0.72169891  0.12275353
   0.01904873  0.99584244  0.25554251
   0.80113582  0.32833136  0.18429309
   0.23712157  0.63798721  0.31792793
   0.34617716  0.60305419  0.05647018
   0.24879489  0.13808337  0.31973445
   0.80141659  0.87703334  0.18454095
   0.34617716  0.05624469  0.05647018
   0.56467882  0.99446027  0.25277472
   0.09516526  0.18175063  0.12156099
   0.34047062  0.60391201  0.02782883
   0.92434681  0.68523651  0.03696881
   0.34363348  0.06399961  0.02783421
   0.88838126  0.05560908  0.02665597
   0.49988314  0.78451475  0.40309256
   0.77550124  0.13227484  0.33903217
   0.17579530  0.25260786  0.33950808
   0.17279307  0.60256749  0.33929236
Direct configuration=     4
   0.22067121  0.89240241  0.08901558
   0.67737457  0.16549312  0.21837024
   0.94927612  0.02809995  0.15233499
   0.39236304  0.31153659  0.28507837
   0.44927612  0.52809995  0.15233499
   0.89809276  0.31091234  0.28422223
   0.44927612  0.02809995  0.15233499
   0.89624033  0.80333018  0.28410720
   0.90282244  0.55132680  0.10484543
   0.36256650  0.82483500  0.23361738
   0.99771621  0.50414756  0.20343046
   0.47237439  0.77024260  0.33771326
   0.53851998  0.23347802  0.07318573
   0.78325338  0.61522157  0.31294074
   0.87926422  0.06310591  0.05527763
   0.34190758  0.33098937  0.18321119
   0.58246139  0.21150732  0.12452493
   0.05177084  0.47580374  0.25679785
   0.45465594  0.70102059  0.38561959
   0.09516526  0.72856013  0.12156099
   0.56216679  0.45187749  0.25233990
   0.74504901  0.13824720  0.31424513
   0.85888103  0.57329750  0.05350623
   0.31254596  0.84716009  0.18066869
   0.56207820  0.72169891  0.12275353
   0.01886560  0.99561058  0.25557641
   0.80121820  0.32812587  0.18426907
   0.23692425  0.63778221  0.31786542
   0.34617716  0.60305419  0.05647018
   0.24851323  0.13871743  0.31967591
   0.80147608  0.87709490  0.18451968
   0.34617716  0.05624469  0.05647018
   0.56473047  0.99462204  0.25281308
   0.09516526  0.18175063  0.12156099
   0.34047062  0.60391201  0.02782883
   0.92434681  0.68523651  0.03696881
   0.34363348  0.06399961  0.02783421
   0.88838126  0.05560908  0.02665597
   0.49978194  0.78427364  0.40307102
   0.77554757  0.13222825  0.33903212
   0.17572728  0.25270274  0.33951373
   0.17275070  0.60250187  0.33930013
Direct configuration=     5
   0.22067121  0.89240241  0.08901558
   0.67729981  0.16547135  0.21839711
   0.94927612  0.02809995  0.15233499
   0.39262605  0.31129872  0.28503144
   0.44927612  0.52809995  0.15233499
   0.89807140  0.31155835  0.28424407
   0.44927612  0.02809995  0.15233499
   0.89645806  0.80272596  0.28412441
   0.90282244  0.55132680  0.10484543
   0.36231528  0.82494569  0.23360615
   0.99762820  0.50422467  0.20343836
   0.47177925  0.77063652  0.33766056
   0.53851998  0.23347802  0.07318573
   0.78597851  0.61447426  0.31264060
   0.87926422  0.06310591  0.05527763
   0.34206138  0.33053704  0.18314927
   0.58246139  0.21150732  0.12452493
   0.05105073  0.47688633  0.25683337
   0.45484992  0.70121457  0.38600878
   0.09516526  0.72856013  0.12156099
   0.56214354  0.45137178  0.25241107
   0.74535518  0.13758284  0.31419268
   0.85888103  0.57329750  0.05350623
   0.31264964  0.84732985  0.18061057
   0.56207820  0.72169891  0.12275353
   0.01838433  0.99500126  0.25566549
   0.80143469  0.32758584  0.18420594
   0.23640572  0.63724349  0.31770115
   0.34617716  0.60305419  0.05647018
   0.24777302  0.14038374  0.31952206
   0.80163244  0.87725671  0.18446378
   0.34617716  0.05624469  0.05647018
   0.56486620  0.99504717  0.25291391
   0.09516526  0.18175063  0.12156099
   0.34047062  0.60391201  0.02782883
   0.92434681  0.68523651  0.03696881
   0.34363348  0.06399961  0.02783421
   0.88838126  0.05560908  0.02665597
   0.49951597  0.78364000  0.40301440
   0.77566932  0.13210582  0.33903199
   0.17554853  0.25295209  0.33952860
   0.17263937  0.60232941  0.33932054
Direct configuration=     6
   0.22067121  0.89240241  0.08901558
   0.67733699  0.16548218  0.21838375
   0.94927612  0.02809995  0.15233499
   0.39249524  0.31141703  0.28505478
   0.44927612  0.52809995  0.15233499
   0.89808202  0.31123706  0.28423321
   0.44927612  0.02809995  0.15233499
   0.89634977  0.80302647  0.28411585
   0.90282244  0.55132680  0.10484543
   0.36244022  0.82489064  0.23361174
   0.99767197  0.50418632  0.20343443
   0.47207524  0.77044060  0.33768677
   0.53851998  0.23347802  0.07318573
   0.78462318  0.61484593  0.31278988
   0.87926422  0.06310591  0.05527763
   0.34198489  0.33076200  0.18318006
   0.58246139  0.21150732  0.12452493
   0.05140888  0.47634791  0.25681570
   0.45475345  0.70111809  0.38581522
   0.09516526  0.72856013  0.12156099
   0.56215511  0.45162329  0.25237567
   0.74520291  0.13791326  0.31421877
   0.85888103  0.57329750  0.05350623
   0.31259807  0.84724542  0.18063948
   0.56207820  0.72169891  0.12275353
   0.01862369  0.99530430  0.25562119
   0.80132702  0.32785442  0.18423734
   0.23666361  0.63751142  0.31778285
   0.34617716  0.60305419  0.05647018
   0.24814116  0.13955500  0.31959858
   0.80155468  0.87717623  0.18449158
   0.34617716  0.05624469  0.05647018
   0.56479869  0.99483573  0.25286376
   0.09516526  0.18175063  0.12156099
   0.34047062  0.60391201  0.02782883
   0.92434681  0.68523651  0.03696881
   0.34363348  0.06399961  0.02783421
   0.88838126  0.05560908  0.02665597
   0.49964825  0.78395514  0.40304256
   0.77560877  0.13216671  0.33903205
   0.17563743  0.25282808  0.33952121
   0.17269474  0.60241518  0.33931039
Direct configuration=     7
   0.22067121  0.89240241  0.08901558
   0.67743564  0.16524740  0.21839964
   0.94927612  0.02809995  0.15233499
   0.39310587  0.31089832  0.28496544
   0.44927612  0.52809995  0.15233499
   0.89834603  0.31191484  0.28425797
   0.44927612  0.02809995  0.15233499
   0.89714003  0.80214383  0.28413499
   0.90282244  0.55132680  0.10484543
   0.36170093  0.82524937  0.23359178
   0.99750146  0.50434210  0.20342867
   0.47131428  0.77079349  0.33770817
   0.53851998  0.23347802  0.07318573
   0.78977706  0.61344676  0.31225653
   0.87926422  0.06310591  0.05527763
   0.34221972  0.32982321  0.18307270
   0.58246139  0.21150732  0.12452493
   0.05001316  0.47859055  0.25682837
   0.45376902  0.69900941  0.38599628
   0.09516526  0.72856013  0.12156099
   0.56169833  0.45057278  0.25256683
   0.74596536  0.13649106  0.31416516
   0.85888103  0.57329750  0.05350623
   0.31283820  0.84758375  0.18054270
   0.56207820  0.72169891  0.12275353
   0.01765372  0.99414250  0.25579718
   0.80176742  0.32673507  0.18413555
   0.23538256  0.63577201  0.31748756
   0.34617716  0.60305419  0.05647018
   0.24646622  0.14368140  0.31920869
   0.80186608  0.87748741  0.18440202
   0.34617716  0.05624469  0.05647018
   0.56459867  0.99612166  0.25311658
   0.09516526  0.18175063  0.12156099
   0.34047062  0.60391201  0.02782883
   0.92434681  0.68523651  0.03696881
   0.34363348  0.06399961  0.02783421
   0.88838126  0.05560908  0.02665597
   0.50050294  0.78514627  0.40350133
   0.77575631  0.13188492  0.33897032
   0.17528634  0.25337213  0.33952554
   0.17282486  0.60213253  0.33922800
Direct configuration=     8
   0.22067121  0.89240241  0.08901558
   0.67745419  0.16520327  0.21840263
   0.94927612  0.02809995  0.15233499
   0.39322065  0.31080081  0.28494865
   0.44927612  0.52809995  0.15233499
   0.89839565  0.31204224  0.28426263
   0.44927612  0.02809995  0.15233499
   0.89728857  0.80197792  0.28413858
   0.90282244  0.55132680  0.10484543
   0.36156196  0.82531680  0.23358803
   0.99746941  0.50437138  0.20342758
   0.47117124  0.77085982  0.33771219
   0.53851998  0.23347802  0.07318573
   0.79074584  0.61318376  0.31215627
   0.87926422  0.06310591  0.05527763
   0.34226386  0.32964675  0.18305252
   0.58246139  0.21150732  0.12452493
   0.04975081  0.47901210  0.25683075
   0.45358397  0.69861304  0.38603031
   0.09516526  0.72856013  0.12156099
   0.56161246  0.45037531  0.25260276
   0.74610868  0.13622373  0.31415509
   0.85888103  0.57329750  0.05350623
   0.31288334  0.84764735  0.18052451
   0.56207820  0.72169891  0.12275353
   0.01747139  0.99392412  0.25583027
   0.80185020  0.32652466  0.18411642
   0.23514176  0.63544506  0.31743206
   0.34617716  0.60305419  0.05647018
   0.24615138  0.14445704  0.31913541
   0.80192461  0.87754591  0.18438519
   0.34617716  0.05624469  0.05647018
   0.56456107  0.99636338  0.25316410
   0.09516526  0.18175063  0.12156099
   0.34047062  0.60391201  0.02782883
   0.92434681  0.68523651  0.03696881
   0.34363348  0.06399961  0.02783421
   0.88838126  0.05560908  0.02665597
   0.50066360  0.78537017  0.40358756
   0.77578405  0.13183195  0.33895872
   0.17522035  0.25347440  0.33952635
   0.17284932  0.60207940  0.33921251
Direct configuration=     9
   0.22067121  0.89240241  0.08901558
   0.67744286  0.16523022  0.21840080
   0.94927612  0.02809995  0.15233499
   0.39315055  0.31086036  0.28495891
   0.44927612  0.52809995  0.15233499
   0.89836535  0.31196444  0.28425978
   0.44927612  0.02809995  0.15233499
   0.89719786  0.80207924  0.28413639
   0.90282244  0.55132680  0.10484543
   0.36164682  0.82527562  0.23359032
   0.99748898  0.50435350  0.20342824
   0.47125859  0.77081932  0.33770974
   0.53851998  0.23347802  0.07318573
   0.79015423  0.61334437  0.31221750
   0.87926422  0.06310591  0.05527763
   0.34223691  0.32975451  0.18306484
   0.58246139  0.21150732  0.12452493
   0.04991102  0.47875467  0.25682930
   0.45369697  0.69885509  0.38600953
   0.09516526  0.72856013  0.12156099
   0.56166490  0.45049590  0.25258082
   0.74602116  0.13638698  0.31416124
   0.85888103  0.57329750  0.05350623
   0.31285577  0.84760851  0.18053561
   0.56207820  0.72169891  0.12275353
   0.01758273  0.99405748  0.25581006
   0.80179965  0.32665315  0.18412810
   0.23528881  0.63564472  0.31746595
   0.34617716  0.60305419  0.05647018
   0.24634364  0.14398337  0.31918016
   0.80188887  0.87751019  0.18439547
   0.34617716  0.05624469  0.05647018
   0.56458403  0.99621577  0.25313508
   0.09516526  0.18175063  0.12156099
   0.34047062  0.60391201  0.02782883
   0.92434681  0.68523651  0.03696881
   0.34363348  0.06399961  0.02783421
   0.88838126  0.05560908  0.02665597
   0.50056549  0.78523344  0.40353490
   0.77576711  0.13186429  0.33896580
   0.17526065  0.25341195  0.33952585
   0.17283438  0.60211184  0.33922197
Direct configuration=    10
   0.22067121  0.89240241  0.08901558
   0.67744722  0.16521984  0.21840151
   0.94927612  0.02809995  0.15233499
   0.39317756  0.31083741  0.28495496
   0.44927612  0.52809995  0.15233499
   0.89837703  0.31199442  0.28426088
   0.44927612  0.02809995  0.15233499
   0.89723282  0.80204020  0.28413723
   0.90282244  0.55132680  0.10484543
   0.36161412  0.82529149  0.23358943
   0.99748144  0.50436039  0.20342799
   0.47122493  0.77083492  0.33771068
   0.53851998  0.23347802  0.07318573
   0.79038220  0.61328248  0.31219390
   0.87926422  0.06310591  0.05527763
   0.34224729  0.32971299  0.18306009
   0.58246139  0.21150732  0.12452493
   0.04984928  0.47885387  0.25682986
   0.45365343  0.69876182  0.38601754
   0.09516526  0.72856013  0.12156099
   0.56164469  0.45044943  0.25258928
   0.74605488  0.13632408  0.31415887
   0.85888103  0.57329750  0.05350623
   0.31286640  0.84762348  0.18053133
   0.56207820  0.72169891  0.12275353
   0.01753983  0.99400609  0.25581785
   0.80181913  0.32660364  0.18412360
   0.23523215  0.63556778  0.31745289
   0.34617716  0.60305419  0.05647018
   0.24626956  0.14416589  0.31916291
   0.80190264  0.87752395  0.18439150
   0.34617716  0.05624469  0.05647018
   0.56457519  0.99627265  0.25314627
   0.09516526  0.18175063  0.12156099
   0.34047062  0.60391201  0.02782883
   0.92434681  0.68523651  0.03696881
   0.34363348  0.06399961  0.02783421
   0.88838126  0.05560908  0.02665597
   0.50060329  0.78528612  0.40355519
   0.77577364  0.13185183  0.33896307
   0.17524512  0.25343601  0.33952604
   0.17284014  0.60209934  0.33921832
Direct configuration=    11
   0.22067121  0.89240241  0.08901558
   0.67745071  0.16521156  0.21840207
   0.94927612  0.02809995  0.15233499
   0.39319911  0.31081911  0.28495180
   0.44927612  0.52809995  0.15233499
   0.89838634  0.31201833  0.28426175
   0.44927612  0.02809995  0.15233499
   0.89726069  0.80200906  0.28413791
   0.90282244  0.55132680  0.10484543
   0.36158804  0.82530415  0.23358873
   0.99747543  0.50436589  0.20342779
   0.47119809  0.77084737  0.33771144
   0.53851998  0.23347802  0.07318573
   0.79056402  0.61323312  0.31217509
   0.87926422  0.06310591  0.05527763
   0.34225558  0.32967987  0.18305630
   0.58246139  0.21150732  0.12452493
   0.04980005  0.47893299  0.25683030
   0.45361870  0.69868743  0.38602392
   0.09516526  0.72856013  0.12156099
   0.56162858  0.45041237  0.25259602
   0.74608178  0.13627391  0.31415698
   0.85888103  0.57329750  0.05350623
   0.31287487  0.84763541  0.18052792
   0.56207820  0.72169891  0.12275353
   0.01750561  0.99396511  0.25582406
   0.80183467  0.32656415  0.18412001
   0.23518695  0.63550642  0.31744247
   0.34617716  0.60305419  0.05647018
   0.24621047  0.14431146  0.31914916
   0.80191363  0.87753493  0.18438835
   0.34617716  0.05624469  0.05647018
   0.56456813  0.99631802  0.25315518
   0.09516526  0.18175063  0.12156099
   0.34047062  0.60391201  0.02782883
   0.92434681  0.68523651  0.03696881
   0.34363348  0.06399961  0.02783421
   0.88838126  0.05560908  0.02665597
   0.50063345  0.78532814  0.40357138
   0.77577884  0.13184189  0.33896090
   0.17523274  0.25345521  0.33952620
   0.17284473  0.60208937  0.33921542
Direct configuration=    12
   0.22067121  0.89240241  0.08901558
   0.67744803  0.16521793  0.21840164
   0.94927612  0.02809995  0.15233499
   0.39318252  0.31083320  0.28495423
   0.44927612  0.52809995  0.15233499
   0.89837917  0.31199993  0.28426108
   0.44927612  0.02809995  0.15233499
   0.89723923  0.80203303  0.28413739
   0.90282244  0.55132680  0.10484543
   0.36160812  0.82529441  0.23358927
   0.99748006  0.50436166  0.20342794
   0.47121875  0.77083779  0.33771086
   0.53851998  0.23347802  0.07318573
   0.79042405  0.61327111  0.31218957
   0.87926422  0.06310591  0.05527763
   0.34224920  0.32970536  0.18305922
   0.58246139  0.21150732  0.12452493
   0.04983795  0.47887208  0.25682996
   0.45364543  0.69874470  0.38601901
   0.09516526  0.72856013  0.12156099
   0.56164098  0.45044090  0.25259083
   0.74606107  0.13631253  0.31415843
   0.85888103  0.57329750  0.05350623
   0.31286835  0.84762622  0.18053055
   0.56207820  0.72169891  0.12275353
   0.01753195  0.99399666  0.25581928
   0.80182271  0.32659455  0.18412277
   0.23522174  0.63555366  0.31745049
   0.34617716  0.60305419  0.05647018
   0.24625595  0.14419940  0.31915975
   0.80190517  0.87752648  0.18439078
   0.34617716  0.05624469  0.05647018
   0.56457356  0.99628309  0.25314832
   0.09516526  0.18175063  0.12156099
   0.34047062  0.60391201  0.02782883
   0.92434681  0.68523651  0.03696881
   0.34363348  0.06399961  0.02783421
   0.88838126  0.05560908  0.02665597
   0.50061023  0.78529580  0.40355892
   0.77577483  0.13184954  0.33896257
   0.17524227  0.25344043  0.33952608
   0.17284120  0.60209704  0.33921766
Direct configuration=    13
   0.22067121  0.89240241  0.08901558
   0.67744937  0.16521474  0.21840185
   0.94927612  0.02809995  0.15233499
   0.39319081  0.31082616  0.28495302
   0.44927612  0.52809995  0.15233499
   0.89838276  0.31200913  0.28426142
   0.44927612  0.02809995  0.15233499
   0.89724996  0.80202105  0.28413765
   0.90282244  0.55132680  0.10484543
   0.36159808  0.82529928  0.23358900
   0.99747774  0.50436377  0.20342786
   0.47120842  0.77084258  0.33771115
   0.53851998  0.23347802  0.07318573
   0.79049403  0.61325212  0.31218233
   0.87926422  0.06310591  0.05527763
   0.34225239  0.32969261  0.18305776
   0.58246139  0.21150732  0.12452493
   0.04981900  0.47890254  0.25683013
   0.45363207  0.69871607  0.38602146
   0.09516526  0.72856013  0.12156099
   0.56163478  0.45042664  0.25259342
   0.74607143  0.13629322  0.31415771
   0.85888103  0.57329750  0.05350623
   0.31287161  0.84763082  0.18052923
   0.56207820  0.72169891  0.12275353
   0.01751878  0.99398088  0.25582167
   0.80182869  0.32657935  0.18412139
   0.23520435  0.63553004  0.31744648
   0.34617716  0.60305419  0.05647018
   0.24623321  0.14425543  0.31915445
   0.80190940  0.87753070  0.18438956
   0.34617716  0.05624469  0.05647018
   0.56457084  0.99630056  0.25315175
   0.09516526  0.18175063  0.12156099
   0.34047062  0.60391201  0.02782883
   0.92434681  0.68523651  0.03696881
   0.34363348  0.06399961  0.02783421
   0.88838126  0.05560908  0.02665597
   0.50062184  0.78531197  0.40356515
   0.77577684  0.13184571  0.33896173
   0.17523750  0.25344782  0.33952614
   0.17284296  0.60209321  0.33921654
Direct configuration=    14
   0.22067121  0.89240241  0.08901558
   0.67744834  0.16521718  0.21840169
   0.94927612  0.02809995  0.15233499
   0.39318447  0.31083154  0.28495394
   0.44927612  0.52809995  0.15233499
   0.89838001  0.31200209  0.28426116
   0.44927612  0.02809995  0.15233499
   0.89724176  0.80203021  0.28413745
   0.90282244  0.55132680  0.10484543
   0.36160576  0.82529555  0.23358921
   0.99747951  0.50436216  0.20342792
   0.47121632  0.77083892  0.33771093
   0.53851998  0.23347802  0.07318573
   0.79044052  0.61326664  0.31218787
   0.87926422  0.06310591  0.05527763
   0.34224995  0.32970236  0.18305888
   0.58246139  0.21150732  0.12452493
   0.04983349  0.47887925  0.25683000
   0.45364229  0.69873796  0.38601958
   0.09516526  0.72856013  0.12156099
   0.56163952  0.45043754  0.25259144
   0.74606351  0.13630799  0.31415826
   0.85888103  0.57329750  0.05350623
   0.31286911  0.84762730  0.18053024
   0.56207820  0.72169891  0.12275353
   0.01752885  0.99399295  0.25581984
   0.80182411  0.32659097  0.18412245
   0.23521765  0.63554810  0.31744955
   0.34617716  0.60305419  0.05647018
   0.24625060  0.14421259  0.31915850
   0.80190617  0.87752747  0.18439049
   0.34617716  0.05624469  0.05647018
   0.56457292  0.99628720  0.25314913
   0.09516526  0.18175063  0.12156099
   0.34047062  0.60391201  0.02782883
   0.92434681  0.68523651  0.03696881
   0.34363348  0.06399961  0.02783421
   0.88838126  0.05560908  0.02665597
   0.50061296  0.78529960  0.40356038
   0.77577531  0.13184864  0.33896237
   0.17524115  0.25344217  0.33952609
   0.17284161  0.60209614  0.33921739
Direct configuration=    15
   0.22067121  0.89240241  0.08901558
   0.67744885  0.16521596  0.21840177
   0.94927612  0.02809995  0.15233499
   0.39318764  0.31082885  0.28495348
   0.44927612  0.52809995  0.15233499
   0.89838138  0.31200561  0.28426129
   0.44927612  0.02809995  0.15233499
   0.89724586  0.80202563  0.28413755
   0.90282244  0.55132680  0.10484543
   0.36160192  0.82529741  0.23358910
   0.99747863  0.50436296  0.20342789
   0.47121237  0.77084075  0.33771104
   0.53851998  0.23347802  0.07318573
   0.79046727  0.61325938  0.31218510
   0.87926422  0.06310591  0.05527763
   0.34225117  0.32969749  0.18305832
   0.58246139  0.21150732  0.12452493
   0.04982624  0.47889089  0.25683007
   0.45363718  0.69872701  0.38602052
   0.09516526  0.72856013  0.12156099
   0.56163715  0.45043209  0.25259243
   0.74606747  0.13630060  0.31415798
   0.85888103  0.57329750  0.05350623
   0.31287036  0.84762906  0.18052974
   0.56207820  0.72169891  0.12275353
   0.01752382  0.99398691  0.25582075
   0.80182640  0.32658516  0.18412192
   0.23521100  0.63553907  0.31744802
   0.34617716  0.60305419  0.05647018
   0.24624191  0.14423401  0.31915648
   0.80190778  0.87752909  0.18439003
   0.34617716  0.05624469  0.05647018
   0.56457188  0.99629388  0.25315044
   0.09516526  0.18175063  0.12156099
   0.34047062  0.60391201  0.02782883
   0.92434681  0.68523651  0.03696881
   0.34363348  0.06399961  0.02783421
   0.88838126  0.05560908  0.02665597
   0.50061740  0.78530579  0.40356277
   0.77577607  0.13184718  0.33896205
   0.17523933  0.25344500  0.33952612
   0.17284229  0.60209467  0.33921696
Direct configuration=    16
   0.22067121  0.89240241  0.08901558
   0.67744847  0.16521687  0.21840171
   0.94927612  0.02809995  0.15233499
   0.39318528  0.31083085  0.28495383
   0.44927612  0.52809995  0.15233499
   0.89838036  0.31200299  0.28426119
   0.44927612  0.02809995  0.15233499
   0.89724280  0.80202904  0.28413748
   0.90282244  0.55132680  0.10484543
   0.36160478  0.82529603  0.23358918
   0.99747929  0.50436236  0.20342792
   0.47121531  0.77083939  0.33771095
   0.53851998  0.23347802  0.07318573
   0.79044735  0.61326479  0.31218716
   0.87926422  0.06310591  0.05527763
   0.34225026  0.32970112  0.18305874
   0.58246139  0.21150732  0.12452493
   0.04983164  0.47888222  0.25683002
   0.45364098  0.69873517  0.38601982
   0.09516526  0.72856013  0.12156099
   0.56163892  0.45043615  0.25259169
   0.74606452  0.13630610  0.31415819
   0.85888103  0.57329750  0.05350623
   0.31286943  0.84762775  0.18053011
   0.56207820  0.72169891  0.12275353
   0.01752757  0.99399141  0.25582007
   0.80182470  0.32658949  0.18412231
   0.23521595  0.63554580  0.31744916
   0.34617716  0.60305419  0.05647018
   0.24624838  0.14421805  0.31915799
   0.80190658  0.87752788  0.18439037
   0.34617716  0.05624469  0.05647018
   0.56457266  0.99628891  0.25314946
   0.09516526  0.18175063  0.12156099
   0.34047062  0.60391201  0.02782883
   0.92434681  0.68523651  0.03696881
   0.34363348  0.06399961  0.02783421
   0.88838126  0.05560908  0.02665597
   0.50061410  0.78530118  0.40356099
   0.77577550  0.13184827  0.33896229
   0.17524068  0.25344289  0.33952610
   0.17284178  0.60209577  0.33921728
Direct configuration=    17
   0.22067121  0.89240241  0.08901558
   0.67744837  0.16521711  0.21840169
   0.94927612  0.02809995  0.15233499
   0.39318466  0.31083139  0.28495392
   0.44927612  0.52809995  0.15233499
   0.89838009  0.31200229  0.28426117
   0.44927612  0.02809995  0.15233499
   0.89724199  0.80202995  0.28413746
   0.90282244  0.55132680  0.10484543
   0.36160553  0.82529566  0.23358920
   0.99747946  0.50436220  0.20342792
   0.47121609  0.77083902  0.33771093
   0.53851998  0.23347802  0.07318573
   0.79044206  0.61326623  0.31218771
   0.87926422  0.06310591  0.05527763
   0.34225002  0.32970208  0.18305885
   0.58246139  0.21150732  0.12452493
   0.04983307  0.47887992  0.25683000
   0.45364199  0.69873733  0.38601964
   0.09516526  0.72856013  0.12156099
   0.56163939  0.45043723  0.25259150
   0.74606374  0.13630756  0.31415825
   0.85888103  0.57329750  0.05350623
   0.31286918  0.84762741  0.18053021
   0.56207820  0.72169891  0.12275353
   0.01752856  0.99399260  0.25581989
   0.80182424  0.32659064  0.18412242
   0.23521727  0.63554758  0.31744946
   0.34617716  0.60305419  0.05647018
   0.24625010  0.14421382  0.31915839
   0.80190626  0.87752757  0.18439046
   0.34617716  0.05624469  0.05647018
   0.56457286  0.99628759  0.25314920
   0.09516526  0.18175063  0.12156099
   0.34047062  0.60391201  0.02782883
   0.92434681  0.68523651  0.03696881
   0.34363348  0.06399961  0.02783421
   0.88838126  0.05560908  0.02665597
   0.50061322  0.78529996  0.40356052
   0.77577535  0.13184856  0.33896236
   0.17524104  0.25344233  0.33952609
   0.17284165  0.60209606  0.33921737
Direct configuration=    18
   0.22067121  0.89240241  0.08901558
   0.67768963  0.16498694  0.21838635
   0.94927612  0.02809995  0.15233499
   0.39310076  0.31092311  0.28497300
   0.44927612  0.52809995  0.15233499
   0.89889962  0.31096244  0.28420093
   0.44927612  0.02809995  0.15233499
   0.89784994  0.80270689  0.28408847
   0.90282244  0.55132680  0.10484543
   0.36138908  0.82543061  0.23361086
   0.99745939  0.50437392  0.20340191
   0.47172558  0.77049425  0.33779585
   0.53851998  0.23347802  0.07318573
   0.78962445  0.61343664  0.31234734
   0.87926422  0.06310591  0.05527763
   0.34212267  0.32969534  0.18308419
   0.58246139  0.21150732  0.12452493
   0.04990293  0.47890366  0.25671393
   0.45344107  0.69838846  0.38595434
   0.09516526  0.72856013  0.12156099
   0.56132523  0.45068191  0.25259097
   0.74626738  0.13619237  0.31418530
   0.85888103  0.57329750  0.05350623
   0.31292991  0.84759057  0.18056627
   0.56207820  0.72169891  0.12275353
   0.01758917  0.99416819  0.25580241
   0.80185061  0.32657600  0.18416097
   0.23505065  0.63513098  0.31747410
   0.34617716  0.60305419  0.05647018
   0.24590495  0.14489027  0.31911169
   0.80193156  0.87744181  0.18442321
   0.34617716  0.05624469  0.05647018
   0.56410893  0.99636038  0.25315530
   0.09516526  0.18175063  0.12156099
   0.34047062  0.60391201  0.02782883
   0.92434681  0.68523651  0.03696881
   0.34363348  0.06399961  0.02783421
   0.88838126  0.05560908  0.02665597
   0.50075259  0.78544092  0.40367185
   0.77572520  0.13174876  0.33891730
   0.17528663  0.25345904  0.33946112
   0.17314877  0.60206906  0.33909183
Direct configuration=    19
   0.22067121  0.89240241  0.08901558
   0.67782809  0.16485484  0.21837755
   0.94927612  0.02809995  0.15233499
   0.39305261  0.31097575  0.28498395
   0.44927612  0.52809995  0.15233499
   0.89919778  0.31036567  0.28416636
   0.44927612  0.02809995  0.15233499
   0.89819885  0.80309539  0.28406035
   0.90282244  0.55132680  0.10484543
   0.36126485  0.82550805  0.23362329
   0.99744786  0.50438065  0.20338698
   0.47201798  0.77029638  0.33784458
   0.53851998  0.23347802  0.07318573
   0.78915522  0.61353445  0.31243895
   0.87926422  0.06310591  0.05527763
   0.34204959  0.32969147  0.18309874
   0.58246139  0.21150732  0.12452493
   0.04994303  0.47891729  0.25664731
   0.45332576  0.69818825  0.38591686
   0.09516526  0.72856013  0.12156099
   0.56114493  0.45082234  0.25259066
   0.74638426  0.13612627  0.31420082
   0.85888103  0.57329750  0.05350623
   0.31296477  0.84756944  0.18058697
   0.56207820  0.72169891  0.12275353
   0.01762396  0.99426896  0.25579237
   0.80186574  0.32656760  0.18418310
   0.23495503  0.63489189  0.31748824
   0.34617716  0.60305419  0.05647018
   0.24570686  0.14527850  0.31908489
   0.80194608  0.87739259  0.18444201
   0.34617716  0.05624469  0.05647018
   0.56384268  0.99640216  0.25315880
   0.09516526  0.18175063  0.12156099
   0.34047062  0.60391201  0.02782883
   0.92434681  0.68523651  0.03696881
   0.34363348  0.06399961  0.02783421
   0.88838126  0.05560908  0.02665597
   0.50083258  0.78552182  0.40373574
   0.77569642  0.13169148  0.33889145
   0.17531278  0.25346863  0.33942383
   0.17332503  0.60205357  0.33901978
Direct configuration=    20
   0.22067121  0.89240241  0.08901558
   0.67789381  0.16466866  0.21840648
   0.94927612  0.02809995  0.15233499
   0.39273822  0.31121517  0.28500312
   0.44927612  0.52809995  0.15233499
   0.89971701  0.30979522  0.28411988
   0.44927612  0.02809995  0.15233499
   0.89883877  0.80334719  0.28404786
   0.90282244  0.55132680  0.10484543
   0.36125745  0.82554677  0.23366597
   0.99738218  0.50441177  0.20334612
   0.47242864  0.77009471  0.33792536
   0.53851998  0.23347802  0.07318573
   0.78858763  0.61363854  0.31256562
   0.87926422  0.06310591  0.05527763
   0.34193280  0.32962616  0.18312046
   0.58246139  0.21150732  0.12452493
   0.04999079  0.47909136  0.25649624
   0.45340427  0.69835938  0.38603651
   0.09516526  0.72856013  0.12156099
   0.56108706  0.45136336  0.25251064
   0.74659108  0.13591342  0.31414231
   0.85888103  0.57329750  0.05350623
   0.31307737  0.84751502  0.18063015
   0.56207820  0.72169891  0.12275353
   0.01778325  0.99441445  0.25574400
   0.80195903  0.32645039  0.18422777
   0.23500982  0.63496087  0.31742248
   0.34617716  0.60305419  0.05647018
   0.24520294  0.14570275  0.31903232
   0.80203491  0.87728746  0.18447661
   0.34617716  0.05624469  0.05647018
   0.56353570  0.99592910  0.25308969
   0.09516526  0.18175063  0.12156099
   0.34047062  0.60391201  0.02782883
   0.92434681  0.68523651  0.03696881
   0.34363348  0.06399961  0.02783421
   0.88838126  0.05560908  0.02665597
   0.50061710  0.78492108  0.40375937
   0.77577104  0.13147879  0.33890039
   0.17515350  0.25375203  0.33935884
   0.17329543  0.60182923  0.33897028
Direct configuration=    21
   0.22067121  0.89240241  0.08901558
   0.67791435  0.16461046  0.21841552
   0.94927612  0.02809995  0.15233499
   0.39263994  0.31129001  0.28500911
   0.44927612  0.52809995  0.15233499
   0.89987932  0.30961691  0.28410535
   0.44927612  0.02809995  0.15233499
   0.89903880  0.80342589  0.28404395
   0.90282244  0.55132680  0.10484543
   0.36125513  0.82555888  0.23367931
   0.99736165  0.50442149  0.20333335
   0.47255701  0.77003166  0.33795061
   0.53851998  0.23347802  0.07318573
   0.78841021  0.61367107  0.31260521
   0.87926422  0.06310591  0.05527763
   0.34189630  0.32960575  0.18312724
   0.58246139  0.21150732  0.12452493
   0.05000572  0.47914578  0.25644901
   0.45342881  0.69841288  0.38607391
   0.09516526  0.72856013  0.12156099
   0.56106897  0.45153248  0.25248562
   0.74665573  0.13584689  0.31412402
   0.85888103  0.57329750  0.05350623
   0.31311256  0.84749801  0.18064365
   0.56207820  0.72169891  0.12275353
   0.01783305  0.99445993  0.25572889
   0.80198820  0.32641375  0.18424174
   0.23502694  0.63498244  0.31740193
   0.34617716  0.60305419  0.05647018
   0.24504542  0.14583537  0.31901589
   0.80206268  0.87725459  0.18448743
   0.34617716  0.05624469  0.05647018
   0.56343975  0.99578123  0.25306809
   0.09516526  0.18175063  0.12156099
   0.34047062  0.60391201  0.02782883
   0.92434681  0.68523651  0.03696881
   0.34363348  0.06399961  0.02783421
   0.88838126  0.05560908  0.02665597
   0.50054974  0.78473329  0.40376676
   0.77579436  0.13141231  0.33890318
   0.17510370  0.25384062  0.33933852
   0.17328617  0.60175910  0.33895481
Direct configuration=    22
   0.22067121  0.89240241  0.08901558
   0.67783878  0.16453404  0.21843605
   0.94927612  0.02809995  0.15233499
   0.39260042  0.31135053  0.28497368
   0.44927612  0.52809995  0.15233499
   0.90004913  0.31011608  0.28411182
   0.44927612  0.02809995  0.15233499
   0.89923315  0.80286352  0.28408327
   0.90282244  0.55132680  0.10484543
   0.36122314  0.82558030  0.23369462
   0.99730540  0.50443130  0.20328645
   0.47265065  0.77004058  0.33801437
   0.53851998  0.23347802  0.07318573
   0.78869796  0.61356659  0.31259161
   0.87926422  0.06310591  0.05527763
   0.34189421  0.32950330  0.18312537
   0.58246139  0.21150732  0.12452493
   0.04990731  0.47947568  0.25636537
   0.45338787  0.69840254  0.38617054
   0.09516526  0.72856013  0.12156099
   0.56099949  0.45162900  0.25246036
   0.74686874  0.13560168  0.31409657
   0.85888103  0.57329750  0.05350623
   0.31323382  0.84743807  0.18066305
   0.56207820  0.72169891  0.12275353
   0.01799596  0.99448056  0.25567401
   0.80208302  0.32621703  0.18426451
   0.23533332  0.63511817  0.31728238
   0.34617716  0.60305419  0.05647018
   0.24491928  0.14580163  0.31890175
   0.80215175  0.87722211  0.18449959
   0.34617716  0.05624469  0.05647018
   0.56320613  0.99573821  0.25305572
   0.09516526  0.18175063  0.12156099
   0.34047062  0.60391201  0.02782883
   0.92434681  0.68523651  0.03696881
   0.34363348  0.06399961  0.02783421
   0.88838126  0.05560908  0.02665597
   0.50045318  0.78431695  0.40383743
   0.77586572  0.13118881  0.33887836
   0.17469744  0.25447873  0.33932702
   0.17308478  0.60144514  0.33895218
Direct configuration=    23
   0.22067121  0.89240241  0.08901558
   0.67778410  0.16447873  0.21845091
   0.94927612  0.02809995  0.15233499
   0.39257182  0.31139432  0.28494805
   0.44927612  0.52809995  0.15233499
   0.90017200  0.31047730  0.28411650
   0.44927612  0.02809995  0.15233499
   0.89937379  0.80245656  0.28411173
   0.90282244  0.55132680  0.10484543
   0.36119999  0.82559580  0.23370569
   0.99726469  0.50443839  0.20325251
   0.47271841  0.77004704  0.33806051
   0.53851998  0.23347802  0.07318573
   0.78890619  0.61349098  0.31258176
   0.87926422  0.06310591  0.05527763
   0.34189270  0.32942916  0.18312401
   0.58246139  0.21150732  0.12452493
   0.04983610  0.47971440  0.25630484
   0.45335825  0.69839507  0.38624046
   0.09516526  0.72856013  0.12156099
   0.56094922  0.45169885  0.25244209
   0.74702289  0.13542423  0.31407671
   0.85888103  0.57329750  0.05350623
   0.31332157  0.84739469  0.18067709
   0.56207820  0.72169891  0.12275353
   0.01811384  0.99449549  0.25563430
   0.80215164  0.32607468  0.18428099
   0.23555502  0.63521640  0.31719587
   0.34617716  0.60305419  0.05647018
   0.24482800  0.14577721  0.31881916
   0.80221620  0.87719860  0.18450839
   0.34617716  0.05624469  0.05647018
   0.56303708  0.99570708  0.25304677
   0.09516526  0.18175063  0.12156099
   0.34047062  0.60391201  0.02782883
   0.92434681  0.68523651  0.03696881
   0.34363348  0.06399961  0.02783421
   0.88838126  0.05560908  0.02665597
   0.50038330  0.78401568  0.40388857
   0.77591736  0.13102707  0.33886040
   0.17440345  0.25494048  0.33931871
   0.17293904  0.60121795  0.33895027
Direct configuration=    24
   0.22067121  0.89240241  0.08901558
   0.67775884  0.16441792  0.21845753
   0.94927612  0.02809995  0.15233499
   0.39265352  0.31137082  0.28491055
   0.44927612  0.52809995  0.15233499
   0.90027408  0.31075044  0.28411510
   0.44927612  0.02809995  0.15233499
   0.89948148  0.80215421  0.28412730
   0.90282244  0.55132680  0.10484543
   0.36112217  0.82562902  0.23370901
   0.99723510  0.50443525  0.20321746
   0.47277144  0.77006096  0.33810846
   0.53851998  0.23347802  0.07318573
   0.78915041  0.61341329  0.31256975
   0.87926422  0.06310591  0.05527763
   0.34190833  0.32935986  0.18311929
   0.58246139  0.21150732  0.12452493
   0.04974331  0.47996135  0.25625970
   0.45325913  0.69827794  0.38627807
   0.09516526  0.72856013  0.12156099
   0.56084089  0.45164306  0.25244903
   0.74717938  0.13525301  0.31405983
   0.85888103  0.57329750  0.05350623
   0.31340813  0.84734752  0.18068507
   0.56207820  0.72169891  0.12275353
   0.01815300  0.99452901  0.25560803
   0.80220768  0.32593374  0.18429270
   0.23567054  0.63514082  0.31715760
   0.34617716  0.60305419  0.05647018
   0.24467097  0.14597835  0.31876887
   0.80226650  0.87719074  0.18451240
   0.34617716  0.05624469  0.05647018
   0.56283782  0.99585621  0.25306287
   0.09516526  0.18175063  0.12156099
   0.34047062  0.60391201  0.02782883
   0.92434681  0.68523651  0.03696881
   0.34363348  0.06399961  0.02783421
   0.88838126  0.05560908  0.02665597
   0.50038372  0.78384231  0.40396468
   0.77596443  0.13086960  0.33884046
   0.17424964  0.25519096  0.33927130
   0.17295764  0.60106789  0.33889562
Direct configuration=    25
   0.22067121  0.89240241  0.08901558
   0.67775681  0.16441304  0.21845806
   0.94927612  0.02809995  0.15233499
   0.39266007  0.31136894  0.28490755
   0.44927612  0.52809995  0.15233499
   0.90028226  0.31077234  0.28411498
   0.44927612  0.02809995  0.15233499
   0.89949012  0.80212996  0.28412855
   0.90282244  0.55132680  0.10484543
   0.36111593  0.82563168  0.23370928
   0.99723272  0.50443500  0.20321465
   0.47277569  0.77006208  0.33811230
   0.53851998  0.23347802  0.07318573
   0.78917000  0.61340706  0.31256879
   0.87926422  0.06310591  0.05527763
   0.34190958  0.32935430  0.18311891
   0.58246139  0.21150732  0.12452493
   0.04973587  0.47998116  0.25625608
   0.45325118  0.69826855  0.38628109
   0.09516526  0.72856013  0.12156099
   0.56083220  0.45163859  0.25244958
   0.74719193  0.13523928  0.31405848
   0.85888103  0.57329750  0.05350623
   0.31341507  0.84734374  0.18068571
   0.56207820  0.72169891  0.12275353
   0.01815614  0.99453169  0.25560592
   0.80221218  0.32592243  0.18429364
   0.23567980  0.63513475  0.31715453
   0.34617716  0.60305419  0.05647018
   0.24465837  0.14599449  0.31876483
   0.80227053  0.87719010  0.18451272
   0.34617716  0.05624469  0.05647018
   0.56282184  0.99586818  0.25306416
   0.09516526  0.18175063  0.12156099
   0.34047062  0.60391201  0.02782883
   0.92434681  0.68523651  0.03696881
   0.34363348  0.06399961  0.02783421
   0.88838126  0.05560908  0.02665597
   0.50038375  0.78382841  0.40397078
   0.77596821  0.13085697  0.33883886
   0.17423730  0.25521105  0.33926750
   0.17295914  0.60105585  0.33889124
Direct configuration=    26
   0.22067121  0.89240241  0.08901558
   0.67775276  0.16440328  0.21845913
   0.94927612  0.02809995  0.15233499
   0.39267318  0.31136517  0.28490153
   0.44927612  0.52809995  0.15233499
   0.90029864  0.31081616  0.28411476
   0.44927612  0.02809995  0.15233499
   0.89950739  0.80208146  0.28413105
   0.90282244  0.55132680  0.10484543
   0.36110344  0.82563701  0.23370981
   0.99722798  0.50443450  0.20320903
   0.47278420  0.77006431  0.33811999
   0.53851998  0.23347802  0.07318573
   0.78920918  0.61339460  0.31256686
   0.87926422  0.06310591  0.05527763
   0.34191209  0.32934318  0.18311815
   0.58246139  0.21150732  0.12452493
   0.04972098  0.48002077  0.25624884
   0.45323527  0.69824976  0.38628712
   0.09516526  0.72856013  0.12156099
   0.56081482  0.45162964  0.25245070
   0.74721703  0.13521181  0.31405577
   0.85888103  0.57329750  0.05350623
   0.31342896  0.84733617  0.18068699
   0.56207820  0.72169891  0.12275353
   0.01816242  0.99453707  0.25560171
   0.80222117  0.32589982  0.18429552
   0.23569833  0.63512263  0.31714839
   0.34617716  0.60305419  0.05647018
   0.24463318  0.14602675  0.31875676
   0.80227860  0.87718884  0.18451336
   0.34617716  0.05624469  0.05647018
   0.56278988  0.99589210  0.25306675
   0.09516526  0.18175063  0.12156099
   0.34047062  0.60391201  0.02782883
   0.92434681  0.68523651  0.03696881
   0.34363348  0.06399961  0.02783421
   0.88838126  0.05560908  0.02665597
   0.50038382  0.78380060  0.40398299
   0.77597576  0.13083171  0.33883566
   0.17421263  0.25525123  0.33925989
   0.17296212  0.60103178  0.33888247
Direct configuration=    27
   0.22067121  0.89240241  0.08901558
   0.67774466  0.16438377  0.21846125
   0.94927612  0.02809995  0.15233499
   0.39269939  0.31135763  0.28488950
   0.44927612  0.52809995  0.15233499
   0.90033138  0.31090379  0.28411431
   0.44927612  0.02809995  0.15233499
   0.89954194  0.80198446  0.28413604
   0.90282244  0.55132680  0.10484543
   0.36107847  0.82564767  0.23371088
   0.99721848  0.50443349  0.20319779
   0.47280121  0.77006877  0.33813537
   0.53851998  0.23347802  0.07318573
   0.78928753  0.61336967  0.31256301
   0.87926422  0.06310591  0.05527763
   0.34191711  0.32932095  0.18311664
   0.58246139  0.21150732  0.12452493
   0.04969121  0.48010000  0.25623436
   0.45320347  0.69821219  0.38629918
   0.09516526  0.72856013  0.12156099
   0.56078007  0.45161174  0.25245292
   0.74726723  0.13515688  0.31405036
   0.85888103  0.57329750  0.05350623
   0.31345673  0.84732104  0.18068956
   0.56207820  0.72169891  0.12275353
   0.01817499  0.99454782  0.25559328
   0.80223915  0.32585460  0.18429928
   0.23573539  0.63509838  0.31713611
   0.34617716  0.60305419  0.05647018
   0.24458280  0.14609128  0.31874063
   0.80229474  0.87718632  0.18451464
   0.34617716  0.05624469  0.05647018
   0.56272595  0.99593995  0.25307191
   0.09516526  0.18175063  0.12156099
   0.34047062  0.60391201  0.02782883
   0.92434681  0.68523651  0.03696881
   0.34363348  0.06399961  0.02783421
   0.88838126  0.05560908  0.02665597
   0.50038395  0.78374498  0.40400740
   0.77599086  0.13078118  0.33882926
   0.17416328  0.25533160  0.33924469
   0.17296809  0.60098364  0.33886494
Direct configuration=    28
   0.22067121  0.89240241  0.08901558
   0.67772845  0.16434475  0.21846550
   0.94927612  0.02809995  0.15233499
   0.39275181  0.31134255  0.28486544
   0.44927612  0.52809995  0.15233499
   0.90039688  0.31107905  0.28411340
   0.44927612  0.02809995  0.15233499
   0.89961104  0.80179046  0.28414603
   0.90282244  0.55132680  0.10484543
   0.36102854  0.82566899  0.23371301
   0.99719949  0.50443148  0.20317530
   0.47283523  0.77007770  0.33816614
   0.53851998  0.23347802  0.07318573
   0.78944424  0.61331982  0.31255530
   0.87926422  0.06310591  0.05527763
   0.34192714  0.32927648  0.18311361
   0.58246139  0.21150732  0.12452493
   0.04963168  0.48025845  0.25620539
   0.45313987  0.69813704  0.38632331
   0.09516526  0.72856013  0.12156099
   0.56071056  0.45157595  0.25245737
   0.74736764  0.13504701  0.31403953
   0.85888103  0.57329750  0.05350623
   0.31351228  0.84729077  0.18069468
   0.56207820  0.72169891  0.12275353
   0.01820011  0.99456932  0.25557642
   0.80227511  0.32576417  0.18430679
   0.23580951  0.63504989  0.31711155
   0.34617716  0.60305419  0.05647018
   0.24448203  0.14622035  0.31870836
   0.80232702  0.87718127  0.18451722
   0.34617716  0.05624469  0.05647018
   0.56259809  0.99603564  0.25308225
   0.09516526  0.18175063  0.12156099
   0.34047062  0.60391201  0.02782883
   0.92434681  0.68523651  0.03696881
   0.34363348  0.06399961  0.02783421
   0.88838126  0.05560908  0.02665597
   0.50038422  0.78363373  0.40405623
   0.77602106  0.13068014  0.33881646
   0.17406459  0.25549232  0.33921427
   0.17298002  0.60088735  0.33882987
Direct configuration=    29
   0.22067121  0.89240241  0.08901558
   0.67769603  0.16426670  0.21847401
   0.94927612  0.02809995  0.15233499
   0.39285666  0.31131240  0.28481732
   0.44927612  0.52809995  0.15233499
   0.90052787  0.31142957  0.28411160
   0.44927612  0.02809995  0.15233499
   0.89974924  0.80140246  0.28416602
   0.90282244  0.55132680  0.10484543
   0.36092866  0.82571163  0.23371727
   0.99716151  0.50442745  0.20313033
   0.47290328  0.77009557  0.33822766
   0.53851998  0.23347802  0.07318573
   0.78975765  0.61322012  0.31253989
   0.87926422  0.06310591  0.05527763
   0.34194720  0.32918754  0.18310754
   0.58246139  0.21150732  0.12452493
   0.04951260  0.48057537  0.25614747
   0.45301266  0.69798673  0.38637157
   0.09516526  0.72856013  0.12156099
   0.56057154  0.45150436  0.25246628
   0.74756846  0.13482727  0.31401787
   0.85888103  0.57329750  0.05350623
   0.31362337  0.84723024  0.18070493
   0.56207820  0.72169891  0.12275353
   0.01825036  0.99461233  0.25554270
   0.80234702  0.32558329  0.18432182
   0.23595775  0.63495289  0.31706243
   0.34617716  0.60305419  0.05647018
   0.24428051  0.14647847  0.31864382
   0.80239157  0.87717117  0.18452236
   0.34617716  0.05624469  0.05647018
   0.56234238  0.99622703  0.25310291
   0.09516526  0.18175063  0.12156099
   0.34047062  0.60391201  0.02782883
   0.92434681  0.68523651  0.03696881
   0.34363348  0.06399961  0.02783421
   0.88838126  0.05560908  0.02665597
   0.50038476  0.78341125  0.40415390
   0.77608147  0.13047805  0.33879086
   0.17386720  0.25581376  0.33915344
   0.17300390  0.60069478  0.33875974
Direct configuration=    30
   0.22067121  0.89240241  0.08901558
   0.67770747  0.16429424  0.21847101
   0.94927612  0.02809995  0.15233499
   0.39281967  0.31132304  0.28483430
   0.44927612  0.52809995  0.15233499
   0.90048165  0.31130590  0.28411224
   0.44927612  0.02809995  0.15233499
   0.89970048  0.80153935  0.28415897
   0.90282244  0.55132680  0.10484543
   0.36096390  0.82569658  0.23371577
   0.99717491  0.50442887  0.20314619
   0.47287927  0.77008926  0.33820596
   0.53851998  0.23347802  0.07318573
   0.78964707  0.61325530  0.31254533
   0.87926422  0.06310591  0.05527763
   0.34194012  0.32921892  0.18310968
   0.58246139  0.21150732  0.12452493
   0.04955461  0.48046355  0.25616791
   0.45305754  0.69803976  0.38635455
   0.09516526  0.72856013  0.12156099
   0.56062059  0.45152962  0.25246314
   0.74749761  0.13490480  0.31402551
   0.85888103  0.57329750  0.05350623
   0.31358417  0.84725159  0.18070131
   0.56207820  0.72169891  0.12275353
   0.01823263  0.99459716  0.25555459
   0.80232165  0.32564711  0.18431651
   0.23590545  0.63498711  0.31707976
   0.34617716  0.60305419  0.05647018
   0.24435161  0.14638740  0.31866659
   0.80236880  0.87717473  0.18452054
   0.34617716  0.05624469  0.05647018
   0.56243260  0.99615950  0.25309562
   0.09516526  0.18175063  0.12156099
   0.34047062  0.60391201  0.02782883
   0.92434681  0.68523651  0.03696881
   0.34363348  0.06399961  0.02783421
   0.88838126  0.05560908  0.02665597
   0.50038457  0.78348975  0.40411944
   0.77606016  0.13054935  0.33879989
   0.17393684  0.25570035  0.33917490
   0.17299547  0.60076272  0.33878448
Direct configuration=    31
   0.22067121  0.89240241  0.08901558
   0.67770354  0.16428479  0.21847204
   0.94927612  0.02809995  0.15233499
   0.39283235  0.31131939  0.28482848
   0.44927612  0.52809995  0.15233499
   0.90049750  0.31134832  0.28411202
   0.44927612  0.02809995  0.15233499
   0.89971721  0.80149240  0.28416138
   0.90282244  0.55132680  0.10484543
   0.36095182  0.82570174  0.23371629
   0.99717031  0.50442839  0.20314075
   0.47288751  0.77009143  0.33821340
   0.53851998  0.23347802  0.07318573
   0.78968500  0.61324323  0.31254346
   0.87926422  0.06310591  0.05527763
   0.34194255  0.32920816  0.18310895
   0.58246139  0.21150732  0.12452493
   0.04954020  0.48050190  0.25616090
   0.45304214  0.69802157  0.38636039
   0.09516526  0.72856013  0.12156099
   0.56060376  0.45152096  0.25246421
   0.74752191  0.13487821  0.31402289
   0.85888103  0.57329750  0.05350623
   0.31359762  0.84724427  0.18070255
   0.56207820  0.72169891  0.12275353
   0.01823871  0.99460236  0.25555051
   0.80233035  0.32562522  0.18431833
   0.23592339  0.63497538  0.31707381
   0.34617716  0.60305419  0.05647018
   0.24432722  0.14641864  0.31865878
   0.80237661  0.87717351  0.18452116
   0.34617716  0.05624469  0.05647018
   0.56240166  0.99618266  0.25309812
   0.09516526  0.18175063  0.12156099
   0.34047062  0.60391201  0.02782883
   0.92434681  0.68523651  0.03696881
   0.34363348  0.06399961  0.02783421
   0.88838126  0.05560908  0.02665597
   0.50038464  0.78346282  0.40413126
   0.77606747  0.13052489  0.33879679
   0.17391295  0.25573925  0.33916754
   0.17299836  0.60073942  0.33877599
Direct configuration=    32
   0.22067121  0.89240241  0.08901558
   0.67769950  0.16427506  0.21847310
   0.94927612  0.02809995  0.15233499
   0.39284543  0.31131563  0.28482247
   0.44927612  0.52809995  0.15233499
   0.90051385  0.31139205  0.28411179
   0.44927612  0.02809995  0.15233499
   0.89973445  0.80144399  0.28416388
   0.90282244  0.55132680  0.10484543
   0.36093936  0.82570706  0.23371682
   0.99716558  0.50442789  0.20313514
   0.47289600  0.77009365  0.33822108
   0.53851998  0.23347802  0.07318573
   0.78972410  0.61323079  0.31254154
   0.87926422  0.06310591  0.05527763
   0.34194505  0.32919706  0.18310819
   0.58246139  0.21150732  0.12452493
   0.04952535  0.48054144  0.25615367
   0.45302627  0.69800282  0.38636641
   0.09516526  0.72856013  0.12156099
   0.56058642  0.45151202  0.25246532
   0.74754696  0.13485080  0.31402019
   0.85888103  0.57329750  0.05350623
   0.31361148  0.84723672  0.18070383
   0.56207820  0.72169891  0.12275353
   0.01824498  0.99460773  0.25554631
   0.80233932  0.32560266  0.18432021
   0.23594188  0.63496328  0.31706768
   0.34617716  0.60305419  0.05647018
   0.24430208  0.14645084  0.31865073
   0.80238466  0.87717225  0.18452181
   0.34617716  0.05624469  0.05647018
   0.56236976  0.99620654  0.25310070
   0.09516526  0.18175063  0.12156099
   0.34047062  0.60391201  0.02782883
   0.92434681  0.68523651  0.03696881
   0.34363348  0.06399961  0.02783421
   0.88838126  0.05560908  0.02665597
   0.50038470  0.78343507  0.40414344
   0.77607500  0.13049968  0.33879360
   0.17388833  0.25577935  0.33915995
   0.17300134  0.60071539  0.33876725
