<?xml version="1.0" encoding="ISO-8859-1"?>
<modeling>
 <generator>
  <i name="program" type="string">vasp </i>
  <i name="version" type="string">5.4.4.18Apr17-6-g9f103f2a35  </i>
  <i name="subversion" type="string">(build Sep 24 2019 09:38:50) complex            parallel </i>
  <i name="platform" type="string">KEELxe18.1gRLX-z </i>
  <i name="date" type="string">2026 07 25 </i>
  <i name="time" type="string">16:43:45 </i>
 </generator>
 <incar>
  <i type="int" name="ISTART">     0</i>
  <i type="string" name="PREC">accurate</i>
  <i type="string" name="ALGO"> fast</i>
  <i type="int" name="ISPIN">     2</i>
  <i type="int" name="IBRION">     2</i>
  <i name="EDIFF">      0.00001000</i>
  <i name="EDIFFG">     -0.05000000</i>
  <i type="int" name="NSW">   500</i>
  <i type="int" name="ISIF">     0</i>
  <i name="ENCUT">    520.00000000</i>
  <i name="POTIM">      0.50000000</i>
  <v name="MAGMOM">      3.80000000      3.80000000     -3.80000000     -3.80000000      3.80000000      3.80000000     -3.80000000     -3.80000000      4.40000000      4.40000000      4.40000000      0.00000000      4.40000000      0.00000000      0.00000000      0.00000000      0.00000000      0.00000000      0.00000000      0.00000000
      0.00000000      0.00000000      0.00000000      0.00000000      0.00000000      0.00000000      0.00000000      0.00000000      0.00000000      0.00000000      0.00000000      0.00000000      0.00000000      0.00000000      0.00000000      0.00000000      0.00000000      0.00000000      0.00000000      0.00000000
      0.00000000      0.00000000      0.00000000      0.00000000      0.00000000</v>
  <i type="string" name="LREAL"> auto</i>
  <i type="int" name="ISMEAR">     1</i>
  <i name="SIGMA">      0.20000000</i>
  <i type="int" name="NWRITE">     1</i>
  <i type="logical" name="LWAVE"> F  </i>
  <i type="logical" name="LCHARG"> F  </i>
  <i type="logical" name="LVTOT"> F  </i>
  <i type="int" name="LORBIT">    11</i>
  <v type="int" name="KPOINT_BSE">    -1     0     0     0</v>
  <i type="string" name="GGA"> PE</i>
  <i type="logical" name="LDAU"> T  </i>
  <v type="int" name="LDAUL">     2    -1    -1</v>
  <v name="LDAUU">      3.90000000      0.00000000      0.00000000</v>
  <v name="LDAUJ">      0.00000000      0.00000000      0.00000000</v>
 </incar>
 <structure name="primitive_cell" >
  <crystal>
   <varray name="basis" >
    <v>       2.87357350      -2.87357350       4.70833511 </v>
    <v>       5.74714699       0.00000000       0.00000000 </v>
    <v>       0.00000000      33.06569101      20.18052901 </v>
   </varray>
   <i name="volume">   1228.01926054 </i>
   <varray name="rec_basis" >
    <v>       0.00000000      -0.09444515       0.15474789 </v>
    <v>       0.17399938       0.04722258      -0.07737394 </v>
    <v>       0.00000000       0.02203507       0.01344836 </v>
   </varray>
  </crystal>
  <varray name="positions" >
   <v>       0.22067121      -0.10759759       0.08901558 </v>
   <v>       0.34617716      -0.39694581       0.05647018 </v>
   <v>       0.09516526       0.18175063       0.12156099 </v>
   <v>       0.09516526      -0.27143987       0.12156099 </v>
   <v>       0.34617716       0.05624469       0.05647018 </v>
   <v>      -0.43792180      -0.27830109       0.12275353 </v>
   <v>      -0.12073578       0.06310591       0.05527763 </v>
   <v>       0.34047062      -0.39608799       0.02782883 </v>
   <v>       0.34363348       0.06399961       0.02783421 </v>
   <v>      -0.05072388       0.02809995       0.15233499 </v>
   <v>      -0.11161874       0.05560908       0.02665597 </v>
   <v>       0.44927612       0.02809995       0.15233499 </v>
   <v>       0.44927612      -0.47190005       0.15233499 </v>
   <v>      -0.07565319      -0.31476349       0.03696881 </v>
   <v>      -0.09717756      -0.44867320       0.10484543 </v>
   <v>      -0.46148002       0.23347802       0.07318573 </v>
   <v>       0.30990000      -0.15199213       0.18039599 </v>
   <v>      -0.41753861       0.21150732       0.12452493 </v>
   <v>      -0.14111897      -0.42670250       0.05350623 </v>
   <v>      -0.20033816       0.33082770       0.18430147 </v>
   <v>      -0.20161510      -0.12119350       0.18455383 </v>
   <v>       0.33690555       0.33460101       0.18279795 </v>
   <v>      -0.00511014      -0.49239445       0.20402520 </v>
   <v>       0.34522562      -0.16360713       0.23338071 </v>
   <v>      -0.32950893       0.17139500       0.21812612 </v>
   <v>       0.00319359       0.00846629       0.25348859 </v>
   <v>      -0.46009954       0.46495454       0.25146104 </v>
   <v>      -0.45935001       0.01298645       0.25167223 </v>
   <v>       0.04595854       0.48801853       0.25722085 </v>
   <v>      -0.10854267      -0.18385194       0.28463836 </v>
   <v>      -0.10557820       0.31090198       0.28469138 </v>
   <v>       0.39628519       0.31541393       0.28436965 </v>
   <v>       0.24104440      -0.37989471       0.31584412 </v>
   <v>      -0.27025778       0.14569829       0.30869933 </v>
   <v>       0.24559822       0.17025861       0.31556948 </v>
   <v>      -0.21320030      -0.38546813       0.31467708 </v>
   <v>       0.44252101      -0.20820866       0.33460744 </v>
   <v>       0.11203609       0.45824059       0.34962463 </v>
   <v>       0.00137449      -0.10984533       0.37924369 </v>
   <v>       0.10175714       0.21789162       0.38349154 </v>
   <v>      -0.02007153      -0.26694503       0.38277152 </v>
   <v>      -0.47039417      -0.19938551       0.38717301 </v>
   <v>       0.38868586      -0.02804247       0.39368105 </v>
   <v>      -0.30975244      -0.19491815       0.38898119 </v>
   <v>       0.02529536       0.31950594       0.40414059 </v>
  </varray>
 </structure>
 <varray name="primitive_index" >
  <v type="int" >        1 </v>
  <v type="int" >       30 </v>
  <v type="int" >       35 </v>
  <v type="int" >       21 </v>
  <v type="int" >       33 </v>
  <v type="int" >       26 </v>
  <v type="int" >       16 </v>
  <v type="int" >       38 </v>
  <v type="int" >       40 </v>
  <v type="int" >        3 </v>
  <v type="int" >       41 </v>
  <v type="int" >        7 </v>
  <v type="int" >        5 </v>
  <v type="int" >       39 </v>
  <v type="int" >        9 </v>
  <v type="int" >       13 </v>
  <v type="int" >       25 </v>
  <v type="int" >       18 </v>
  <v type="int" >       24 </v>
  <v type="int" >       28 </v>
  <v type="int" >       32 </v>
  <v type="int" >       17 </v>
  <v type="int" >       11 </v>
  <v type="int" >       10 </v>
  <v type="int" >        2 </v>
  <v type="int" >       27 </v>
  <v type="int" >       22 </v>
  <v type="int" >       34 </v>
  <v type="int" >       19 </v>
  <v type="int" >        8 </v>
  <v type="int" >        6 </v>
  <v type="int" >        4 </v>
  <v type="int" >       29 </v>
  <v type="int" >       23 </v>
  <v type="int" >       31 </v>
  <v type="int" >       15 </v>
  <v type="int" >       12 </v>
  <v type="int" >       14 </v>
  <v type="int" >       43 </v>
  <v type="int" >       37 </v>
  <v type="int" >       36 </v>
  <v type="int" >       20 </v>
  <v type="int" >       42 </v>
  <v type="int" >       44 </v>
  <v type="int" >       45 </v>
 </varray>
 <kpoints>
  <generation param="Gamma">
   <v type="int" name="divisions">       4        4        1 </v>
   <v name="usershift">      0.00000000       0.00000000       0.00000000 </v>
   <v name="genvec1">      0.25000000       0.00000000       0.00000000 </v>
   <v name="genvec2">     -0.00000000       0.25000000      -0.00000000 </v>
   <v name="genvec3">     -0.00000000       0.00000000       1.00000000 </v>
   <v name="shift">      0.00000000       0.00000000       0.00000000 </v>
  </generation>
  <varray name="kpointlist" >
   <v>       0.00000000       0.00000000       0.00000000 </v>
   <v>       0.25000000       0.00000000      -0.00000000 </v>
   <v>       0.50000000       0.00000000      -0.00000000 </v>
   <v>       0.00000000       0.25000000      -0.00000000 </v>
   <v>       0.25000000       0.25000000      -0.00000000 </v>
   <v>       0.50000000       0.25000000       0.00000000 </v>
   <v>      -0.25000000       0.25000000      -0.00000000 </v>
   <v>       0.00000000       0.50000000      -0.00000000 </v>
   <v>       0.25000000       0.50000000      -0.00000000 </v>
   <v>       0.50000000       0.50000000      -0.00000000 </v>
  </varray>
  <varray name="weights" >
   <v>       0.06250000 </v>
   <v>       0.12500000 </v>
   <v>       0.06250000 </v>
   <v>       0.12500000 </v>
   <v>       0.12500000 </v>
   <v>       0.12500000 </v>
   <v>       0.12500000 </v>
   <v>       0.06250000 </v>
   <v>       0.12500000 </v>
   <v>       0.06250000 </v>
  </varray>
 </kpoints>
 <parameters>
  <separator name="general" >
   <i type="string" name="SYSTEM">unknown system</i>
   <i type="logical" name="LCOMPAT"> F  </i>
  </separator>
  <separator name="electronic" >
   <i type="string" name="PREC">accura</i>
   <i name="ENMAX">    520.00000000</i>
   <i name="ENAUG">    605.39200000</i>
   <i name="EDIFF">      0.00001000</i>
   <i type="int" name="IALGO">    68</i>
   <i type="int" name="IWAVPR">    11</i>
   <i type="int" name="NBANDS">   206</i>
   <i name="NELECT">    328.00000000</i>
   <i type="int" name="TURBO">     0</i>
   <i type="int" name="IRESTART">     0</i>
   <i type="int" name="NREBOOT">     0</i>
   <i type="int" name="NMIN">     0</i>
   <i name="EREF">      0.00000000</i>
   <separator name="electronic smearing" >
    <i type="int" name="ISMEAR">     1</i>
    <i name="SIGMA">      0.20000000</i>
    <i name="KSPACING">      0.50000000</i>
    <i type="logical" name="KGAMMA"> T  </i>
   </separator>
   <separator name="electronic projectors" >
    <i type="logical" name="LREAL"> T  </i>
    <v name="ROPT">     -0.00025000     -0.00025000     -0.00025000</v>
    <i type="int" name="LMAXPAW">  -100</i>
    <i type="int" name="LMAXMIX">     2</i>
    <i type="logical" name="NLSPLINE"> F  </i>
   </separator>
   <separator name="electronic startup" >
    <i type="int" name="ISTART">     0</i>
    <i type="int" name="ICHARG">     2</i>
    <i type="int" name="INIWAV">     1</i>
   </separator>
   <separator name="electronic spin" >
    <i type="int" name="ISPIN">     2</i>
    <i type="logical" name="LNONCOLLINEAR"> F  </i>
    <v name="MAGMOM">      3.80000000      3.80000000     -3.80000000     -3.80000000      3.80000000      3.80000000     -3.80000000     -3.80000000      4.40000000      4.40000000      4.40000000      0.00000000      4.40000000      0.00000000      0.00000000      0.00000000      0.00000000      0.00000000      0.00000000      0.00000000
      0.00000000      0.00000000      0.00000000      0.00000000      0.00000000      0.00000000      0.00000000      0.00000000      0.00000000      0.00000000      0.00000000      0.00000000      0.00000000      0.00000000      0.00000000      0.00000000      0.00000000      0.00000000      0.00000000      0.00000000
      0.00000000      0.00000000      0.00000000      0.00000000      0.00000000</v>
    <i name="NUPDOWN">     -1.00000000</i>
    <i type="logical" name="LSORBIT"> F  </i>
    <v name="SAXIS">      0.00000000      0.00000000      1.00000000</v>
    <i type="logical" name="LSPIRAL"> F  </i>
    <v name="QSPIRAL">      0.00000000      0.00000000      0.00000000</v>
    <i type="logical" name="LZEROZ"> F  </i>
   </separator>
   <separator name="electronic exchange-correlation" >
    <i type="logical" name="LASPH"> F  </i>
    <i type="logical" name="LMETAGGA"> F  </i>
   </separator>
   <separator name="electronic convergence" >
    <i type="int" name="NELM">    60</i>
    <i type="int" name="NELMDL">    -5</i>
    <i type="int" name="NELMIN">     2</i>
    <i name="ENINI">    520.00000000</i>
    <separator name="electronic convergence detail" >
     <i type="logical" name="LDIAG"> T  </i>
     <i type="logical" name="LSUBROT"> F  </i>
     <i name="WEIMIN">      0.00100000</i>
     <i name="EBREAK">      0.00000001</i>
     <i name="DEPER">      0.30000000</i>
     <i type="int" name="NRMM">     4</i>
     <i name="TIME">      0.40000000</i>
    </separator>
   </separator>
   <separator name="electronic mixer" >
    <i name="AMIX">      0.40000000</i>
    <i name="BMIX">      1.00000000</i>
    <i name="AMIN">      0.10000000</i>
    <i name="AMIX_MAG">      1.60000000</i>
    <i name="BMIX_MAG">      1.00000000</i>
    <separator name="electronic mixer details" >
     <i type="int" name="IMIX">     4</i>
     <i type="logical" name="MIXFIRST"> F  </i>
     <i type="int" name="MAXMIX">   -45</i>
     <i name="WC">    100.00000000</i>
     <i type="int" name="INIMIX">     1</i>
     <i type="int" name="MIXPRE">     1</i>
     <i type="int" name="MREMOVE">     5</i>
    </separator>
   </separator>
   <separator name="electronic dipolcorrection" >
    <i type="logical" name="LDIPOL"> F  </i>
    <i type="logical" name="LMONO"> F  </i>
    <i type="int" name="IDIPOL">     0</i>
    <i name="EPSILON">      1.00000000</i>
    <v name="DIPOL">   -100.00000000   -100.00000000   -100.00000000</v>
    <i name="EFIELD">      0.00000000</i>
   </separator>
  </separator>
  <separator name="grids" >
   <i type="int" name="NGX">    48</i>
   <i type="int" name="NGY">    48</i>
   <i type="int" name="NGZ">   288</i>
   <i type="int" name="NGXF">    96</i>
   <i type="int" name="NGYF">    96</i>
   <i type="int" name="NGZF">   576</i>
   <i type="logical" name="ADDGRID"> F  </i>
  </separator>
  <separator name="ionic" >
   <i type="int" name="NSW">   500</i>
   <i type="int" name="IBRION">     2</i>
   <i type="int" name="MDALGO">     0</i>
   <i type="int" name="ISIF">     0</i>
   <i name="PSTRESS">      0.00000000</i>
   <i name="EDIFFG">     -0.05000000</i>
   <i type="int" name="NFREE">     1</i>
   <i name="POTIM">      0.50000000</i>
   <i name="SMASS">     -3.00000000</i>
   <i name="SCALEE">      1.00000000</i>
  </separator>
  <separator name="ionic md" >
   <i name="TEBEG">      0.00010000</i>
   <i name="TEEND">      0.00010000</i>
   <i type="int" name="NBLOCK">     1</i>
   <i type="int" name="KBLOCK">   500</i>
   <i type="int" name="NPACO">   256</i>
   <i name="APACO">     16.00000000</i>
  </separator>
  <separator name="symmetry" >
   <i type="int" name="ISYM">     2</i>
   <i name="SYMPREC">      0.00001000</i>
  </separator>
  <separator name="dos" >
   <i type="int" name="LORBIT">    11</i>
   <v name="RWIGS">     -1.00000000     -1.00000000     -1.00000000</v>
   <i type="int" name="NEDOS">   301</i>
   <i name="EMIN">     10.00000000</i>
   <i name="EMAX">    -10.00000000</i>
   <i name="EFERMI">      0.00000000</i>
  </separator>
  <separator name="writing" >
   <i type="int" name="NWRITE">     1</i>
   <i type="logical" name="LWAVE"> F  </i>
   <i type="logical" name="LDOWNSAMPLE"> F  </i>
   <i type="logical" name="LCHARG"> F  </i>
   <i type="logical" name="LPARD"> F  </i>
   <i type="logical" name="LVTOT"> F  </i>
   <i type="logical" name="LVHAR"> F  </i>
   <i type="logical" name="LELF"> F  </i>
   <i type="logical" name="LOPTICS"> F  </i>
   <v name="STM">      0.00000000      0.00000000      0.00000000      0.00000000      0.00000000      0.00000000      0.00000000</v>
  </separator>
  <separator name="performance" >
   <i type="int" name="NPAR">     2</i>
   <i type="int" name="NSIM">     4</i>
   <i type="int" name="NBLK">    -1</i>
   <i type="logical" name="LPLANE"> T  </i>
   <i type="logical" name="LSCALAPACK"> F  </i>
   <i type="logical" name="LSCAAWARE"> F  </i>
   <i type="logical" name="LSCALU"> F  </i>
   <i type="logical" name="LASYNC"> F  </i>
   <i type="logical" name="LORBITALREAL"> F  </i>
  </separator>
  <separator name="miscellaneous" >
   <i type="int" name="IDIOT">     3</i>
   <i type="int" name="ISPECIAL">     0</i>
   <i type="logical" name="LMUSIC"> F  </i>
   <v name="POMASS">     54.93800000     16.00000000      1.00000000</v>
   <v name="DARWINR">      0.00000000      0.00000000      0.00000000</v>
   <v name="DARWINV">      1.00000000      1.00000000      1.00000000</v>
   <i type="logical" name="LCORR"> T  </i>
  </separator>
  <i type="logical" name="GGA_COMPAT"> T  </i>
  <i type="logical" name="LBERRY"> F  </i>
  <i type="int" name="ICORELEVEL">     0</i>
  <i type="logical" name="LDAU"> T  </i>
  <v type="int" name="LDAUTYPE">     2</v>
  <v type="int" name="LDAUL">     2</v>
  <v name="LDAUU">      3.90000000</v>
  <v name="LDAUJ">      0.00000000</v>
  <i type="int" name="LDAUPRINT">     0</i>
  <i type="int" name="I_CONSTRAINED_M">     0</i>
  <separator name="electronic exchange-correlation" >
   <i type="string" name="GGA">PE</i>
   <i type="int" name="VOSKOWN">     0</i>
   <i type="logical" name="LHFCALC"> F  </i>
   <i type="string" name="PRECFOCK"></i>
   <i type="logical" name="LSYMGRAD"> F  </i>
   <i type="logical" name="LHFONE"> F  </i>
   <i type="logical" name="LRHFCALC"> F  </i>
   <i type="logical" name="LTHOMAS"> F  </i>
   <i type="logical" name="LMODELHF"> F  </i>
   <i name="ENCUT4O">     -1.00000000</i>
   <i type="int" name="EXXOEP">     0</i>
   <i type="int" name="FOURORBIT">     0</i>
   <i name="AEXX">      0.00000000</i>
   <i name="HFALPHA">      0.00000000</i>
   <i name="MCALPHA">      0.00000000</i>
   <i name="ALDAX">      1.00000000</i>
   <i name="AGGAX">      1.00000000</i>
   <i name="ALDAC">      1.00000000</i>
   <i name="AGGAC">      1.00000000</i>
   <i type="int" name="NKREDX">     1</i>
   <i type="int" name="NKREDY">     1</i>
   <i type="int" name="NKREDZ">     1</i>
   <i type="logical" name="SHIFTRED"> F  </i>
   <i type="logical" name="ODDONLY"> F  </i>
   <i type="logical" name="EVENONLY"> F  </i>
   <i type="int" name="LMAXFOCK">     0</i>
   <i type="int" name="NMAXFOCKAE">     0</i>
   <i type="logical" name="LFOCKAEDFT"> F  </i>
   <i name="HFSCREEN">      0.00000000</i>
   <i name="HFSCREENC">      0.00000000</i>
   <i type="int" name="NBANDSGWLOW">     0</i>
  </separator>
  <separator name="vdW DFT" >
   <i type="logical" name="LUSE_VDW"> F  </i>
   <i name="Zab_VDW">     -0.84910000</i>
   <i name="PARAM1">      0.12340000</i>
   <i name="PARAM2">      1.00000000</i>
   <i name="PARAM3">      0.00000000</i>
  </separator>
  <separator name="model GW" >
   <i type="int" name="MODEL_GW">     0</i>
   <i name="MODEL_EPS0">     16.37359014</i>
   <i name="MODEL_ALPHA">      1.00000000</i>
  </separator>
  <separator name="linear response parameters" >
   <i type="logical" name="LEPSILON"> F  </i>
   <i type="logical" name="LRPA"> F  </i>
   <i type="logical" name="LNABLA"> F  </i>
   <i type="logical" name="LVEL"> F  </i>
   <i type="int" name="KINTER">     0</i>
   <i name="CSHIFT">      0.10000000</i>
   <i name="OMEGAMAX">     -1.00000000</i>
   <i name="DEG_THRESHOLD">      0.00200000</i>
   <i name="RTIME">     -0.10000000</i>
   <i name="WPLASMAI">      0.00000000</i>
   <v name="DFIELD">      0.00000000      0.00000000      0.00000000</v>
   <v name="WPLASMA">      0.00000000      0.00000000      0.00000000      0.00000000      0.00000000      0.00000000      0.00000000      0.00000000      0.00000000</v>
  </separator>
  <separator name="orbital magnetization" >
   <i type="logical" name="NUCIND"> F  </i>
   <v name="MAGPOS">      0.00000000      0.00000000      0.00000000</v>
   <i type="logical" name="LNICSALL"> T  </i>
   <i type="logical" name="ORBITALMAG"> F  </i>
   <i type="logical" name="LMAGBLOCH"> F  </i>
   <i type="logical" name="LCHIMAG"> F  </i>
   <i type="logical" name="LGAUGE"> T  </i>
   <i type="int" name="MAGATOM">     0</i>
   <v name="MAGDIPOL">      0.00000000      0.00000000      0.00000000</v>
   <v name="AVECCONST">      0.00000000      0.00000000      0.00000000</v>
  </separator>
  <separator name="response functions" >
   <i type="logical" name="LADDER"> F  </i>
   <i type="logical" name="LRPAFORCE"> F  </i>
   <i type="logical" name="LFXC"> F  </i>
   <i type="logical" name="LHARTREE"> T  </i>
   <i type="int" name="IBSE">     0</i>
   <v type="int" name="KPOINT">    -1     0     0     0</v>
   <i type="logical" name="LTCTE"> F  </i>
   <i type="logical" name="LTETE"> F  </i>
   <i type="logical" name="LTRIPLET"> F  </i>
   <i type="logical" name="LFXCEPS"> F  </i>
   <i type="logical" name="LFXHEG"> F  </i>
   <i type="int" name="NATURALO">     2</i>
   <i type="logical" name="L2ORDER"> F  </i>
   <i type="logical" name="LMP2LT"> F  </i>
   <i type="logical" name="LUSEW"> F  </i>
   <i name="ENCUTGW">     -2.00000000</i>
   <i name="ENCUTGWSOFT">     -2.00000000</i>
   <i name="ENCUTLF">     -1.00000000</i>
   <i type="int" name="LMAXMP2">    -1</i>
   <i name="SCISSOR">      0.00000000</i>
   <i type="int" name="NOMEGA">     0</i>
   <i type="int" name="NOMEGAR">     0</i>
   <i type="int" name="NBANDSGW">    -1</i>
   <i type="int" name="NBANDSO">    -1</i>
   <i type="int" name="NBANDSV">    -1</i>
   <i type="int" name="NELM">     1</i>
   <i type="int" name="NELMHF">     1</i>
   <i type="int" name="DIM">     3</i>
   <i type="int" name="ANTIRES">     0</i>
   <i name="OMEGAMAX">    -30.00000000</i>
   <i name="OMEGAMIN">    -30.00000000</i>
   <i name="OMEGATL">   -200.00000000</i>
   <i type="int" name="OMEGAGRID">   140</i>
   <i name="CSHIFT">     -0.10000000</i>
   <i type="logical" name="SELFENERGY"> F  </i>
   <i type="logical" name="LSPECTRAL"> F  </i>
   <i type="logical" name="LSPECTRALGW"> F  </i>
   <i type="logical" name="LSINGLES"> F  </i>
   <i type="logical" name="LFERMIGW"> F  </i>
   <i type="logical" name="ODDONLYGW"> F  </i>
   <i type="logical" name="EVENONLYGW"> F  </i>
   <i type="int" name="NKREDLFX">     1</i>
   <i type="int" name="NKREDLFY">     1</i>
   <i type="int" name="NKREDLFZ">     1</i>
   <i type="int" name="MAXMEM">  2800</i>
   <i type="int" name="TELESCOPE">     0</i>
   <i type="int" name="TAUPAR">     1</i>
   <i type="int" name="OMEGAPAR">    -1</i>
   <i name="LAMBDA">      1.00000000</i>
  </separator>
  <separator name="External order field" >
   <i name="OFIELD_KAPPA">      0.00000000</i>
   <v name="OFIELD_K">      0.00000000      0.00000000      0.00000000</v>
   <i name="OFIELD_Q6_NEAR">      0.00000000</i>
   <i name="OFIELD_Q6_FAR">      0.00000000</i>
   <i name="OFIELD_A">      0.00000000</i>
  </separator>
  <separator name="solvation model" >
   <i type="logical" name="LSOL"> F  </i>
  </separator>
 </parameters>
 <atominfo>
  <atoms>      45 </atoms>
  <types>       3 </types>
  <array name="atoms" >
   <dimension dim="1">ion</dimension>
   <field type="string">element</field>
   <field type="int">atomtype</field>
   <set>
    <rc><c>Mn</c><c>   1</c></rc>
    <rc><c>Mn</c><c>   1</c></rc>
    <rc><c>Mn</c><c>   1</c></rc>
    <rc><c>Mn</c><c>   1</c></rc>
    <rc><c>Mn</c><c>   1</c></rc>
    <rc><c>Mn</c><c>   1</c></rc>
    <rc><c>Mn</c><c>   1</c></rc>
    <rc><c>Mn</c><c>   1</c></rc>
    <rc><c>Mn</c><c>   1</c></rc>
    <rc><c>Mn</c><c>   1</c></rc>
    <rc><c>Mn</c><c>   1</c></rc>
    <rc><c>Mn</c><c>   1</c></rc>
    <rc><c>Mn</c><c>   1</c></rc>
    <rc><c>Mn</c><c>   1</c></rc>
    <rc><c>O </c><c>   2</c></rc>
    <rc><c>O </c><c>   2</c></rc>
    <rc><c>O </c><c>   2</c></rc>
    <rc><c>O </c><c>   2</c></rc>
    <rc><c>O </c><c>   2</c></rc>
    <rc><c>O </c><c>   2</c></rc>
    <rc><c>O </c><c>   2</c></rc>
    <rc><c>O </c><c>   2</c></rc>
    <rc><c>O </c><c>   2</c></rc>
    <rc><c>O </c><c>   2</c></rc>
    <rc><c>O </c><c>   2</c></rc>
    <rc><c>O </c><c>   2</c></rc>
    <rc><c>O </c><c>   2</c></rc>
    <rc><c>O </c><c>   2</c></rc>
    <rc><c>O </c><c>   2</c></rc>
    <rc><c>O </c><c>   2</c></rc>
    <rc><c>O </c><c>   2</c></rc>
    <rc><c>O </c><c>   2</c></rc>
    <rc><c>O </c><c>   2</c></rc>
    <rc><c>O </c><c>   2</c></rc>
    <rc><c>O </c><c>   2</c></rc>
    <rc><c>O </c><c>   2</c></rc>
    <rc><c>O </c><c>   2</c></rc>
    <rc><c>H </c><c>   3</c></rc>
    <rc><c>H </c><c>   3</c></rc>
    <rc><c>H </c><c>   3</c></rc>
    <rc><c>H </c><c>   3</c></rc>
    <rc><c>H </c><c>   3</c></rc>
    <rc><c>H </c><c>   3</c></rc>
    <rc><c>H </c><c>   3</c></rc>
    <rc><c>H </c><c>   3</c></rc>
   </set>
  </array>
  <array name="atomtypes" >
   <dimension dim="1">type</dimension>
   <field type="int">atomspertype</field>
   <field type="string">element</field>
   <field>mass</field>
   <field>valence</field>
   <field type="string">pseudopotential</field>
   <set>
    <rc><c>  14</c><c>Mn</c><c>     54.93800000</c><c>     13.00000000</c><c>  PAW_PBE Mn_pv 02Aug2007               </c></rc>
    <rc><c>  23</c><c>O </c><c>     16.00000000</c><c>      6.00000000</c><c>  PAW_PBE O 08Apr2002                   </c></rc>
    <rc><c>   8</c><c>H </c><c>      1.00000000</c><c>      1.00000000</c><c>  PAW_PBE H 15Jun2001                   </c></rc>
   </set>
  </array>
 </atominfo>
 <structure name="initialpos" >
  <crystal>
   <varray name="basis" >
    <v>       2.87357350      -2.87357350       4.70833511 </v>
    <v>       5.74714699       0.00000000       0.00000000 </v>
    <v>       0.00000000      33.06569101      20.18052901 </v>
   </varray>
   <i name="volume">   1228.01926054 </i>
   <varray name="rec_basis" >
    <v>       0.00000000      -0.09444515       0.15474789 </v>
    <v>       0.17399938       0.04722258      -0.07737394 </v>
    <v>       0.00000000       0.02203507       0.01344836 </v>
   </varray>
  </crystal>
  <varray name="positions" >
   <v>       0.22067121       0.89240241       0.08901558 </v>
   <v>       0.67049107       0.17139500       0.21812612 </v>
   <v>       0.94927612       0.02809995       0.15233499 </v>
   <v>       0.39628519       0.31541393       0.28436965 </v>
   <v>       0.44927612       0.52809995       0.15233499 </v>
   <v>       0.89442180       0.31090198       0.28469138 </v>
   <v>       0.44927612       0.02809995       0.15233499 </v>
   <v>       0.89145733       0.81614806       0.28463836 </v>
   <v>       0.90282244       0.55132680       0.10484543 </v>
   <v>       0.34522562       0.83639287       0.23338071 </v>
   <v>       0.99488986       0.50760555       0.20402520 </v>
   <v>       0.44252101       0.79179134       0.33460744 </v>
   <v>       0.53851998       0.23347802       0.07318573 </v>
   <v>       0.11203609       0.45824059       0.34962463 </v>
   <v>       0.78679970       0.61453187       0.31467708 </v>
   <v>       0.87926422       0.06310591       0.05527763 </v>
   <v>       0.33690555       0.33460101       0.18279795 </v>
   <v>       0.58246139       0.21150732       0.12452493 </v>
   <v>       0.04595854       0.48801853       0.25722085 </v>
   <v>       0.52960583       0.80061449       0.38717301 </v>
   <v>       0.09516526       0.72856013       0.12156099 </v>
   <v>       0.53990046       0.46495454       0.25146104 </v>
   <v>       0.72974222       0.14569829       0.30869933 </v>
   <v>       0.85888103       0.57329750       0.05350623 </v>
   <v>       0.30990000       0.84800787       0.18039599 </v>
   <v>       0.56207820       0.72169891       0.12275353 </v>
   <v>       0.00319359       0.00846629       0.25348859 </v>
   <v>       0.79966184       0.33082770       0.18430147 </v>
   <v>       0.24104440       0.62010529       0.31584412 </v>
   <v>       0.34617716       0.60305419       0.05647018 </v>
   <v>       0.24559822       0.17025861       0.31556948 </v>
   <v>       0.79838490       0.87880650       0.18455383 </v>
   <v>       0.34617716       0.05624469       0.05647018 </v>
   <v>       0.54064999       0.01298645       0.25167223 </v>
   <v>       0.09516526       0.18175063       0.12156099 </v>
   <v>       0.97992847       0.73305497       0.38277152 </v>
   <v>       0.10175714       0.21789162       0.38349154 </v>
   <v>       0.34047062       0.60391201       0.02782883 </v>
   <v>       0.92434681       0.68523651       0.03696881 </v>
   <v>       0.34363348       0.06399961       0.02783421 </v>
   <v>       0.88838126       0.05560908       0.02665597 </v>
   <v>       0.38868586       0.97195753       0.39368105 </v>
   <v>       0.00137449       0.89015467       0.37924369 </v>
   <v>       0.69024756       0.80508185       0.38898119 </v>
   <v>       0.02529536       0.31950594       0.40414059 </v>
  </varray>
  <varray name="selective"  type="logical" >
   <v type="logical" >  F  F  F </v>
   <v type="logical" >  T  T  T </v>
   <v type="logical" >  F  F  F </v>
   <v type="logical" >  T  T  T </v>
   <v type="logical" >  F  F  F </v>
   <v type="logical" >  T  T  T </v>
   <v type="logical" >  F  F  F </v>
   <v type="logical" >  T  T  T </v>
   <v type="logical" >  F  F  F </v>
   <v type="logical" >  T  T  T </v>
   <v type="logical" >  T  T  T </v>
   <v type="logical" >  T  T  T </v>
   <v type="logical" >  F  F  F </v>
   <v type="logical" >  T  T  T </v>
   <v type="logical" >  T  T  T </v>
   <v type="logical" >  F  F  F </v>
   <v type="logical" >  T  T  T </v>
   <v type="logical" >  F  F  F </v>
   <v type="logical" >  T  T  T </v>
   <v type="logical" >  T  T  T </v>
   <v type="logical" >  F  F  F </v>
   <v type="logical" >  T  T  T </v>
   <v type="logical" >  T  T  T </v>
   <v type="logical" >  F  F  F </v>
   <v type="logical" >  T  T  T </v>
   <v type="logical" >  F  F  F </v>
   <v type="logical" >  T  T  T </v>
   <v type="logical" >  T  T  T </v>
   <v type="logical" >  T  T  T </v>
   <v type="logical" >  F  F  F </v>
   <v type="logical" >  T  T  T </v>
   <v type="logical" >  T  T  T </v>
   <v type="logical" >  F  F  F </v>
   <v type="logical" >  T  T  T </v>
   <v type="logical" >  F  F  F </v>
   <v type="logical" >  T  T  T </v>
   <v type="logical" >  T  T  T </v>
   <v type="logical" >  F  F  F </v>
   <v type="logical" >  F  F  F </v>
   <v type="logical" >  F  F  F </v>
   <v type="logical" >  F  F  F </v>
   <v type="logical" >  T  T  T </v>
   <v type="logical" >  T  T  T </v>
   <v type="logical" >  T  T  T </v>
   <v type="logical" >  T  T  T </v>
  </varray>
  <nose>
   <v>      -3.00000000       0.00000000       0.00010000       0.00010000 </v>
  </nose>
 </structure>
 <calculation>
  <scstep>
   <time name="dav">   48.03   48.20</time>
   <time name="total">   48.67   48.85</time>
   <energy>
    <i name="alphaZ">    494.33689101 </i>
    <i name="ewald"> 399084.20551659 </i>
    <i name="hartreedc">-432869.34091391 </i>
    <i name="XCdc">   1624.18874181 </i>
    <i name="pawpsdc">  31018.43273008 </i>
    <i name="pawaedc"> -31686.66680453 </i>
    <i name="eentropy">     -0.00057252 </i>
    <i name="bandstr">  -2363.40184514 </i>
    <i name="atom">  38397.77816617 </i>
    <i name="e_fr_energy">   3699.53190955 </i>
    <i name="e_wo_entrp">   3699.53248207 </i>
    <i name="e_0_energy">   3699.53210039 </i>
   </energy>
  </scstep>
  <scstep>
   <time name="dav">   45.24   45.71</time>
   <time name="total">   45.27   45.74</time>
   <energy>
    <i name="e_fr_energy">    254.86113441 </i>
    <i name="e_wo_entrp">    254.85768335 </i>
    <i name="e_0_energy">    254.85998405 </i>
   </energy>
  </scstep>
  <scstep>
   <time name="dav">   48.76   49.29</time>
   <time name="total">   48.79   49.32</time>
   <energy>
    <i name="e_fr_energy">   -318.34867092 </i>
    <i name="e_wo_entrp">   -318.28064522 </i>
    <i name="e_0_energy">   -318.32599569 </i>
   </energy>
  </scstep>
  <scstep>
   <time name="dav">   49.22   49.64</time>
   <time name="total">   49.25   49.68</time>
   <energy>
    <i name="e_fr_energy">   -345.13531708 </i>
    <i name="e_wo_entrp">   -345.05026203 </i>
    <i name="e_0_energy">   -345.10696539 </i>
   </energy>
  </scstep>
  <scstep>
   <time name="dav">   47.84   48.36</time>
   <time name="total">   51.41   51.94</time>
   <energy>
    <i name="e_fr_energy">   -345.76740375 </i>
    <i name="e_wo_entrp">   -345.68160324 </i>
    <i name="e_0_energy">   -345.73880358 </i>
   </energy>
  </scstep>
  <scstep>
   <time name="diag">    9.18    9.20</time>
   <time name="diis">   31.36   31.45</time>
   <time name="orth">    0.49    0.50</time>
   <time name="total">   45.03   45.31</time>
   <energy>
    <i name="e_fr_energy">   -563.79953151 </i>
    <i name="e_wo_entrp">   -563.81590377 </i>
    <i name="e_0_energy">   -563.80498893 </i>
   </energy>
  </scstep>
  <scstep>
   <time name="diag">    9.22    9.28</time>
   <time name="diis">   26.66   26.71</time>
   <time name="orth">    0.49    0.49</time>
   <time name="total">   40.26   40.51</time>
   <energy>
    <i name="e_fr_energy">   -362.57118432 </i>
    <i name="e_wo_entrp">   -362.57993880 </i>
    <i name="e_0_energy">   -362.57410248 </i>
   </energy>
  </scstep>
  <scstep>
   <time name="diag">    9.22    9.32</time>
   <time name="diis">   27.38   27.78</time>
   <time name="orth">    0.51    0.51</time>
   <time name="total">   40.98   41.52</time>
   <energy>
    <i name="e_fr_energy">   -384.15628783 </i>
    <i name="e_wo_entrp">   -384.16349236 </i>
    <i name="e_0_energy">   -384.15868934 </i>
   </energy>
  </scstep>
  <scstep>
   <time name="diag">    9.12    9.13</time>
   <time name="diis">   28.33   28.48</time>
   <time name="orth">    0.58    0.65</time>
   <time name="total">   42.23   42.73</time>
   <energy>
    <i name="e_fr_energy">   -358.09124967 </i>
    <i name="e_wo_entrp">   -358.12163991 </i>
    <i name="e_0_energy">   -358.10137975 </i>
   </energy>
  </scstep>
  <scstep>
   <time name="diag">    9.12    9.14</time>
   <time name="diis">   28.61   28.67</time>
   <time name="orth">    0.49    0.49</time>
   <time name="total">   42.35   42.43</time>
   <energy>
    <i name="e_fr_energy">   -305.46611458 </i>
    <i name="e_wo_entrp">   -305.41245873 </i>
    <i name="e_0_energy">   -305.44822930 </i>
   </energy>
  </scstep>
  <scstep>
   <time name="diag">    9.25    9.30</time>
   <time name="diis">   26.87   27.17</time>
   <time name="orth">    0.49    0.49</time>
   <time name="total">   40.63   41.02</time>
   <energy>
    <i name="e_fr_energy">   -303.73978160 </i>
    <i name="e_wo_entrp">   -303.71876640 </i>
    <i name="e_0_energy">   -303.73277653 </i>
   </energy>
  </scstep>
  <scstep>
   <time name="diag">    9.10    9.12</time>
   <time name="diis">   28.31   28.69</time>
   <time name="orth">    0.49    0.49</time>
   <time name="total">   41.94   42.34</time>
   <energy>
    <i name="e_fr_energy">   -306.28576742 </i>
    <i name="e_wo_entrp">   -306.27918100 </i>
    <i name="e_0_energy">   -306.28357195 </i>
   </energy>
  </scstep>
  <scstep>
   <time name="diag">    9.23    9.25</time>
   <time name="diis">   27.47   27.53</time>
   <time name="orth">    0.54    0.58</time>
   <time name="total">   41.30   41.47</time>
   <energy>
    <i name="e_fr_energy">   -292.15798511 </i>
    <i name="e_wo_entrp">   -292.16131157 </i>
    <i name="e_0_energy">   -292.15909393 </i>
   </energy>
  </scstep>
  <scstep>
   <time name="diag">    9.58    9.97</time>
   <time name="diis">   26.38   26.42</time>
   <time name="orth">    0.49    0.49</time>
   <time name="total">   40.50   40.96</time>
   <energy>
    <i name="e_fr_energy">   -302.82137299 </i>
    <i name="e_wo_entrp">   -302.82588351 </i>
    <i name="e_0_energy">   -302.82287650 </i>
   </energy>
  </scstep>
  <scstep>
   <time name="diag">    9.11    9.12</time>
   <time name="diis">   29.32   29.70</time>
   <time name="orth">    0.49    0.49</time>
   <time name="total">   42.98   43.41</time>
   <energy>
    <i name="e_fr_energy">   -294.23869696 </i>
    <i name="e_wo_entrp">   -294.23470297 </i>
    <i name="e_0_energy">   -294.23736563 </i>
   </energy>
  </scstep>
  <scstep>
   <time name="diag">    9.12    9.15</time>
   <time name="diis">   26.54   26.64</time>
   <time name="orth">    0.49    0.49</time>
   <time name="total">   40.28   40.43</time>
   <energy>
    <i name="e_fr_energy">   -295.41934311 </i>
    <i name="e_wo_entrp">   -295.40909773 </i>
    <i name="e_0_energy">   -295.41592798 </i>
   </energy>
  </scstep>
  <scstep>
   <time name="diag">    9.49    9.80</time>
   <time name="diis">   27.13   27.18</time>
   <time name="orth">    0.49    0.49</time>
   <time name="total">   41.15   41.55</time>
   <energy>
    <i name="e_fr_energy">   -296.49267395 </i>
    <i name="e_wo_entrp">   -296.49743358 </i>
    <i name="e_0_energy">   -296.49426049 </i>
   </energy>
  </scstep>
  <scstep>
   <time name="diag">    9.10    9.11</time>
   <time name="diis">   27.29   27.76</time>
   <time name="orth">    0.49    0.49</time>
   <time name="total">   40.97   41.47</time>
   <energy>
    <i name="e_fr_energy">   -297.02650320 </i>
    <i name="e_wo_entrp">   -297.05270075 </i>
    <i name="e_0_energy">   -297.03523572 </i>
   </energy>
  </scstep>
  <scstep>
   <time name="diag">    9.11    9.12</time>
   <time name="diis">   26.40   26.85</time>
   <time name="orth">    0.50    0.52</time>
   <time name="total">   40.43   41.50</time>
   <energy>
    <i name="e_fr_energy">   -297.40545236 </i>
    <i name="e_wo_entrp">   -297.42776819 </i>
    <i name="e_0_energy">   -297.41289097 </i>
   </energy>
  </scstep>
  <scstep>
   <time name="diag">    9.10    9.11</time>
   <time name="diis">   25.97   26.02</time>
   <time name="orth">    0.49    0.49</time>
   <time name="total">   39.62   39.73</time>
   <energy>
    <i name="e_fr_energy">   -298.26138421 </i>
    <i name="e_wo_entrp">   -298.22257773 </i>
    <i name="e_0_energy">   -298.24844871 </i>
   </energy>
  </scstep>
  <scstep>
   <time name="diag">    9.09    9.15</time>
   <time name="diis">   27.07   27.46</time>
   <time name="orth">    0.50    0.50</time>
   <time name="total">   40.66   41.16</time>
   <energy>
    <i name="e_fr_energy">   -298.37844772 </i>
    <i name="e_wo_entrp">   -298.34694532 </i>
    <i name="e_0_energy">   -298.36794692 </i>
   </energy>
  </scstep>
  <scstep>
   <time name="diag">    9.11    9.12</time>
   <time name="diis">   25.92   26.12</time>
   <time name="orth">    0.49    0.49</time>
   <time name="total">   40.00   40.55</time>
   <energy>
    <i name="e_fr_energy">   -299.11252835 </i>
    <i name="e_wo_entrp">   -299.11302172 </i>
    <i name="e_0_energy">   -299.11269281 </i>
   </energy>
  </scstep>
  <scstep>
   <time name="diag">    9.11    9.12</time>
   <time name="diis">   25.67   25.86</time>
   <time name="orth">    0.50    0.50</time>
   <time name="total">   39.34   39.58</time>
   <energy>
    <i name="e_fr_energy">   -299.48601788 </i>
    <i name="e_wo_entrp">   -299.49947770 </i>
    <i name="e_0_energy">   -299.49050448 </i>
   </energy>
  </scstep>
  <scstep>
   <time name="diag">    9.09    9.14</time>
   <time name="diis">   26.11   26.40</time>
   <time name="orth">    0.50    0.50</time>
   <time name="total">   39.72   40.07</time>
   <energy>
    <i name="e_fr_energy">   -299.79738665 </i>
    <i name="e_wo_entrp">   -299.80151374 </i>
    <i name="e_0_energy">   -299.79876234 </i>
   </energy>
  </scstep>
  <scstep>
   <time name="diag">    9.12    9.14</time>
   <time name="diis">   27.20   27.35</time>
   <time name="orth">    0.50    0.53</time>
   <time name="total">   41.10   41.62</time>
   <energy>
    <i name="e_fr_energy">   -300.17873215 </i>
    <i name="e_wo_entrp">   -300.17196597 </i>
    <i name="e_0_energy">   -300.17647675 </i>
   </energy>
  </scstep>
  <scstep>
   <time name="diag">    9.11    9.12</time>
   <time name="diis">   26.26   26.33</time>
   <time name="orth">    0.49    0.49</time>
   <time name="total">   39.94   40.03</time>
   <energy>
    <i name="e_fr_energy">   -300.49422474 </i>
    <i name="e_wo_entrp">   -300.50803723 </i>
    <i name="e_0_energy">   -300.49882890 </i>
   </energy>
  </scstep>
  <scstep>
   <time name="diag">    9.12    9.24</time>
   <time name="diis">   27.37   27.66</time>
   <time name="orth">    0.49    0.49</time>
   <time name="total">   40.97   41.42</time>
   <energy>
    <i name="e_fr_energy">   -300.62491362 </i>
    <i name="e_wo_entrp">   -300.65414988 </i>
    <i name="e_0_energy">   -300.63465904 </i>
   </energy>
  </scstep>
  <scstep>
   <time name="diag">    9.03    9.04</time>
   <time name="diis">   27.14   27.52</time>
   <time name="orth">    0.49    0.49</time>
   <time name="total">   40.69   41.12</time>
   <energy>
    <i name="e_fr_energy">   -300.63135311 </i>
    <i name="e_wo_entrp">   -300.66347076 </i>
    <i name="e_0_energy">   -300.64205899 </i>
   </energy>
  </scstep>
  <scstep>
   <time name="diag">    9.18    9.20</time>
   <time name="diis">   25.74   25.78</time>
   <time name="orth">    0.49    0.49</time>
   <time name="total">   39.46   39.56</time>
   <energy>
    <i name="e_fr_energy">   -300.32981415 </i>
    <i name="e_wo_entrp">   -300.35726750 </i>
    <i name="e_0_energy">   -300.33896527 </i>
   </energy>
  </scstep>
  <scstep>
   <time name="diag">    9.09    9.18</time>
   <time name="diis">   25.67   26.08</time>
   <time name="orth">    0.48    0.48</time>
   <time name="total">   39.22   39.77</time>
   <energy>
    <i name="e_fr_energy">   -300.09911781 </i>
    <i name="e_wo_entrp">   -300.11653766 </i>
    <i name="e_0_energy">   -300.10492443 </i>
   </energy>
  </scstep>
  <scstep>
   <time name="diag">    8.97    9.01</time>
   <time name="diis">   26.83   27.32</time>
   <time name="orth">    0.49    0.49</time>
   <time name="total">   40.34   40.91</time>
   <energy>
    <i name="e_fr_energy">   -300.25999251 </i>
    <i name="e_wo_entrp">   -300.28013449 </i>
    <i name="e_0_energy">   -300.26670651 </i>
   </energy>
  </scstep>
  <scstep>
   <time name="diag">    9.12    9.13</time>
   <time name="diis">   25.51   25.55</time>
   <time name="orth">    0.49    0.49</time>
   <time name="total">   39.18   39.27</time>
   <energy>
    <i name="e_fr_energy">   -300.52453149 </i>
    <i name="e_wo_entrp">   -300.53324452 </i>
    <i name="e_0_energy">   -300.52743584 </i>
   </energy>
  </scstep>
  <scstep>
   <time name="diag">    9.17    9.32</time>
   <time name="diis">   25.54   25.87</time>
   <time name="orth">    0.49    0.50</time>
   <time name="total">   39.22   39.74</time>
   <energy>
    <i name="e_fr_energy">   -300.60851646 </i>
    <i name="e_wo_entrp">   -300.61741112 </i>
    <i name="e_0_energy">   -300.61148135 </i>
   </energy>
  </scstep>
  <scstep>
   <time name="diag">    9.11    9.12</time>
   <time name="diis">   25.89   26.44</time>
   <time name="orth">    0.49    0.49</time>
   <time name="total">   39.53   40.12</time>
   <energy>
    <i name="e_fr_energy">   -300.69378868 </i>
    <i name="e_wo_entrp">   -300.70493295 </i>
    <i name="e_0_energy">   -300.69750344 </i>
   </energy>
  </scstep>
  <scstep>
   <time name="diag">    9.11    9.17</time>
   <time name="diis">   25.10   25.14</time>
   <time name="orth">    0.49    0.49</time>
   <time name="total">   38.77   38.90</time>
   <energy>
    <i name="e_fr_energy">   -300.82151797 </i>
    <i name="e_wo_entrp">   -300.83731624 </i>
    <i name="e_0_energy">   -300.82678406 </i>
   </energy>
  </scstep>
  <scstep>
   <time name="diag">    9.12    9.22</time>
   <time name="diis">   26.51   26.87</time>
   <time name="orth">    0.49    0.49</time>
   <time name="total">   40.15   40.65</time>
   <energy>
    <i name="e_fr_energy">   -300.68464551 </i>
    <i name="e_wo_entrp">   -300.69705422 </i>
    <i name="e_0_energy">   -300.68878175 </i>
   </energy>
  </scstep>
  <scstep>
   <time name="diag">    9.11    9.12</time>
   <time name="diis">   26.32   26.80</time>
   <time name="orth">    0.50    0.51</time>
   <time name="total">   39.98   40.52</time>
   <energy>
    <i name="e_fr_energy">   -300.46610471 </i>
    <i name="e_wo_entrp">   -300.47995526 </i>
    <i name="e_0_energy">   -300.47072156 </i>
   </energy>
  </scstep>
  <scstep>
   <time name="diag">    9.11    9.13</time>
   <time name="diis">   25.89   25.93</time>
   <time name="orth">    0.49    0.49</time>
   <time name="total">   39.55   39.65</time>
   <energy>
    <i name="e_fr_energy">   -300.36470365 </i>
    <i name="e_wo_entrp">   -300.37760765 </i>
    <i name="e_0_energy">   -300.36900499 </i>
   </energy>
  </scstep>
  <scstep>
   <time name="diag">    9.14    9.19</time>
   <time name="diis">   26.43   26.82</time>
   <time name="orth">    0.49    0.51</time>
   <time name="total">   40.12   40.61</time>
   <energy>
    <i name="e_fr_energy">   -299.80568198 </i>
    <i name="e_wo_entrp">   -299.81190647 </i>
    <i name="e_0_energy">   -299.80775681 </i>
   </energy>
  </scstep>
  <scstep>
   <time name="diag">    9.12    9.13</time>
   <time name="diis">   26.69   27.17</time>
   <time name="orth">    0.49    0.49</time>
   <time name="total">   40.39   40.89</time>
   <energy>
    <i name="e_fr_energy">   -300.49006494 </i>
    <i name="e_wo_entrp">   -300.48679395 </i>
    <i name="e_0_energy">   -300.48897461 </i>
   </energy>
  </scstep>
  <scstep>
   <time name="diag">    9.12    9.14</time>
   <time name="diis">   26.39   26.42</time>
   <time name="orth">    0.49    0.49</time>
   <time name="total">   40.10   40.17</time>
   <energy>
    <i name="e_fr_energy">   -300.86856370 </i>
    <i name="e_wo_entrp">   -300.87626948 </i>
    <i name="e_0_energy">   -300.87113229 </i>
   </energy>
  </scstep>
  <scstep>
   <time name="diag">    9.17    9.21</time>
   <time name="diis">   28.65   28.98</time>
   <time name="orth">    0.49    0.49</time>
   <time name="total">   42.43   42.88</time>
   <energy>
    <i name="e_fr_energy">   -300.81777397 </i>
    <i name="e_wo_entrp">   -300.82583911 </i>
    <i name="e_0_energy">   -300.82046235 </i>
   </energy>
  </scstep>
  <scstep>
   <time name="diag">    9.10    9.11</time>
   <time name="diis">   26.81   27.30</time>
   <time name="orth">    0.49    0.49</time>
   <time name="total">   40.46   40.97</time>
   <energy>
    <i name="e_fr_energy">   -300.82677779 </i>
    <i name="e_wo_entrp">   -300.83558225 </i>
    <i name="e_0_energy">   -300.82971261 </i>
   </energy>
  </scstep>
  <scstep>
   <time name="diag">    9.13    9.17</time>
   <time name="diis">   26.73   26.76</time>
   <time name="orth">    0.51    0.55</time>
   <time name="total">   40.46   40.65</time>
   <energy>
    <i name="e_fr_energy">   -300.90680670 </i>
    <i name="e_wo_entrp">   -300.87529409 </i>
    <i name="e_0_energy">   -300.89630250 </i>
   </energy>
  </scstep>
  <scstep>
   <time name="diag">    9.56    9.90</time>
   <time name="diis">   25.01   25.10</time>
   <time name="orth">    0.49    0.49</time>
   <time name="total">   39.13   39.59</time>
   <energy>
    <i name="e_fr_energy">   -300.93027593 </i>
    <i name="e_wo_entrp">   -300.92964378 </i>
    <i name="e_0_energy">   -300.93006521 </i>
   </energy>
  </scstep>
  <scstep>
   <time name="diag">    9.11    9.12</time>
   <time name="diis">   24.95   25.46</time>
   <time name="orth">    0.49    0.49</time>
   <time name="total">   38.61   39.17</time>
   <energy>
    <i name="e_fr_energy">   -301.08684119 </i>
    <i name="e_wo_entrp">   -301.07550752 </i>
    <i name="e_0_energy">   -301.08306330 </i>
   </energy>
  </scstep>
  <scstep>
   <time name="diag">    9.12    9.14</time>
   <time name="diis">   25.52   25.55</time>
   <time name="orth">    0.49    0.49</time>
   <time name="total">   39.23   39.36</time>
   <energy>
    <i name="e_fr_energy">   -301.54117230 </i>
    <i name="e_wo_entrp">   -301.52302021 </i>
    <i name="e_0_energy">   -301.53512160 </i>
   </energy>
  </scstep>
  <scstep>
   <time name="diag">    9.33    9.56</time>
   <time name="diis">   26.73   26.99</time>
   <time name="orth">    0.49    0.49</time>
   <time name="total">   40.67   41.16</time>
   <energy>
    <i name="e_fr_energy">   -301.47781080 </i>
    <i name="e_wo_entrp">   -301.47163761 </i>
    <i name="e_0_energy">   -301.47575307 </i>
   </energy>
  </scstep>
  <scstep>
   <time name="diag">    9.11    9.12</time>
   <time name="diis">   26.73   27.10</time>
   <time name="orth">    0.49    0.49</time>
   <time name="total">   40.39   40.78</time>
   <energy>
    <i name="e_fr_energy">   -301.64950752 </i>
    <i name="e_wo_entrp">   -301.64649579 </i>
    <i name="e_0_energy">   -301.64850361 </i>
   </energy>
  </scstep>
  <scstep>
   <time name="diag">    9.13    9.16</time>
   <time name="diis">   25.01   25.04</time>
   <time name="orth">    0.49    0.49</time>
   <time name="total">   38.75   38.83</time>
   <energy>
    <i name="e_fr_energy">   -301.70647083 </i>
    <i name="e_wo_entrp">   -301.70239054 </i>
    <i name="e_0_energy">   -301.70511073 </i>
   </energy>
  </scstep>
  <scstep>
   <time name="diag">    9.74   10.16</time>
   <time name="diis">   26.32   26.51</time>
   <time name="orth">    0.49    0.49</time>
   <time name="total">   40.62   41.27</time>
   <energy>
    <i name="e_fr_energy">   -300.44052904 </i>
    <i name="e_wo_entrp">   -300.45770203 </i>
    <i name="e_0_energy">   -300.44625337 </i>
   </energy>
  </scstep>
  <scstep>
   <time name="diag">    9.11    9.12</time>
   <time name="diis">   31.23   31.63</time>
   <time name="orth">    0.49    0.49</time>
   <time name="total">   44.93   45.37</time>
   <energy>
    <i name="e_fr_energy">   -300.52177871 </i>
    <i name="e_wo_entrp">   -300.53803318 </i>
    <i name="e_0_energy">   -300.52719687 </i>
   </energy>
  </scstep>
  <scstep>
   <time name="diag">    9.12    9.16</time>
   <time name="diis">   28.82   28.91</time>
   <time name="orth">    0.51    0.51</time>
   <time name="total">   42.72   42.93</time>
   <energy>
    <i name="e_fr_energy">   -300.51573109 </i>
    <i name="e_wo_entrp">   -300.53219593 </i>
    <i name="e_0_energy">   -300.52121937 </i>
   </energy>
  </scstep>
  <scstep>
   <time name="diag">    9.28    9.39</time>
   <time name="diis">   25.96   26.02</time>
   <time name="orth">    0.49    0.49</time>
   <time name="total">   39.87   40.23</time>
   <energy>
    <i name="e_fr_energy">   -300.32252179 </i>
    <i name="e_wo_entrp">   -300.33918699 </i>
    <i name="e_0_energy">   -300.32807686 </i>
   </energy>
  </scstep>
  <scstep>
   <time name="diag">    9.18    9.28</time>
   <time name="diis">   26.29   26.79</time>
   <time name="orth">    0.49    0.49</time>
   <time name="total">   40.02   40.63</time>
   <energy>
    <i name="e_fr_energy">   -299.69453413 </i>
    <i name="e_wo_entrp">   -299.67271601 </i>
    <i name="e_0_energy">   -299.68726142 </i>
   </energy>
  </scstep>
  <scstep>
   <time name="diag">    9.01    9.02</time>
   <time name="diis">   25.40   25.48</time>
   <time name="orth">    0.51    0.51</time>
   <time name="total">   39.23   39.57</time>
   <energy>
    <i name="e_fr_energy">   -299.36477783 </i>
    <i name="e_wo_entrp">   -299.35906453 </i>
    <i name="e_0_energy">   -299.36287340 </i>
   </energy>
  </scstep>
  <scstep>
   <time name="diag">    9.01    9.05</time>
   <time name="diis">   25.66   25.71</time>
   <time name="orth">    0.49    0.49</time>
   <time name="total">   39.25   39.41</time>
   <energy>
    <i name="e_fr_energy">   -299.26120890 </i>
    <i name="e_wo_entrp">   -299.23655157 </i>
    <i name="e_0_energy">   -299.25298979 </i>
   </energy>
  </scstep>
  <scstep>
   <time name="diag">    9.15    9.26</time>
   <time name="diis">   26.08   26.55</time>
   <time name="orth">    0.49    0.49</time>
   <time name="total">   39.79   40.42</time>
   <energy>
    <i name="e_fr_energy">   -299.89232104 </i>
    <i name="e_wo_entrp">   -299.88686058 </i>
    <i name="e_0_energy">   -299.89050089 </i>
   </energy>
  </scstep>
  <scstep>
   <time name="diag">    9.11    9.12</time>
   <time name="diis">   25.49   25.66</time>
   <time name="orth">    0.50    0.50</time>
   <time name="total">   39.25   39.49</time>
   <energy>
    <i name="e_fr_energy">   -299.99843307 </i>
    <i name="e_wo_entrp">   -299.99610816 </i>
    <i name="e_0_energy">   -299.99765810 </i>
   </energy>
  </scstep>
  <scstep>
   <time name="diag">    9.22    9.45</time>
   <time name="diis">   25.73   25.82</time>
   <time name="orth">    0.49    0.49</time>
   <time name="total">   36.01   36.45</time>
   <energy>
    <i name="alphaZ">    494.33689101 </i>
    <i name="ewald"> 399084.20551659 </i>
    <i name="hartreedc">-433136.19004417 </i>
    <i name="XCdc">   1640.82258761 </i>
    <i name="pawpsdc">  38499.89513327 </i>
    <i name="pawaedc"> -39208.08607625 </i>
    <i name="eentropy">     -0.00018590 </i>
    <i name="bandstr">  -6072.72393407 </i>
    <i name="atom">  38397.77816617 </i>
    <i name="e_fr_energy">   -299.96194573 </i>
    <i name="e_wo_entrp">   -299.96175984 </i>
    <i name="e_0_energy">   -299.96188377 </i>
   </energy>
  </scstep>
  <structure>
   <crystal>
    <varray name="basis" >
     <v>       2.87357350      -2.87357350       4.70833511 </v>
     <v>       5.74714699       0.00000000       0.00000000 </v>
     <v>       0.00000000      33.06569101      20.18052901 </v>
    </varray>
    <i name="volume">   1228.01926054 </i>
    <varray name="rec_basis" >
     <v>       0.00000000      -0.09444515       0.15474789 </v>
     <v>       0.17399938       0.04722258      -0.07737394 </v>
     <v>       0.00000000       0.02203507       0.01344836 </v>
    </varray>
   </crystal>
   <varray name="positions" >
    <v>       0.22067121       0.89240241       0.08901558 </v>
    <v>       0.67049107       0.17139500       0.21812612 </v>
    <v>       0.94927612       0.02809995       0.15233499 </v>
    <v>       0.39628519       0.31541393       0.28436965 </v>
    <v>       0.44927612       0.52809995       0.15233499 </v>
    <v>       0.89442180       0.31090198       0.28469138 </v>
    <v>       0.44927612       0.02809995       0.15233499 </v>
    <v>       0.89145733       0.81614806       0.28463836 </v>
    <v>       0.90282244       0.55132680       0.10484543 </v>
    <v>       0.34522562       0.83639287       0.23338071 </v>
    <v>       0.99488986       0.50760555       0.20402520 </v>
    <v>       0.44252101       0.79179134       0.33460744 </v>
    <v>       0.53851998       0.23347802       0.07318573 </v>
    <v>       0.11203609       0.45824059       0.34962463 </v>
    <v>       0.78679970       0.61453187       0.31467708 </v>
    <v>       0.87926422       0.06310591       0.05527763 </v>
    <v>       0.33690555       0.33460101       0.18279795 </v>
    <v>       0.58246139       0.21150732       0.12452493 </v>
    <v>       0.04595854       0.48801853       0.25722085 </v>
    <v>       0.52960583       0.80061449       0.38717301 </v>
    <v>       0.09516526       0.72856013       0.12156099 </v>
    <v>       0.53990046       0.46495454       0.25146104 </v>
    <v>       0.72974222       0.14569829       0.30869933 </v>
    <v>       0.85888103       0.57329750       0.05350623 </v>
    <v>       0.30990000       0.84800787       0.18039599 </v>
    <v>       0.56207820       0.72169891       0.12275353 </v>
    <v>       0.00319359       0.00846629       0.25348859 </v>
    <v>       0.79966184       0.33082770       0.18430147 </v>
    <v>       0.24104440       0.62010529       0.31584412 </v>
    <v>       0.34617716       0.60305419       0.05647018 </v>
    <v>       0.24559822       0.17025861       0.31556948 </v>
    <v>       0.79838490       0.87880650       0.18455383 </v>
    <v>       0.34617716       0.05624469       0.05647018 </v>
    <v>       0.54064999       0.01298645       0.25167223 </v>
    <v>       0.09516526       0.18175063       0.12156099 </v>
    <v>       0.97992847       0.73305497       0.38277152 </v>
    <v>       0.10175714       0.21789162       0.38349154 </v>
    <v>       0.34047062       0.60391201       0.02782883 </v>
    <v>       0.92434681       0.68523651       0.03696881 </v>
    <v>       0.34363348       0.06399961       0.02783421 </v>
    <v>       0.88838126       0.05560908       0.02665597 </v>
    <v>       0.38868586       0.97195753       0.39368105 </v>
    <v>       0.00137449       0.89015467       0.37924369 </v>
    <v>       0.69024756       0.80508185       0.38898119 </v>
    <v>       0.02529536       0.31950594       0.40414059 </v>
   </varray>
  </structure>
  <varray name="forces" >
   <v>       0.16441096      -1.81593470      -1.60857710 </v>
   <v>      -0.01068647      -0.03539075      -0.02722994 </v>
   <v>       0.06639042       0.93040443       0.09881059 </v>
   <v>       0.04458546      -0.61021495      -0.26192510 </v>
   <v>      -0.04771737       0.52647084       0.17546946 </v>
   <v>      -0.41862088      -0.27621657      -0.24189459 </v>
   <v>       0.10567907       0.51899217       0.16261985 </v>
   <v>       0.26408951      -0.30694231      -0.16148304 </v>
   <v>       0.08874261      -1.31793445      -0.82996830 </v>
   <v>       0.04607211      -0.08142394      -0.05950260 </v>
   <v>       0.01458335      -0.00472632       0.02106430 </v>
   <v>       0.04289592      -0.09911330      -0.29600366 </v>
   <v>      -0.02646824      -0.51522063       0.26466964 </v>
   <v>      -0.09853177       0.02431193      -0.41859999 </v>
   <v>       0.21210496       0.46675751       0.33095641 </v>
   <v>      -0.30240382      -3.47236667      -1.85966566 </v>
   <v>      -0.15175152      -0.13641169      -0.00248327 </v>
   <v>      -0.06880087       0.27358575       0.40575394 </v>
   <v>       0.01417452       0.27430499      -0.31140013 </v>
   <v>      -0.08687835      -0.20085828      -0.13252343 </v>
   <v>       0.15234548       0.17806153       0.34155582 </v>
   <v>      -0.15294267       0.16820596       0.11108195 </v>
   <v>       0.03586636      -0.16891975       0.68632011 </v>
   <v>       1.62833429      -1.20977401      -0.09765805 </v>
   <v>       0.10962976      -0.12409884      -0.02686985 </v>
   <v>       0.11109498       0.22152664      -0.32733876 </v>
   <v>      -0.06700887       0.27612892       0.03397796 </v>
   <v>      -0.18802854      -0.16420467      -0.01418055 </v>
   <v>       0.21944699       0.23325069       0.43319108 </v>
   <v>      -0.91162172      -3.52407299      -2.12213163 </v>
   <v>      -0.24256178       0.28821429       0.44922443 </v>
   <v>       0.16403490      -0.12972074      -0.01941743 </v>
   <v>       1.04628074      -3.57391767      -1.92838589 </v>
   <v>       0.14379528       0.28000293       0.07051405 </v>
   <v>      -0.18299229       0.24441790       0.38813126 </v>
   <v>      -0.22063271      -0.23963542      -0.00343697 </v>
   <v>       0.20758599      -0.23062210      -0.06449115 </v>
   <v>       0.57785844       3.79891116       2.30036212 </v>
   <v>      -2.05280091       2.12876558       0.35303608 </v>
   <v>      -0.64871788       3.94211557       2.09320924 </v>
   <v>       0.35478144       3.58156529       2.12570520 </v>
   <v>       0.00114672      -0.01868838      -0.03099378 </v>
   <v>       0.03432944      -0.03762468      -0.04714980 </v>
   <v>       0.01658874      -0.09023167       0.05946700 </v>
   <v>       0.01231826       0.02827141      -0.01180981 </v>
  </varray>
  <energy>
   <i name="e_fr_energy">   -299.96194573 </i>
   <i name="e_wo_entrp">   -299.96188377 </i>
   <i name="e_0_energy">     -0.00018590 </i>
  </energy>
  <time name="totalsc"> 2486.53 2509.76</time>
 </calculation>
 <calculation>
  <scstep>
   <time name="dav">   51.46   51.86</time>
   <time name="total">   55.60   56.08</time>
   <energy>
    <i name="alphaZ">    494.33689101 </i>
    <i name="ewald"> 399332.68160045 </i>
    <i name="hartreedc">-433392.43894178 </i>
    <i name="XCdc">   1641.00548945 </i>
    <i name="pawpsdc">  38496.07831568 </i>
    <i name="pawaedc"> -39204.14863113 </i>
    <i name="eentropy">     -0.00423368 </i>
    <i name="bandstr">  -6064.50803603 </i>
    <i name="atom">  38397.77816617 </i>
    <i name="e_fr_energy">   -299.21937986 </i>
    <i name="e_wo_entrp">   -299.21514618 </i>
    <i name="e_0_energy">   -299.21796864 </i>
   </energy>
  </scstep>
  <scstep>
   <time name="diag">    9.29    9.68</time>
   <time name="diis">   29.80   29.85</time>
   <time name="orth">    0.49    0.49</time>
   <time name="total">   43.67   44.12</time>
   <energy>
    <i name="e_fr_energy">   -301.29018884 </i>
    <i name="e_wo_entrp">   -301.27915120 </i>
    <i name="e_0_energy">   -301.28650963 </i>
   </energy>
  </scstep>
  <scstep>
   <time name="diag">    9.20    9.36</time>
   <time name="diis">   26.88   27.52</time>
   <time name="orth">    0.49    0.49</time>
   <time name="total">   40.61   41.43</time>
   <energy>
    <i name="e_fr_energy">   -300.31366788 </i>
    <i name="e_wo_entrp">   -300.33063876 </i>
    <i name="e_0_energy">   -300.31932484 </i>
   </energy>
  </scstep>
  <scstep>
   <time name="diag">    9.06    9.08</time>
   <time name="diis">   27.12   27.20</time>
   <time name="orth">    0.51    0.51</time>
   <time name="total">   40.92   41.43</time>
   <energy>
    <i name="e_fr_energy">   -300.36110954 </i>
    <i name="e_wo_entrp">   -300.36079495 </i>
    <i name="e_0_energy">   -300.36100467 </i>
   </energy>
  </scstep>
  <scstep>
   <time name="diag">    9.10    9.11</time>
   <time name="diis">   27.53   27.63</time>
   <time name="orth">    0.49    0.49</time>
   <time name="total">   41.14   41.29</time>
   <energy>
    <i name="e_fr_energy">   -300.83600149 </i>
    <i name="e_wo_entrp">   -300.83795476 </i>
    <i name="e_0_energy">   -300.83665258 </i>
   </energy>
  </scstep>
  <scstep>
   <time name="diag">    9.16    9.22</time>
   <time name="diis">   26.73   27.06</time>
   <time name="orth">    0.50    0.51</time>
   <time name="total">   40.43   40.84</time>
   <energy>
    <i name="e_fr_energy">   -301.23668811 </i>
    <i name="e_wo_entrp">   -301.25191722 </i>
    <i name="e_0_energy">   -301.24176448 </i>
   </energy>
  </scstep>
  <scstep>
   <time name="diag">    9.12    9.13</time>
   <time name="diis">   26.50   26.66</time>
   <time name="orth">    0.60    0.72</time>
   <time name="total">   40.25   40.66</time>
   <energy>
    <i name="e_fr_energy">   -300.87637710 </i>
    <i name="e_wo_entrp">   -300.88712695 </i>
    <i name="e_0_energy">   -300.87996039 </i>
   </energy>
  </scstep>
  <scstep>
   <time name="diag">    9.07    9.08</time>
   <time name="diis">   25.83   25.87</time>
   <time name="orth">    0.49    0.49</time>
   <time name="total">   39.43   39.53</time>
   <energy>
    <i name="e_fr_energy">   -300.67620435 </i>
    <i name="e_wo_entrp">   -300.66759178 </i>
    <i name="e_0_energy">   -300.67333349 </i>
   </energy>
  </scstep>
  <scstep>
   <time name="diag">    9.18    9.24</time>
   <time name="diis">   26.16   26.59</time>
   <time name="orth">    0.49    0.49</time>
   <time name="total">   39.81   40.34</time>
   <energy>
    <i name="e_fr_energy">   -300.69954736 </i>
    <i name="e_wo_entrp">   -300.68970672 </i>
    <i name="e_0_energy">   -300.69626715 </i>
   </energy>
  </scstep>
  <scstep>
   <time name="diag">    9.07    9.08</time>
   <time name="diis">   26.37   26.66</time>
   <time name="orth">    0.56    0.66</time>
   <time name="total">   40.02   40.57</time>
   <energy>
    <i name="e_fr_energy">   -300.74353856 </i>
    <i name="e_wo_entrp">   -300.73477265 </i>
    <i name="e_0_energy">   -300.74061659 </i>
   </energy>
  </scstep>
  <scstep>
   <time name="diag">    9.13    9.19</time>
   <time name="diis">   25.83   25.87</time>
   <time name="orth">    0.49    0.49</time>
   <time name="total">   39.47   39.61</time>
   <energy>
    <i name="e_fr_energy">   -300.85025225 </i>
    <i name="e_wo_entrp">   -300.83767955 </i>
    <i name="e_0_energy">   -300.84606135 </i>
   </energy>
  </scstep>
  <scstep>
   <time name="diag">    9.08    9.14</time>
   <time name="diis">   26.09   26.55</time>
   <time name="orth">    0.48    0.48</time>
   <time name="total">   39.62   40.18</time>
   <energy>
    <i name="e_fr_energy">   -301.08248459 </i>
    <i name="e_wo_entrp">   -301.07222607 </i>
    <i name="e_0_energy">   -301.07906508 </i>
   </energy>
  </scstep>
  <scstep>
   <time name="diag">    8.99    9.00</time>
   <time name="diis">   26.26   26.55</time>
   <time name="orth">    0.55    0.64</time>
   <time name="total">   39.82   40.21</time>
   <energy>
    <i name="e_fr_energy">   -301.10473889 </i>
    <i name="e_wo_entrp">   -301.08807475 </i>
    <i name="e_0_energy">   -301.09918418 </i>
   </energy>
  </scstep>
  <scstep>
   <time name="diag">    9.07    9.08</time>
   <time name="diis">   25.11   25.15</time>
   <time name="orth">    0.49    0.49</time>
   <time name="total">   38.72   38.81</time>
   <energy>
    <i name="e_fr_energy">   -301.44744123 </i>
    <i name="e_wo_entrp">   -301.43865492 </i>
    <i name="e_0_energy">   -301.44451246 </i>
   </energy>
  </scstep>
  <scstep>
   <time name="diag">    9.21    9.27</time>
   <time name="diis">   25.36   25.67</time>
   <time name="orth">    0.50    0.50</time>
   <time name="total">   39.09   39.50</time>
   <energy>
    <i name="e_fr_energy">   -301.64533134 </i>
    <i name="e_wo_entrp">   -301.63563881 </i>
    <i name="e_0_energy">   -301.64210050 </i>
   </energy>
  </scstep>
  <scstep>
   <time name="diag">    9.06    9.07</time>
   <time name="diis">   24.77   24.85</time>
   <time name="orth">    0.50    0.51</time>
   <time name="total">   38.79   39.27</time>
   <energy>
    <i name="e_fr_energy">   -301.80488008 </i>
    <i name="e_wo_entrp">   -301.79208145 </i>
    <i name="e_0_energy">   -301.80061387 </i>
   </energy>
  </scstep>
  <scstep>
   <time name="diag">    9.12    9.13</time>
   <time name="diis">   24.26   24.31</time>
   <time name="orth">    0.49    0.49</time>
   <time name="total">   37.88   37.98</time>
   <energy>
    <i name="e_fr_energy">   -301.93679048 </i>
    <i name="e_wo_entrp">   -301.92100276 </i>
    <i name="e_0_energy">   -301.93152791 </i>
   </energy>
  </scstep>
  <scstep>
   <time name="diag">    9.10    9.35</time>
   <time name="diis">   24.43   24.91</time>
   <time name="orth">    0.49    0.49</time>
   <time name="total">   38.11   38.85</time>
   <energy>
    <i name="e_fr_energy">   -301.99980533 </i>
    <i name="e_wo_entrp">   -301.98314526 </i>
    <i name="e_0_energy">   -301.99425197 </i>
   </energy>
  </scstep>
  <scstep>
   <time name="diag">    9.13    9.15</time>
   <time name="diis">   24.34   24.48</time>
   <time name="orth">    0.49    0.49</time>
   <time name="total">   38.00   38.22</time>
   <energy>
    <i name="e_fr_energy">   -302.06720159 </i>
    <i name="e_wo_entrp">   -302.05037389 </i>
    <i name="e_0_energy">   -302.06159236 </i>
   </energy>
  </scstep>
  <scstep>
   <time name="diag">    9.30    9.66</time>
   <time name="diis">   24.49   24.63</time>
   <time name="orth">    0.49    0.49</time>
   <time name="total">   38.32   38.86</time>
   <energy>
    <i name="e_fr_energy">   -302.17968087 </i>
    <i name="e_wo_entrp">   -302.16600638 </i>
    <i name="e_0_energy">   -302.17512270 </i>
   </energy>
  </scstep>
  <scstep>
   <time name="diag">    9.12    9.13</time>
   <time name="diis">   24.86   25.36</time>
   <time name="orth">    0.49    0.49</time>
   <time name="total">   38.50   39.05</time>
   <energy>
    <i name="e_fr_energy">   -302.09874911 </i>
    <i name="e_wo_entrp">   -302.08445237 </i>
    <i name="e_0_energy">   -302.09398353 </i>
   </energy>
  </scstep>
  <scstep>
   <time name="diag">    9.06    9.07</time>
   <time name="diis">   23.89   23.96</time>
   <time name="orth">    0.49    0.49</time>
   <time name="total">   37.46   37.59</time>
   <energy>
    <i name="e_fr_energy">   -302.15405232 </i>
    <i name="e_wo_entrp">   -302.13901021 </i>
    <i name="e_0_energy">   -302.14903828 </i>
   </energy>
  </scstep>
  <scstep>
   <time name="diag">    9.43    9.68</time>
   <time name="diis">   24.28   24.33</time>
   <time name="orth">    0.49    0.49</time>
   <time name="total">   38.21   38.55</time>
   <energy>
    <i name="e_fr_energy">   -302.23688760 </i>
    <i name="e_wo_entrp">   -302.22097979 </i>
    <i name="e_0_energy">   -302.23158500 </i>
   </energy>
  </scstep>
  <scstep>
   <time name="diag">    9.06    9.07</time>
   <time name="diis">   24.27   24.69</time>
   <time name="orth">    0.49    0.49</time>
   <time name="total">   37.87   38.34</time>
   <energy>
    <i name="e_fr_energy">   -302.34018655 </i>
    <i name="e_wo_entrp">   -302.32381683 </i>
    <i name="e_0_energy">   -302.33472998 </i>
   </energy>
  </scstep>
  <scstep>
   <time name="diag">    9.12    9.13</time>
   <time name="diis">   23.45   23.48</time>
   <time name="orth">    0.49    0.49</time>
   <time name="total">   37.09   37.17</time>
   <energy>
    <i name="e_fr_energy">   -302.36676465 </i>
    <i name="e_wo_entrp">   -302.35026024 </i>
    <i name="e_0_energy">   -302.36126318 </i>
   </energy>
  </scstep>
  <scstep>
   <time name="diag">    9.10    9.16</time>
   <time name="diis">   23.74   24.10</time>
   <time name="orth">    0.49    0.49</time>
   <time name="total">   37.38   37.83</time>
   <energy>
    <i name="e_fr_energy">   -302.41767346 </i>
    <i name="e_wo_entrp">   -302.40052491 </i>
    <i name="e_0_energy">   -302.41195727 </i>
   </energy>
  </scstep>
  <scstep>
   <time name="diag">    9.12    9.13</time>
   <time name="diis">   24.32   24.41</time>
   <time name="orth">    0.58    0.63</time>
   <time name="total">   38.37   38.80</time>
   <energy>
    <i name="e_fr_energy">   -302.51265657 </i>
    <i name="e_wo_entrp">   -302.49535409 </i>
    <i name="e_0_energy">   -302.50688907 </i>
   </energy>
  </scstep>
  <scstep>
   <time name="diag">    9.07    9.08</time>
   <time name="diis">   23.90   23.94</time>
   <time name="orth">    0.49    0.49</time>
   <time name="total">   37.51   37.59</time>
   <energy>
    <i name="e_fr_energy">   -302.63755190 </i>
    <i name="e_wo_entrp">   -302.62087137 </i>
    <i name="e_0_energy">   -302.63199172 </i>
   </energy>
  </scstep>
  <scstep>
   <time name="diag">    9.15    9.20</time>
   <time name="diis">   24.37   24.69</time>
   <time name="orth">    0.51    0.51</time>
   <time name="total">   38.04   38.45</time>
   <energy>
    <i name="e_fr_energy">   -302.67956460 </i>
    <i name="e_wo_entrp">   -302.66310954 </i>
    <i name="e_0_energy">   -302.67407958 </i>
   </energy>
  </scstep>
  <scstep>
   <time name="diag">    9.07    9.08</time>
   <time name="diis">   23.24   23.34</time>
   <time name="orth">    0.49    0.49</time>
   <time name="total">   36.96   37.13</time>
   <energy>
    <i name="e_fr_energy">   -302.70302563 </i>
    <i name="e_wo_entrp">   -302.68635484 </i>
    <i name="e_0_energy">   -302.69746870 </i>
   </energy>
  </scstep>
  <scstep>
   <time name="diag">    9.36    9.70</time>
   <time name="diis">   22.92   22.97</time>
   <time name="orth">    0.49    0.49</time>
   <time name="total">   36.81   37.23</time>
   <energy>
    <i name="e_fr_energy">   -302.75524471 </i>
    <i name="e_wo_entrp">   -302.73850721 </i>
    <i name="e_0_energy">   -302.74966554 </i>
   </energy>
  </scstep>
  <scstep>
   <time name="diag">    9.07    9.08</time>
   <time name="diis">   23.67   24.12</time>
   <time name="orth">    0.49    0.49</time>
   <time name="total">   37.28   37.75</time>
   <energy>
    <i name="e_fr_energy">   -302.77725494 </i>
    <i name="e_wo_entrp">   -302.76020171 </i>
    <i name="e_0_energy">   -302.77157053 </i>
   </energy>
  </scstep>
  <scstep>
   <time name="diag">    9.14    9.17</time>
   <time name="diis">   23.03   23.06</time>
   <time name="orth">    0.49    0.49</time>
   <time name="total">   36.77   36.91</time>
   <energy>
    <i name="e_fr_energy">   -302.78958506 </i>
    <i name="e_wo_entrp">   -302.77235186 </i>
    <i name="e_0_energy">   -302.78384066 </i>
   </energy>
  </scstep>
  <scstep>
   <time name="diag">    9.16    9.20</time>
   <time name="diis">   22.48   22.78</time>
   <time name="orth">    0.49    0.49</time>
   <time name="total">   36.19   36.54</time>
   <energy>
    <i name="e_fr_energy">   -302.79397487 </i>
    <i name="e_wo_entrp">   -302.77678207 </i>
    <i name="e_0_energy">   -302.78824394 </i>
   </energy>
  </scstep>
  <scstep>
   <time name="diag">    9.11    9.12</time>
   <time name="diis">   19.84   19.89</time>
   <time name="orth">    0.51    0.53</time>
   <time name="total">   33.62   33.75</time>
   <energy>
    <i name="e_fr_energy">   -302.79579984 </i>
    <i name="e_wo_entrp">   -302.77864612 </i>
    <i name="e_0_energy">   -302.79008194 </i>
   </energy>
  </scstep>
  <scstep>
   <time name="diag">    9.45    9.67</time>
   <time name="diis">   18.97   19.02</time>
   <time name="orth">    0.49    0.49</time>
   <time name="total">   33.07   33.41</time>
   <energy>
    <i name="e_fr_energy">   -302.79563498 </i>
    <i name="e_wo_entrp">   -302.77850920 </i>
    <i name="e_0_energy">   -302.78992638 </i>
   </energy>
  </scstep>
  <scstep>
   <time name="diag">    9.11    9.12</time>
   <time name="diis">   20.21   20.57</time>
   <time name="orth">    0.49    0.49</time>
   <time name="total">   33.83   34.20</time>
   <energy>
    <i name="e_fr_energy">   -302.79813619 </i>
    <i name="e_wo_entrp">   -302.78094171 </i>
    <i name="e_0_energy">   -302.79240470 </i>
   </energy>
  </scstep>
  <scstep>
   <time name="diag">    9.06    9.08</time>
   <time name="diis">   18.72   18.75</time>
   <time name="orth">    0.49    0.49</time>
   <time name="total">   32.30   32.34</time>
   <energy>
    <i name="e_fr_energy">   -302.79924616 </i>
    <i name="e_wo_entrp">   -302.78194091 </i>
    <i name="e_0_energy">   -302.79347774 </i>
   </energy>
  </scstep>
  <scstep>
   <time name="diag">    9.12    9.18</time>
   <time name="diis">   18.17   18.51</time>
   <time name="orth">    0.49    0.49</time>
   <time name="total">   31.80   32.20</time>
   <energy>
    <i name="e_fr_energy">   -302.79972594 </i>
    <i name="e_wo_entrp">   -302.78233833 </i>
    <i name="e_0_energy">   -302.79393007 </i>
   </energy>
  </scstep>
  <scstep>
   <time name="diag">    9.06    9.09</time>
   <time name="diis">   17.76   17.79</time>
   <time name="orth">    0.49    0.49</time>
   <time name="total">   31.33   31.39</time>
   <energy>
    <i name="e_fr_energy">   -302.79989844 </i>
    <i name="e_wo_entrp">   -302.78244546 </i>
    <i name="e_0_energy">   -302.79408078 </i>
   </energy>
  </scstep>
  <scstep>
   <time name="diag">    9.17    9.23</time>
   <time name="diis">   16.48   16.77</time>
   <time name="orth">    0.49    0.49</time>
   <time name="total">   30.15   30.51</time>
   <energy>
    <i name="e_fr_energy">   -302.79994244 </i>
    <i name="e_wo_entrp">   -302.78242124 </i>
    <i name="e_0_energy">   -302.79410204 </i>
   </energy>
  </scstep>
  <scstep>
   <time name="diag">    9.08    9.10</time>
   <time name="diis">   17.76   17.78</time>
   <time name="orth">    0.49    0.49</time>
   <time name="total">   31.36   31.41</time>
   <energy>
    <i name="e_fr_energy">   -302.79976600 </i>
    <i name="e_wo_entrp">   -302.78212010 </i>
    <i name="e_0_energy">   -302.79388403 </i>
   </energy>
  </scstep>
  <scstep>
   <time name="diag">    9.07    9.12</time>
   <time name="diis">   16.91   17.25</time>
   <time name="orth">    0.49    0.49</time>
   <time name="total">   30.49   30.88</time>
   <energy>
    <i name="e_fr_energy">   -302.79948175 </i>
    <i name="e_wo_entrp">   -302.78169592 </i>
    <i name="e_0_energy">   -302.79355314 </i>
   </energy>
  </scstep>
  <scstep>
   <time name="diag">    9.07    9.08</time>
   <time name="diis">   14.99   15.01</time>
   <time name="orth">    0.49    0.49</time>
   <time name="total">   28.57   28.61</time>
   <energy>
    <i name="e_fr_energy">   -302.79945151 </i>
    <i name="e_wo_entrp">   -302.78154961 </i>
    <i name="e_0_energy">   -302.79348421 </i>
   </energy>
  </scstep>
  <scstep>
   <time name="diag">    9.12    9.22</time>
   <time name="diis">   15.38   15.81</time>
   <time name="orth">    0.49    0.49</time>
   <time name="total">   29.04   29.57</time>
   <energy>
    <i name="e_fr_energy">   -302.79948165 </i>
    <i name="e_wo_entrp">   -302.78149682 </i>
    <i name="e_0_energy">   -302.79348671 </i>
   </energy>
  </scstep>
  <scstep>
   <time name="diag">    9.10    9.13</time>
   <time name="diis">   14.64   14.66</time>
   <time name="orth">    0.49    0.49</time>
   <time name="total">   28.31   28.36</time>
   <energy>
    <i name="e_fr_energy">   -302.79945747 </i>
    <i name="e_wo_entrp">   -302.78140822 </i>
    <i name="e_0_energy">   -302.79344106 </i>
   </energy>
  </scstep>
  <scstep>
   <time name="diag">    8.96    9.00</time>
   <time name="diis">   15.24   15.57</time>
   <time name="orth">    0.48    0.48</time>
   <time name="total">   28.63   29.01</time>
   <energy>
    <i name="e_fr_energy">   -302.79954100 </i>
    <i name="e_wo_entrp">   -302.78143772 </i>
    <i name="e_0_energy">   -302.79350658 </i>
   </energy>
  </scstep>
  <scstep>
   <time name="diag">    8.90    8.91</time>
   <time name="diis">   14.10   14.13</time>
   <time name="orth">    0.48    0.48</time>
   <time name="total">   27.45   27.50</time>
   <energy>
    <i name="e_fr_energy">   -302.79951176 </i>
    <i name="e_wo_entrp">   -302.78134879 </i>
    <i name="e_0_energy">   -302.79345744 </i>
   </energy>
  </scstep>
  <scstep>
   <time name="diag">    8.93    9.03</time>
   <time name="diis">   15.13   15.57</time>
   <time name="orth">    0.49    0.49</time>
   <time name="total">   28.58   29.12</time>
   <energy>
    <i name="e_fr_energy">   -302.79949687 </i>
    <i name="e_wo_entrp">   -302.78129301 </i>
    <i name="e_0_energy">   -302.79342892 </i>
   </energy>
  </scstep>
  <scstep>
   <time name="diag">    9.04    9.06</time>
   <time name="diis">   14.36   14.39</time>
   <time name="orth">    0.49    0.49</time>
   <time name="total">   27.94   27.99</time>
   <energy>
    <i name="e_fr_energy">   -302.79943206 </i>
    <i name="e_wo_entrp">   -302.78118528 </i>
    <i name="e_0_energy">   -302.79334980 </i>
   </energy>
  </scstep>
  <scstep>
   <time name="diag">    9.08    9.09</time>
   <time name="diis">   14.40   14.67</time>
   <time name="orth">    0.51    0.62</time>
   <time name="total">   28.04   28.48</time>
   <energy>
    <i name="e_fr_energy">   -302.79940798 </i>
    <i name="e_wo_entrp">   -302.78112069 </i>
    <i name="e_0_energy">   -302.79331222 </i>
   </energy>
  </scstep>
  <scstep>
   <time name="diag">    9.04    9.05</time>
   <time name="diis">   14.27   14.30</time>
   <time name="orth">    0.49    0.49</time>
   <time name="total">   27.82   27.87</time>
   <energy>
    <i name="e_fr_energy">   -302.79935414 </i>
    <i name="e_wo_entrp">   -302.78102582 </i>
    <i name="e_0_energy">   -302.79324470 </i>
   </energy>
  </scstep>
  <scstep>
   <time name="diag">    9.05    9.06</time>
   <time name="diis">   13.46   13.53</time>
   <time name="orth">    0.51    0.51</time>
   <time name="total">   27.11   27.24</time>
   <energy>
    <i name="e_fr_energy">   -302.79933463 </i>
    <i name="e_wo_entrp">   -302.78097181 </i>
    <i name="e_0_energy">   -302.79321369 </i>
   </energy>
  </scstep>
  <scstep>
   <time name="diag">    9.18    9.34</time>
   <time name="diis">   13.77   13.81</time>
   <time name="orth">    0.49    0.49</time>
   <time name="total">   27.55   27.87</time>
   <energy>
    <i name="e_fr_energy">   -302.79929845 </i>
    <i name="e_wo_entrp">   -302.78090520 </i>
    <i name="e_0_energy">   -302.79316737 </i>
   </energy>
  </scstep>
  <scstep>
   <time name="diag">    9.05    9.06</time>
   <time name="diis">   12.90   13.13</time>
   <time name="orth">    0.49    0.49</time>
   <time name="total">   26.44   26.68</time>
   <energy>
    <i name="e_fr_energy">   -302.79926346 </i>
    <i name="e_wo_entrp">   -302.78084209 </i>
    <i name="e_0_energy">   -302.79312300 </i>
   </energy>
  </scstep>
  <scstep>
   <time name="diag">    9.59    9.95</time>
   <time name="diis">   13.52   13.53</time>
   <time name="orth">    0.49    0.49</time>
   <time name="total">   27.62   28.01</time>
   <energy>
    <i name="e_fr_energy">   -302.79927674 </i>
    <i name="e_wo_entrp">   -302.78083453 </i>
    <i name="e_0_energy">   -302.79312933 </i>
   </energy>
  </scstep>
  <scstep>
   <time name="diag">    9.06    9.09</time>
   <time name="diis">   14.97   14.99</time>
   <time name="orth">    0.51    0.53</time>
   <time name="total">   28.58   28.69</time>
   <energy>
    <i name="e_fr_energy">   -302.79941255 </i>
    <i name="e_wo_entrp">   -302.78097105 </i>
    <i name="e_0_energy">   -302.79326538 </i>
   </energy>
  </scstep>
  <scstep>
   <time name="diag">    9.31    9.78</time>
