 running on   64 total cores
 distrk:  each k-point on   64 cores,    1 groups
 distr:  one band on   32 cores,    2 groups
 using from now: INCAR     
 vasp.5.4.4.18Apr17-6-g9f103f2a35 (build Sep 24 2019 09:38:50) complex          
  
 POSCAR found type information on POSCAR  Mn O  H 
 POSCAR found :  3 types and      45 ions

 ----------------------------------------------------------------------------- 
|                                                                             |
|           W    W    AA    RRRRR   N    N  II  N    N   GGGG   !!!           |
|           W    W   A  A   R    R  NN   N  II  NN   N  G    G  !!!           |
|           W    W  A    A  R    R  N N  N  II  N N  N  G       !!!           |
|           W WW W  AAAAAA  RRRRR   N  N N  II  N  N N  G  GGG   !            |
|           WW  WW  A    A  R   R   N   NN  II  N   NN  G    G                |
|           W    W  A    A  R    R  N    N  II  N    N   GGGG   !!!           |
|                                                                             |
|      For optimal performance we recommend to set                            |
|        NCORE= 4 - approx SQRT( number of cores)                             |
|      NCORE specifies how many cores store one orbital (NPAR=cpu/NCORE).     |
|      This setting can  greatly improve the performance of VASP for DFT.     |
|      The default,   NCORE=1            might be grossly inefficient         |
|      on modern multi-core architectures or massively parallel machines.     |
|      Do your own testing !!!!                                               |
|      Unfortunately you need to use the default for GW and RPA calculations. |
|      (for HF NCORE is supported but not extensively tested yet)             |
|                                                                             |
 ----------------------------------------------------------------------------- 

 LDA part: xc-table for Pade appr. of Perdew
 POSCAR found type information on POSCAR  Mn O  H 
 POSCAR found :  3 types and      45 ions
 POSCAR, INCAR and KPOINTS ok, starting setup
 FFT: planning ...
 WAVECAR not read
 entering main loop
       N       E                     dE             d eps       ncg     rms          rms(c)
DAV:   1     0.369953190955E+04    0.36995E+04   -0.17854E+05  9840   0.148E+03
DAV:   2     0.254861134405E+03   -0.34447E+04   -0.32309E+04  9110   0.409E+02
DAV:   3    -0.318348670918E+03   -0.57321E+03   -0.56233E+03  9992   0.163E+02
DAV:   4    -0.345135317076E+03   -0.26787E+02   -0.26429E+02 10112   0.354E+01
DAV:   5    -0.345767403752E+03   -0.63209E+00   -0.62955E+00  9792   0.626E+00    0.821E+01
RMM:   6    -0.563799531513E+03   -0.21803E+03   -0.10621E+03 10558   0.667E+01    0.174E+02
RMM:   7    -0.362571184317E+03    0.20123E+03   -0.93692E+01  8852   0.222E+01    0.107E+02
RMM:   8    -0.384156287833E+03   -0.21585E+02   -0.16717E+02  8962   0.255E+01    0.116E+02
RMM:   9    -0.358091249672E+03    0.26065E+02   -0.79772E+01  9338   0.182E+01    0.920E+01
RMM:  10    -0.305466114582E+03    0.52625E+02   -0.24040E+01  9568   0.109E+01    0.691E+01
RMM:  11    -0.303739781599E+03    0.17263E+01   -0.26943E+01  8754   0.119E+01    0.632E+01
RMM:  12    -0.306285767421E+03   -0.25460E+01   -0.48646E+01  9202   0.148E+01    0.549E+01
RMM:  13    -0.292157985106E+03    0.14128E+02   -0.17115E+01  9144   0.928E+00    0.376E+01
RMM:  14    -0.302821372991E+03   -0.10663E+02   -0.13808E+01  8754   0.755E+00    0.470E+01
RMM:  15    -0.294238696962E+03    0.85827E+01   -0.92628E+00  9527   0.594E+00    0.285E+01
RMM:  16    -0.295419343110E+03   -0.11806E+01   -0.18914E+00  8845   0.306E+00    0.252E+01
RMM:  17    -0.296492673952E+03   -0.10733E+01   -0.51901E-01  8992   0.138E+00    0.233E+01
RMM:  18    -0.297026503200E+03   -0.53383E+00   -0.20914E-01  8930   0.880E-01    0.226E+01
RMM:  19    -0.297405452356E+03   -0.37895E+00   -0.38896E-01  8733   0.130E+00    0.214E+01
RMM:  20    -0.298261384205E+03   -0.85593E+00   -0.19290E+00  8608   0.274E+00    0.260E+01
RMM:  21    -0.298378447717E+03   -0.11706E+00   -0.15740E+00  8949   0.208E+00    0.168E+01
RMM:  22    -0.299112528354E+03   -0.73408E+00   -0.10947E+00  8512   0.207E+00    0.116E+01
RMM:  23    -0.299486017875E+03   -0.37349E+00   -0.75438E-01  8501   0.178E+00    0.106E+01
RMM:  24    -0.299797386646E+03   -0.31137E+00   -0.43672E-01  8566   0.145E+00    0.931E+00
RMM:  25    -0.300178732148E+03   -0.38135E+00   -0.30239E-01  8973   0.105E+00    0.101E+01
RMM:  26    -0.300494224740E+03   -0.31549E+00   -0.15097E-01  8723   0.741E-01    0.131E+01
RMM:  27    -0.300624913617E+03   -0.13069E+00   -0.52677E-02  8958   0.449E-01    0.142E+01
RMM:  28    -0.300631353108E+03   -0.64395E-02   -0.13947E-02  8701   0.226E-01    0.144E+01
RMM:  29    -0.300329814154E+03    0.30154E+00   -0.57345E-01  8523   0.141E+00    0.111E+01
RMM:  30    -0.300099117812E+03    0.23070E+00   -0.52481E-01  8536   0.138E+00    0.773E+00
RMM:  31    -0.300259992512E+03   -0.16087E+00   -0.12826E-01  8822   0.685E-01    0.990E+00
RMM:  32    -0.300524531495E+03   -0.26454E+00   -0.69931E-02  8479   0.661E-01    0.117E+01
RMM:  33    -0.300608516461E+03   -0.83985E-01   -0.26743E-02  8282   0.366E-01    0.121E+01
RMM:  34    -0.300693788683E+03   -0.85272E-01   -0.18436E-02  8361   0.269E-01    0.124E+01
RMM:  35    -0.300821517971E+03   -0.12773E+00   -0.52446E-02  8327   0.446E-01    0.135E+01
RMM:  36    -0.300684645509E+03    0.13687E+00   -0.34726E-02  8608   0.353E-01    0.123E+01
RMM:  37    -0.300466104714E+03    0.21854E+00   -0.42547E-02  8536   0.388E-01    0.115E+01
RMM:  38    -0.300364703651E+03    0.10140E+00   -0.18699E-02  8564   0.240E-01    0.110E+01
RMM:  39    -0.299805681982E+03    0.55902E+00   -0.31040E-01  8583   0.103E+00    0.851E+00
RMM:  40    -0.300490064941E+03   -0.68438E+00   -0.29392E-01  8678   0.841E-01    0.130E+01
RMM:  41    -0.300868563697E+03   -0.37850E+00   -0.21319E-01  8762   0.805E-01    0.137E+01
RMM:  42    -0.300817773973E+03    0.50790E-01   -0.25470E-02  9345   0.268E-01    0.142E+01
RMM:  43    -0.300826777788E+03   -0.90038E-02   -0.37846E-03  8679   0.114E-01    0.140E+01
RMM:  44    -0.300906806703E+03   -0.80029E-01   -0.36789E-02  8895   0.337E-01    0.157E+01
RMM:  45    -0.300930275925E+03   -0.23469E-01   -0.69692E-02  8266   0.520E-01    0.171E+01
RMM:  46    -0.301086841192E+03   -0.15657E+00   -0.69716E-02  8076   0.538E-01    0.171E+01
RMM:  47    -0.301541172302E+03   -0.45433E+00   -0.50662E-02  8443   0.364E-01    0.177E+01
RMM:  48    -0.301477810804E+03    0.63361E-01   -0.59049E-03  8822   0.146E-01    0.176E+01
RMM:  49    -0.301649507525E+03   -0.17170E+00   -0.10385E-02  8644   0.192E-01    0.182E+01
RMM:  50    -0.301706470829E+03   -0.56963E-01   -0.18539E-02  8292   0.256E-01    0.189E+01
RMM:  51    -0.300440529044E+03    0.12659E+01   -0.39437E-01  8677   0.108E+00    0.164E+01
RMM:  52    -0.300521778709E+03   -0.81250E-01   -0.25866E-02 10261   0.304E-01    0.164E+01
RMM:  53    -0.300515731093E+03    0.60476E-02   -0.30724E-03  9586   0.952E-02    0.164E+01
RMM:  54    -0.300322521790E+03    0.19321E+00   -0.60302E-03  8617   0.136E-01    0.161E+01
RMM:  55    -0.299694534129E+03    0.62799E+00   -0.62676E-02  8657   0.449E-01    0.136E+01
RMM:  56    -0.299364777834E+03    0.32976E+00   -0.27488E-01  8434   0.110E+00    0.101E+01
RMM:  57    -0.299261208898E+03    0.10357E+00   -0.24340E-01  8532   0.110E+00    0.799E+00
RMM:  58    -0.299892321044E+03   -0.63111E+00   -0.20827E-01  8506   0.786E-01    0.842E+00
RMM:  59    -0.299998433069E+03   -0.10611E+00   -0.87849E-02  8432   0.521E-01    0.894E+00
RMM:  60    -0.299961945734E+03    0.36487E-01   -0.20342E-02  8530   0.259E-01
   1 F= -.29996195E+03 E0= -.29996188E+03  d E =-.299962E+03  mag=    18.7690
 curvature:   0.00 expect dE= 0.000E+00 dE for cont linesearch  0.000E+00
 trial: gam= 0.00000 g(F)=  0.176E+00 g(S)=  0.000E+00 ort = 0.000E+00 (trialstep = 0.100E+01)
 search vector abs. value=  0.176E+00
 bond charge predicted
       N       E                     dE             d eps       ncg     rms          rms(c)
DAV:   1    -0.299219379861E+03    0.77905E+00   -0.44081E+01 10842   0.359E+01    0.969E+00
RMM:   2    -0.301290188842E+03   -0.20708E+01   -0.10769E+01  9975   0.766E+00    0.134E+01
RMM:   3    -0.300313667883E+03    0.97652E+00   -0.18786E+00  8803   0.298E+00    0.827E+00
RMM:   4    -0.300361109538E+03   -0.47442E-01   -0.68113E-01  9049   0.134E+00    0.125E+01
RMM:   5    -0.300836001493E+03   -0.47489E+00   -0.29915E-01  9136   0.105E+00    0.139E+01
RMM:   6    -0.301236688110E+03   -0.40069E+00   -0.82221E-01  8665   0.159E+00    0.136E+01
RMM:   7    -0.300876377103E+03    0.36031E+00   -0.30330E-01  8700   0.113E+00    0.110E+01
RMM:   8    -0.300676204349E+03    0.20017E+00   -0.21377E-01  8560   0.897E-01    0.716E+00
RMM:   9    -0.300699547360E+03   -0.23343E-01   -0.21480E-01  8587   0.976E-01    0.468E+00
RMM:  10    -0.300743538560E+03   -0.43991E-01   -0.15015E-01  8670   0.734E-01    0.412E+00
RMM:  11    -0.300850252246E+03   -0.10671E+00   -0.67230E-02  8543   0.568E-01    0.228E+00
RMM:  12    -0.301082484587E+03   -0.23223E+00   -0.49407E-02  8579   0.440E-01    0.312E+00
RMM:  13    -0.301104738891E+03   -0.22254E-01   -0.33139E-02  8626   0.373E-01    0.152E+00
RMM:  14    -0.301447441232E+03   -0.34270E+00   -0.40234E-02  8339   0.350E-01    0.225E+00
RMM:  15    -0.301645331341E+03   -0.19789E+00   -0.54895E-02  8248   0.405E-01    0.114E+00
RMM:  16    -0.301804880080E+03   -0.15955E+00   -0.22063E-02  8188   0.223E-01    0.132E+00
RMM:  17    -0.301936790482E+03   -0.13191E+00   -0.25427E-02  8003   0.247E-01    0.928E-01
RMM:  18    -0.301999805334E+03   -0.63015E-01   -0.17575E-02  7952   0.191E-01    0.102E+00
RMM:  19    -0.302067201594E+03   -0.67396E-01   -0.23662E-02  8011   0.240E-01    0.769E-01
RMM:  20    -0.302179680867E+03   -0.11248E+00   -0.30890E-02  8121   0.258E-01    0.133E+00
RMM:  21    -0.302098749107E+03    0.80932E-01   -0.16984E-02  7990   0.201E-01    0.858E-01
RMM:  22    -0.302154052318E+03   -0.55303E-01   -0.69621E-03  7854   0.117E-01    0.633E-01
RMM:  23    -0.302236887604E+03   -0.82835E-01   -0.37307E-03  7919   0.952E-02    0.339E-01
RMM:  24    -0.302340186548E+03   -0.10330E+00   -0.62605E-03  7809   0.123E-01    0.267E-01
RMM:  25    -0.302366764654E+03   -0.26578E-01   -0.45813E-03  7691   0.885E-02    0.298E-01
RMM:  26    -0.302417673458E+03   -0.50909E-01   -0.39850E-03  7693   0.776E-02    0.496E-01
RMM:  27    -0.302512656565E+03   -0.94983E-01   -0.43662E-03  7933   0.783E-02    0.354E-01
RMM:  28    -0.302637551899E+03   -0.12490E+00   -0.37238E-03  7871   0.668E-02    0.203E-01
RMM:  29    -0.302679564598E+03   -0.42013E-01   -0.11031E-03  7837   0.441E-02    0.182E-01
RMM:  30    -0.302703025627E+03   -0.23461E-01   -0.33186E-04  7577   0.266E-02    0.872E-02
RMM:  31    -0.302755244705E+03   -0.52219E-01   -0.94566E-04  7478   0.480E-02    0.785E-02
RMM:  32    -0.302777254936E+03   -0.22010E-01   -0.46115E-04  7561   0.308E-02    0.640E-02
RMM:  33    -0.302789585060E+03   -0.12330E-01   -0.29825E-04  7420   0.240E-02    0.908E-02
RMM:  34    -0.302793974868E+03   -0.43898E-02   -0.18396E-04  6989   0.210E-02    0.541E-02
RMM:  35    -0.302795799844E+03   -0.18250E-02   -0.96081E-05  6122   0.158E-02    0.509E-02
RMM:  36    -0.302795634976E+03    0.16487E-03   -0.55051E-05  5775   0.230E-02    0.891E-02
RMM:  37    -0.302798136194E+03   -0.25012E-02   -0.10365E-04  6136   0.218E-02    0.583E-02
RMM:  38    -0.302799246162E+03   -0.11100E-02   -0.74231E-05  5751   0.150E-02    0.415E-02
RMM:  39    -0.302799725938E+03   -0.47978E-03   -0.59912E-05  5363   0.118E-02    0.519E-02
RMM:  40    -0.302799898445E+03   -0.17251E-03   -0.50422E-05  5314   0.109E-02    0.618E-02
RMM:  41    -0.302799942442E+03   -0.43997E-04   -0.31046E-05  4758   0.108E-02    0.838E-02
RMM:  42    -0.302799766000E+03    0.17644E-03   -0.34453E-05  5309   0.189E-02    0.157E-01
RMM:  43    -0.302799481748E+03    0.28425E-03   -0.21390E-05  4888   0.152E-02    0.225E-01
RMM:  44    -0.302799451508E+03    0.30239E-04   -0.54173E-06  4201   0.556E-03    0.264E-01
RMM:  45    -0.302799481654E+03   -0.30145E-04   -0.42491E-06  4165   0.453E-03    0.290E-01
RMM:  46    -0.302799457473E+03    0.24181E-04   -0.29082E-06  3975   0.355E-03    0.314E-01
RMM:  47    -0.302799541004E+03   -0.83531E-04   -0.46605E-06  4242   0.498E-03    0.330E-01
RMM:  48    -0.302799511765E+03    0.29239E-04   -0.26100E-06  3826   0.380E-03    0.362E-01
RMM:  49    -0.302799496871E+03    0.14893E-04   -0.32717E-06  4034   0.363E-03    0.374E-01
RMM:  50    -0.302799432057E+03    0.64815E-04   -0.20304E-06  3884   0.379E-03    0.398E-01
RMM:  51    -0.302799407977E+03    0.24080E-04   -0.15754E-06  3592   0.275E-03    0.416E-01
RMM:  52    -0.302799354139E+03    0.53838E-04   -0.12908E-06  3855   0.296E-03    0.438E-01
RMM:  53    -0.302799334631E+03    0.19507E-04   -0.11339E-06  3209   0.233E-03    0.452E-01
RMM:  54    -0.302799298452E+03    0.36180E-04   -0.93788E-07  3593   0.237E-03    0.467E-01
RMM:  55    -0.302799263456E+03    0.34996E-04   -0.71092E-07  2966   0.208E-03    0.482E-01
RMM:  56    -0.302799276736E+03   -0.13280E-04   -0.10103E-06  3370   0.232E-03    0.488E-01
RMM:  57    -0.302799412553E+03   -0.13582E-03   -0.75009E-06  4174   0.695E-03    0.470E-01
