unknown system                          
           1
     2.873573   -2.873573    4.708335
     5.747147    0.000000    0.000000
     0.000000   33.065691   20.180529
   Mn   O    H 
  14  23   8
Direct configuration=     1
   0.22067121  0.89240241  0.08901558
   0.67049107  0.17139500  0.21812612
   0.94927612  0.02809995  0.15233499
   0.39628519  0.31541393  0.28436965
   0.44927612  0.52809995  0.15233499
   0.89442180  0.31090198  0.28469138
   0.44927612  0.02809995  0.15233499
   0.89145733  0.81614806  0.28463836
   0.90282244  0.55132680  0.10484543
   0.34522562  0.83639287  0.23338071
   0.99488986  0.50760555  0.20402520
   0.44252101  0.79179134  0.33460744
   0.53851998  0.23347802  0.07318573
   0.11203609  0.45824059  0.34962463
   0.78679970  0.61453187  0.31467708
   0.87926422  0.06310591  0.05527763
   0.33690555  0.33460101  0.18279795
   0.58246139  0.21150732  0.12452493
   0.04595854  0.48801853  0.25722085
   0.52960583  0.80061449  0.38717301
   0.09516526  0.72856013  0.12156099
   0.53990046  0.46495454  0.25146104
   0.72974222  0.14569829  0.30869933
   0.85888103  0.57329750  0.05350623
   0.30990000  0.84800787  0.18039599
   0.56207820  0.72169891  0.12275353
   0.00319359  0.00846629  0.25348859
   0.79966184  0.33082770  0.18430147
   0.24104440  0.62010529  0.31584412
   0.34617716  0.60305419  0.05647018
   0.24559822  0.17025861  0.31556948
   0.79838490  0.87880650  0.18455383
   0.34617716  0.05624469  0.05647018
   0.54064999  0.01298645  0.25167223
   0.09516526  0.18175063  0.12156099
   0.97992847  0.73305497  0.38277152
   0.10175714  0.21789162  0.38349154
   0.34047062  0.60391201  0.02782883
   0.92434681  0.68523651  0.03696881
   0.34363348  0.06399961  0.02783421
   0.88838126  0.05560908  0.02665597
   0.38868586  0.97195753  0.39368105
   0.00137449  0.89015467  0.37924369
   0.69024756  0.80508185  0.38898119
   0.02529536  0.31950594  0.40414059
