Mn  O  H                                
   1.00000000000000     
     5.7471469900000001    0.0000000000000000    0.0000000000000000
     0.0000000000000000    5.7471469900000001    0.0000000000000000
     0.0000000000000000    0.0000000000000000   38.3054457865184048
   Mn   O    H 
    14    21     6
Selective dynamics
Direct
  0.0005897911438808  0.2476699193814511  0.2914703232202811   F   F   F
  0.5013616033003244  0.7431401689269990  0.4174770852056042   T   T   T
  0.5014333869516747  0.2459460948600380  0.4169664149786811   T   T   T
  0.0005897911438808  0.7476699193814511  0.2914703232202811   F   F   F
  0.7505897911438808  0.4976699193814511  0.3529281004804687   F   F   F
  0.7607344073497302  0.9871659891403226  0.4783018718303254   T   T   T
  0.2505897911438808  0.4976699193814511  0.3529281004804687   F   F   F
  0.2608822361152363  0.9845764315240402  0.4835889356568686   T   T   T
  0.0051483105139738  0.9971683201212470  0.3856630751565078   T   T   T
  0.5179725830659477  0.5032200441241060  0.5166187555104926   T   T   T
  0.0026249304040036  0.4836425963937856  0.4504658805735247   T   T   T
  0.5005897911438808  0.9976699193814511  0.3221992118503749   F   F   F
  0.0034484367798768  0.2327177279386561  0.5452594140552876   T   T   T
  0.0294853484322815  0.7276627181132369  0.5699501641678921   T   T   T
  0.0058374024342882  0.2142202971607077  0.4874508879663893   T   T   T
  0.5005897911438808  0.7242651693814466  0.3546474211323059   F   F   F
  0.5005897911438808  0.2710746693814485  0.3546474211323059   F   F   F
  0.0068317446183741  0.7654395854350754  0.4821259545993186   T   T   T
  0.7739945411438782  0.4976699193814511  0.2931896438721111   F   F   F
  0.7311927763745771 -0.0033125958488682  0.4204090879422680   T   T   T
  0.5106293779716465  0.2161714840735414  0.4815224889454796   T   T   T
  0.0005897911438808  0.7242651693814466  0.3512087798286387   F   F   F
  0.0005897911438808  0.2710746693814485  0.3512087798286387   F   F   F
  0.5117128094314439  0.7573511338413398  0.4778339546306754   T   T   T
  0.7307401082623315  0.4937655697803223  0.4145894899908313   T   T   T
  0.7739945411438782  0.9976699193814511  0.2897510025684511   F   F   F
  0.2717349279996029  0.4933733413258849  0.4142679648618497   T   T   T
  0.2271850411438834  0.9976699193814511  0.2897510025684511   F   F   F
  0.2766192077787863 -0.0039883615613690  0.4202764999041761   T   T   T
  0.2271850411438834  0.4976699193814511  0.2931896438721111   F   F   F
  0.7803570490774945  0.5053740073709890  0.5509344447942367   T   T   T
  0.2807747936945689  0.4598074440995461  0.5607872088392583   T   T   T
  0.8100029885719664  0.4896787240441185  0.6171681110467446   T   T   T
  0.2633650496564570  0.9546759827994080  0.5419407727289636   T   T   T
  0.8243786452280942  0.0111137586938526  0.5809424167166740   T   T   T
  0.7546634571896007  0.4872154835903969  0.5913102777002663   T   T   T
  0.3544677653501580  0.4873862763163501  0.2714495387823135   F   F   F
  0.3896053534207696  0.4052292357832386  0.5784832075970527   T   T   T
  0.7145386691536757  0.6044505420057719  0.6291353125907762   T   T   T
  0.4109665436369170  0.9842538911848707  0.5538032843862055   T   T   T
  0.8123880087237438  0.0997288856312224  0.6025471617232228   T   T   T
 
  0.00000000E+00  0.00000000E+00  0.00000000E+00
  0.00000000E+00  0.00000000E+00  0.00000000E+00
  0.00000000E+00  0.00000000E+00  0.00000000E+00
  0.00000000E+00  0.00000000E+00  0.00000000E+00
  0.00000000E+00  0.00000000E+00  0.00000000E+00
  0.00000000E+00  0.00000000E+00  0.00000000E+00
  0.00000000E+00  0.00000000E+00  0.00000000E+00
  0.00000000E+00  0.00000000E+00  0.00000000E+00
  0.00000000E+00  0.00000000E+00  0.00000000E+00
  0.00000000E+00  0.00000000E+00  0.00000000E+00
  0.00000000E+00  0.00000000E+00  0.00000000E+00
  0.00000000E+00  0.00000000E+00  0.00000000E+00
  0.00000000E+00  0.00000000E+00  0.00000000E+00
  0.00000000E+00  0.00000000E+00  0.00000000E+00
  0.00000000E+00  0.00000000E+00  0.00000000E+00
  0.00000000E+00  0.00000000E+00  0.00000000E+00
  0.00000000E+00  0.00000000E+00  0.00000000E+00
  0.00000000E+00  0.00000000E+00  0.00000000E+00
  0.00000000E+00  0.00000000E+00  0.00000000E+00
  0.00000000E+00  0.00000000E+00  0.00000000E+00
  0.00000000E+00  0.00000000E+00  0.00000000E+00
  0.00000000E+00  0.00000000E+00  0.00000000E+00
  0.00000000E+00  0.00000000E+00  0.00000000E+00
  0.00000000E+00  0.00000000E+00  0.00000000E+00
  0.00000000E+00  0.00000000E+00  0.00000000E+00
  0.00000000E+00  0.00000000E+00  0.00000000E+00
  0.00000000E+00  0.00000000E+00  0.00000000E+00
  0.00000000E+00  0.00000000E+00  0.00000000E+00
  0.00000000E+00  0.00000000E+00  0.00000000E+00
  0.00000000E+00  0.00000000E+00  0.00000000E+00
  0.00000000E+00  0.00000000E+00  0.00000000E+00
  0.00000000E+00  0.00000000E+00  0.00000000E+00
  0.00000000E+00  0.00000000E+00  0.00000000E+00
  0.00000000E+00  0.00000000E+00  0.00000000E+00
  0.00000000E+00  0.00000000E+00  0.00000000E+00
  0.00000000E+00  0.00000000E+00  0.00000000E+00
  0.00000000E+00  0.00000000E+00  0.00000000E+00
  0.00000000E+00  0.00000000E+00  0.00000000E+00
  0.00000000E+00  0.00000000E+00  0.00000000E+00
  0.00000000E+00  0.00000000E+00  0.00000000E+00
  0.00000000E+00  0.00000000E+00  0.00000000E+00
