Mn  O  H                                
   1.00000000000000     
     5.7471469900000001    0.0000000000000000    0.0000000000000000
     0.0000000000000000    5.7471469900000001    0.0000000000000000
     0.0000000000000000    0.0000000000000000   38.3054457865184048
   Mn   O    H 
    14    21     6
Selective dynamics
Direct
  0.0005897911438808  0.2476699193814511  0.2914703232202811   F   F   F
  0.5013616033003215  0.7431401689270022  0.4174770852056059   T   T   T
  0.5014333869516722  0.2459460948600404  0.4169664149786829   T   T   T
  0.0005897911438808  0.7476699193814511  0.2914703232202811   F   F   F
  0.7505897911438808  0.4976699193814511  0.3529281004804687   F   F   F
  0.7607344073497319  0.9871659891403259  0.4783018718303288   T   T   T
  0.2505897911438808  0.4976699193814511  0.3529281004804687   F   F   F
  0.2608822361152394  0.9845764315240393  0.4835889356568679   T   T   T
  0.0051483105139756  0.9971683201212443  0.3856630751565061   T   T   T
  0.5179725830659463  0.5032200441241050  0.5166187555104892   T   T   T
  0.0026249304040036  0.4836425963937834  0.4504658805735223   T   T   T
  0.5005897911438808  0.9976699193814511  0.3221992118503749   F   F   F
  0.0034484367798778  0.2327177279386554  0.5452594140552856   T   T   T
  0.0294853484322789  0.7276627181132386  0.5699501641678889   T   T   T
  0.0058374024342907  0.2142202971607072  0.4874508879663909   T   T   T
  0.5005897911438808  0.7242651693814466  0.3546474211323059   F   F   F
  0.5005897911438808  0.2710746693814485  0.3546474211323059   F   F   F
  0.0068317446183716  0.7654395854350770  0.4821259545993169   T   T   T
  0.7739945411438782  0.4976699193814511  0.2931896438721111   F   F   F
  0.7311927763745739  0.9966874041511296  0.4204090879422693   T   T   T
  0.5106293779716450  0.2161714840735413  0.4815224889454790   T   T   T
  0.0005897911438808  0.7242651693814466  0.3512087798286387   F   F   F
  0.0005897911438808  0.2710746693814485  0.3512087798286387   F   F   F
  0.5117128094314460  0.7573511338413424  0.4778339546306723   T   T   T
  0.7307401082623315  0.4937655697803227  0.4145894899908292   T   T   T
  0.7739945411438782  0.9976699193814511  0.2897510025684511   F   F   F
  0.2717349279996041  0.4933733413258858  0.4142679648618481   T   T   T
  0.2271850411438834  0.9976699193814511  0.2897510025684511   F   F   F
  0.2766192077787886  0.9960116384386302  0.4202764999041776   T   T   T
  0.2271850411438834  0.4976699193814511  0.2931896438721111   F   F   F
  0.7803570490774958  0.5053740073709905  0.5509344447942396   T   T   T
  0.2807747936945711  0.4598074440995484  0.5607872088392584   T   T   T
  0.8100029885719675  0.4896787240441172  0.6171681110467457   T   T   T
  0.2633650496564553  0.9546759827994101  0.5419407727289627   T   T   T
  0.8243786452280967  0.0111137586938525  0.5809424167166721   T   T   T
  0.7546634571896031  0.4872154835904005  0.5913102777002646   T   T   T
  0.3544677653501580  0.4873862763163501  0.2714495387823135   F   F   F
  0.3896053534207674  0.4052292357832399  0.5784832075970493   T   T   T
  0.7145386691536745  0.6044505420057695  0.6291353125907746   T   T   T
  0.4109665436369143  0.9842538911848722  0.5538032843862074   T   T   T
  0.8123880087237431  0.0997288856312191  0.6025471617232228   T   T   T
 
  0.00000000E+00  0.00000000E+00  0.00000000E+00
  0.00000000E+00  0.00000000E+00  0.00000000E+00
  0.00000000E+00  0.00000000E+00  0.00000000E+00
  0.00000000E+00  0.00000000E+00  0.00000000E+00
  0.00000000E+00  0.00000000E+00  0.00000000E+00
  0.00000000E+00  0.00000000E+00  0.00000000E+00
  0.00000000E+00  0.00000000E+00  0.00000000E+00
  0.00000000E+00  0.00000000E+00  0.00000000E+00
  0.00000000E+00  0.00000000E+00  0.00000000E+00
  0.00000000E+00  0.00000000E+00  0.00000000E+00
  0.00000000E+00  0.00000000E+00  0.00000000E+00
  0.00000000E+00  0.00000000E+00  0.00000000E+00
  0.00000000E+00  0.00000000E+00  0.00000000E+00
  0.00000000E+00  0.00000000E+00  0.00000000E+00
  0.00000000E+00  0.00000000E+00  0.00000000E+00
  0.00000000E+00  0.00000000E+00  0.00000000E+00
  0.00000000E+00  0.00000000E+00  0.00000000E+00
  0.00000000E+00  0.00000000E+00  0.00000000E+00
  0.00000000E+00  0.00000000E+00  0.00000000E+00
  0.00000000E+00  0.00000000E+00  0.00000000E+00
  0.00000000E+00  0.00000000E+00  0.00000000E+00
  0.00000000E+00  0.00000000E+00  0.00000000E+00
  0.00000000E+00  0.00000000E+00  0.00000000E+00
  0.00000000E+00  0.00000000E+00  0.00000000E+00
  0.00000000E+00  0.00000000E+00  0.00000000E+00
  0.00000000E+00  0.00000000E+00  0.00000000E+00
  0.00000000E+00  0.00000000E+00  0.00000000E+00
  0.00000000E+00  0.00000000E+00  0.00000000E+00
  0.00000000E+00  0.00000000E+00  0.00000000E+00
  0.00000000E+00  0.00000000E+00  0.00000000E+00
  0.00000000E+00  0.00000000E+00  0.00000000E+00
  0.00000000E+00  0.00000000E+00  0.00000000E+00
  0.00000000E+00  0.00000000E+00  0.00000000E+00
  0.00000000E+00  0.00000000E+00  0.00000000E+00
  0.00000000E+00  0.00000000E+00  0.00000000E+00
  0.00000000E+00  0.00000000E+00  0.00000000E+00
  0.00000000E+00  0.00000000E+00  0.00000000E+00
  0.00000000E+00  0.00000000E+00  0.00000000E+00
  0.00000000E+00  0.00000000E+00  0.00000000E+00
  0.00000000E+00  0.00000000E+00  0.00000000E+00
  0.00000000E+00  0.00000000E+00  0.00000000E+00
