Mn  O  H                                
   1.00000000000000     
     5.7471469900000001    0.0000000000000000    0.0000000000000000
     0.0000000000000000    5.7471469900000001    0.0000000000000000
     0.0000000000000000    0.0000000000000000   38.3054457865184048
   Mn   O    H 
    14    20     4
Selective dynamics
Direct
  0.0005897911438808  0.2476699193814511  0.2914703232202811   F   F   F
  0.5031353522133617  0.7454868998933357  0.4174806880950482   T   T   T
  0.5033890815804378  0.2479624025567235  0.4174680374846927   T   T   T
  0.0005897911438808  0.7476699193814511  0.2914703232202811   F   F   F
  0.7505897911438808  0.4976699193814511  0.3529281004804687   F   F   F
  0.7623286737358255  0.9978765738935159  0.4788213035440402   T   T   T
  0.2505897911438808  0.4976699193814511  0.3529281004804687   F   F   F
  0.2614245162847200  0.9971517782722590  0.4829490179173694   T   T   T
  0.0066053893256107  0.9979818078611467  0.3854956766150074   T   T   T
  0.5170343168329430  0.4991158431272439  0.5138250078759651   T   T   T
  0.0034853300201804  0.4980727239028473  0.4511043091397871   T   T   T
  0.5005897911438808  0.9976699193814511  0.3221992118503749   F   F   F
 -0.0018414817918001  0.2430558207314091  0.5514697521350170   T   T   T
  0.0109691268691008  0.7427641354055933  0.5530704424925195   T   T   T
  0.0059737600935672  0.2250068928572561  0.4865822107546071   T   T   T
  0.5005897911438808  0.7242651693814466  0.3546474211323059   F   F   F
  0.5005897911438808  0.2710746693814485  0.3546474211323059   F   F   F
  0.0058070724648736  0.7708574681582439  0.4865797137760876   T   T   T
  0.7739945411438782  0.4976699193814511  0.2931896438721111   F   F   F
  0.7336099235158382  0.9965701657817799  0.4204098905866432   T   T   T
  0.5130012168702068  0.2260331045404670  0.4784244119766385   T   T   T
  0.0005897911438808  0.7242651693814466  0.3512087798286387   F   F   F
  0.0005897911438808  0.2710746693814485  0.3512087798286387   F   F   F
  0.5131839773544923  0.7681031480896647  0.4782172348334993   T   T   T
  0.7320334828916203  0.4977387793863364  0.4149343367202745   T   T   T
  0.7739945411438782  0.9976699193814511  0.2897510025684511   F   F   F
  0.2735679805285512  0.4971582144801610  0.4147733617409565   T   T   T
  0.2271850411438834  0.9976699193814511  0.2897510025684511   F   F   F
  0.2775877805439966  0.9961073793085033  0.4203488603469587   T   T   T
  0.2271850411438834  0.4976699193814511  0.2931896438721111   F   F   F
  0.7704442892864796  0.4944588214435259  0.5509245984446168   T   T   T
  0.2611972746915949  0.9938213695287107  0.5401828137071024   T   T   T
  0.2776409521596607  0.4911702230916197  0.5573717088193518   T   T   T
  0.9039283957743135  0.9943992404724536  0.5862646129280292   T   T   T
  0.3544677653501580  0.4873862763163501  0.2714495387823135   F   F   F
  0.7562403486261730  0.9919700244473000  0.6005362908600134   T   T   T
  0.4059505836640024  0.0091893274979161  0.5544808864114250   T   T   T
  0.4044727514525540  0.4889690525427546  0.5751153126905387   T   T   T
 
  0.00000000E+00  0.00000000E+00  0.00000000E+00
  0.00000000E+00  0.00000000E+00  0.00000000E+00
  0.00000000E+00  0.00000000E+00  0.00000000E+00
  0.00000000E+00  0.00000000E+00  0.00000000E+00
  0.00000000E+00  0.00000000E+00  0.00000000E+00
  0.00000000E+00  0.00000000E+00  0.00000000E+00
  0.00000000E+00  0.00000000E+00  0.00000000E+00
  0.00000000E+00  0.00000000E+00  0.00000000E+00
  0.00000000E+00  0.00000000E+00  0.00000000E+00
  0.00000000E+00  0.00000000E+00  0.00000000E+00
  0.00000000E+00  0.00000000E+00  0.00000000E+00
  0.00000000E+00  0.00000000E+00  0.00000000E+00
  0.00000000E+00  0.00000000E+00  0.00000000E+00
  0.00000000E+00  0.00000000E+00  0.00000000E+00
  0.00000000E+00  0.00000000E+00  0.00000000E+00
  0.00000000E+00  0.00000000E+00  0.00000000E+00
  0.00000000E+00  0.00000000E+00  0.00000000E+00
  0.00000000E+00  0.00000000E+00  0.00000000E+00
  0.00000000E+00  0.00000000E+00  0.00000000E+00
  0.00000000E+00  0.00000000E+00  0.00000000E+00
  0.00000000E+00  0.00000000E+00  0.00000000E+00
  0.00000000E+00  0.00000000E+00  0.00000000E+00
  0.00000000E+00  0.00000000E+00  0.00000000E+00
  0.00000000E+00  0.00000000E+00  0.00000000E+00
  0.00000000E+00  0.00000000E+00  0.00000000E+00
  0.00000000E+00  0.00000000E+00  0.00000000E+00
  0.00000000E+00  0.00000000E+00  0.00000000E+00
  0.00000000E+00  0.00000000E+00  0.00000000E+00
  0.00000000E+00  0.00000000E+00  0.00000000E+00
  0.00000000E+00  0.00000000E+00  0.00000000E+00
  0.00000000E+00  0.00000000E+00  0.00000000E+00
  0.00000000E+00  0.00000000E+00  0.00000000E+00
  0.00000000E+00  0.00000000E+00  0.00000000E+00
  0.00000000E+00  0.00000000E+00  0.00000000E+00
  0.00000000E+00  0.00000000E+00  0.00000000E+00
  0.00000000E+00  0.00000000E+00  0.00000000E+00
  0.00000000E+00  0.00000000E+00  0.00000000E+00
  0.00000000E+00  0.00000000E+00  0.00000000E+00
