Mn  O  H                                
   1.00000000000000     
     5.7471469900000001    0.0000000000000000    0.0000000000000000
     0.0000000000000000    5.7471469900000001    0.0000000000000000
     0.0000000000000000    0.0000000000000000   38.3054457865184048
   Mn   O    H 
    14    20     4
Selective dynamics
Direct
  0.0005897911438808  0.2476699193814511  0.2914703232202811   F   F   F
  0.5031999011693528  0.7458323595924760  0.4174654053956061   T   T   T
  0.5033379206839086  0.2480846866722399  0.4173398470402587   T   T   T
  0.0005897911438808  0.7476699193814511  0.2914703232202811   F   F   F
  0.7505897911438808  0.4976699193814511  0.3529281004804687   F   F   F
  0.7627983644115749  0.9978743660994075  0.4787053250280034   T   T   T
  0.2505897911438808  0.4976699193814511  0.3529281004804687   F   F   F
  0.2614650091068776  0.9972959556435974  0.4831150939992231   T   T   T
  0.0066653215860437  0.9978695576631555  0.3854948259822062   T   T   T
  0.5177494094497372  0.4985943362227615  0.5141883143128776   T   T   T
  0.0037647559489848  0.4980697721386816  0.4511212276822473   T   T   T
  0.5005897911438808  0.9976699193814511  0.3221992118503749   F   F   F
  0.0011772065815352  0.2470075468038617  0.5513233087555595   T   T   T
  0.0096979120878147  0.7388984709436732  0.5531993024346284   T   T   T
  0.0064385818770362  0.2239362242349593  0.4863864526802002   T   T   T
  0.5005897911438808  0.7242651693814466  0.3546474211323059   F   F   F
  0.5005897911438808  0.2710746693814485  0.3546474211323059   F   F   F
  0.0067278041811173  0.7715285502830942  0.4863718112987104   T   T   T
  0.7739945411438782  0.4976699193814511  0.2931896438721111   F   F   F
  0.7341204227277277  0.9968750353180962  0.4204212154647627   T   T   T
  0.5121980499216429  0.2256513855369318  0.4783173107893747   T   T   T
  0.0005897911438808  0.7242651693814466  0.3512087798286387   F   F   F
  0.0005897911438808  0.2710746693814485  0.3512087798286387   F   F   F
  0.5125473967808474  0.7686669078360303  0.4781009896994285   T   T   T
  0.7328629174833170  0.4969327838488387  0.4149034101298287   T   T   T
  0.7739945411438782  0.9976699193814511  0.2897510025684511   F   F   F
  0.2730447148077081  0.4969912141332689  0.4147448116777311   T   T   T
  0.2271850411438834  0.9976699193814511  0.2897510025684511   F   F   F
  0.2769787505850959  0.9971485472182191  0.4203130182016300   T   T   T
  0.2271850411438834  0.4976699193814511  0.2931896438721111   F   F   F
  0.7631645020370446  0.4957982742928214  0.5503009800287342   T   T   T
  0.2673487957140611  0.9931472015217324  0.5397498252401491   T   T   T
  0.2800993087369006  0.4885047674640281  0.5577441476640236   T   T   T
  0.8996760449067999  0.9955775601801503  0.5869899737686367   T   T   T
  0.3544677653501580  0.4873862763163501  0.2714495387823135   F   F   F
  0.7573781579677434  0.9912590373031386  0.6004828245637717   T   T   T
  0.4049092048948281  0.0094919091433607  0.5543267091956423   T   T   T
  0.4054509419491621  0.4889321681008579  0.5749973483139273   T   T   T
 
  0.00000000E+00  0.00000000E+00  0.00000000E+00
  0.00000000E+00  0.00000000E+00  0.00000000E+00
  0.00000000E+00  0.00000000E+00  0.00000000E+00
  0.00000000E+00  0.00000000E+00  0.00000000E+00
  0.00000000E+00  0.00000000E+00  0.00000000E+00
  0.00000000E+00  0.00000000E+00  0.00000000E+00
  0.00000000E+00  0.00000000E+00  0.00000000E+00
  0.00000000E+00  0.00000000E+00  0.00000000E+00
  0.00000000E+00  0.00000000E+00  0.00000000E+00
  0.00000000E+00  0.00000000E+00  0.00000000E+00
  0.00000000E+00  0.00000000E+00  0.00000000E+00
  0.00000000E+00  0.00000000E+00  0.00000000E+00
  0.00000000E+00  0.00000000E+00  0.00000000E+00
  0.00000000E+00  0.00000000E+00  0.00000000E+00
  0.00000000E+00  0.00000000E+00  0.00000000E+00
  0.00000000E+00  0.00000000E+00  0.00000000E+00
  0.00000000E+00  0.00000000E+00  0.00000000E+00
  0.00000000E+00  0.00000000E+00  0.00000000E+00
  0.00000000E+00  0.00000000E+00  0.00000000E+00
  0.00000000E+00  0.00000000E+00  0.00000000E+00
  0.00000000E+00  0.00000000E+00  0.00000000E+00
  0.00000000E+00  0.00000000E+00  0.00000000E+00
  0.00000000E+00  0.00000000E+00  0.00000000E+00
  0.00000000E+00  0.00000000E+00  0.00000000E+00
  0.00000000E+00  0.00000000E+00  0.00000000E+00
  0.00000000E+00  0.00000000E+00  0.00000000E+00
  0.00000000E+00  0.00000000E+00  0.00000000E+00
  0.00000000E+00  0.00000000E+00  0.00000000E+00
  0.00000000E+00  0.00000000E+00  0.00000000E+00
  0.00000000E+00  0.00000000E+00  0.00000000E+00
  0.00000000E+00  0.00000000E+00  0.00000000E+00
  0.00000000E+00  0.00000000E+00  0.00000000E+00
  0.00000000E+00  0.00000000E+00  0.00000000E+00
  0.00000000E+00  0.00000000E+00  0.00000000E+00
  0.00000000E+00  0.00000000E+00  0.00000000E+00
  0.00000000E+00  0.00000000E+00  0.00000000E+00
  0.00000000E+00  0.00000000E+00  0.00000000E+00
  0.00000000E+00  0.00000000E+00  0.00000000E+00
