Mn O  H 
 1.0000000000000000
     5.7471469900000001    0.0000000000000000    0.0000000000000000
     0.0000000000000000    5.7471469900000001    0.0000000000000000
     0.0000000000000000    0.0000000000000000   38.3523056924327008
 Mn  O   H  
  12  17   2
Selective dynamics
Direct
 -0.0093835343744717  0.2391760241319369  0.2623916092900749   F   F   F
  0.7489864879576713  0.4968346817732093  0.3235847127412249   F   F   F
  0.5024485791228720  0.2509276220716211  0.3891690632779306   T   T   T
  0.7566529686197778  0.0016917554061921  0.4520678186631925   T   T   T
  0.2476086486585868  0.0020760200444148  0.4517679879257404   T   T   T
  0.2510151206674320  0.4955812159049278  0.3269556710605909   F   F   F
  0.5039064274797199  0.7493697500451214  0.3892925502156890   T   T   T
 -0.0100916428494874  0.7513987945614823  0.2627757334990781   F   F   F
  0.0024768544779153 -0.0045784375955736  0.3571699137271092   F   F   F
  0.0023133262128735  0.5029447310008448  0.4223201516027533   T   T   T
  0.4885264644675252  0.5029246072996505  0.4861092335271880   T   T   T
  0.4872487909802456 -0.0043314717839424  0.2917774653642574   F   F   F
  0.0033821995462553  0.2248940945752922  0.4554075481432320   T   T   T
  0.7747574636748692  0.4958631552600724  0.2647010163483396   F   F   F
  0.4994775423373534  0.2678073900728424  0.3280746410023943   F   F   F
  0.7300104869673970 -0.0006786214456889  0.3923556135992067   T   T   T
  0.0037645548922136  0.2690184215424850  0.3222536979589821   F   F   F
  0.7692367725186661 -0.0055241815224737  0.2597891457639432   F   F   F
  0.5005040000862108  0.2273696749065994  0.4518833340903520   T   T   T
  0.7300381316947272  0.5007128607818830  0.3866848747811497   T   T   T
  0.2111692605782599 -0.0057975698878655  0.2583053953367737   F   F   F
  0.2739162333900009  0.5015100156160017  0.3864376689585117   T   T   T
  0.2272536477132092  0.4962741366236937  0.2626329689737672   F   F   F
  0.2753168425429821 -0.0011131174556407  0.3922220326884637   T   T   T
  0.4987015056994976  0.7247605740973498  0.3278246169346272   F   F   F
  0.0038809375135011  0.7790838127682437  0.4556454974251823   T   T   T
  0.5006676229933109  0.7760053214293839  0.4514654693347339   T   T   T
  0.0041034282560547  0.7236694402594225  0.3222276800561435   F   F   F
  0.4988163575774141  0.4979367954270155  0.5349964047457550   T   T   T
  0.3862807976787250  0.4992215041381847  0.2532026820654570   F   F   F
  0.4957026108199269  0.6325004114082512  0.5501866622908511   T   T   T
