   38   38  500    2
  0.3329519E+02  0.5747147E-09  0.5747147E-09  0.3830545E-08  0.5000000E-15
  1.000000000000000E-004
  CAR 
 unknown system                          
    323     10    202
 
  0.0000000E+00  0.0000000E+00  0.0000000E+00  0.6250000E-01
    1      -52.949993    -52.950780   1.000000   1.000000
    2      -52.930786    -52.932077   1.000000   1.000000
    3      -52.905317    -52.918603   1.000000   1.000000
    4      -52.884185    -52.904157   1.000000   1.000000
    5      -52.828449    -52.903435   1.000000   1.000000
    6      -52.742158    -52.901480   1.000000   1.000000
    7      -52.736542    -52.860548   1.000000   1.000000
    8      -52.716302    -52.847540   1.000000   1.000000
    9      -52.699339    -52.815294   1.000000   1.000000
   10      -52.687497    -52.741079   1.000000   1.000000
   11      -52.662232    -52.731705   1.000000   1.000000
   12      -52.425017    -52.688094   1.000000   1.000000
   13      -51.706721    -52.677498   1.000000   1.000000
   14      -51.699350    -52.672596   1.000000   1.000000
   15      -51.637733    -52.659810   1.000000   1.000000
   16      -51.632945    -52.654773   1.000000   1.000000
   17      -51.613844    -52.633652   1.000000   1.000000
   18      -51.556878    -52.533720   1.000000   1.000000
   19      -51.438128    -48.879603   1.000000   1.000000
   20      -51.395142    -48.861402   1.000000   1.000000
   21      -51.335606    -48.838944   1.000000   1.000000
   22      -51.304673    -48.810094   1.000000   1.000000
   23      -51.136352    -48.737805   1.000000   1.000000
   24      -51.118940    -48.704911   1.000000   1.000000
   25      -51.081208    -48.679077   1.000000   1.000000
   26      -51.052261    -48.638401   1.000000   1.000000
   27      -50.881262    -48.079647   1.000000   1.000000
   28      -49.033820    -48.047463   1.000000   1.000000
   29      -49.028346    -48.012782   1.000000   1.000000
   30      -49.004956    -47.787431   1.000000   1.000000
   31      -48.976262    -46.819710   1.000000   1.000000
   32      -48.969451    -46.807545   1.000000   1.000000
   33      -48.954921    -46.753393   1.000000   1.000000
   34      -48.942996    -46.749275   1.000000   1.000000
   35      -48.892680    -46.737958   1.000000   1.000000
   36      -48.871870    -46.686591   1.000000   1.000000
   37      -48.836850    -46.554666   1.000000   1.000000
   38      -48.755605    -46.529952   1.000000   1.000000
   39      -48.742442    -46.472603   1.000000   1.000000
   40      -48.138237    -46.412164   1.000000   1.000000
   41      -48.132312    -46.301821   1.000000   1.000000
   42      -48.120803    -46.290523   1.000000   1.000000
   43      -48.092549    -46.257384   1.000000   1.000000
   44      -48.048992    -46.185438   1.000000   1.000000
   45      -47.975845    -46.093352   1.000000   1.000000
   46      -22.353035    -22.376793   1.000000   1.000000
   47      -21.223001    -21.180945   1.000000   1.000000
   48      -20.970802    -20.941893   1.000000   1.000000
   49      -20.724856    -20.684270   1.000000   1.000000
   50      -20.406852    -20.417425   1.000000   1.000000
   51      -20.246905    -20.195195   1.000000   1.000000
   52      -20.177481    -20.134519   1.000000   1.000000
   53      -20.122336    -20.096603   1.000000   1.000000
   54      -20.113279    -20.044037   1.000000   1.000000
   55      -20.093247    -20.033709   1.000000   1.000000
   56      -20.066318    -20.031890   1.000000   1.000000
   57      -20.035815    -19.997000   1.000000   1.000000
   58      -20.030711    -19.953987   1.000000   1.000000
   59      -19.986788    -19.891046   1.000000   1.000000
   60      -19.940143    -19.889409   1.000000   1.000000
   61      -19.791960    -19.681931   1.000000   1.000000
   62      -19.716082    -19.674977   1.000000   1.000000
   63      -19.574587    -19.489936   1.000000   1.000000
   64      -19.411632    -19.347336   1.000000   1.000000
   65      -19.231146    -19.124582   1.000000   1.000000
   66      -19.036549    -18.922641   1.000000   1.000000
   67      -10.482974    -10.546670   1.000000   1.000000
   68       -9.415470     -9.366826   1.000000   1.000000
   69       -9.048393     -9.177608   1.000000   1.000000
   70       -8.979006     -8.956282   1.000000   1.000000
   71       -8.695277     -8.923500   1.000000   1.000000
   72       -8.661314     -8.675728   1.000000   1.000000
   73       -8.537473     -8.589273   1.000000   1.000000
   74       -8.508367     -8.514098   1.000000   1.000000
   75       -8.374976     -8.461901   1.000000   1.000000
   76       -8.357852     -8.430798   1.000000   1.000000
   77       -8.223380     -8.399187   1.000000   1.000000
   78       -8.142432     -8.171445   1.000000   1.000000
   79       -7.947688     -8.093883   1.000000   1.000000
   80       -7.861448     -7.925514   1.000000   1.000000
   81       -7.836220     -7.742861   1.000000   1.000000
   82       -7.755464     -7.640626   1.000000   1.000000
   83       -7.707948     -7.573861   1.000000   1.000000
   84       -7.655801     -7.537254   1.000000   1.000000
   85       -7.622775     -7.444771   1.000000   1.000000
   86       -7.572250     -7.412725   1.000000   1.000000
   87       -7.528787     -7.280796   1.000000   1.000000
   88       -7.431578     -7.254926   1.000000   1.000000
   89       -7.399008     -7.184113   1.000000   1.000000
   90       -7.325731     -7.113109   1.000000   1.000000
   91       -7.273497     -7.071898   1.000000   1.000000
   92       -7.256250     -7.068341   1.000000   1.000000
   93       -7.190700     -7.040277   1.000000   1.000000
   94       -7.153064     -7.014463   1.000000   1.000000
   95       -7.105569     -6.919898   1.000000   1.000000
   96       -7.055107     -6.863453   1.000000   1.000000
   97       -6.901766     -6.785345   1.000000   1.000000
   98       -6.875042     -6.686331   1.000000   1.000000
   99       -6.850969     -6.607098   1.000000   1.000000
  100       -6.846113     -6.535454   1.000000   1.000000
  101       -6.778537     -6.493277   1.000000   1.000000
  102       -6.742509     -6.461326   1.000000   1.000000
  103       -6.736380     -6.403571   1.000000   1.000000
  104       -6.683504     -6.307706   1.000000   1.000000
  105       -6.661978     -6.285731   1.000000   1.000000
  106       -6.592877     -6.255614   1.000000   1.000000
  107       -6.498832     -6.207767   1.000000   1.000000
  108       -6.470509     -6.136932   1.000000   1.000000
  109       -6.419948     -5.995088   1.000000   1.000000
  110       -6.395973     -5.979882   1.000000   1.000000
  111       -6.260217     -5.920073   1.000000   1.000000
  112       -6.173151     -5.854110   1.000000   1.000000
  113       -6.050283     -5.824731   1.000000   1.000000
  114       -5.912334     -5.768325   1.000000   1.000000
  115       -5.875937     -5.733214   1.000000   1.000000
  116       -5.872708     -5.732098   1.000000   1.000000
  117       -5.830518     -5.591168   1.000000   1.000000
  118       -5.797974     -5.506625   1.000000   1.000000
  119       -5.714329     -5.472685   1.000000   1.000000
  120       -5.605871     -5.419321   1.000000   1.000000
  121       -5.536180     -5.379043   1.000000   1.000000
  122       -5.515004     -5.374073   1.000000   1.000000
  123       -5.454798     -5.350017   1.000000   1.000000
  124       -5.439365     -5.254467   1.000000   1.000000
  125       -5.371342     -5.233213   1.000000   1.000000
  126       -5.310609     -5.088237   1.000000   1.000000
  127       -5.227808     -5.023738   1.000000   1.000000
  128       -5.168783     -4.980267   1.000000   1.000000
  129       -5.076283     -4.796028   1.000000   1.000000
  130       -5.050216     -4.774182   1.000000   1.000000
  131       -4.986224     -4.721456   1.000000   1.000000
  132       -4.901266     -4.662933   1.000000   1.000000
  133       -4.865511     -4.599242   1.000000   1.000000
  134       -4.841510     -4.592008   1.000000   1.000000
  135       -4.785698     -4.520093   1.000000   1.000000
  136       -4.760343     -4.500620   1.000000   1.000000
  137       -4.684092     -4.487661   1.000000   1.000000
  138       -4.663237     -4.307017   1.000000   1.000000
  139       -4.639650     -4.243934   1.000000   1.000000
  140       -4.603239     -4.186086   1.000000   1.000000
  141       -4.587276     -4.150873   1.000000   1.000000
  142       -4.546954     -4.005120   1.000000   1.000000
  143       -4.517575     -3.959304   1.000000   1.000000
  144       -4.476857     -3.924168   1.000000   1.000000
  145       -4.434191     -3.904009   1.000000   1.000000
  146       -4.337816     -3.807817   1.000000   1.000000
  147       -4.230591     -3.748730   1.000000   1.000000
  148       -4.208522     -3.687914   1.000000   1.000000
  149       -4.094406     -3.621922   1.000000   1.000000
  150       -4.040415     -3.520341   1.000000   1.000000
  151       -4.015971     -3.278356   1.000000   1.000000
  152       -3.883168     -2.875442   1.000000   1.000000
  153       -3.842902     -2.487164   1.000000   1.000000
  154       -3.782338     -0.642964   1.000000  -0.000000
  155       -3.749139     -0.563449   1.000000  -0.000000
  156       -3.647527     -0.528463   1.000000  -0.000000
  157       -3.600756     -0.508797   1.000000  -0.000000
  158       -3.533038     -0.308662   1.000000  -0.000000
  159       -3.503283     -0.019654   1.000000  -0.000000
  160       -3.316143      0.297680   1.000000  -0.000000
  161       -3.104100      0.651989   1.000000  -0.000000
  162       -3.085491      0.743873   1.000000  -0.000000
  163       -3.007503      0.908787   1.000000  -0.000000
  164       -2.985138      0.960286   1.000000  -0.000000
  165       -2.916466      0.999080   1.000000  -0.000000
  166       -2.839068      1.039181   1.000000  -0.000000
  167       -2.699346      1.063099   1.000000  -0.000000
  168       -2.621408      1.103949   1.000000  -0.000000
  169       -2.087510      1.176160   1.000806  -0.000000
  170       -1.676796      1.209944   0.883976  -0.000000
  171       -0.486541      1.256655  -0.000000  -0.000000
  172       -0.473139      1.327030  -0.000000  -0.000000
  173       -0.298175      1.386582  -0.000000  -0.000000
  174       -0.245744      1.461858  -0.000000  -0.000000
  175        0.127233      1.498829  -0.000000  -0.000000
  176        0.383717      1.562089  -0.000000  -0.000000
  177        0.576907      1.740507  -0.000000  -0.000000
  178        0.619220      1.891908  -0.000000  -0.000000
  179        0.645292      2.000162  -0.000000  -0.000000
  180        0.819411      2.058840  -0.000000  -0.000000
  181        0.841728      2.098713  -0.000000  -0.000000
  182        0.922890      2.134318  -0.000000  -0.000000
  183        0.937573      2.252399  -0.000000  -0.000000
  184        0.978257      2.308784  -0.000000  -0.000000
  185        1.031247      2.355010  -0.000000  -0.000000
  186        1.058647      2.374192  -0.000000  -0.000000
  187        1.131353      2.413657  -0.000000  -0.000000
  188        1.147960      2.455015  -0.000000  -0.000000
  189        1.219921      2.504065  -0.000000  -0.000000
  190        1.267752      2.556381  -0.000000  -0.000000
  191        1.276954      2.627902  -0.000000  -0.000000
  192        1.336698      2.672598  -0.000000  -0.000000
  193        1.357263      2.700006  -0.000000  -0.000000
  194        1.419144      2.725792  -0.000000  -0.000000
  195        1.444466      2.744426  -0.000000  -0.000000
  196        1.576700      2.810079  -0.000000  -0.000000
  197        1.650905      2.880594  -0.000000  -0.000000
  198        1.728911      2.916636  -0.000000  -0.000000
  199        1.752953      3.067341  -0.000000  -0.000000
  200        1.802143      3.089824  -0.000000  -0.000000
  201        1.904504      3.111369  -0.000000  -0.000000
  202        2.023559      3.159465  -0.000000  -0.000000
 
  0.2500000E+00  0.0000000E+00  0.0000000E+00  0.1250000E+00
    1      -52.949996    -52.950782   1.000000   1.000000
    2      -52.930783    -52.932075   1.000000   1.000000
    3      -52.905088    -52.918460   1.000000   1.000000
    4      -52.884116    -52.903907   1.000000   1.000000
    5      -52.828451    -52.903296   1.000000   1.000000
    6      -52.741944    -52.901439   1.000000   1.000000
    7      -52.736543    -52.860551   1.000000   1.000000
    8      -52.716178    -52.847543   1.000000   1.000000
    9      -52.699342    -52.815297   1.000000   1.000000
   10      -52.687500    -52.741081   1.000000   1.000000
   11      -52.662226    -52.731706   1.000000   1.000000
   12      -52.425014    -52.688090   1.000000   1.000000
   13      -51.706721    -52.677498   1.000000   1.000000
   14      -51.699351    -52.672598   1.000000   1.000000
   15      -51.637735    -52.659810   1.000000   1.000000
   16      -51.632945    -52.654777   1.000000   1.000000
   17      -51.613844    -52.633650   1.000000   1.000000
   18      -51.556878    -52.533721   1.000000   1.000000
   19      -51.438130    -48.879609   1.000000   1.000000
   20      -51.395136    -48.861397   1.000000   1.000000
   21      -51.335608    -48.839286   1.000000   1.000000
   22      -51.304675    -48.810262   1.000000   1.000000
   23      -51.136353    -48.737813   1.000000   1.000000
   24      -51.118941    -48.704905   1.000000   1.000000
   25      -51.081207    -48.679370   1.000000   1.000000
   26      -51.052244    -48.638626   1.000000   1.000000
   27      -50.881264    -48.079648   1.000000   1.000000
   28      -49.034232    -48.047466   1.000000   1.000000
   29      -49.028353    -48.012787   1.000000   1.000000
   30      -49.005106    -47.787435   1.000000   1.000000
   31      -48.976320    -46.819709   1.000000   1.000000
   32      -48.969893    -46.807551   1.000000   1.000000
   33      -48.954950    -46.753396   1.000000   1.000000
   34      -48.942990    -46.749278   1.000000   1.000000
   35      -48.892688    -46.737956   1.000000   1.000000
   36      -48.871870    -46.686588   1.000000   1.000000
   37      -48.836854    -46.554665   1.000000   1.000000
   38      -48.755617    -46.529957   1.000000   1.000000
   39      -48.742455    -46.472601   1.000000   1.000000
   40      -48.138236    -46.412162   1.000000   1.000000
   41      -48.132315    -46.301823   1.000000   1.000000
   42      -48.120802    -46.290530   1.000000   1.000000
   43      -48.092547    -46.257381   1.000000   1.000000
   44      -48.048996    -46.185449   1.000000   1.000000
   45      -47.975841    -46.093348   1.000000   1.000000
   46      -22.345472    -22.369859   1.000000   1.000000
   47      -21.136673    -21.090064   1.000000   1.000000
   48      -20.873286    -20.845536   1.000000   1.000000
   49      -20.700792    -20.658126   1.000000   1.000000
   50      -20.392992    -20.388989   1.000000   1.000000
   51      -20.321563    -20.270160   1.000000   1.000000
   52      -20.248824    -20.242493   1.000000   1.000000
   53      -20.192884    -20.136648   1.000000   1.000000
   54      -20.128781    -20.057370   1.000000   1.000000
   55      -20.104331    -20.046491   1.000000   1.000000
   56      -20.061226    -20.032890   1.000000   1.000000
   57      -20.038868    -20.000893   1.000000   1.000000
   58      -20.031743    -19.954064   1.000000   1.000000
   59      -19.986040    -19.897888   1.000000   1.000000
   60      -19.917118    -19.860449   1.000000   1.000000
   61      -19.806215    -19.731948   1.000000   1.000000
   62      -19.711763    -19.634469   1.000000   1.000000
   63      -19.606498    -19.529057   1.000000   1.000000
   64      -19.447251    -19.388665   1.000000   1.000000
   65      -19.230900    -19.123720   1.000000   1.000000
   66      -19.035436    -18.921586   1.000000   1.000000
   67      -10.419730    -10.491795   1.000000   1.000000
   68       -9.278538     -9.208547   1.000000   1.000000
   69       -8.926710     -9.037419   1.000000   1.000000
   70       -8.872862     -8.824485   1.000000   1.000000
   71       -8.602079     -8.780107   1.000000   1.000000
   72       -8.577116     -8.588698   1.000000   1.000000
   73       -8.454981     -8.526275   1.000000   1.000000
   74       -8.354443     -8.388501   1.000000   1.000000
   75       -8.302897     -8.363024   1.000000   1.000000
   76       -8.235502     -8.273166   1.000000   1.000000
   77       -8.184539     -8.228687   1.000000   1.000000
   78       -8.102643     -8.134876   1.000000   1.000000
   79       -7.958241     -8.076820   1.000000   1.000000
   80       -7.896084     -7.930787   1.000000   1.000000
   81       -7.845530     -7.800708   1.000000   1.000000
   82       -7.807318     -7.689630   1.000000   1.000000
   83       -7.746143     -7.671871   1.000000   1.000000
   84       -7.713600     -7.543350   1.000000   1.000000
   85       -7.627322     -7.494255   1.000000   1.000000
   86       -7.536486     -7.419788   1.000000   1.000000
   87       -7.502962     -7.339500   1.000000   1.000000
   88       -7.466656     -7.304317   1.000000   1.000000
   89       -7.378635     -7.261970   1.000000   1.000000
   90       -7.345133     -7.195532   1.000000   1.000000
   91       -7.312177     -7.169797   1.000000   1.000000
   92       -7.267577     -7.086176   1.000000   1.000000
   93       -7.221086     -7.042705   1.000000   1.000000
   94       -7.188630     -6.990124   1.000000   1.000000
   95       -7.112259     -6.901073   1.000000   1.000000
   96       -7.045903     -6.838812   1.000000   1.000000
   97       -6.999363     -6.799421   1.000000   1.000000
   98       -6.966017     -6.722290   1.000000   1.000000
   99       -6.918286     -6.661071   1.000000   1.000000
  100       -6.852361     -6.562645   1.000000   1.000000
  101       -6.807178     -6.531896   1.000000   1.000000
  102       -6.760955     -6.501660   1.000000   1.000000
  103       -6.699192     -6.424853   1.000000   1.000000
  104       -6.661077     -6.397482   1.000000   1.000000
  105       -6.584022     -6.328946   1.000000   1.000000
  106       -6.527487     -6.282330   1.000000   1.000000
  107       -6.453544     -6.229932   1.000000   1.000000
  108       -6.398967     -6.205337   1.000000   1.000000
  109       -6.375399     -6.084039   1.000000   1.000000
  110       -6.330689     -6.007424   1.000000   1.000000
  111       -6.208274     -5.969305   1.000000   1.000000
  112       -6.134130     -5.925530   1.000000   1.000000
  113       -6.037205     -5.893270   1.000000   1.000000
  114       -6.016930     -5.800930   1.000000   1.000000
  115       -5.950782     -5.761171   1.000000   1.000000
  116       -5.924543     -5.619786   1.000000   1.000000
  117       -5.859158     -5.607427   1.000000   1.000000
  118       -5.808757     -5.519959   1.000000   1.000000
  119       -5.756759     -5.486998   1.000000   1.000000
  120       -5.696779     -5.473464   1.000000   1.000000
  121       -5.638581     -5.402093   1.000000   1.000000
  122       -5.594855     -5.319689   1.000000   1.000000
  123       -5.535963     -5.264273   1.000000   1.000000
  124       -5.421413     -5.255949   1.000000   1.000000
  125       -5.394066     -5.226357   1.000000   1.000000
  126       -5.373652     -5.079402   1.000000   1.000000
  127       -5.278192     -5.038268   1.000000   1.000000
  128       -5.252315     -4.999968   1.000000   1.000000
  129       -5.213683     -4.940984   1.000000   1.000000
  130       -5.137381     -4.901428   1.000000   1.000000
  131       -5.044499     -4.843911   1.000000   1.000000
  132       -5.003101     -4.773496   1.000000   1.000000
  133       -4.990700     -4.717672   1.000000   1.000000
  134       -4.949755     -4.610443   1.000000   1.000000
  135       -4.907264     -4.570166   1.000000   1.000000
  136       -4.835157     -4.494344   1.000000   1.000000
  137       -4.762135     -4.441613   1.000000   1.000000
  138       -4.735365     -4.385969   1.000000   1.000000
  139       -4.677124     -4.256366   1.000000   1.000000
  140       -4.640839     -4.167206   1.000000   1.000000
  141       -4.574159     -4.114764   1.000000   1.000000
  142       -4.518576     -4.047518   1.000000   1.000000
  143       -4.499349     -3.986779   1.000000   1.000000
  144       -4.458065     -3.875154   1.000000   1.000000
  145       -4.390675     -3.846616   1.000000   1.000000
  146       -4.332699     -3.774704   1.000000   1.000000
  147       -4.263411     -3.756316   1.000000   1.000000
  148       -4.195543     -3.670796   1.000000   1.000000
  149       -4.029322     -3.533395   1.000000   1.000000
  150       -3.980851     -3.454028   1.000000   1.000000
  151       -3.937700     -3.202049   1.000000   1.000000
  152       -3.901217     -2.868486   1.000000   1.000000
  153       -3.822947     -2.498190   1.000000   1.000000
  154       -3.749147     -0.807651   1.000000  -0.000000
  155       -3.693056     -0.758034   1.000000  -0.000000
  156       -3.591867     -0.693885   1.000000  -0.000000
  157       -3.499934     -0.684478   1.000000  -0.000000
  158       -3.455006     -0.401494   1.000000  -0.000000
  159       -3.413659     -0.082113   1.000000  -0.000000
  160       -3.291689      0.489070   1.000000  -0.000000
  161       -3.241159      0.744017   1.000000  -0.000000
  162       -3.197543      0.847803   1.000000  -0.000000
  163       -3.052391      0.956984   1.000000  -0.000000
  164       -2.995011      0.993849   1.000000  -0.000000
  165       -2.936819      1.029473   1.000000  -0.000000
  166       -2.812681      1.078541   1.000000  -0.000000
  167       -2.735298      1.080076   1.000000  -0.000000
  168       -2.683296      1.128590   1.000000  -0.000000
  169       -2.070026      1.171398   1.001200  -0.000000
  170       -1.752976      1.242725   1.012553  -0.000000
  171       -0.683513      1.258525  -0.000000  -0.000000
  172       -0.632058      1.344954  -0.000000  -0.000000
  173       -0.512615      1.410153  -0.000000  -0.000000
  174       -0.394238      1.499982  -0.000000  -0.000000
  175        0.359669      1.618045  -0.000000  -0.000000
  176        0.478047      1.620940  -0.000000  -0.000000
  177        0.594080      1.808232  -0.000000  -0.000000
  178        0.662798      1.839371  -0.000000  -0.000000
  179        0.719652      1.914199  -0.000000  -0.000000
  180        0.850991      2.035238  -0.000000  -0.000000
  181        0.885464      2.093464  -0.000000  -0.000000
  182        0.942548      2.202234  -0.000000  -0.000000
  183        0.968562      2.251072  -0.000000  -0.000000
  184        1.003580      2.317987  -0.000000  -0.000000
  185        1.054359      2.354967  -0.000000  -0.000000
  186        1.109529      2.405183  -0.000000  -0.000000
  187        1.147670      2.430323  -0.000000  -0.000000
  188        1.167446      2.475571  -0.000000  -0.000000
  189        1.216480      2.504273  -0.000000  -0.000000
  190        1.244331      2.551238  -0.000000  -0.000000
  191        1.268138      2.576675  -0.000000  -0.000000
  192        1.324651      2.653688  -0.000000  -0.000000
  193        1.373948      2.665845  -0.000000  -0.000000
  194        1.415992      2.731063  -0.000000  -0.000000
  195        1.498204      2.792315  -0.000000  -0.000000
  196        1.655386      2.829060  -0.000000  -0.000000
  197        1.721117      2.940265  -0.000000  -0.000000
  198        1.763658      2.961484  -0.000000  -0.000000
  199        1.796574      3.013096  -0.000000  -0.000000
  200        1.893930      3.072246  -0.000000  -0.000000
  201        1.921357      3.124200  -0.000000  -0.000000
  202        1.953412      3.187457  -0.000000  -0.000000
 
  0.5000000E+00  0.0000000E+00  0.0000000E+00  0.6250000E-01
    1      -52.950002    -52.950785   1.000000   1.000000
    2      -52.930778    -52.932074   1.000000   1.000000
    3      -52.904856    -52.918318   1.000000   1.000000
    4      -52.884047    -52.903660   1.000000   1.000000
    5      -52.828454    -52.903155   1.000000   1.000000
    6      -52.741729    -52.901393   1.000000   1.000000
    7      -52.736544    -52.860557   1.000000   1.000000
    8      -52.716053    -52.847542   1.000000   1.000000
    9      -52.699345    -52.815301   1.000000   1.000000
   10      -52.687503    -52.741084   1.000000   1.000000
   11      -52.662220    -52.731706   1.000000   1.000000
   12      -52.425010    -52.688086   1.000000   1.000000
   13      -51.706722    -52.677493   1.000000   1.000000
   14      -51.699350    -52.672599   1.000000   1.000000
   15      -51.637734    -52.659810   1.000000   1.000000
   16      -51.632946    -52.654784   1.000000   1.000000
   17      -51.613842    -52.633648   1.000000   1.000000
   18      -51.556877    -52.533722   1.000000   1.000000
   19      -51.438134    -48.879616   1.000000   1.000000
   20      -51.395127    -48.861395   1.000000   1.000000
   21      -51.335610    -48.839631   1.000000   1.000000
   22      -51.304679    -48.810425   1.000000   1.000000
   23      -51.136356    -48.737822   1.000000   1.000000
   24      -51.118939    -48.704901   1.000000   1.000000
   25      -51.081206    -48.679666   1.000000   1.000000
   26      -51.052224    -48.638848   1.000000   1.000000
   27      -50.881267    -48.079648   1.000000   1.000000
   28      -49.034649    -48.047469   1.000000   1.000000
   29      -49.028359    -48.012791   1.000000   1.000000
   30      -49.005252    -47.787438   1.000000   1.000000
   31      -48.976386    -46.819712   1.000000   1.000000
   32      -48.970330    -46.807553   1.000000   1.000000
   33      -48.954976    -46.753399   1.000000   1.000000
   34      -48.942983    -46.749281   1.000000   1.000000
   35      -48.892696    -46.737952   1.000000   1.000000
   36      -48.871870    -46.686585   1.000000   1.000000
   37      -48.836860    -46.554668   1.000000   1.000000
   38      -48.755632    -46.529958   1.000000   1.000000
   39      -48.742470    -46.472597   1.000000   1.000000
   40      -48.138234    -46.412163   1.000000   1.000000
   41      -48.132318    -46.301825   1.000000   1.000000
   42      -48.120800    -46.290533   1.000000   1.000000
   43      -48.092546    -46.257377   1.000000   1.000000
   44      -48.048999    -46.185458   1.000000   1.000000
   45      -47.975835    -46.093346   1.000000   1.000000
   46      -22.337903    -22.362914   1.000000   1.000000
   47      -21.008867    -20.948476   1.000000   1.000000
   48      -20.719184    -20.714108   1.000000   1.000000
   49      -20.678085    -20.625828   1.000000   1.000000
   50      -20.542107    -20.498205   1.000000   1.000000
   51      -20.390152    -20.351745   1.000000   1.000000
   52      -20.295393    -20.305686   1.000000   1.000000
   53      -20.195282    -20.134509   1.000000   1.000000
   54      -20.149538    -20.100404   1.000000   1.000000
   55      -20.125686    -20.049547   1.000000   1.000000
   56      -20.066977    -20.036890   1.000000   1.000000
   57      -20.042063    -20.010868   1.000000   1.000000
   58      -20.031664    -19.953956   1.000000   1.000000
   59      -19.983994    -19.903059   1.000000   1.000000
   60      -19.890325    -19.825736   1.000000   1.000000
   61      -19.834557    -19.767485   1.000000   1.000000
   62      -19.685609    -19.601742   1.000000   1.000000
   63      -19.653705    -19.581200   1.000000   1.000000
   64      -19.486737    -19.435604   1.000000   1.000000
   65      -19.231024    -19.123424   1.000000   1.000000
   66      -19.034375    -18.920603   1.000000   1.000000
   67      -10.356041    -10.437412   1.000000   1.000000
   68       -9.107725     -9.005162   1.000000   1.000000
   69       -8.778148     -8.870705   1.000000   1.000000
   70       -8.758885     -8.662886   1.000000   1.000000
   71       -8.548927     -8.621092   1.000000   1.000000
   72       -8.533268     -8.519616   1.000000   1.000000
   73       -8.346118     -8.456980   1.000000   1.000000
   74       -8.292311     -8.311092   1.000000   1.000000
   75       -8.230632     -8.266390   1.000000   1.000000
   76       -8.162825     -8.224761   1.000000   1.000000
   77       -8.118370     -8.141819   1.000000   1.000000
   78       -8.008154     -7.981777   1.000000   1.000000
   79       -7.920041     -7.953583   1.000000   1.000000
   80       -7.908889     -7.859237   1.000000   1.000000
   81       -7.852009     -7.787553   1.000000   1.000000
   82       -7.755866     -7.761574   1.000000   1.000000
   83       -7.739551     -7.655066   1.000000   1.000000
   84       -7.640612     -7.622879   1.000000   1.000000
   85       -7.616082     -7.547377   1.000000   1.000000
   86       -7.532215     -7.417797   1.000000   1.000000
   87       -7.500246     -7.400764   1.000000   1.000000
   88       -7.478983     -7.366161   1.000000   1.000000
   89       -7.420594     -7.273241   1.000000   1.000000
   90       -7.401576     -7.250073   1.000000   1.000000
   91       -7.321077     -7.212108   1.000000   1.000000
   92       -7.309121     -7.141744   1.000000   1.000000
   93       -7.228008     -7.090596   1.000000   1.000000
   94       -7.219134     -7.029349   1.000000   1.000000
   95       -7.165799     -6.903029   1.000000   1.000000
   96       -7.109969     -6.853189   1.000000   1.000000
   97       -7.074198     -6.811801   1.000000   1.000000
   98       -7.005108     -6.802651   1.000000   1.000000
   99       -6.908900     -6.702750   1.000000   1.000000
  100       -6.868862     -6.623490   1.000000   1.000000
  101       -6.780287     -6.586524   1.000000   1.000000
  102       -6.778233     -6.519869   1.000000   1.000000
  103       -6.688922     -6.478217   1.000000   1.000000
  104       -6.675430     -6.396285   1.000000   1.000000
  105       -6.534392     -6.387844   1.000000   1.000000
  106       -6.459517     -6.282608   1.000000   1.000000
  107       -6.436038     -6.246340   1.000000   1.000000
  108       -6.378988     -6.229971   1.000000   1.000000
  109       -6.355625     -6.198249   1.000000   1.000000
  110       -6.298487     -6.142400   1.000000   1.000000
  111       -6.223494     -6.078837   1.000000   1.000000
  112       -6.192298     -6.012871   1.000000   1.000000
  113       -6.128982     -6.003079   1.000000   1.000000
  114       -6.039209     -5.869538   1.000000   1.000000
  115       -6.011172     -5.851612   1.000000   1.000000
  116       -5.943884     -5.775209   1.000000   1.000000
  117       -5.901062     -5.661636   1.000000   1.000000
  118       -5.857323     -5.613345   1.000000   1.000000
  119       -5.792390     -5.565065   1.000000   1.000000
  120       -5.739215     -5.481819   1.000000   1.000000
  121       -5.722794     -5.398705   1.000000   1.000000
  122       -5.645272     -5.338444   1.000000   1.000000
  123       -5.601107     -5.304632   1.000000   1.000000
  124       -5.527723     -5.202844   1.000000   1.000000
  125       -5.485655     -5.174715   1.000000   1.000000
  126       -5.410915     -5.054761   1.000000   1.000000
  127       -5.374876     -5.033670   1.000000   1.000000
  128       -5.319814     -4.993364   1.000000   1.000000
  129       -5.254652     -4.914598   1.000000   1.000000
  130       -5.226152     -4.866754   1.000000   1.000000
  131       -5.203191     -4.840563   1.000000   1.000000
  132       -5.137381     -4.796402   1.000000   1.000000
  133       -5.073177     -4.708425   1.000000   1.000000
  134       -5.000606     -4.614534   1.000000   1.000000
  135       -4.976603     -4.553808   1.000000   1.000000
  136       -4.910472     -4.530683   1.000000   1.000000
  137       -4.779763     -4.453343   1.000000   1.000000
  138       -4.721891     -4.389126   1.000000   1.000000
  139       -4.690431     -4.266245   1.000000   1.000000
  140       -4.633993     -4.193553   1.000000   1.000000
  141       -4.591583     -4.127516   1.000000   1.000000
  142       -4.537164     -4.083370   1.000000   1.000000
  143       -4.512800     -3.976086   1.000000   1.000000
  144       -4.421025     -3.859219   1.000000   1.000000
  145       -4.408609     -3.820053   1.000000   1.000000
  146       -4.221354     -3.786115   1.000000   1.000000
  147       -4.173597     -3.703543   1.000000   1.000000
  148       -4.159887     -3.626577   1.000000   1.000000
  149       -4.095122     -3.486442   1.000000   1.000000
  150       -3.995379     -3.396242   1.000000   1.000000
  151       -3.947000     -3.139779   1.000000   1.000000
  152       -3.828207     -2.862794   1.000000   1.000000
  153       -3.800104     -2.508578   1.000000   1.000000
  154       -3.719805     -1.030591   1.000000  -0.000441
  155       -3.681382     -0.983732   1.000000  -0.000131
  156       -3.599867     -0.849289   1.000000  -0.000002
  157       -3.469662     -0.788139   1.000000  -0.000000
  158       -3.403653     -0.487162   1.000000  -0.000000
  159       -3.319231     -0.137979   1.000000  -0.000000
  160       -3.291685      0.609340   1.000000  -0.000000
  161       -3.211657      0.785429   1.000000  -0.000000
  162       -3.186986      0.913769   1.000000  -0.000000
  163       -3.098662      0.999701   1.000000  -0.000000
  164       -3.012102      1.017403   1.000000  -0.000000
  165       -2.972719      1.068640   1.000000  -0.000000
  166       -2.848952      1.080461   1.000000  -0.000000
  167       -2.741497      1.130443   1.000000  -0.000000
  168       -2.668669      1.174267   1.000000  -0.000000
  169       -2.057494      1.216202   1.001578  -0.000000
  170       -1.797412      1.254759   1.033853  -0.000000
  171       -0.886174      1.266775  -0.000007  -0.000000
  172       -0.782491      1.304543  -0.000000  -0.000000
  173       -0.720644      1.431334  -0.000000  -0.000000
  174       -0.546422      1.517357  -0.000000  -0.000000
  175        0.470830      1.680251  -0.000000  -0.000000
  176        0.555838      1.771273  -0.000000  -0.000000
  177        0.596290      1.816303  -0.000000  -0.000000
  178        0.713708      1.910404  -0.000000  -0.000000
  179        0.772913      1.933445  -0.000000  -0.000000
  180        0.875111      2.002978  -0.000000  -0.000000
  181        0.911525      2.133262  -0.000000  -0.000000
  182        0.971824      2.243867  -0.000000  -0.000000
  183        1.005051      2.303649  -0.000000  -0.000000
  184        1.007953      2.320846  -0.000000  -0.000000
  185        1.053360      2.346558  -0.000000  -0.000000
  186        1.131799      2.376602  -0.000000  -0.000000
  187        1.177337      2.423089  -0.000000  -0.000000
  188        1.183016      2.446529  -0.000000  -0.000000
  189        1.227124      2.524722  -0.000000  -0.000000
  190        1.239636      2.551865  -0.000000  -0.000000
  191        1.289595      2.585292  -0.000000  -0.000000
  192        1.303943      2.617635  -0.000000  -0.000000
  193        1.362273      2.688155  -0.000000  -0.000000
  194        1.419627      2.706276  -0.000000  -0.000000
  195        1.531335      2.729025  -0.000000  -0.000000
  196        1.660879      2.769491  -0.000000  -0.000000
  197        1.703903      2.886724  -0.000000  -0.000000
  198        1.737628      2.934686  -0.000000  -0.000000
  199        1.777929      2.978645  -0.000000  -0.000000
  200        1.822283      3.052188  -0.000000  -0.000000
  201        1.888467      3.079700  -0.000000  -0.000000
  202        1.958973      3.252733  -0.000000  -0.000000
 
  0.0000000E+00  0.2500000E+00  0.0000000E+00  0.1250000E+00
    1      -52.949757    -52.950649   1.000000   1.000000
    2      -52.930720    -52.931915   1.000000   1.000000
    3      -52.905321    -52.918606   1.000000   1.000000
    4      -52.884182    -52.904146   1.000000   1.000000
    5      -52.828263    -52.903436   1.000000   1.000000
    6      -52.742153    -52.901483   1.000000   1.000000
    7      -52.736451    -52.856253   1.000000   1.000000
    8      -52.716289    -52.845783   1.000000   1.000000
    9      -52.699335    -52.815127   1.000000   1.000000
   10      -52.687476    -52.740946   1.000000   1.000000
   11      -52.662235    -52.731560   1.000000   1.000000
   12      -52.425021    -52.688094   1.000000   1.000000
   13      -51.706721    -52.678104   1.000000   1.000000
   14      -51.699350    -52.672600   1.000000   1.000000
   15      -51.637735    -52.660537   1.000000   1.000000
   16      -51.632959    -52.659805   1.000000   1.000000
   17      -51.613829    -52.633638   1.000000   1.000000
   18      -51.556878    -52.533764   1.000000   1.000000
   19      -51.438127    -48.880004   1.000000   1.000000
   20      -51.395142    -48.861520   1.000000   1.000000
   21      -51.335614    -48.838946   1.000000   1.000000
   22      -51.304665    -48.810091   1.000000   1.000000
   23      -51.136353    -48.738312   1.000000   1.000000
   24      -51.118940    -48.704940   1.000000   1.000000
   25      -51.081208    -48.679076   1.000000   1.000000
   26      -51.052261    -48.638398   1.000000   1.000000
   27      -50.881261    -48.079651   1.000000   1.000000
   28      -49.033836    -48.047468   1.000000   1.000000
   29      -49.028655    -48.012785   1.000000   1.000000
   30      -49.004960    -47.787434   1.000000   1.000000
   31      -48.976443    -46.819713   1.000000   1.000000
   32      -48.969370    -46.807544   1.000000   1.000000
   33      -48.954945    -46.753411   1.000000   1.000000
   34      -48.933327    -46.749301   1.000000   1.000000
   35      -48.892273    -46.737920   1.000000   1.000000
   36      -48.872350    -46.686588   1.000000   1.000000
   37      -48.836914    -46.554669   1.000000   1.000000
   38      -48.762489    -46.529951   1.000000   1.000000
   39      -48.745955    -46.472608   1.000000   1.000000
   40      -48.138158    -46.412156   1.000000   1.000000
   41      -48.132314    -46.301827   1.000000   1.000000
   42      -48.120803    -46.290524   1.000000   1.000000
   43      -48.092552    -46.257382   1.000000   1.000000
   44      -48.049006    -46.185438   1.000000   1.000000
   45      -47.975906    -46.093350   1.000000   1.000000
   46      -22.340282    -22.364679   1.000000   1.000000
   47      -21.131982    -21.088713   1.000000   1.000000
   48      -20.931372    -20.895874   1.000000   1.000000
   49      -20.666381    -20.620259   1.000000   1.000000
   50      -20.384734    -20.364426   1.000000   1.000000
   51      -20.317176    -20.285659   1.000000   1.000000
   52      -20.202114    -20.144480   1.000000   1.000000
   53      -20.141012    -20.109350   1.000000   1.000000
   54      -20.113003    -20.073066   1.000000   1.000000
   55      -20.103205    -20.069279   1.000000   1.000000
   56      -20.080839    -20.038438   1.000000   1.000000
   57      -20.075995    -20.010303   1.000000   1.000000
   58      -20.056661    -19.985614   1.000000   1.000000
   59      -19.999056    -19.910204   1.000000   1.000000
   60      -19.893060    -19.839648   1.000000   1.000000
   61      -19.850969    -19.779597   1.000000   1.000000
   62      -19.733076    -19.677336   1.000000   1.000000
   63      -19.573944    -19.491017   1.000000   1.000000
   64      -19.411230    -19.346701   1.000000   1.000000
   65      -19.277217    -19.167530   1.000000   1.000000
   66      -19.036344    -18.922416   1.000000   1.000000
   67      -10.458238    -10.527044   1.000000   1.000000
   68       -9.272360     -9.169168   1.000000   1.000000
   69       -8.972328     -8.994052   1.000000   1.000000
   70       -8.877349     -8.809315   1.000000   1.000000
   71       -8.616151     -8.764452   1.000000   1.000000
   72       -8.514895     -8.533468   1.000000   1.000000
   73       -8.440242     -8.425974   1.000000   1.000000
   74       -8.374356     -8.358405   1.000000   1.000000
   75       -8.340038     -8.310531   1.000000   1.000000
   76       -8.255244     -8.281363   1.000000   1.000000
   77       -8.176948     -8.188212   1.000000   1.000000
   78       -8.089148     -8.130835   1.000000   1.000000
   79       -7.965283     -8.085962   1.000000   1.000000
   80       -7.887765     -7.925177   1.000000   1.000000
   81       -7.868734     -7.780616   1.000000   1.000000
   82       -7.731711     -7.660402   1.000000   1.000000
   83       -7.668543     -7.586029   1.000000   1.000000
   84       -7.634578     -7.550853   1.000000   1.000000
   85       -7.622171     -7.485200   1.000000   1.000000
   86       -7.524009     -7.408470   1.000000   1.000000
   87       -7.464734     -7.364561   1.000000   1.000000
   88       -7.451099     -7.332964   1.000000   1.000000
   89       -7.385241     -7.311359   1.000000   1.000000
   90       -7.356157     -7.265774   1.000000   1.000000
   91       -7.308462     -7.210261   1.000000   1.000000
   92       -7.292624     -7.157698   1.000000   1.000000
   93       -7.178611     -7.131096   1.000000   1.000000
   94       -7.146503     -7.004466   1.000000   1.000000
   95       -7.112301     -6.986857   1.000000   1.000000
   96       -7.034968     -6.918091   1.000000   1.000000
   97       -6.987011     -6.892619   1.000000   1.000000
   98       -6.959397     -6.872099   1.000000   1.000000
   99       -6.878472     -6.773499   1.000000   1.000000
  100       -6.842119     -6.737728   1.000000   1.000000
  101       -6.811165     -6.671583   1.000000   1.000000
  102       -6.782152     -6.579379   1.000000   1.000000
  103       -6.708974     -6.497722   1.000000   1.000000
  104       -6.645227     -6.395244   1.000000   1.000000
  105       -6.597933     -6.304700   1.000000   1.000000
  106       -6.558727     -6.295371   1.000000   1.000000
  107       -6.523101     -6.182581   1.000000   1.000000
  108       -6.467684     -6.122510   1.000000   1.000000
  109       -6.394965     -6.057014   1.000000   1.000000
  110       -6.347686     -6.007755   1.000000   1.000000
  111       -6.224169     -5.981292   1.000000   1.000000
  112       -6.159021     -5.893957   1.000000   1.000000
  113       -6.072419     -5.865413   1.000000   1.000000
  114       -6.039892     -5.806189   1.000000   1.000000
  115       -5.964750     -5.705891   1.000000   1.000000
  116       -5.927619     -5.578488   1.000000   1.000000
  117       -5.882375     -5.527092   1.000000   1.000000
  118       -5.806489     -5.490586   1.000000   1.000000
  119       -5.773822     -5.434044   1.000000   1.000000
  120       -5.669048     -5.390516   1.000000   1.000000
  121       -5.638055     -5.337601   1.000000   1.000000
  122       -5.601123     -5.298335   1.000000   1.000000
  123       -5.574232     -5.228885   1.000000   1.000000
  124       -5.472824     -5.183667   1.000000   1.000000
  125       -5.422589     -5.150332   1.000000   1.000000
  126       -5.366007     -5.104929   1.000000   1.000000
  127       -5.348077     -5.030520   1.000000   1.000000
  128       -5.297191     -4.950556   1.000000   1.000000
  129       -5.222572     -4.880295   1.000000   1.000000
  130       -5.144705     -4.834365   1.000000   1.000000
  131       -5.110396     -4.782570   1.000000   1.000000
  132       -5.033579     -4.711110   1.000000   1.000000
  133       -4.994630     -4.662430   1.000000   1.000000
  134       -4.916896     -4.626764   1.000000   1.000000
  135       -4.893834     -4.530061   1.000000   1.000000
  136       -4.858358     -4.500734   1.000000   1.000000
  137       -4.802106     -4.471092   1.000000   1.000000
  138       -4.716210     -4.422694   1.000000   1.000000
  139       -4.633252     -4.321168   1.000000   1.000000
  140       -4.626943     -4.226503   1.000000   1.000000
  141       -4.576966     -4.136086   1.000000   1.000000
  142       -4.497422     -4.070188   1.000000   1.000000
  143       -4.419185     -3.928107   1.000000   1.000000
  144       -4.394241     -3.845786   1.000000   1.000000
  145       -4.302670     -3.800677   1.000000   1.000000
  146       -4.270798     -3.760326   1.000000   1.000000
  147       -4.247370     -3.712452   1.000000   1.000000
  148       -4.162073     -3.642478   1.000000   1.000000
  149       -4.066288     -3.553779   1.000000   1.000000
  150       -4.005289     -3.452118   1.000000   1.000000
  151       -3.980834     -3.311416   1.000000   1.000000
  152       -3.860393     -2.876695   1.000000   1.000000
  153       -3.770940     -2.487843   1.000000   1.000000
  154       -3.754470     -0.859715   1.000000  -0.000003
  155       -3.703814     -0.764203   1.000000  -0.000000
  156       -3.629822     -0.656214   1.000000  -0.000000
  157       -3.548982     -0.598973   1.000000  -0.000000
  158       -3.470242     -0.514008   1.000000  -0.000000
  159       -3.401353     -0.303005   1.000000  -0.000000
  160       -3.309611      0.492961   1.000000  -0.000000
  161       -3.184623      0.751737   1.000000  -0.000000
  162       -3.103582      0.843463   1.000000  -0.000000
  163       -3.059056      0.921552   1.000000  -0.000000
  164       -2.974841      0.951972   1.000000  -0.000000
  165       -2.899497      1.031954   1.000000  -0.000000
  166       -2.839438      1.070023   1.000000  -0.000000
  167       -2.783420      1.097036   1.000000  -0.000000
  168       -2.646424      1.144004   1.000000  -0.000000
  169       -2.077042      1.185400   1.001025  -0.000000
  170       -1.679794      1.216591   0.891713  -0.000000
  171       -0.692644      1.254321  -0.000000  -0.000000
  172       -0.617867      1.407294  -0.000000  -0.000000
  173       -0.495996      1.439967  -0.000000  -0.000000
  174       -0.407097      1.504709  -0.000000  -0.000000
  175        0.356527      1.607442  -0.000000  -0.000000
  176        0.498655      1.645907  -0.000000  -0.000000
  177        0.664097      1.734542  -0.000000  -0.000000
  178        0.727644      1.860891  -0.000000  -0.000000
  179        0.759432      1.971168  -0.000000  -0.000000
  180        0.848909      2.042107  -0.000000  -0.000000
  181        0.895103      2.087686  -0.000000  -0.000000
  182        0.963472      2.158995  -0.000000  -0.000000
  183        0.970026      2.246686  -0.000000  -0.000000
  184        1.008826      2.291987  -0.000000  -0.000000
  185        1.053973      2.345193  -0.000000  -0.000000
  186        1.093456      2.398946  -0.000000  -0.000000
  187        1.140092      2.418458  -0.000000  -0.000000
  188        1.151682      2.469330  -0.000000  -0.000000
  189        1.179387      2.522640  -0.000000  -0.000000
  190        1.225625      2.554797  -0.000000  -0.000000
  191        1.262618      2.627684  -0.000000  -0.000000
  192        1.317890      2.676058  -0.000000  -0.000000
  193        1.363221      2.707444  -0.000000  -0.000000
  194        1.399484      2.748448  -0.000000  -0.000000
  195        1.504059      2.804318  -0.000000  -0.000000
  196        1.593686      2.824419  -0.000000  -0.000000
  197        1.614675      2.945675  -0.000000  -0.000000
  198        1.722886      2.961915  -0.000000  -0.000000
  199        1.780034      3.028190  -0.000000  -0.000000
  200        1.878709      3.063846  -0.000000  -0.000000
  201        1.941685      3.124612  -0.000000  -0.000000
  202        1.984830      3.160368  -0.000000  -0.000000
 
  0.2500000E+00  0.2500000E+00  0.0000000E+00  0.1250000E+00
    1      -52.949753    -52.950644   1.000000   1.000000
    2      -52.930718    -52.931915   1.000000   1.000000
    3      -52.905085    -52.918455   1.000000   1.000000
    4      -52.884114    -52.903890   1.000000   1.000000
    5      -52.828257    -52.903298   1.000000   1.000000
    6      -52.741931    -52.901442   1.000000   1.000000
    7      -52.736453    -52.856257   1.000000   1.000000
    8      -52.716165    -52.845778   1.000000   1.000000
    9      -52.699339    -52.815131   1.000000   1.000000
   10      -52.687480    -52.740941   1.000000   1.000000
   11      -52.662230    -52.731562   1.000000   1.000000
   12      -52.425018    -52.688091   1.000000   1.000000
   13      -51.706721    -52.678098   1.000000   1.000000
   14      -51.699350    -52.672602   1.000000   1.000000
   15      -51.637737    -52.660539   1.000000   1.000000
   16      -51.632958    -52.659806   1.000000   1.000000
   17      -51.613830    -52.633637   1.000000   1.000000
   18      -51.556878    -52.533766   1.000000   1.000000
   19      -51.438129    -48.880004   1.000000   1.000000
   20      -51.395135    -48.861515   1.000000   1.000000
   21      -51.335617    -48.839280   1.000000   1.000000
   22      -51.304668    -48.810259   1.000000   1.000000
   23      -51.136353    -48.738315   1.000000   1.000000
   24      -51.118940    -48.704932   1.000000   1.000000
   25      -51.081208    -48.679361   1.000000   1.000000
   26      -51.052243    -48.638624   1.000000   1.000000
   27      -50.881265    -48.079652   1.000000   1.000000
   28      -49.034239    -48.047472   1.000000   1.000000
   29      -49.028654    -48.012790   1.000000   1.000000
   30      -49.005112    -47.787438   1.000000   1.000000
   31      -48.976497    -46.819712   1.000000   1.000000
   32      -48.969812    -46.807548   1.000000   1.000000
   33      -48.954973    -46.753415   1.000000   1.000000
   34      -48.933319    -46.749299   1.000000   1.000000
   35      -48.892275    -46.737919   1.000000   1.000000
   36      -48.872343    -46.686587   1.000000   1.000000
   37      -48.836917    -46.554667   1.000000   1.000000
   38      -48.762484    -46.529956   1.000000   1.000000
   39      -48.745976    -46.472607   1.000000   1.000000
   40      -48.138158    -46.412155   1.000000   1.000000
   41      -48.132318    -46.301829   1.000000   1.000000
   42      -48.120802    -46.290527   1.000000   1.000000
   43      -48.092551    -46.257380   1.000000   1.000000
   44      -48.049010    -46.185449   1.000000   1.000000
   45      -47.975902    -46.093349   1.000000   1.000000
   46      -22.333711    -22.358581   1.000000   1.000000
   47      -21.045371    -20.998014   1.000000   1.000000
   48      -20.834366    -20.798899   1.000000   1.000000
   49      -20.642913    -20.595930   1.000000   1.000000
   50      -20.381383    -20.350049   1.000000   1.000000
   51      -20.300974    -20.267216   1.000000   1.000000
   52      -20.268719    -20.226715   1.000000   1.000000
   53      -20.206924    -20.177194   1.000000   1.000000
   54      -20.169867    -20.108355   1.000000   1.000000
   55      -20.126728    -20.085312   1.000000   1.000000
   56      -20.093218    -20.058529   1.000000   1.000000
   57      -20.075074    -20.018827   1.000000   1.000000
   58      -20.052482    -19.987516   1.000000   1.000000
   59      -20.010231    -19.924476   1.000000   1.000000
   60      -19.874853    -19.820896   1.000000   1.000000
   61      -19.841087    -19.764546   1.000000   1.000000
   62      -19.753605    -19.702834   1.000000   1.000000
   63      -19.608692    -19.531876   1.000000   1.000000
   64      -19.447057    -19.385548   1.000000   1.000000
   65      -19.279900    -19.170725   1.000000   1.000000
   66      -19.035257    -18.921420   1.000000   1.000000
   67      -10.404218    -10.477599   1.000000   1.000000
   68       -9.145505     -9.018615   1.000000   1.000000
   69       -8.861527     -8.862572   1.000000   1.000000
   70       -8.795761     -8.684485   1.000000   1.000000
   71       -8.479399     -8.624246   1.000000   1.000000
   72       -8.412541     -8.464896   1.000000   1.000000
   73       -8.339686     -8.289700   1.000000   1.000000
   74       -8.288235     -8.239916   1.000000   1.000000
   75       -8.244032     -8.222085   1.000000   1.000000
   76       -8.178970     -8.180139   1.000000   1.000000
   77       -8.108649     -8.107267   1.000000   1.000000
   78       -8.059652     -8.065896   1.000000   1.000000
   79       -8.005985     -8.026740   1.000000   1.000000
   80       -7.924399     -7.892953   1.000000   1.000000
   81       -7.867322     -7.833460   1.000000   1.000000
   82       -7.796543     -7.768054   1.000000   1.000000
   83       -7.767988     -7.687657   1.000000   1.000000
   84       -7.705943     -7.542854   1.000000   1.000000
   85       -7.632620     -7.507779   1.000000   1.000000
   86       -7.558926     -7.470354   1.000000   1.000000
   87       -7.527244     -7.430625   1.000000   1.000000
   88       -7.436290     -7.394187   1.000000   1.000000
   89       -7.407550     -7.333188   1.000000   1.000000
   90       -7.373024     -7.289119   1.000000   1.000000
   91       -7.302835     -7.267722   1.000000   1.000000
   92       -7.259457     -7.199017   1.000000   1.000000
   93       -7.221319     -7.117818   1.000000   1.000000
   94       -7.163894     -7.051574   1.000000   1.000000
   95       -7.118759     -6.992816   1.000000   1.000000
   96       -7.104975     -6.928667   1.000000   1.000000
   97       -7.034086     -6.891099   1.000000   1.000000
   98       -6.958140     -6.818089   1.000000   1.000000
   99       -6.902486     -6.784060   1.000000   1.000000
  100       -6.838201     -6.709047   1.000000   1.000000
  101       -6.792672     -6.680576   1.000000   1.000000
  102       -6.742114     -6.622372   1.000000   1.000000
  103       -6.691490     -6.576367   1.000000   1.000000
  104       -6.650764     -6.501019   1.000000   1.000000
  105       -6.596246     -6.437852   1.000000   1.000000
  106       -6.550130     -6.364838   1.000000   1.000000
  107       -6.466361     -6.299088   1.000000   1.000000
  108       -6.437124     -6.181253   1.000000   1.000000
  109       -6.388793     -6.139433   1.000000   1.000000
  110       -6.308987     -6.035926   1.000000   1.000000
  111       -6.232917     -5.961041   1.000000   1.000000
  112       -6.163918     -5.828343   1.000000   1.000000
  113       -6.071838     -5.753966   1.000000   1.000000
  114       -6.031957     -5.732156   1.000000   1.000000
  115       -5.964667     -5.689234   1.000000   1.000000
  116       -5.907634     -5.608889   1.000000   1.000000
  117       -5.827596     -5.563422   1.000000   1.000000
  118       -5.792795     -5.513695   1.000000   1.000000
  119       -5.760580     -5.471836   1.000000   1.000000
  120       -5.720923     -5.391720   1.000000   1.000000
  121       -5.695743     -5.360717   1.000000   1.000000
  122       -5.655834     -5.275637   1.000000   1.000000
  123       -5.622734     -5.247973   1.000000   1.000000
  124       -5.595961     -5.199991   1.000000   1.000000
  125       -5.487065     -5.138872   1.000000   1.000000
  126       -5.380873     -5.081553   1.000000   1.000000
  127       -5.366411     -5.047988   1.000000   1.000000
  128       -5.328701     -4.969992   1.000000   1.000000
  129       -5.263722     -4.919923   1.000000   1.000000
  130       -5.160475     -4.829426   1.000000   1.000000
  131       -5.120774     -4.800753   1.000000   1.000000
  132       -5.052493     -4.766879   1.000000   1.000000
  133       -5.022150     -4.754513   1.000000   1.000000
  134       -4.930724     -4.676987   1.000000   1.000000
  135       -4.897268     -4.618071   1.000000   1.000000
  136       -4.852592     -4.606863   1.000000   1.000000
  137       -4.817065     -4.546648   1.000000   1.000000
  138       -4.727728     -4.372411   1.000000   1.000000
  139       -4.696084     -4.294946   1.000000   1.000000
  140       -4.635481     -4.180963   1.000000   1.000000
  141       -4.604858     -4.097300   1.000000   1.000000
  142       -4.524148     -4.086703   1.000000   1.000000
  143       -4.443748     -3.985461   1.000000   1.000000
  144       -4.431213     -3.883855   1.000000   1.000000
  145       -4.361375     -3.824452   1.000000   1.000000
  146       -4.295294     -3.732059   1.000000   1.000000
  147       -4.227985     -3.659951   1.000000   1.000000
  148       -4.161091     -3.600940   1.000000   1.000000
  149       -4.099267     -3.493610   1.000000   1.000000
  150       -4.003236     -3.432213   1.000000   1.000000
  151       -3.904174     -3.228262   1.000000   1.000000
  152       -3.872029     -2.873094   1.000000   1.000000
  153       -3.812171     -2.499108   1.000000   1.000000
  154       -3.711237     -1.029197   1.000000  -0.000426
  155       -3.644507     -0.957870   1.000000  -0.000063
  156       -3.576420     -0.936659   1.000000  -0.000034
  157       -3.523224     -0.875472   1.000000  -0.000005
  158       -3.465679     -0.663569   1.000000  -0.000000
  159       -3.397184     -0.465420   1.000000  -0.000000
  160       -3.376856      0.609368   1.000000  -0.000000
  161       -3.269248      0.779453   1.000000  -0.000000
  162       -3.221875      0.911322   1.000000  -0.000000
  163       -3.089712      0.981880   1.000000  -0.000000
  164       -3.009032      0.997152   1.000000  -0.000000
  165       -2.936544      1.058834   1.000000  -0.000000
  166       -2.865356      1.087671   1.000000  -0.000000
  167       -2.766454      1.147330   1.000000  -0.000000
  168       -2.677502      1.173706   1.000000  -0.000000
  169       -2.064654      1.208197   1.001351  -0.000000
  170       -1.751169      1.254127   1.011004  -0.000000
  171       -0.909923      1.256958  -0.000015  -0.000000
  172       -0.853621      1.364078  -0.000002  -0.000000
  173       -0.738937      1.428437  -0.000000  -0.000000
  174       -0.618570      1.478994  -0.000000  -0.000000
  175        0.501861      1.560307  -0.000000  -0.000000
  176        0.561348      1.635306  -0.000000  -0.000000
  177        0.707376      1.664928  -0.000000  -0.000000
  178        0.753026      1.803233  -0.000000  -0.000000
  179        0.838739      1.884343  -0.000000  -0.000000
  180        0.901484      1.928591  -0.000000  -0.000000
  181        0.957895      2.119844  -0.000000  -0.000000
  182        0.986918      2.229446  -0.000000  -0.000000
  183        1.001840      2.281275  -0.000000  -0.000000
  184        1.042887      2.323590  -0.000000  -0.000000
  185        1.067621      2.365213  -0.000000  -0.000000
  186        1.100579      2.443282  -0.000000  -0.000000
  187        1.136191      2.479283  -0.000000  -0.000000
  188        1.151222      2.503804  -0.000000  -0.000000
  189        1.195617      2.549564  -0.000000  -0.000000
  190        1.229271      2.580137  -0.000000  -0.000000
  191        1.243413      2.652590  -0.000000  -0.000000
  192        1.301638      2.691724  -0.000000  -0.000000
  193        1.336772      2.722873  -0.000000  -0.000000
  194        1.387052      2.755481  -0.000000  -0.000000
  195        1.492077      2.836179  -0.000000  -0.000000
  196        1.537200      2.887846  -0.000000  -0.000000
  197        1.597738      2.965220  -0.000000  -0.000000
  198        1.616925      3.013712  -0.000000  -0.000000
  199        1.662383      3.063193  -0.000000  -0.000000
  200        1.738078      3.108088  -0.000000  -0.000000
  201        1.798118      3.120987  -0.000000  -0.000000
  202        1.824901      3.184209  -0.000000  -0.000000
 
  0.5000000E+00  0.2500000E+00  0.0000000E+00  0.1250000E+00
    1      -52.949756    -52.950647   1.000000   1.000000
    2      -52.930707    -52.931905   1.000000   1.000000
    3      -52.904856    -52.918314   1.000000   1.000000
    4      -52.884039    -52.903646   1.000000   1.000000
    5      -52.828260    -52.903150   1.000000   1.000000
    6      -52.741719    -52.901388   1.000000   1.000000
    7      -52.736444    -52.856252   1.000000   1.000000
    8      -52.716040    -52.845781   1.000000   1.000000
    9      -52.699340    -52.815126   1.000000   1.000000
   10      -52.687481    -52.740945   1.000000   1.000000
   11      -52.662224    -52.731562   1.000000   1.000000
   12      -52.425015    -52.688088   1.000000   1.000000
   13      -51.706720    -52.678097   1.000000   1.000000
   14      -51.699351    -52.672604   1.000000   1.000000
   15      -51.637737    -52.660536   1.000000   1.000000
   16      -51.632959    -52.659807   1.000000   1.000000
   17      -51.613829    -52.633636   1.000000   1.000000
   18      -51.556877    -52.533768   1.000000   1.000000
   19      -51.438131    -48.880011   1.000000   1.000000
   20      -51.395129    -48.861505   1.000000   1.000000
   21      -51.335620    -48.839627   1.000000   1.000000
   22      -51.304670    -48.810418   1.000000   1.000000
   23      -51.136353    -48.738320   1.000000   1.000000
   24      -51.118941    -48.704925   1.000000   1.000000
   25      -51.081207    -48.679660   1.000000   1.000000
   26      -51.052226    -48.638842   1.000000   1.000000
   27      -50.881268    -48.079653   1.000000   1.000000
   28      -49.034659    -48.047474   1.000000   1.000000
   29      -49.028661    -48.012795   1.000000   1.000000
   30      -49.005255    -47.787443   1.000000   1.000000
   31      -48.976556    -46.819709   1.000000   1.000000
   32      -48.970253    -46.807555   1.000000   1.000000
   33      -48.954995    -46.753415   1.000000   1.000000
   34      -48.933311    -46.749304   1.000000   1.000000
   35      -48.892283    -46.737917   1.000000   1.000000
   36      -48.872341    -46.686584   1.000000   1.000000
   37      -48.836919    -46.554665   1.000000   1.000000
   38      -48.762490    -46.529961   1.000000   1.000000
   39      -48.745990    -46.472604   1.000000   1.000000
   40      -48.138156    -46.412152   1.000000   1.000000
   41      -48.132323    -46.301827   1.000000   1.000000
   42      -48.120800    -46.290535   1.000000   1.000000
   43      -48.092551    -46.257376   1.000000   1.000000
   44      -48.049014    -46.185461   1.000000   1.000000
   45      -47.975897    -46.093347   1.000000   1.000000
   46      -22.327042    -22.352559   1.000000   1.000000
   47      -20.912522    -20.851329   1.000000   1.000000
   48      -20.666448    -20.649963   1.000000   1.000000
   49      -20.631301    -20.581868   1.000000   1.000000
   50      -20.533466    -20.483765   1.000000   1.000000
   51      -20.355310    -20.310109   1.000000   1.000000
   52      -20.267814    -20.236357   1.000000   1.000000
   53      -20.224818    -20.191579   1.000000   1.000000
   54      -20.192570    -20.145634   1.000000   1.000000
   55      -20.165765    -20.108614   1.000000   1.000000
   56      -20.115169    -20.074374   1.000000   1.000000
   57      -20.073178    -20.040144   1.000000   1.000000
   58      -20.051542    -19.987857   1.000000   1.000000
   59      -20.014472    -19.932102   1.000000   1.000000
   60      -19.853809    -19.791630   1.000000   1.000000
   61      -19.841972    -19.765235   1.000000   1.000000
   62      -19.763233    -19.710654   1.000000   1.000000
   63      -19.651389    -19.581745   1.000000   1.000000
   64      -19.484095    -19.432373   1.000000   1.000000
   65      -19.284460    -19.173339   1.000000   1.000000
   66      -19.034267    -18.920551   1.000000   1.000000
   67      -10.346449    -10.429346   1.000000   1.000000
   68       -9.017925     -8.826653   1.000000   1.000000
   69       -8.728825     -8.718205   1.000000   1.000000
   70       -8.637603     -8.534038   1.000000   1.000000
   71       -8.407748     -8.440283   1.000000   1.000000
   72       -8.372259     -8.402896   1.000000   1.000000
   73       -8.294133     -8.238487   1.000000   1.000000
   74       -8.231938     -8.208173   1.000000   1.000000
   75       -8.187104     -8.173903   1.000000   1.000000
   76       -8.116201     -8.137568   1.000000   1.000000
   77       -8.074887     -7.991317   1.000000   1.000000
   78       -8.025171     -7.967201   1.000000   1.000000
   79       -7.946717     -7.934585   1.000000   1.000000
   80       -7.924373     -7.875914   1.000000   1.000000
   81       -7.800637     -7.808705   1.000000   1.000000
   82       -7.797721     -7.701521   1.000000   1.000000
   83       -7.718402     -7.645367   1.000000   1.000000
   84       -7.684672     -7.619715   1.000000   1.000000
   85       -7.633732     -7.555162   1.000000   1.000000
   86       -7.593681     -7.513842   1.000000   1.000000
   87       -7.530493     -7.499155   1.000000   1.000000
   88       -7.494027     -7.437640   1.000000   1.000000
   89       -7.455597     -7.357341   1.000000   1.000000
   90       -7.390931     -7.328030   1.000000   1.000000
   91       -7.342426     -7.273797   1.000000   1.000000
   92       -7.290933     -7.226742   1.000000   1.000000
   93       -7.241578     -7.135055   1.000000   1.000000
   94       -7.204938     -7.077700   1.000000   1.000000
   95       -7.134990     -6.976267   1.000000   1.000000
   96       -7.088095     -6.954201   1.000000   1.000000
   97       -7.024599     -6.916701   1.000000   1.000000
   98       -6.991940     -6.859705   1.000000   1.000000
   99       -6.931402     -6.809409   1.000000   1.000000
  100       -6.887742     -6.712498   1.000000   1.000000
  101       -6.788848     -6.689889   1.000000   1.000000
  102       -6.762492     -6.673123   1.000000   1.000000
  103       -6.733471     -6.619456   1.000000   1.000000
  104       -6.627400     -6.531350   1.000000   1.000000
  105       -6.587812     -6.499344   1.000000   1.000000
  106       -6.507042     -6.383993   1.000000   1.000000
  107       -6.455805     -6.349498   1.000000   1.000000
  108       -6.409754     -6.302494   1.000000   1.000000
  109       -6.391957     -6.167738   1.000000   1.000000
  110       -6.324468     -6.103419   1.000000   1.000000
  111       -6.245477     -6.037561   1.000000   1.000000
  112       -6.183439     -5.952834   1.000000   1.000000
  113       -6.120925     -5.913197   1.000000   1.000000
  114       -6.083998     -5.830557   1.000000   1.000000
  115       -6.037301     -5.717883   1.000000   1.000000
  116       -5.927453     -5.662907   1.000000   1.000000
  117       -5.890099     -5.632248   1.000000   1.000000
  118       -5.858583     -5.537949   1.000000   1.000000
  119       -5.815912     -5.507040   1.000000   1.000000
  120       -5.727844     -5.440202   1.000000   1.000000
  121       -5.714620     -5.370019   1.000000   1.000000
  122       -5.652694     -5.301228   1.000000   1.000000
  123       -5.617744     -5.196548   1.000000   1.000000
  124       -5.579268     -5.164198   1.000000   1.000000
  125       -5.518231     -5.116090   1.000000   1.000000
  126       -5.441075     -5.069465   1.000000   1.000000
  127       -5.407249     -5.014006   1.000000   1.000000
  128       -5.354738     -4.982885   1.000000   1.000000
  129       -5.299498     -4.920040   1.000000   1.000000
  130       -5.259297     -4.879592   1.000000   1.000000
  131       -5.199758     -4.863140   1.000000   1.000000
  132       -5.122792     -4.758269   1.000000   1.000000
  133       -4.992224     -4.699459   1.000000   1.000000
  134       -4.921045     -4.669866   1.000000   1.000000
  135       -4.899079     -4.616547   1.000000   1.000000
  136       -4.826792     -4.589015   1.000000   1.000000
  137       -4.752192     -4.545510   1.000000   1.000000
  138       -4.719232     -4.355196   1.000000   1.000000
  139       -4.659593     -4.275867   1.000000   1.000000
  140       -4.634498     -4.143289   1.000000   1.000000
  141       -4.573677     -4.113582   1.000000   1.000000
  142       -4.514895     -4.060279   1.000000   1.000000
  143       -4.449709     -4.034931   1.000000   1.000000
  144       -4.418948     -3.936595   1.000000   1.000000
  145       -4.317874     -3.782207   1.000000   1.000000
  146       -4.273857     -3.713972   1.000000   1.000000
  147       -4.220279     -3.610271   1.000000   1.000000
  148       -4.144044     -3.579353   1.000000   1.000000
  149       -4.084964     -3.443952   1.000000   1.000000
  150       -4.032875     -3.375687   1.000000   1.000000
  151       -3.928771     -3.190065   1.000000   1.000000
  152       -3.875947     -2.875674   1.000000   1.000000
  153       -3.817979     -2.510578   1.000000   1.000000
  154       -3.762721     -1.256866   1.000000  -0.024280
  155       -3.687366     -1.199477   1.000000  -0.012209
  156       -3.643907     -1.130362   1.000000  -0.003883
  157       -3.575693     -1.119960   1.000000  -0.003182
  158       -3.516643     -0.798149   1.000000  -0.000000
  159       -3.474607     -0.611319   1.000000  -0.000000
  160       -3.350222      0.651725   1.000000  -0.000000
  161       -3.265920      0.826762   1.000000  -0.000000
  162       -3.230846      0.943881   1.000000  -0.000000
  163       -3.139529      1.017534   1.000000  -0.000000
  164       -3.027239      1.054126   1.000000  -0.000000
  165       -2.959580      1.089456   1.000000  -0.000000
  166       -2.914711      1.120578   1.000000  -0.000000
  167       -2.708411      1.146143   1.000000  -0.000000
  168       -2.600484      1.182849   1.000000  -0.000000
  169       -2.047629      1.226699   1.001946  -0.000000
  170       -1.803348      1.255576   1.034722  -0.000000
  171       -1.151586      1.283322  -0.005708  -0.000000
  172       -1.062998      1.314725  -0.000953  -0.000000
  173       -0.960425      1.384962  -0.000068  -0.000000
  174       -0.841557      1.438653  -0.000002  -0.000000
  175        0.521663      1.476099  -0.000000  -0.000000
  176        0.652280      1.553413  -0.000000  -0.000000
  177        0.705996      1.639749  -0.000000  -0.000000
  178        0.749784      1.697520  -0.000000  -0.000000
  179        0.902767      1.955655  -0.000000  -0.000000
  180        0.944099      2.103384  -0.000000  -0.000000
  181        0.995705      2.234975  -0.000000  -0.000000
  182        1.012094      2.287822  -0.000000  -0.000000
  183        1.022199      2.311149  -0.000000  -0.000000
  184        1.066713      2.373248  -0.000000  -0.000000
  185        1.087364      2.399511  -0.000000  -0.000000
  186        1.109992      2.438703  -0.000000  -0.000000
  187        1.131714      2.472167  -0.000000  -0.000000
  188        1.166501      2.493442  -0.000000  -0.000000
  189        1.200081      2.582579  -0.000000  -0.000000
  190        1.230236      2.626200  -0.000000  -0.000000
  191        1.258542      2.635108  -0.000000  -0.000000
  192        1.276157      2.710149  -0.000000  -0.000000
  193        1.333684      2.742747  -0.000000  -0.000000
  194        1.378300      2.763641  -0.000000  -0.000000
  195        1.399601      2.804844  -0.000000  -0.000000
  196        1.449711      2.871664  -0.000000  -0.000000
  197        1.507915      2.959916  -0.000000  -0.000000
  198        1.522643      2.984502  -0.000000  -0.000000
  199        1.581230      3.016749  -0.000000  -0.000000
  200        1.666289      3.063586  -0.000000  -0.000000
  201        1.719833      3.131830  -0.000000  -0.000000
  202        1.814225      3.227018  -0.000000  -0.000000
 
 -0.2500000E+00  0.2500000E+00  0.0000000E+00  0.1250000E+00
    1      -52.949760    -52.950652   1.000000   1.000000
    2      -52.930710    -52.931906   1.000000   1.000000
    3      -52.905091    -52.918464   1.000000   1.000000
    4      -52.884108    -52.903895   1.000000   1.000000
    5      -52.828266    -52.903290   1.000000   1.000000
    6      -52.741939    -52.901437   1.000000   1.000000
    7      -52.736442    -52.856249   1.000000   1.000000
    8      -52.716164    -52.845786   1.000000   1.000000
    9      -52.699337    -52.815122   1.000000   1.000000
   10      -52.687478    -52.740950   1.000000   1.000000
   11      -52.662230    -52.731562   1.000000   1.000000
   12      -52.425018    -52.688091   1.000000   1.000000
   13      -51.706720    -52.678103   1.000000   1.000000
   14      -51.699350    -52.672602   1.000000   1.000000
   15      -51.637735    -52.660534   1.000000   1.000000
   16      -51.632960    -52.659806   1.000000   1.000000
   17      -51.613830    -52.633637   1.000000   1.000000
   18      -51.556878    -52.533766   1.000000   1.000000
   19      -51.438129    -48.880010   1.000000   1.000000
   20      -51.395135    -48.861507   1.000000   1.000000
   21      -51.335617    -48.839287   1.000000   1.000000
   22      -51.304667    -48.810253   1.000000   1.000000
   23      -51.136353    -48.738317   1.000000   1.000000
   24      -51.118941    -48.704929   1.000000   1.000000
   25      -51.081208    -48.679369   1.000000   1.000000
   26      -51.052244    -48.638618   1.000000   1.000000
   27      -50.881265    -48.079652   1.000000   1.000000
   28      -49.034248    -48.047471   1.000000   1.000000
   29      -49.028661    -48.012790   1.000000   1.000000
   30      -49.005108    -47.787438   1.000000   1.000000
   31      -48.976493    -46.819711   1.000000   1.000000
   32      -48.969811    -46.807549   1.000000   1.000000
   33      -48.954968    -46.753410   1.000000   1.000000
   34      -48.933318    -46.749305   1.000000   1.000000
   35      -48.892276    -46.737919   1.000000   1.000000
   36      -48.872348    -46.686587   1.000000   1.000000
   37      -48.836912    -46.554667   1.000000   1.000000
   38      -48.762495    -46.529956   1.000000   1.000000
   39      -48.745965    -46.472607   1.000000   1.000000
   40      -48.138157    -46.412154   1.000000   1.000000
   41      -48.132319    -46.301826   1.000000   1.000000
   42      -48.120801    -46.290531   1.000000   1.000000
   43      -48.092551    -46.257379   1.000000   1.000000
   44      -48.049010    -46.185449   1.000000   1.000000
   45      -47.975902    -46.093349   1.000000   1.000000
   46      -22.333611    -22.358658   1.000000   1.000000
   47      -21.045636    -20.998312   1.000000   1.000000
   48      -20.834337    -20.798848   1.000000   1.000000
   49      -20.641642    -20.595414   1.000000   1.000000
   50      -20.384968    -20.347343   1.000000   1.000000
   51      -20.307388    -20.264669   1.000000   1.000000
   52      -20.261781    -20.229857   1.000000   1.000000
   53      -20.200817    -20.178431   1.000000   1.000000
   54      -20.173013    -20.105210   1.000000   1.000000
   55      -20.131324    -20.091606   1.000000   1.000000
   56      -20.090108    -20.058094   1.000000   1.000000
   57      -20.070083    -20.018923   1.000000   1.000000
   58      -20.054638    -19.989704   1.000000   1.000000
   59      -20.011782    -19.922519   1.000000   1.000000
   60      -19.876661    -19.817006   1.000000   1.000000
   61      -19.840029    -19.766433   1.000000   1.000000
   62      -19.755663    -19.701781   1.000000   1.000000
   63      -19.607969    -19.531727   1.000000   1.000000
   64      -19.444204    -19.387818   1.000000   1.000000
   65      -19.281441    -19.169635   1.000000   1.000000
   66      -19.035304    -18.921487   1.000000   1.000000
   67      -10.401005    -10.478702   1.000000   1.000000
   68       -9.167972     -9.027879   1.000000   1.000000
   69       -8.859021     -8.865073   1.000000   1.000000
   70       -8.727573     -8.671129   1.000000   1.000000
   71       -8.462239     -8.596322   1.000000   1.000000
   72       -8.450559     -8.467724   1.000000   1.000000
   73       -8.307962     -8.319828   1.000000   1.000000
   74       -8.293918     -8.277336   1.000000   1.000000
   75       -8.272880     -8.200259   1.000000   1.000000
   76       -8.198779     -8.154271   1.000000   1.000000
   77       -8.152841     -8.100087   1.000000   1.000000
   78       -8.072801     -8.078518   1.000000   1.000000
   79       -7.990430     -8.044788   1.000000   1.000000
   80       -7.934021     -7.929576   1.000000   1.000000
   81       -7.863578     -7.804789   1.000000   1.000000
   82       -7.818911     -7.734328   1.000000   1.000000
   83       -7.761272     -7.707089   1.000000   1.000000
   84       -7.719267     -7.593993   1.000000   1.000000
   85       -7.660020     -7.521188   1.000000   1.000000
   86       -7.561439     -7.470741   1.000000   1.000000
   87       -7.483683     -7.433028   1.000000   1.000000
   88       -7.454935     -7.399724   1.000000   1.000000
   89       -7.436432     -7.324554   1.000000   1.000000
   90       -7.338448     -7.311266   1.000000   1.000000
   91       -7.297492     -7.256347   1.000000   1.000000
   92       -7.253166     -7.171301   1.000000   1.000000
   93       -7.186041     -7.111369   1.000000   1.000000
   94       -7.136055     -7.041168   1.000000   1.000000
   95       -7.068453     -6.948712   1.000000   1.000000
   96       -7.036711     -6.915261   1.000000   1.000000
   97       -7.007952     -6.868757   1.000000   1.000000
   98       -6.973363     -6.840648   1.000000   1.000000
   99       -6.937191     -6.781097   1.000000   1.000000
  100       -6.863456     -6.687708   1.000000   1.000000
  101       -6.833058     -6.664415   1.000000   1.000000
  102       -6.732404     -6.590073   1.000000   1.000000
  103       -6.673365     -6.559402   1.000000   1.000000
  104       -6.612035     -6.469652   1.000000   1.000000
  105       -6.566063     -6.380160   1.000000   1.000000
  106       -6.521224     -6.362991   1.000000   1.000000
  107       -6.456789     -6.320152   1.000000   1.000000
  108       -6.443225     -6.224516   1.000000   1.000000
  109       -6.412746     -6.139824   1.000000   1.000000
  110       -6.330775     -6.033646   1.000000   1.000000
  111       -6.248556     -5.968138   1.000000   1.000000
  112       -6.207530     -5.904588   1.000000   1.000000
  113       -6.126097     -5.806758   1.000000   1.000000
  114       -6.054209     -5.715421   1.000000   1.000000
  115       -5.991708     -5.676553   1.000000   1.000000
  116       -5.936081     -5.630545   1.000000   1.000000
  117       -5.898469     -5.537528   1.000000   1.000000
  118       -5.826860     -5.499265   1.000000   1.000000
  119       -5.799981     -5.475880   1.000000   1.000000
  120       -5.754615     -5.401955   1.000000   1.000000
  121       -5.692007     -5.359855   1.000000   1.000000
  122       -5.641180     -5.300410   1.000000   1.000000
  123       -5.575983     -5.241100   1.000000   1.000000
  124       -5.539895     -5.203712   1.000000   1.000000
  125       -5.499620     -5.151123   1.000000   1.000000
  126       -5.418671     -5.109587   1.000000   1.000000
  127       -5.337621     -5.024497   1.000000   1.000000
  128       -5.293001     -4.986631   1.000000   1.000000
  129       -5.212549     -4.948642   1.000000   1.000000
  130       -5.170925     -4.863419   1.000000   1.000000
  131       -5.125351     -4.832743   1.000000   1.000000
  132       -5.050325     -4.815845   1.000000   1.000000
  133       -5.019381     -4.769184   1.000000   1.000000
  134       -4.954564     -4.668363   1.000000   1.000000
  135       -4.869412     -4.619803   1.000000   1.000000
  136       -4.841827     -4.571384   1.000000   1.000000
  137       -4.777147     -4.523575   1.000000   1.000000
  138       -4.719807     -4.341213   1.000000   1.000000
  139       -4.677473     -4.269475   1.000000   1.000000
  140       -4.624010     -4.169286   1.000000   1.000000
  141       -4.558922     -4.137073   1.000000   1.000000
  142       -4.484607     -4.052586   1.000000   1.000000
  143       -4.447623     -3.995880   1.000000   1.000000
  144       -4.400629     -3.854655   1.000000   1.000000
  145       -4.339435     -3.793119   1.000000   1.000000
  146       -4.294038     -3.743910   1.000000   1.000000
  147       -4.225194     -3.651857   1.000000   1.000000
  148       -4.195251     -3.596203   1.000000   1.000000
  149       -4.140295     -3.487740   1.000000   1.000000
  150       -3.999207     -3.393398   1.000000   1.000000
  151       -3.924749     -3.260385   1.000000   1.000000
  152       -3.872700     -2.878162   1.000000   1.000000
  153       -3.841955     -2.500300   1.000000   1.000000
  154       -3.731416     -1.025748   1.000000  -0.000391
  155       -3.716137     -0.965868   1.000000  -0.000079
  156       -3.606728     -0.925000   1.000000  -0.000024
  157       -3.555678     -0.883154   1.000000  -0.000006
  158       -3.478068     -0.672983   1.000000  -0.000000
  159       -3.364071     -0.467448   1.000000  -0.000000
  160       -3.291807      0.605370   1.000000  -0.000000
  161       -3.260208      0.792170   1.000000  -0.000000
  162       -3.220319      0.912614   1.000000  -0.000000
  163       -3.113058      0.980220   1.000000  -0.000000
  164       -3.002294      0.994846   1.000000  -0.000000
  165       -2.961028      1.068876   1.000000  -0.000000
  166       -2.828679      1.081500   1.000000  -0.000000
  167       -2.758087      1.135124   1.000000  -0.000000
  168       -2.629166      1.170669   1.000000  -0.000000
  169       -2.060471      1.196207   1.001480  -0.000000
  170       -1.752933      1.252601   1.012517  -0.000000
  171       -0.948874      1.284046  -0.000049  -0.000000
  172       -0.853752      1.371183  -0.000002  -0.000000
  173       -0.726020      1.441873  -0.000000  -0.000000
  174       -0.657426      1.521307  -0.000000  -0.000000
  175        0.461039      1.538497  -0.000000  -0.000000
  176        0.615344      1.628216  -0.000000  -0.000000
  177        0.656264      1.734582  -0.000000  -0.000000
  178        0.739980      1.751159  -0.000000  -0.000000
  179        0.849592      1.859069  -0.000000  -0.000000
  180        0.911099      1.945637  -0.000000  -0.000000
  181        0.947781      2.080294  -0.000000  -0.000000
  182        0.986433      2.226611  -0.000000  -0.000000
  183        1.008422      2.290848  -0.000000  -0.000000
  184        1.026355      2.326325  -0.000000  -0.000000
  185        1.069255      2.399005  -0.000000  -0.000000
  186        1.113853      2.426051  -0.000000  -0.000000
  187        1.146454      2.458899  -0.000000  -0.000000
  188        1.168511      2.499384  -0.000000  -0.000000
  189        1.184502      2.548711  -0.000000  -0.000000
  190        1.225941      2.580250  -0.000000  -0.000000
  191        1.266823      2.611533  -0.000000  -0.000000
  192        1.321223      2.691846  -0.000000  -0.000000
  193        1.374106      2.717017  -0.000000  -0.000000
  194        1.413598      2.784908  -0.000000  -0.000000
  195        1.431112      2.846429  -0.000000  -0.000000
  196        1.542793      2.895161  -0.000000  -0.000000
  197        1.579944      2.970660  -0.000000  -0.000000
  198        1.623306      3.032677  -0.000000  -0.000000
  199        1.666271      3.071778  -0.000000  -0.000000
  200        1.711439      3.095739  -0.000000  -0.000000
  201        1.778783      3.137355  -0.000000  -0.000000
  202        1.846662      3.185309  -0.000000  -0.000000
 
  0.0000000E+00  0.5000000E+00  0.0000000E+00  0.6250000E-01
    1      -52.949519    -52.950520   1.000000   1.000000
    2      -52.930655    -52.931750   1.000000   1.000000
    3      -52.905328    -52.918610   1.000000   1.000000
    4      -52.884178    -52.904140   1.000000   1.000000
    5      -52.828076    -52.903437   1.000000   1.000000
    6      -52.742150    -52.901484   1.000000   1.000000
    7      -52.736359    -52.853250   1.000000   1.000000
    8      -52.716275    -52.842329   1.000000   1.000000
    9      -52.699330    -52.814959   1.000000   1.000000
   10      -52.687455    -52.740812   1.000000   1.000000
   11      -52.662237    -52.731380   1.000000   1.000000
   12      -52.425025    -52.688094   1.000000   1.000000
   13      -51.706718    -52.679187   1.000000   1.000000
   14      -51.699351    -52.672611   1.000000   1.000000
   15      -51.637738    -52.666247   1.000000   1.000000
   16      -51.632972    -52.659802   1.000000   1.000000
   17      -51.613814    -52.633629   1.000000   1.000000
   18      -51.556877    -52.533807   1.000000   1.000000
   19      -51.438124    -48.880410   1.000000   1.000000
   20      -51.395143    -48.861632   1.000000   1.000000
   21      -51.335622    -48.838948   1.000000   1.000000
   22      -51.304656    -48.810089   1.000000   1.000000
   23      -51.136351    -48.738820   1.000000   1.000000
   24      -51.118942    -48.704966   1.000000   1.000000
   25      -51.081207    -48.679076   1.000000   1.000000
   26      -51.052262    -48.638396   1.000000   1.000000
   27      -50.881260    -48.079654   1.000000   1.000000
   28      -49.033857    -48.047473   1.000000   1.000000
   29      -49.028962    -48.012787   1.000000   1.000000
   30      -49.004967    -47.787437   1.000000   1.000000
   31      -48.976624    -46.819712   1.000000   1.000000
   32      -48.969323    -46.807547   1.000000   1.000000
   33      -48.954964    -46.753428   1.000000   1.000000
   34      -48.922390    -46.749325   1.000000   1.000000
   35      -48.891816    -46.737881   1.000000   1.000000
   36      -48.872832    -46.686585   1.000000   1.000000
   37      -48.836974    -46.554668   1.000000   1.000000
   38      -48.772444    -46.529954   1.000000   1.000000
   39      -48.747681    -46.472613   1.000000   1.000000
   40      -48.138078    -46.412145   1.000000   1.000000
   41      -48.132316    -46.301830   1.000000   1.000000
   42      -48.120802    -46.290527   1.000000   1.000000
   43      -48.092555    -46.257379   1.000000   1.000000
   44      -48.049020    -46.185441   1.000000   1.000000
   45      -47.975967    -46.093348   1.000000   1.000000
   46      -22.327444    -22.352494   1.000000   1.000000
   47      -20.960808    -20.913264   1.000000   1.000000
   48      -20.940841    -20.898919   1.000000   1.000000
   49      -20.575620    -20.520441   1.000000   1.000000
   50      -20.518473    -20.474844   1.000000   1.000000
   51      -20.253587    -20.216630   1.000000   1.000000
   52      -20.225953    -20.186304   1.000000   1.000000
   53      -20.194456    -20.169302   1.000000   1.000000
   54      -20.139779    -20.072207   1.000000   1.000000
   55      -20.111882    -20.052718   1.000000   1.000000
   56      -20.088604    -20.046097   1.000000   1.000000
   57      -20.077183    -20.026583   1.000000   1.000000
   58      -20.070187    -19.995331   1.000000   1.000000
   59      -20.016772    -19.991820   1.000000   1.000000
   60      -19.943791    -19.889854   1.000000   1.000000
   61      -19.853226    -19.802608   1.000000   1.000000
   62      -19.738440    -19.674595   1.000000   1.000000
   63      -19.573325    -19.492098   1.000000   1.000000
   64      -19.411997    -19.346516   1.000000   1.000000
   65      -19.326739    -19.213573   1.000000   1.000000
   66      -19.036146    -18.922200   1.000000   1.000000
   67      -10.434000    -10.507771   1.000000   1.000000
   68       -9.069617     -8.898763   1.000000   1.000000
   69       -8.927655     -8.742607   1.000000   1.000000
   70       -8.783304     -8.611106   1.000000   1.000000
   71       -8.544848     -8.449409   1.000000   1.000000
   72       -8.447255     -8.397208   1.000000   1.000000
   73       -8.310938     -8.372598   1.000000   1.000000
   74       -8.298999     -8.277475   1.000000   1.000000
   75       -8.239702     -8.151862   1.000000   1.000000
   76       -8.149652     -8.144506   1.000000   1.000000
   77       -8.081052     -8.138151   1.000000   1.000000
   78       -8.020027     -8.079831   1.000000   1.000000
   79       -7.978193     -7.942678   1.000000   1.000000
   80       -7.938945     -7.854058   1.000000   1.000000
   81       -7.804984     -7.732394   1.000000   1.000000
   82       -7.714324     -7.662066   1.000000   1.000000
   83       -7.706925     -7.642832   1.000000   1.000000
   84       -7.631027     -7.550615   1.000000   1.000000
   85       -7.570702     -7.505865   1.000000   1.000000
   86       -7.521477     -7.457914   1.000000   1.000000
   87       -7.498616     -7.448055   1.000000   1.000000
   88       -7.427386     -7.415042   1.000000   1.000000
   89       -7.357034     -7.363311   1.000000   1.000000
   90       -7.291049     -7.349540   1.000000   1.000000
   91       -7.288277     -7.331868   1.000000   1.000000
   92       -7.247842     -7.303390   1.000000   1.000000
   93       -7.224420     -7.216854   1.000000   1.000000
   94       -7.154393     -7.199062   1.000000   1.000000
   95       -7.103368     -7.129666   1.000000   1.000000
   96       -7.037379     -7.066520   1.000000   1.000000
   97       -6.986672     -6.962740   1.000000   1.000000
   98       -6.954594     -6.949321   1.000000   1.000000
   99       -6.894440     -6.882333   1.000000   1.000000
  100       -6.842755     -6.792057   1.000000   1.000000
  101       -6.831025     -6.686340   1.000000   1.000000
  102       -6.718056     -6.629216   1.000000   1.000000
  103       -6.653744     -6.521190   1.000000   1.000000
  104       -6.622930     -6.435641   1.000000   1.000000
  105       -6.571258     -6.375901   1.000000   1.000000
  106       -6.560045     -6.329565   1.000000   1.000000
  107       -6.487706     -6.283624   1.000000   1.000000
  108       -6.469972     -6.199115   1.000000   1.000000
  109       -6.387066     -6.151792   1.000000   1.000000
  110       -6.332564     -6.142279   1.000000   1.000000
  111       -6.280201     -6.080978   1.000000   1.000000
  112       -6.199154     -6.016188   1.000000   1.000000
  113       -6.187805     -5.967764   1.000000   1.000000
  114       -6.091943     -5.896138   1.000000   1.000000
  115       -6.058600     -5.839479   1.000000   1.000000
  116       -6.033967     -5.709476   1.000000   1.000000
  117       -6.021416     -5.640673   1.000000   1.000000
  118       -5.958599     -5.561258   1.000000   1.000000
  119       -5.884997     -5.512254   1.000000   1.000000
  120       -5.812910     -5.432820   1.000000   1.000000
  121       -5.747097     -5.312751   1.000000   1.000000
  122       -5.714151     -5.250177   1.000000   1.000000
  123       -5.615552     -5.134573   1.000000   1.000000
  124       -5.596999     -5.121336   1.000000   1.000000
  125       -5.481397     -5.019286   1.000000   1.000000
  126       -5.461514     -4.974470   1.000000   1.000000
  127       -5.450096     -4.930495   1.000000   1.000000
  128       -5.432828     -4.860420   1.000000   1.000000
  129       -5.348597     -4.801500   1.000000   1.000000
  130       -5.267072     -4.758389   1.000000   1.000000
  131       -5.222555     -4.676821   1.000000   1.000000
  132       -5.101653     -4.654202   1.000000   1.000000
  133       -5.037399     -4.617320   1.000000   1.000000
  134       -5.022849     -4.574590   1.000000   1.000000
  135       -4.945991     -4.528729   1.000000   1.000000
  136       -4.884118     -4.488470   1.000000   1.000000
  137       -4.847394     -4.465926   1.000000   1.000000
  138       -4.693722     -4.456912   1.000000   1.000000
  139       -4.621411     -4.378277   1.000000   1.000000
  140       -4.578780     -4.291371   1.000000   1.000000
  141       -4.568360     -4.143996   1.000000   1.000000
  142       -4.523559     -4.075735   1.000000   1.000000
  143       -4.382007     -3.907447   1.000000   1.000000
  144       -4.340639     -3.793883   1.000000   1.000000
  145       -4.281795     -3.771440   1.000000   1.000000
  146       -4.246728     -3.744611   1.000000   1.000000
  147       -4.196205     -3.726543   1.000000   1.000000
  148       -4.174018     -3.572580   1.000000   1.000000
  149       -4.001897     -3.499813   1.000000   1.000000
  150       -3.961289     -3.434218   1.000000   1.000000
  151       -3.830723     -3.318555   1.000000   1.000000
  152       -3.814890     -2.879135   1.000000   1.000000
  153       -3.756228     -2.486401   1.000000   1.000000
  154       -3.701758     -1.093236   1.000000  -0.001851
  155       -3.672854     -1.041287   1.000000  -0.000573
  156       -3.588093     -0.765637   1.000000  -0.000000
  157       -3.483269     -0.749553   1.000000  -0.000000
  158       -3.438223     -0.646131   1.000000  -0.000000
  159       -3.306422     -0.539787   1.000000  -0.000000
  160       -3.255032      0.629649   1.000000  -0.000000
  161       -3.206109      0.771526   1.000000  -0.000000
  162       -3.139010      0.903723   1.000000  -0.000000
  163       -3.094721      0.923346   1.000000  -0.000000
  164       -2.951044      0.979278   1.000000  -0.000000
  165       -2.941588      1.056888   1.000000  -0.000000
  166       -2.885902      1.077119   1.000000  -0.000000
  167       -2.735765      1.113074   1.000000  -0.000000
  168       -2.690670      1.194306   1.000000  -0.000000
  169       -2.078432      1.199673   1.000993  -0.000000
  170       -1.685336      1.223520   0.905414  -0.000000
  171       -0.897024      1.304127  -0.000010  -0.000000
  172       -0.762910      1.427461  -0.000000  -0.000000
  173       -0.703992      1.499270  -0.000000  -0.000000
  174       -0.565469      1.513383  -0.000000  -0.000000
  175        0.492594      1.629788  -0.000000  -0.000000
  176        0.652768      1.773593  -0.000000  -0.000000
  177        0.739447      1.833753  -0.000000  -0.000000
  178        0.770425      1.927684  -0.000000  -0.000000
  179        0.862505      1.951727  -0.000000  -0.000000
  180        0.937238      2.045248  -0.000000  -0.000000
  181        0.979880      2.119070  -0.000000  -0.000000
  182        1.004004      2.170866  -0.000000  -0.000000
  183        1.010913      2.233098  -0.000000  -0.000000
  184        1.051346      2.301590  -0.000000  -0.000000
  185        1.075517      2.359211  -0.000000  -0.000000
  186        1.110759      2.403271  -0.000000  -0.000000
  187        1.137386      2.453378  -0.000000  -0.000000
  188        1.149011      2.514155  -0.000000  -0.000000
  189        1.168282      2.526345  -0.000000  -0.000000
  190        1.212310      2.610551  -0.000000  -0.000000
  191        1.232285      2.648067  -0.000000  -0.000000
  192        1.285015      2.667929  -0.000000  -0.000000
  193        1.301428      2.696855  -0.000000  -0.000000
  194        1.326819      2.716808  -0.000000  -0.000000
  195        1.451448      2.814231  -0.000000  -0.000000
  196        1.461158      2.849067  -0.000000  -0.000000
  197        1.614922      2.926372  -0.000000  -0.000000
  198        1.671802      2.963113  -0.000000  -0.000000
  199        1.759001      3.023469  -0.000000  -0.000000
  200        1.816312      3.054342  -0.000000  -0.000000
  201        1.914616      3.075528  -0.000000  -0.000000
  202        1.943312      3.195081  -0.000000  -0.000000
 
  0.2500000E+00  0.5000000E+00  0.0000000E+00  0.1250000E+00
    1      -52.949518    -52.950516   1.000000   1.000000
    2      -52.930643    -52.931742   1.000000   1.000000
    3      -52.905088    -52.918458   1.000000   1.000000
    4      -52.884106    -52.903880   1.000000   1.000000
    5      -52.828073    -52.903292   1.000000   1.000000
    6      -52.741927    -52.901440   1.000000   1.000000
    7      -52.736351    -52.853246   1.000000   1.000000
    8      -52.716153    -52.842327   1.000000   1.000000
    9      -52.699333    -52.814956   1.000000   1.000000
   10      -52.687457    -52.740809   1.000000   1.000000
   11      -52.662233    -52.731381   1.000000   1.000000
   12      -52.425022    -52.688091   1.000000   1.000000
   13      -51.706720    -52.679178   1.000000   1.000000
   14      -51.699349    -52.672614   1.000000   1.000000
   15      -51.637738    -52.666246   1.000000   1.000000
   16      -51.632973    -52.659803   1.000000   1.000000
   17      -51.613815    -52.633629   1.000000   1.000000
   18      -51.556878    -52.533810   1.000000   1.000000
   19      -51.438128    -48.880412   1.000000   1.000000
   20      -51.395135    -48.861621   1.000000   1.000000
   21      -51.335626    -48.839282   1.000000   1.000000
   22      -51.304660    -48.810253   1.000000   1.000000
   23      -51.136353    -48.738823   1.000000   1.000000
   24      -51.118940    -48.704955   1.000000   1.000000
   25      -51.081207    -48.679363   1.000000   1.000000
   26      -51.052244    -48.638618   1.000000   1.000000
   27      -50.881265    -48.079656   1.000000   1.000000
   28      -49.034259    -48.047476   1.000000   1.000000
   29      -49.028964    -48.012793   1.000000   1.000000
   30      -49.005115    -47.787442   1.000000   1.000000
   31      -48.976673    -46.819714   1.000000   1.000000
   32      -48.969763    -46.807546   1.000000   1.000000
   33      -48.954988    -46.753429   1.000000   1.000000
   34      -48.922384    -46.749326   1.000000   1.000000
   35      -48.891816    -46.737881   1.000000   1.000000
   36      -48.872826    -46.686584   1.000000   1.000000
   37      -48.836973    -46.554671   1.000000   1.000000
   38      -48.772437    -46.529953   1.000000   1.000000
   39      -48.747700    -46.472612   1.000000   1.000000
   40      -48.138078    -46.412148   1.000000   1.000000
   41      -48.132322    -46.301832   1.000000   1.000000
   42      -48.120801    -46.290529   1.000000   1.000000
   43      -48.092555    -46.257377   1.000000   1.000000
   44      -48.049025    -46.185449   1.000000   1.000000
   45      -47.975963    -46.093349   1.000000   1.000000
   46      -22.321758    -22.347301   1.000000   1.000000
   47      -20.868208    -20.819776   1.000000   1.000000
   48      -20.849571    -20.803597   1.000000   1.000000
   49      -20.547236    -20.494706   1.000000   1.000000
   50      -20.498914    -20.447821   1.000000   1.000000
   51      -20.274814    -20.238113   1.000000   1.000000
   52      -20.248643    -20.192592   1.000000   1.000000
   53      -20.209080    -20.177162   1.000000   1.000000
   54      -20.183607    -20.141687   1.000000   1.000000
   55      -20.148570    -20.099962   1.000000   1.000000
   56      -20.114377    -20.064829   1.000000   1.000000
   57      -20.100027    -20.045476   1.000000   1.000000
   58      -20.065996    -20.013352   1.000000   1.000000
   59      -20.049789    -19.983113   1.000000   1.000000
   60      -19.935923    -19.901544   1.000000   1.000000
   61      -19.835069    -19.782160   1.000000   1.000000
   62      -19.770345    -19.712590   1.000000   1.000000
   63      -19.608444    -19.532220   1.000000   1.000000
   64      -19.444520    -19.384792   1.000000   1.000000
   65      -19.335577    -19.220763   1.000000   1.000000
   66      -19.035120    -18.921317   1.000000   1.000000
   67      -10.385902    -10.464794   1.000000   1.000000
   68       -8.995908     -8.783107   1.000000   1.000000
   69       -8.815234     -8.618944   1.000000   1.000000
   70       -8.651024     -8.459648   1.000000   1.000000
   71       -8.393615     -8.367188   1.000000   1.000000
   72       -8.344827     -8.299545   1.000000   1.000000
   73       -8.254673     -8.264322   1.000000   1.000000
   74       -8.206505     -8.188427   1.000000   1.000000
   75       -8.157761     -8.139640   1.000000   1.000000
   76       -8.143998     -8.031397   1.000000   1.000000
   77       -8.081303     -8.010853   1.000000   1.000000
   78       -8.008204     -7.977736   1.000000   1.000000
   79       -7.965340     -7.928997   1.000000   1.000000
   80       -7.883776     -7.853200   1.000000   1.000000
   81       -7.851855     -7.773227   1.000000   1.000000
   82       -7.803038     -7.715025   1.000000   1.000000
   83       -7.773997     -7.637970   1.000000   1.000000
   84       -7.715442     -7.602201   1.000000   1.000000
   85       -7.661014     -7.572330   1.000000   1.000000
   86       -7.587017     -7.527070   1.000000   1.000000
   87       -7.537610     -7.472156   1.000000   1.000000
   88       -7.475524     -7.443924   1.000000   1.000000
   89       -7.393223     -7.412819   1.000000   1.000000
   90       -7.352916     -7.390077   1.000000   1.000000
   91       -7.264003     -7.334755   1.000000   1.000000
   92       -7.242582     -7.308826   1.000000   1.000000
   93       -7.184829     -7.263536   1.000000   1.000000
   94       -7.139671     -7.222847   1.000000   1.000000
   95       -7.074002     -7.168289   1.000000   1.000000
   96       -7.046552     -7.013613   1.000000   1.000000
   97       -6.964108     -6.990472   1.000000   1.000000
   98       -6.960472     -6.891175   1.000000   1.000000
   99       -6.922389     -6.852107   1.000000   1.000000
  100       -6.877948     -6.769899   1.000000   1.000000
  101       -6.806431     -6.706966   1.000000   1.000000
  102       -6.752137     -6.685223   1.000000   1.000000
  103       -6.683451     -6.613198   1.000000   1.000000
  104       -6.642960     -6.526566   1.000000   1.000000
  105       -6.592227     -6.449486   1.000000   1.000000
  106       -6.570698     -6.416322   1.000000   1.000000
  107       -6.502319     -6.359060   1.000000   1.000000
  108       -6.419526     -6.306435   1.000000   1.000000
  109       -6.372017     -6.263637   1.000000   1.000000
  110       -6.325906     -6.125688   1.000000   1.000000
  111       -6.258470     -6.061296   1.000000   1.000000
  112       -6.233024     -5.956190   1.000000   1.000000
  113       -6.152114     -5.899089   1.000000   1.000000
  114       -6.105981     -5.805721   1.000000   1.000000
  115       -6.016387     -5.749395   1.000000   1.000000
  116       -5.995695     -5.680600   1.000000   1.000000
  117       -5.961669     -5.596606   1.000000   1.000000
  118       -5.913975     -5.528709   1.000000   1.000000
  119       -5.853630     -5.449206   1.000000   1.000000
  120       -5.761073     -5.419442   1.000000   1.000000
  121       -5.738241     -5.347586   1.000000   1.000000
  122       -5.673435     -5.288599   1.000000   1.000000
  123       -5.662074     -5.209341   1.000000   1.000000
  124       -5.610501     -5.151242   1.000000   1.000000
  125       -5.568598     -5.043285   1.000000   1.000000
  126       -5.493275     -5.014813   1.000000   1.000000
  127       -5.463998     -4.979486   1.000000   1.000000
  128       -5.416861     -4.892027   1.000000   1.000000
  129       -5.391263     -4.864287   1.000000   1.000000
  130       -5.240854     -4.786778   1.000000   1.000000
  131       -5.170413     -4.741893   1.000000   1.000000
  132       -5.080769     -4.686164   1.000000   1.000000
  133       -5.001452     -4.640045   1.000000   1.000000
  134       -4.976384     -4.604425   1.000000   1.000000
  135       -4.868070     -4.567802   1.000000   1.000000
  136       -4.815994     -4.540006   1.000000   1.000000
  137       -4.768435     -4.513614   1.000000   1.000000
  138       -4.746891     -4.388027   1.000000   1.000000
  139       -4.683690     -4.326401   1.000000   1.000000
  140       -4.652946     -4.241937   1.000000   1.000000
  141       -4.560529     -4.170287   1.000000   1.000000
  142       -4.522905     -4.054624   1.000000   1.000000
  143       -4.431955     -3.960746   1.000000   1.000000
  144       -4.360849     -3.881049   1.000000   1.000000
  145       -4.297718     -3.769502   1.000000   1.000000
  146       -4.213787     -3.709704   1.000000   1.000000
  147       -4.142294     -3.624086   1.000000   1.000000
  148       -4.120140     -3.539781   1.000000   1.000000
  149       -4.074584     -3.464978   1.000000   1.000000
  150       -3.943814     -3.355311   1.000000   1.000000
  151       -3.921886     -3.295726   1.000000   1.000000
  152       -3.829217     -2.886017   1.000000   1.000000
  153       -3.802017     -2.499914   1.000000   1.000000
  154       -3.772882     -1.315593   1.000000  -0.035020
  155       -3.699320     -1.266037   1.000000  -0.026391
  156       -3.589889     -1.095107   1.000000  -0.001925
  157       -3.539866     -1.027456   1.000000  -0.000408
  158       -3.438162     -0.927647   1.000000  -0.000026
  159       -3.407210     -0.771578   1.000000  -0.000000
  160       -3.364408      0.665691   1.000000  -0.000000
  161       -3.281477      0.818857   1.000000  -0.000000
  162       -3.229841      0.934679   1.000000  -0.000000
  163       -3.148361      0.963777   1.000000  -0.000000
  164       -3.037484      1.037204   1.000000  -0.000000
  165       -2.991666      1.071447   1.000000  -0.000000
  166       -2.870307      1.095153   1.000000  -0.000000
  167       -2.748424      1.146444   1.000000  -0.000000
  168       -2.613379      1.190527   1.000000  -0.000000
  169       -2.058704      1.214228   1.001538  -0.000000
  170       -1.751254      1.264628   1.011078  -0.000000
  171       -1.180022      1.294551  -0.009135  -0.000000
  172       -1.029080      1.346836  -0.000425  -0.000000
  173       -0.959639      1.411573  -0.000067  -0.000000
  174       -0.844266      1.451016  -0.000002  -0.000000
  175        0.532674      1.516942  -0.000000  -0.000000
  176        0.689263      1.580028  -0.000000  -0.000000
  177        0.771155      1.661022  -0.000000  -0.000000
  178        0.791307      1.716965  -0.000000  -0.000000
  179        0.921115      1.915367  -0.000000  -0.000000
  180        0.968290      2.099021  -0.000000  -0.000000
  181        1.002426      2.149407  -0.000000  -0.000000
  182        1.026201      2.286161  -0.000000  -0.000000
  183        1.045637      2.296643  -0.000000  -0.000000
  184        1.078199      2.350791  -0.000000  -0.000000
  185        1.104277      2.415390  -0.000000  -0.000000
  186        1.120432      2.441342  -0.000000  -0.000000
  187        1.125369      2.481996  -0.000000  -0.000000
  188        1.144026      2.526523  -0.000000  -0.000000
  189        1.169079      2.568026  -0.000000  -0.000000
  190        1.211323      2.592675  -0.000000  -0.000000
  191        1.233355      2.697477  -0.000000  -0.000000
  192        1.254799      2.727863  -0.000000  -0.000000
  193        1.274112      2.769244  -0.000000  -0.000000
  194        1.322224      2.787055  -0.000000  -0.000000
  195        1.388712      2.849541  -0.000000  -0.000000
  196        1.418805      2.885963  -0.000000  -0.000000
  197        1.465716      2.949209  -0.000000  -0.000000
  198        1.509031      3.014412  -0.000000  -0.000000
  199        1.545792      3.066512  -0.000000  -0.000000
  200        1.593580      3.113956  -0.000000  -0.000000
  201        1.730009      3.165889  -0.000000  -0.000000
  202        1.785309      3.254695  -0.000000  -0.000000
 
  0.5000000E+00  0.5000000E+00  0.0000000E+00  0.6250000E-01
    1      -52.949509    -52.950506   1.000000   1.000000
    2      -52.930628    -52.931728   1.000000   1.000000
    3      -52.904848    -52.918304   1.000000   1.000000
    4      -52.884027    -52.903625   1.000000   1.000000
    5      -52.828062    -52.903139   1.000000   1.000000
    6      -52.741701    -52.901380   1.000000   1.000000
    7      -52.736338    -52.853237   1.000000   1.000000
    8      -52.716024    -52.842317   1.000000   1.000000
    9      -52.699335    -52.814947   1.000000   1.000000
   10      -52.687458    -52.740799   1.000000   1.000000
   11      -52.662228    -52.731382   1.000000   1.000000
   12      -52.425019    -52.688088   1.000000   1.000000
   13      -51.706717    -52.679166   1.000000   1.000000
   14      -51.699348    -52.672616   1.000000   1.000000
   15      -51.637737    -52.666235   1.000000   1.000000
   16      -51.632971    -52.659804   1.000000   1.000000
   17      -51.613815    -52.633628   1.000000   1.000000
   18      -51.556877    -52.533812   1.000000   1.000000
   19      -51.438127    -48.880406   1.000000   1.000000
   20      -51.395126    -48.861606   1.000000   1.000000
   21      -51.335629    -48.839617   1.000000   1.000000
   22      -51.304660    -48.810409   1.000000   1.000000
   23      -51.136351    -48.738816   1.000000   1.000000
   24      -51.118939    -48.704942   1.000000   1.000000
   25      -51.081206    -48.679647   1.000000   1.000000
   26      -51.052224    -48.638832   1.000000   1.000000
   27      -50.881269    -48.079657   1.000000   1.000000
   28      -49.034662    -48.047479   1.000000   1.000000
   29      -49.028960    -48.012798   1.000000   1.000000
   30      -49.005254    -47.787446   1.000000   1.000000
   31      -48.976723    -46.819707   1.000000   1.000000
   32      -48.970198    -46.807547   1.000000   1.000000
   33      -48.955007    -46.753427   1.000000   1.000000
   34      -48.922370    -46.749323   1.000000   1.000000
   35      -48.891816    -46.737881   1.000000   1.000000
   36      -48.872811    -46.686582   1.000000   1.000000
   37      -48.836971    -46.554664   1.000000   1.000000
   38      -48.772421    -46.529954   1.000000   1.000000
   39      -48.747716    -46.472610   1.000000   1.000000
   40      -48.138077    -46.412142   1.000000   1.000000
   41      -48.132326    -46.301828   1.000000   1.000000
   42      -48.120799    -46.290529   1.000000   1.000000
   43      -48.092554    -46.257373   1.000000   1.000000
   44      -48.049028    -46.185455   1.000000   1.000000
   45      -47.975958    -46.093347   1.000000   1.000000
   46      -22.316065    -22.342100   1.000000   1.000000
   47      -20.700185    -20.640830   1.000000   1.000000
   48      -20.669375    -20.601047   1.000000   1.000000
   49      -20.592077    -20.561963   1.000000   1.000000
   50      -20.562922    -20.521852   1.000000   1.000000
   51      -20.330489    -20.270342   1.000000   1.000000
   52      -20.300166    -20.244184   1.000000   1.000000
   53      -20.249906    -20.216442   1.000000   1.000000
   54      -20.222109    -20.195328   1.000000   1.000000
   55      -20.154867    -20.097659   1.000000   1.000000
   56      -20.118965    -20.062121   1.000000   1.000000
   57      -20.099911    -20.049617   1.000000   1.000000
   58      -20.070962    -20.039232   1.000000   1.000000
   59      -20.063309    -19.979109   1.000000   1.000000
   60      -19.919314    -19.894066   1.000000   1.000000
   61      -19.813195    -19.763067   1.000000   1.000000
   62      -19.811605    -19.754701   1.000000   1.000000
   63      -19.649228    -19.578785   1.000000   1.000000
   64      -19.482088    -19.429519   1.000000   1.000000
   65      -19.344457    -19.228258   1.000000   1.000000
   66      -19.034138    -18.920478   1.000000   1.000000
   67      -10.337154    -10.421491   1.000000   1.000000
   68       -8.916331     -8.643330   1.000000   1.000000
   69       -8.680122     -8.478678   1.000000   1.000000
   70       -8.491368     -8.361457   1.000000   1.000000
   71       -8.429240     -8.288275   1.000000   1.000000
   72       -8.250969     -8.179939   1.000000   1.000000
   73       -8.207098     -8.159672   1.000000   1.000000
   74       -8.173115     -8.115110   1.000000   1.000000
   75       -8.123548     -8.053706   1.000000   1.000000
   76       -8.080636     -8.032071   1.000000   1.000000
   77       -8.018085     -7.969415   1.000000   1.000000
   78       -7.991711     -7.908585   1.000000   1.000000
   79       -7.861936     -7.889423   1.000000   1.000000
   80       -7.826197     -7.753452   1.000000   1.000000
   81       -7.788125     -7.734132   1.000000   1.000000
   82       -7.774590     -7.659012   1.000000   1.000000
   83       -7.751012     -7.644840   1.000000   1.000000
   84       -7.685023     -7.600324   1.000000   1.000000
   85       -7.660455     -7.566655   1.000000   1.000000
   86       -7.599959     -7.537384   1.000000   1.000000
   87       -7.567480     -7.486292   1.000000   1.000000
   88       -7.537406     -7.464470   1.000000   1.000000
   89       -7.464975     -7.427783   1.000000   1.000000
   90       -7.417380     -7.388931   1.000000   1.000000
   91       -7.314371     -7.353120   1.000000   1.000000
   92       -7.283747     -7.351012   1.000000   1.000000
   93       -7.233236     -7.287838   1.000000   1.000000
   94       -7.178317     -7.274693   1.000000   1.000000
   95       -7.113376     -7.224732   1.000000   1.000000
   96       -7.077287     -6.989926   1.000000   1.000000
   97       -7.030327     -6.960110   1.000000   1.000000
   98       -6.989191     -6.913114   1.000000   1.000000
   99       -6.954165     -6.882015   1.000000   1.000000
  100       -6.919847     -6.780705   1.000000   1.000000
  101       -6.895981     -6.765945   1.000000   1.000000
  102       -6.785060     -6.708918   1.000000   1.000000
  103       -6.767216     -6.683381   1.000000   1.000000
  104       -6.694645     -6.584065   1.000000   1.000000
  105       -6.607671     -6.553093   1.000000   1.000000
  106       -6.494727     -6.508944   1.000000   1.000000
  107       -6.441146     -6.469264   1.000000   1.000000
  108       -6.428788     -6.392900   1.000000   1.000000
  109       -6.370090     -6.325149   1.000000   1.000000
  110       -6.291007     -6.197939   1.000000   1.000000
  111       -6.234553     -6.148090   1.000000   1.000000
  112       -6.170510     -5.972787   1.000000   1.000000
  113       -6.115591     -5.909323   1.000000   1.000000
  114       -6.089064     -5.861546   1.000000   1.000000
  115       -6.026996     -5.726986   1.000000   1.000000
  116       -5.982455     -5.633107   1.000000   1.000000
  117       -5.954798     -5.587108   1.000000   1.000000
  118       -5.920098     -5.530849   1.000000   1.000000
  119       -5.875417     -5.490886   1.000000   1.000000
  120       -5.786314     -5.425873   1.000000   1.000000
  121       -5.743745     -5.347657   1.000000   1.000000
  122       -5.702818     -5.277517   1.000000   1.000000
  123       -5.684936     -5.250703   1.000000   1.000000
  124       -5.602161     -5.120278   1.000000   1.000000
  125       -5.530886     -5.060427   1.000000   1.000000
  126       -5.489216     -4.975426   1.000000   1.000000
  127       -5.477507     -4.959281   1.000000   1.000000
  128       -5.416652     -4.939814   1.000000   1.000000
  129       -5.360707     -4.871466   1.000000   1.000000
  130       -5.286417     -4.818526   1.000000   1.000000
  131       -5.156513     -4.737289   1.000000   1.000000
  132       -5.096052     -4.717984   1.000000   1.000000
  133       -5.015299     -4.687958   1.000000   1.000000
  134       -4.931339     -4.568120   1.000000   1.000000
  135       -4.821066     -4.547228   1.000000   1.000000
  136       -4.814177     -4.520861   1.000000   1.000000
  137       -4.751246     -4.477578   1.000000   1.000000
  138       -4.595127     -4.331988   1.000000   1.000000
  139       -4.578432     -4.255100   1.000000   1.000000
  140       -4.508032     -4.214722   1.000000   1.000000
  141       -4.477203     -4.143777   1.000000   1.000000
  142       -4.420133     -4.110887   1.000000   1.000000
  143       -4.366530     -4.001698   1.000000   1.000000
  144       -4.337194     -3.959352   1.000000   1.000000
  145       -4.327833     -3.728367   1.000000   1.000000
  146       -4.229574     -3.690813   1.000000   1.000000
  147       -4.192631     -3.573108   1.000000   1.000000
  148       -4.133349     -3.553380   1.000000   1.000000
  149       -4.049890     -3.405153   1.000000   1.000000
  150       -4.041197     -3.345169   1.000000   1.000000
  151       -3.992343     -3.247669   1.000000   1.000000
  152       -3.886757     -2.895557   1.000000   1.000000
  153       -3.866320     -2.512609   1.000000   1.000000
  154       -3.809766     -1.526514   1.000000   0.314416
  155       -3.791027     -1.482227   1.000000   0.160402
  156       -3.735635     -1.425370   1.000000   0.029688
  157       -3.655213     -1.350936   1.000000  -0.032799
  158       -3.596596     -1.111710   1.000000  -0.002704
  159       -3.538963     -0.995996   1.000000  -0.000182
  160       -3.396562      0.628712   1.000000  -0.000000
  161       -3.341144      0.863992   1.000000  -0.000000
  162       -3.271179      0.944252   1.000000  -0.000000
  163       -3.210093      0.979793   1.000000  -0.000000
  164       -3.055988      1.042410   1.000000  -0.000000
  165       -3.030474      1.066754   1.000000  -0.000000
  166       -2.900780      1.109153   1.000000  -0.000000
  167       -2.698703      1.132588   1.000000  -0.000000
  168       -2.540623      1.165505   1.000000  -0.000000
  169       -2.039578      1.184679   1.002299  -0.000000
  170       -1.808267      1.220495   1.035177  -0.000000
  171       -1.400733      1.295667  -0.002694  -0.000000
  172       -1.289474      1.313555  -0.031373  -0.000000
  173       -1.171855      1.334291  -0.008025  -0.000000
  174       -1.107686      1.345075  -0.002494  -0.000000
  175        0.523993      1.469968  -0.000000  -0.000000
  176        0.663871      1.494410  -0.000000  -0.000000
  177        0.787695      1.591091  -0.000000  -0.000000
  178        0.802857      1.649587  -0.000000  -0.000000
  179        0.914759      1.939181  -0.000000  -0.000000
  180        0.958379      2.215106  -0.000000  -0.000000
  181        0.990905      2.267625  -0.000000  -0.000000
  182        1.025778      2.318178  -0.000000  -0.000000
  183        1.038932      2.353178  -0.000000  -0.000000
  184        1.076936      2.376162  -0.000000  -0.000000
  185        1.090068      2.410675  -0.000000  -0.000000
  186        1.113429      2.468551  -0.000000  -0.000000
  187        1.124670      2.509118  -0.000000  -0.000000
  188        1.156716      2.542808  -0.000000  -0.000000
  189        1.169870      2.620587  -0.000000  -0.000000
  190        1.183122      2.647960  -0.000000  -0.000000
  191        1.221628      2.663134  -0.000000  -0.000000
  192        1.242528      2.766412  -0.000000  -0.000000
  193        1.262751      2.801451  -0.000000  -0.000000
  194        1.309470      2.861377  -0.000000  -0.000000
  195        1.329680      2.920040  -0.000000  -0.000000
  196        1.354266      2.987914  -0.000000  -0.000000
  197        1.375242      3.017994  -0.000000  -0.000000
  198        1.418262      3.029673  -0.000000  -0.000000
  199        1.476020      3.065945  -0.000000  -0.000000
  200        1.501208      3.094514  -0.000000  -0.000000
  201        1.626528      3.145342  -0.000000  -0.000000
  202        1.692294      3.233866  -0.000000  -0.000000
