 running on   64 total cores
 distrk:  each k-point on   64 cores,    1 groups
 distr:  one band on   32 cores,    2 groups
 using from now: INCAR     
 vasp.5.4.4.18Apr17-6-g9f103f2a35 (build Sep 24 2019 09:38:50) complex          
  
 POSCAR found type information on POSCAR  Mn O  H 
 POSCAR found :  3 types and      38 ions

 ----------------------------------------------------------------------------- 
|                                                                             |
|           W    W    AA    RRRRR   N    N  II  N    N   GGGG   !!!           |
|           W    W   A  A   R    R  NN   N  II  NN   N  G    G  !!!           |
|           W    W  A    A  R    R  N N  N  II  N N  N  G       !!!           |
|           W WW W  AAAAAA  RRRRR   N  N N  II  N  N N  G  GGG   !            |
|           WW  WW  A    A  R   R   N   NN  II  N   NN  G    G                |
|           W    W  A    A  R    R  N    N  II  N    N   GGGG   !!!           |
|                                                                             |
|      For optimal performance we recommend to set                            |
|        NCORE= 4 - approx SQRT( number of cores)                             |
|      NCORE specifies how many cores store one orbital (NPAR=cpu/NCORE).     |
|      This setting can  greatly improve the performance of VASP for DFT.     |
|      The default,   NCORE=1            might be grossly inefficient         |
|      on modern multi-core architectures or massively parallel machines.     |
|      Do your own testing !!!!                                               |
|      Unfortunately you need to use the default for GW and RPA calculations. |
|      (for HF NCORE is supported but not extensively tested yet)             |
|                                                                             |
 ----------------------------------------------------------------------------- 

 LDA part: xc-table for Pade appr. of Perdew
 POSCAR found type information on POSCAR  Mn O  H 
 POSCAR found :  3 types and      38 ions
 POSCAR, INCAR and KPOINTS ok, starting setup
 FFT: planning ...
 WAVECAR not read
 entering main loop
       N       E                     dE             d eps       ncg     rms          rms(c)
DAV:   1     0.365645936969E+04    0.36565E+04   -0.17745E+05  9680   0.148E+03
DAV:   2     0.304576901392E+03   -0.33519E+04   -0.31636E+04  8832   0.411E+02
DAV:   3    -0.280826461499E+03   -0.58540E+03   -0.57283E+03 10232   0.162E+02
DAV:   4    -0.311489592221E+03   -0.30663E+02   -0.30179E+02  9976   0.366E+01
DAV:   5    -0.312218502029E+03   -0.72891E+00   -0.72462E+00  9736   0.681E+00    0.801E+01
RMM:   6    -0.445790404984E+03   -0.13357E+03   -0.97594E+02  9956   0.668E+01    0.153E+02
RMM:   7    -0.349032650182E+03    0.96758E+02   -0.99046E+01  9005   0.212E+01    0.115E+02
RMM:   8    -0.334783483952E+03    0.14249E+02   -0.10127E+02  8543   0.203E+01    0.108E+02
RMM:   9    -0.287828323792E+03    0.46955E+02   -0.61523E+01  9431   0.170E+01    0.664E+01
RMM:  10    -0.313129792878E+03   -0.25301E+02   -0.76054E+01  8675   0.174E+01    0.876E+01
RMM:  11    -0.257228230936E+03    0.55902E+02   -0.34169E+01  9436   0.131E+01    0.462E+01
RMM:  12    -0.275634857628E+03   -0.18407E+02   -0.32330E+01  8476   0.118E+01    0.633E+01
RMM:  13    -0.267092182348E+03    0.85427E+01   -0.25552E+01  8798   0.104E+01    0.532E+01
RMM:  14    -0.267543247983E+03   -0.45107E+00   -0.15837E+01  8885   0.802E+00    0.477E+01
RMM:  15    -0.260492217494E+03    0.70510E+01   -0.78051E+00  8647   0.602E+00    0.304E+01
RMM:  16    -0.261626027788E+03   -0.11338E+01   -0.31860E+00  8665   0.361E+00    0.238E+01
RMM:  17    -0.264043972449E+03   -0.24179E+01   -0.10234E+00  8606   0.194E+00    0.196E+01
RMM:  18    -0.264820250931E+03   -0.77628E+00   -0.84497E-01  8315   0.170E+00    0.168E+01
RMM:  19    -0.264786960523E+03    0.33290E-01   -0.33870E+00  8208   0.347E+00    0.119E+01
RMM:  20    -0.265698781866E+03   -0.91182E+00   -0.24876E+00  8425   0.294E+00    0.821E+00
RMM:  21    -0.266747514246E+03   -0.10487E+01   -0.88399E-01  8668   0.191E+00    0.637E+00
RMM:  22    -0.268156089876E+03   -0.14086E+01   -0.76726E-01  8141   0.171E+00    0.116E+01
RMM:  23    -0.269625524149E+03   -0.14694E+01   -0.33314E-01  8360   0.104E+00    0.139E+01
RMM:  24    -0.269828040607E+03   -0.20252E+00   -0.21206E-01  8597   0.705E-01    0.137E+01
RMM:  25    -0.269809926891E+03    0.18114E-01   -0.36498E-02  9327   0.284E-01    0.137E+01
RMM:  26    -0.269807904467E+03    0.20224E-02   -0.17058E-02  8155   0.260E-01    0.135E+01
RMM:  27    -0.269821488607E+03   -0.13584E-01   -0.74593E-03  8158   0.151E-01    0.133E+01
RMM:  28    -0.269802917033E+03    0.18572E-01   -0.30385E-01  8218   0.940E-01    0.114E+01
RMM:  29    -0.270187422375E+03   -0.38451E+00   -0.19509E+00  8297   0.249E+00    0.134E+01
RMM:  30    -0.271088153540E+03   -0.90073E+00   -0.39214E-01  8881   0.123E+00    0.140E+01
RMM:  31    -0.271095905843E+03   -0.77523E-02   -0.68476E-02  9599   0.492E-01    0.152E+01
RMM:  32    -0.271145724232E+03   -0.49818E-01   -0.22915E-02  8585   0.313E-01    0.154E+01
RMM:  33    -0.271211647108E+03   -0.65923E-01   -0.17329E-01  8333   0.757E-01    0.131E+01
RMM:  34    -0.271567358189E+03   -0.35571E+00   -0.12494E-01  8396   0.625E-01    0.145E+01
RMM:  35    -0.271829792796E+03   -0.26243E+00   -0.13550E-01  8284   0.660E-01    0.158E+01
RMM:  36    -0.271863387671E+03   -0.33595E-01   -0.34367E-02  8175   0.333E-01    0.178E+01
RMM:  37    -0.271905707625E+03   -0.42320E-01   -0.18638E-02  8022   0.266E-01    0.187E+01
RMM:  38    -0.271915792554E+03   -0.10085E-01   -0.10068E-02  8474   0.186E-01    0.191E+01
RMM:  39    -0.271918352213E+03   -0.25597E-02   -0.28278E-03  8597   0.950E-02    0.194E+01
RMM:  40    -0.271913361538E+03    0.49907E-02   -0.14711E-03  7739   0.798E-02    0.195E+01
RMM:  41    -0.271870899326E+03    0.42462E-01   -0.41158E-03  8260   0.140E-01    0.196E+01
RMM:  42    -0.271864230281E+03    0.66690E-02   -0.38385E-03  8015   0.141E-01    0.195E+01
RMM:  43    -0.271862610423E+03    0.16199E-02   -0.16722E-02  8242   0.280E-01    0.193E+01
RMM:  44    -0.271782519006E+03    0.80091E-01   -0.50204E-02  8358   0.466E-01    0.194E+01
RMM:  45    -0.271868261465E+03   -0.85742E-01   -0.15402E-02  8471   0.274E-01    0.199E+01
RMM:  46    -0.271872438458E+03   -0.41770E-02   -0.27709E-03  8741   0.123E-01    0.202E+01
RMM:  47    -0.272039908803E+03   -0.16747E+00   -0.96741E-02  8452   0.601E-01    0.195E+01
RMM:  48    -0.272170509187E+03   -0.13060E+00   -0.14766E-01  8410   0.745E-01    0.202E+01
RMM:  49    -0.272219698974E+03   -0.49190E-01   -0.17569E-02  9460   0.289E-01    0.203E+01
RMM:  50    -0.272434660485E+03   -0.21496E+00   -0.15645E-01  8539   0.787E-01    0.202E+01
RMM:  51    -0.274955625825E+03   -0.25210E+01   -0.17861E+00  8715   0.249E+00    0.308E+01
RMM:  52    -0.275697118566E+03   -0.74149E+00   -0.39702E-01  9344   0.120E+00    0.344E+01
RMM:  53    -0.275724771978E+03   -0.27653E-01   -0.14366E-01  9039   0.726E-01    0.361E+01
RMM:  54    -0.275570918380E+03    0.15385E+00   -0.34172E-02  8817   0.374E-01    0.363E+01
RMM:  55    -0.275492185171E+03    0.78733E-01   -0.24173E-02  8813   0.298E-01    0.361E+01
RMM:  56    -0.272744170398E+03    0.27480E+01   -0.61668E-01  8415   0.153E+00    0.319E+01
RMM:  57    -0.272983384506E+03   -0.23921E+00   -0.16618E-01  8570   0.844E-01    0.300E+01
RMM:  58    -0.273214467705E+03   -0.23108E+00   -0.92188E-02  8632   0.614E-01    0.291E+01
RMM:  59    -0.273243450041E+03   -0.28982E-01   -0.17842E-02  8809   0.274E-01    0.280E+01
RMM:  60    -0.273406239847E+03   -0.16279E+00   -0.58265E-02  8411   0.492E-01
   1 F= -.27340624E+03 E0= -.27340214E+03  d E =-.273406E+03  mag=    16.2683
 curvature:   0.00 expect dE= 0.000E+00 dE for cont linesearch  0.000E+00
 trial: gam= 0.00000 g(F)=  0.462E+00 g(S)=  0.000E+00 ort = 0.000E+00 (trialstep = 0.100E+01)
 search vector abs. value=  0.462E+00
 bond charge predicted
       N       E                     dE             d eps       ncg     rms          rms(c)
DAV:   1    -0.271916762737E+03    0.13267E+01   -0.11596E+02 10552   0.591E+01    0.294E+01
RMM:   2    -0.350163278486E+03   -0.78247E+02   -0.10452E+02 10270   0.203E+01    0.114E+02
RMM:   3    -0.278063097304E+03    0.72100E+02   -0.45145E+01  8829   0.143E+01    0.525E+01
RMM:   4    -0.270857096001E+03    0.72060E+01   -0.10710E+01  8884   0.727E+00    0.294E+01
RMM:   5    -0.275028379720E+03   -0.41713E+01   -0.10125E+01  8629   0.646E+00    0.270E+01
RMM:   6    -0.272551802353E+03    0.24766E+01   -0.30678E+00  8698   0.385E+00    0.203E+01
RMM:   7    -0.274873777078E+03   -0.23220E+01   -0.88425E-01  8740   0.175E+00    0.173E+01
RMM:   8    -0.276545415988E+03   -0.16716E+01   -0.16653E+00  8217   0.226E+00    0.130E+01
RMM:   9    -0.276908432294E+03   -0.36302E+00   -0.16042E+00  8422   0.221E+00    0.776E+00
RMM:  10    -0.276796435521E+03    0.11200E+00   -0.56633E-01  8378   0.161E+00    0.765E+00
RMM:  11    -0.276905430958E+03   -0.10900E+00   -0.13823E-01  8855   0.782E-01    0.829E+00
RMM:  12    -0.276951923152E+03   -0.46492E-01   -0.21571E-01  8405   0.969E-01    0.119E+01
RMM:  13    -0.276792482178E+03    0.15944E+00   -0.38063E-01  8265   0.117E+00    0.807E+00
RMM:  14    -0.276400950242E+03    0.39153E+00   -0.90347E-01  8232   0.185E+00    0.333E+00
RMM:  15    -0.276572456967E+03   -0.17151E+00   -0.15578E-01  8776   0.771E-01    0.275E+00
RMM:  16    -0.276708235159E+03   -0.13578E+00   -0.72219E-02  8789   0.480E-01    0.202E+00
RMM:  17    -0.276854325090E+03   -0.14609E+00   -0.57842E-02  8401   0.385E-01    0.174E+00
RMM:  18    -0.277019651654E+03   -0.16533E+00   -0.52324E-02  8431   0.352E-01    0.136E+00
RMM:  19    -0.277134062552E+03   -0.11441E+00   -0.38556E-02  8354   0.309E-01    0.709E-01
RMM:  20    -0.277214863527E+03   -0.80801E-01   -0.30112E-02  8600   0.256E-01    0.703E-01
RMM:  21    -0.277256814745E+03   -0.41951E-01   -0.13114E-02  8719   0.163E-01    0.565E-01
RMM:  22    -0.277296068601E+03   -0.39254E-01   -0.82045E-03  8698   0.132E-01    0.469E-01
RMM:  23    -0.277313379720E+03   -0.17311E-01   -0.28030E-03  8607   0.837E-02    0.418E-01
RMM:  24    -0.277341682584E+03   -0.28303E-01   -0.62777E-03  8721   0.122E-01    0.328E-01
RMM:  25    -0.277376110706E+03   -0.34428E-01   -0.12065E-02  8745   0.165E-01    0.218E-01
RMM:  26    -0.277389749436E+03   -0.13639E-01   -0.80979E-03  8741   0.133E-01    0.200E-01
RMM:  27    -0.277390142032E+03   -0.39260E-03   -0.25491E-03  8724   0.789E-02    0.163E-01
RMM:  28    -0.277395618525E+03   -0.54765E-02   -0.14579E-03  8479   0.617E-02    0.146E-01
RMM:  29    -0.277399933902E+03   -0.43154E-02   -0.51639E-04  7996   0.353E-02    0.124E-01
RMM:  30    -0.277403069156E+03   -0.31353E-02   -0.29190E-04  7586   0.236E-02    0.122E-01
RMM:  31    -0.277410656373E+03   -0.75872E-02   -0.72227E-04  7306   0.354E-02    0.930E-02
RMM:  32    -0.277419275085E+03   -0.86187E-02   -0.32592E-04  7046   0.209E-02    0.966E-02
RMM:  33    -0.277422307206E+03   -0.30321E-02   -0.57415E-05  5630   0.107E-02    0.973E-02
RMM:  34    -0.277425517116E+03   -0.32099E-02   -0.24419E-05  5569   0.954E-03    0.923E-02
RMM:  35    -0.277431437734E+03   -0.59206E-02   -0.67040E-05  7138   0.121E-02    0.859E-02
RMM:  36    -0.277441225127E+03   -0.97874E-02   -0.23345E-04  7617   0.256E-02    0.528E-02
RMM:  37    -0.277463666027E+03   -0.22441E-01   -0.10373E-03  8281   0.474E-02    0.507E-02
RMM:  38    -0.277471207398E+03   -0.75414E-02   -0.35349E-04  7582   0.238E-02    0.433E-02
RMM:  39    -0.277473038901E+03   -0.18315E-02   -0.51916E-05  5731   0.108E-02    0.339E-02
RMM:  40    -0.277474857044E+03   -0.18181E-02   -0.13987E-05  4871   0.662E-03    0.339E-02
RMM:  41    -0.277475861638E+03   -0.10046E-02   -0.13706E-05  5053   0.758E-03    0.246E-02
RMM:  42    -0.277476824663E+03   -0.96302E-03   -0.24258E-05  5620   0.754E-03    0.179E-02
RMM:  43    -0.277477468894E+03   -0.64423E-03   -0.14181E-05  5128   0.569E-03    0.131E-02
RMM:  44    -0.277477909503E+03   -0.44061E-03   -0.15369E-05  5110   0.609E-03    0.103E-02
RMM:  45    -0.277478417913E+03   -0.50841E-03   -0.13454E-05  5014   0.548E-03    0.851E-03
RMM:  46    -0.277478637471E+03   -0.21956E-03   -0.53430E-06  4277   0.422E-03    0.570E-03
RMM:  47    -0.277478772299E+03   -0.13483E-03   -0.17857E-06  3594   0.262E-03    0.310E-03
RMM:  48    -0.277478866958E+03   -0.94659E-04   -0.96159E-07  2943   0.194E-03    0.271E-03
RMM:  49    -0.277478920103E+03   -0.53146E-04   -0.66421E-07  2249   0.161E-03    0.213E-03
RMM:  50    -0.277478947731E+03   -0.27628E-04   -0.36740E-07  1876   0.147E-03    0.164E-03
RMM:  51    -0.277478963980E+03   -0.16249E-04   -0.26965E-07  1739   0.142E-03    0.122E-03
RMM:  52    -0.277478973546E+03   -0.95659E-05   -0.19999E-07  1653   0.139E-03
   2 F= -.27747897E+03 E0= -.27747882E+03  d E =-.407273E+01  mag=    16.7077
 trial-energy change:   -4.072734  1 .order    0.095160   -0.461531    0.651851
 step:   0.4145(harm=  0.4145)  dis= 0.01952  next Energy=  -273.501899 (dE=-0.957E-01)
 bond charge predicted
       N       E                     dE             d eps       ncg     rms          rms(c)
DAV:   1    -0.277021753803E+03    0.45721E+00   -0.39412E+01 10134   0.341E+01    0.418E+00
RMM:   2    -0.277731259050E+03   -0.70951E+00   -0.65578E+00  9937   0.629E+00    0.325E+00
RMM:   3    -0.277771710881E+03   -0.40452E-01   -0.47058E-01  8448   0.139E+00    0.132E+00
RMM:   4    -0.277747489876E+03    0.24221E-01   -0.51154E-02  8698   0.396E-01    0.964E-01
RMM:   5    -0.277751492006E+03   -0.40021E-02   -0.14601E-02  8060   0.202E-01    0.810E-01
RMM:   6    -0.277741994767E+03    0.94972E-02   -0.48330E-03  8443   0.145E-01    0.384E-01
RMM:   7    -0.277741437655E+03    0.55711E-03   -0.32134E-03  8076   0.118E-01    0.222E-01
RMM:   8    -0.277745152484E+03   -0.37148E-02   -0.97652E-04  7941   0.566E-02    0.869E-02
RMM:   9    -0.277745758553E+03   -0.60607E-03   -0.20920E-04  7283   0.280E-02    0.584E-02
RMM:  10    -0.277746839566E+03   -0.10810E-02   -0.64098E-05  5824   0.136E-02    0.473E-02
RMM:  11    -0.277748048345E+03   -0.12088E-02   -0.76553E-05  5312   0.117E-02    0.385E-02
RMM:  12    -0.277749393360E+03   -0.13450E-02   -0.90303E-05  5022   0.923E-03    0.353E-02
RMM:  13    -0.277750994327E+03   -0.16010E-02   -0.13232E-04  5173   0.101E-02    0.291E-02
RMM:  14    -0.277753090047E+03   -0.20957E-02   -0.27926E-04  5594   0.143E-02    0.269E-02
RMM:  15    -0.277754673215E+03   -0.15832E-02   -0.19716E-04  5106   0.973E-03    0.183E-02
RMM:  16    -0.277755995104E+03   -0.13219E-02   -0.61762E-05  4665   0.607E-03    0.135E-02
RMM:  17    -0.277757548175E+03   -0.15531E-02   -0.21271E-05  4561   0.455E-03    0.113E-02
RMM:  18    -0.277759228124E+03   -0.16799E-02   -0.13182E-05  4199   0.367E-03    0.109E-02
RMM:  19    -0.277761647933E+03   -0.24198E-02   -0.31728E-05  4680   0.486E-03    0.574E-03
RMM:  20    -0.277762822856E+03   -0.11749E-02   -0.24815E-05  4066   0.380E-03    0.388E-03
RMM:  21    -0.277763158774E+03   -0.33592E-03   -0.51366E-06  3127   0.244E-03    0.284E-03
RMM:  22    -0.277763483240E+03   -0.32447E-03   -0.32957E-06  2839   0.210E-03    0.195E-03
RMM:  23    -0.277763819527E+03   -0.33629E-03   -0.33988E-06  2878   0.204E-03    0.133E-03
RMM:  24    -0.277763995181E+03   -0.17565E-03   -0.22251E-06  2455   0.177E-03    0.926E-04
RMM:  25    -0.277764094546E+03   -0.99365E-04   -0.15458E-06  2263   0.164E-03    0.730E-04
RMM:  26    -0.277764141519E+03   -0.46973E-04   -0.10884E-06  2078   0.155E-03    0.324E-04
RMM:  27    -0.277764150044E+03   -0.85255E-05   -0.46826E-07  1731   0.142E-03
   3 F= -.27776415E+03 E0= -.27776641E+03  d E =-.435791E+01  mag=    16.8758
 curvature:  -0.21 expect dE=-0.769E-01 dE for cont linesearch -0.478E-01
 ZBRENT: interpolating
 opt :   0.2428  next Energy=  -277.792165 (dE=-0.439E+01)
 bond charge predicted
       N       E                     dE             d eps       ncg     rms          rms(c)
DAV:   1    -0.277745386060E+03    0.18755E-01   -0.34596E+00 10156   0.100E+01    0.121E+00
RMM:   2    -0.277807969237E+03   -0.62583E-01   -0.58807E-01  9807   0.186E+00    0.872E-01
RMM:   3    -0.277812359394E+03   -0.43902E-02   -0.39949E-02  8249   0.394E-01    0.348E-01
RMM:   4    -0.277811420164E+03    0.93923E-03   -0.28661E-03  8813   0.945E-02    0.265E-01
RMM:   5    -0.277811319652E+03    0.10051E-03   -0.92314E-04  7539   0.516E-02    0.213E-01
RMM:   6    -0.277810546249E+03    0.77340E-03   -0.48164E-04  7645   0.464E-02    0.893E-02
RMM:   7    -0.277810309169E+03    0.23708E-03   -0.18281E-04  7312   0.286E-02    0.370E-02
RMM:   8    -0.277810402252E+03   -0.93082E-04   -0.22927E-05  4806   0.116E-02    0.200E-02
RMM:   9    -0.277810449860E+03   -0.47608E-04   -0.97407E-06  4457   0.598E-03    0.125E-02
RMM:  10    -0.277810457282E+03   -0.74225E-05   -0.41368E-06  4196   0.357E-03
   4 F= -.27781046E+03 E0= -.27781344E+03  d E =-.440422E+01  mag=    16.8905
 curvature:  -0.12 expect dE=-0.206E-01 dE for cont linesearch -0.145E-01
 ZBRENT: bisectioning
 opt :   0.1214  next Energy=  -277.835044 (dE=-0.443E+01)
 bond charge predicted
       N       E                     dE             d eps       ncg     rms          rms(c)
DAV:   1    -0.277803471308E+03    0.69786E-02   -0.17767E+00 10152   0.711E+00    0.839E-01
RMM:   2    -0.277833186984E+03   -0.29716E-01   -0.28034E-01  9685   0.130E+00    0.568E-01
RMM:   3    -0.277834843048E+03   -0.16561E-02   -0.18930E-02  8157   0.272E-01    0.238E-01
RMM:   4    -0.277834184226E+03    0.65882E-03   -0.12697E-03  8547   0.639E-02    0.181E-01
RMM:   5    -0.277834060952E+03    0.12327E-03   -0.40834E-04  7149   0.344E-02    0.141E-01
RMM:   6    -0.277833615042E+03    0.44591E-03   -0.27877E-04  7423   0.357E-02    0.531E-02
RMM:   7    -0.277833593241E+03    0.21801E-04   -0.68065E-05  6114   0.170E-02    0.239E-02
RMM:   8    -0.277833700050E+03   -0.10681E-03   -0.95978E-06  4491   0.758E-03    0.162E-02
RMM:   9    -0.277833819537E+03   -0.11949E-03   -0.67520E-06  4236   0.425E-03    0.129E-02
RMM:  10    -0.277833943139E+03   -0.12360E-03   -0.52603E-06  4054   0.316E-03    0.120E-02
RMM:  11    -0.277834050873E+03   -0.10773E-03   -0.35452E-06  3749   0.254E-03    0.102E-02
RMM:  12    -0.277834378113E+03   -0.32724E-03   -0.15522E-05  4150   0.375E-03    0.817E-03
RMM:  13    -0.277834742158E+03   -0.36405E-03   -0.24057E-05  4030   0.359E-03    0.653E-03
RMM:  14    -0.277835112193E+03   -0.37003E-03   -0.17976E-05  3911   0.302E-03    0.487E-03
RMM:  15    -0.277835367976E+03   -0.25578E-03   -0.54874E-06  2650   0.209E-03    0.387E-03
RMM:  16    -0.277835650959E+03   -0.28298E-03   -0.26777E-06  2865   0.199E-03    0.328E-03
RMM:  17    -0.277836119840E+03   -0.46888E-03   -0.38221E-06  3027   0.210E-03    0.241E-03
RMM:  18    -0.277836585433E+03   -0.46559E-03   -0.58339E-06  3045   0.220E-03    0.179E-03
RMM:  19    -0.277836808005E+03   -0.22257E-03   -0.36297E-06  2692   0.194E-03    0.971E-04
RMM:  20    -0.277836879409E+03   -0.71404E-04   -0.15248E-06  2277   0.168E-03    0.639E-04
RMM:  21    -0.277836927149E+03   -0.47740E-04   -0.81895E-07  2019   0.152E-03    0.451E-04
RMM:  22    -0.277836958962E+03   -0.31813E-04   -0.46935E-07  1808   0.143E-03    0.317E-04
RMM:  23    -0.277836990346E+03   -0.31384E-04   -0.39977E-07  1773   0.141E-03    0.223E-04
RMM:  24    -0.277837005418E+03   -0.15072E-04   -0.23189E-07  1599   0.138E-03    0.113E-04
RMM:  25    -0.277837012875E+03   -0.74574E-05   -0.16191E-07  1517   0.137E-03
   5 F= -.27783701E+03 E0= -.27784051E+03  d E =-.443077E+01  mag=    16.9438
 curvature:  -0.21 expect dE=-0.175E-01 dE for cont linesearch -0.131E-01
 ZBRENT: bisectioning
 opt :   0.0607  next Energy=  -277.846472 (dE=-0.444E+01)
 bond charge predicted
       N       E                     dE             d eps       ncg     rms          rms(c)
DAV:   1    -0.277838817814E+03   -0.18124E-02   -0.45112E-01 10118   0.354E+00    0.416E-01
RMM:   2    -0.277845872526E+03   -0.70547E-02   -0.68515E-02  9526   0.644E-01    0.271E-01
RMM:   3    -0.277846486647E+03   -0.61412E-03   -0.42725E-03  7996   0.132E-01    0.116E-01
RMM:   4    -0.277846359606E+03    0.12704E-03   -0.30242E-04  7682   0.314E-02    0.893E-02
RMM:   5    -0.277846288933E+03    0.70673E-04   -0.90503E-05  5850   0.174E-02    0.679E-02
RMM:   6    -0.277846144709E+03    0.14422E-03   -0.76834E-05  6470   0.195E-02    0.234E-02
RMM:   7    -0.277846121285E+03    0.23424E-04   -0.12363E-05  4592   0.805E-03    0.952E-03
RMM:   8    -0.277846128535E+03   -0.72492E-05   -0.22467E-06  4106   0.425E-03
   6 F= -.27784613E+03 E0= -.27784987E+03  d E =-.443989E+01  mag=    16.9474
 curvature:  -0.15 expect dE=-0.872E-02 dE for cont linesearch -0.630E-02
 ZBRENT: bisectioning
 opt :   0.0304  next Energy=  -277.850140 (dE=-0.444E+01)
 bond charge predicted
       N       E                     dE             d eps       ncg     rms          rms(c)
DAV:   1    -0.277848287190E+03   -0.21659E-02   -0.11362E-01 10176   0.177E+00    0.207E-01
RMM:   2    -0.277850011232E+03   -0.17240E-02   -0.16822E-02  9340   0.320E-01    0.131E-01
RMM:   3    -0.277850084677E+03   -0.73445E-04   -0.92649E-04  7625   0.645E-02    0.566E-02
RMM:   4    -0.277850013908E+03    0.70769E-04   -0.71150E-05  6031   0.157E-02    0.436E-02
RMM:   5    -0.277849973704E+03    0.40203E-04   -0.19864E-05  4616   0.927E-03    0.327E-02
RMM:   6    -0.277849906282E+03    0.67422E-04   -0.17308E-05  4639   0.106E-02    0.134E-02
RMM:   7    -0.277849902778E+03    0.35038E-05   -0.35166E-06  4169   0.483E-03
   7 F= -.27784990E+03 E0= -.27785377E+03  d E =-.444366E+01  mag=    16.9512
 curvature:  -0.09 expect dE=-0.471E-02 dE for cont linesearch -0.320E-02
 ZBRENT: bisectioning
 opt :   0.0152  next Energy=  -277.851743 (dE=-0.445E+01)
 bond charge predicted
       N       E                     dE             d eps       ncg     rms          rms(c)
DAV:   1    -0.277851283166E+03   -0.13769E-02   -0.28443E-02 10262   0.884E-01    0.104E-01
RMM:   2    -0.277851715499E+03   -0.43233E-03   -0.41209E-03  9146   0.159E-01    0.659E-02
RMM:   3    -0.277851717770E+03   -0.22711E-05   -0.22918E-04  6796   0.324E-02    0.285E-02
RMM:   4    -0.277851689703E+03    0.28067E-04   -0.16747E-05  4592   0.873E-03    0.220E-02
RMM:   5    -0.277851678693E+03    0.11010E-04   -0.50832E-06  4107   0.537E-03    0.169E-02
RMM:   6    -0.277851662039E+03    0.16654E-04   -0.45742E-06  4104   0.565E-03    0.751E-03
RMM:   7    -0.277851670458E+03   -0.84192E-05   -0.12740E-06  3514   0.272E-03
   8 F= -.27785167E+03 E0= -.27785560E+03  d E =-.444543E+01  mag=    16.9548
 curvature:  -0.05 expect dE=-0.250E-02 dE for cont linesearch -0.161E-02
 ZBRENT: bisectioning
 opt :   0.0076  next Energy=  -277.852541 (dE=-0.445E+01)
 bond charge predicted
       N       E                     dE             d eps       ncg     rms          rms(c)
DAV:   1    -0.277852436561E+03   -0.77452E-03   -0.71072E-03 10304   0.442E-01    0.522E-02
RMM:   2    -0.277852557879E+03   -0.12132E-03   -0.10386E-03  8949   0.792E-02    0.329E-02
RMM:   3    -0.277852559646E+03   -0.17671E-05   -0.54923E-05  5003   0.162E-02
   9 F= -.27785256E+03 E0= -.27785653E+03  d E =-.444632E+01  mag=    16.9559
 curvature:  -0.03 expect dE=-0.130E-02 dE for cont linesearch -0.798E-03
 ZBRENT: bisectioning
 opt :   0.0038  next Energy=  -277.852979 (dE=-0.445E+01)
 bond charge predicted
       N       E                     dE             d eps       ncg     rms          rms(c)
DAV:   1    -0.277852950434E+03   -0.39256E-03   -0.17996E-03 10630   0.223E-01    0.249E-02
RMM:   2    -0.277852977027E+03   -0.26593E-04   -0.25447E-04  8375   0.387E-02    0.188E-02
RMM:   3    -0.277852977055E+03   -0.27670E-07   -0.12441E-05  4108   0.791E-03
  10 F= -.27785298E+03 E0= -.27785695E+03  d E =-.444674E+01  mag=    16.9570
 curvature:  -0.02 expect dE=-0.674E-03 dE for cont linesearch -0.409E-03
 ZBRENT: bisectioning
 opt :   0.0019  next Energy=  -277.853186 (dE=-0.445E+01)
 bond charge predicted
       N       E                     dE             d eps       ncg     rms          rms(c)
DAV:   1    -0.277853179690E+03   -0.20266E-03   -0.44587E-04 10424   0.112E-01    0.136E-02
RMM:   2    -0.277853193656E+03   -0.13966E-04   -0.64430E-05  6331   0.194E-02    0.111E-02
RMM:   3    -0.277853198247E+03   -0.45906E-05   -0.37022E-06  3553   0.520E-03
  11 F= -.27785320E+03 E0= -.27785718E+03  d E =-.444696E+01  mag=    16.9582
 curvature:  -0.01 expect dE=-0.342E-03 dE for cont linesearch -0.205E-03
 ZBRENT: bisectioning
 opt :   0.0009  next Energy=  -277.853302 (dE=-0.445E+01)
 bond charge predicted
       N       E                     dE             d eps       ncg     rms          rms(c)
DAV:   1    -0.277853308755E+03   -0.11510E-03   -0.11166E-04  9432   0.560E-02    0.761E-03
RMM:   2    -0.277853324191E+03   -0.15436E-04   -0.16846E-05  4079   0.102E-02    0.650E-03
RMM:   3    -0.277853332315E+03   -0.81244E-05   -0.15865E-06  3279   0.378E-03
  12 F= -.27785333E+03 E0= -.27785732E+03  d E =-.444709E+01  mag=    16.9592
 curvature:  -0.00 expect dE=-0.172E-03 dE for cont linesearch -0.103E-03
 ZBRENT: bisectioning
 opt :   0.0005  next Energy=  -277.853384 (dE=-0.445E+01)
 bond charge predicted
       N       E                     dE             d eps       ncg     rms          rms(c)
DAV:   1    -0.277853395495E+03   -0.71304E-04   -0.25889E-05  6496   0.281E-02    0.451E-03
RMM:   2    -0.277853412297E+03   -0.16802E-04   -0.72090E-06  3626   0.686E-03    0.392E-03
RMM:   3    -0.277853422559E+03   -0.10262E-04   -0.12174E-06  2866   0.310E-03    0.317E-03
RMM:   4    -0.277853439061E+03   -0.16502E-04   -0.27248E-07  1624   0.152E-03    0.278E-03
RMM:   5    -0.277853485109E+03   -0.46048E-04   -0.41413E-07  1459   0.138E-03    0.224E-03
RMM:   6    -0.277853513920E+03   -0.28811E-04   -0.25245E-07  1091   0.121E-03    0.208E-03
RMM:   7    -0.277853574680E+03   -0.60759E-04   -0.67461E-07  1472   0.131E-03    0.181E-03
RMM:   8    -0.277853711131E+03   -0.13645E-03   -0.28996E-06  2481   0.170E-03    0.115E-03
RMM:   9    -0.277853807058E+03   -0.95927E-04   -0.25439E-06  2437   0.160E-03    0.767E-04
RMM:  10    -0.277853834766E+03   -0.27708E-04   -0.46436E-07  1533   0.124E-03    0.620E-04
RMM:  11    -0.277853871429E+03   -0.36662E-04   -0.44117E-07  1643   0.127E-03    0.483E-04
RMM:  12    -0.277853900496E+03   -0.29067E-04   -0.36180E-07  1582   0.126E-03    0.393E-04
RMM:  13    -0.277853926669E+03   -0.26174E-04   -0.36348E-07  1638   0.126E-03    0.303E-04
RMM:  14    -0.277853957818E+03   -0.31149E-04   -0.51184E-07  1802   0.132E-03    0.200E-04
RMM:  15    -0.277853968624E+03   -0.10806E-04   -0.27925E-07  1592   0.126E-03    0.111E-04
RMM:  16    -0.277853973738E+03   -0.51138E-05   -0.17629E-07  1498   0.125E-03
  13 F= -.27785397E+03 E0= -.27785796E+03  d E =-.444773E+01  mag=    16.9688
 curvature:  -0.00 expect dE=-0.862E-04 dE for cont linesearch -0.515E-04
 ZBRENT: bisectioning
 opt :   0.0002  next Energy=  -277.854000 (dE=-0.445E+01)
 bond charge predicted
       N       E                     dE             d eps       ncg     rms          rms(c)
DAV:   1    -0.277854000806E+03   -0.32182E-04   -0.64588E-06  5736   0.140E-02    0.181E-03
RMM:   2    -0.277854001492E+03   -0.68558E-06   -0.29604E-06  3443   0.453E-03
  14 F= -.27785400E+03 E0= -.27785799E+03  d E =-.444776E+01  mag=    16.9688
 curvature:  -0.00 expect dE=-0.429E-04 dE for cont linesearch -0.255E-04
 ZBRENT: bisectioning
 opt :   0.0001  next Energy=  -277.854014 (dE=-0.445E+01)
 bond charge predicted
       N       E                     dE             d eps       ncg     rms          rms(c)
DAV:   1    -0.277854014503E+03   -0.13697E-04   -0.21983E-06  5172   0.916E-03    0.804E-04
RMM:   2    -0.277854014883E+03   -0.38013E-06   -0.86303E-07  2813   0.241E-03
  15 F= -.27785401E+03 E0= -.27785800E+03  d E =-.444778E+01  mag=    16.9688
 curvature:  -0.00 expect dE=-0.216E-04 dE for cont linesearch -0.128E-04
 ZBRENT: bisectioning
 opt :   0.0001  next Energy=  -277.854021 (dE=-0.445E+01)
 bond charge predicted
       N       E                     dE             d eps       ncg     rms          rms(c)
DAV:   1    -0.277854021452E+03   -0.69487E-05   -0.61528E-07  4544   0.464E-03    0.398E-04
RMM:   2    -0.277854021694E+03   -0.24184E-06   -0.18163E-07  1280   0.132E-03
  16 F= -.27785402E+03 E0= -.27785801E+03  d E =-.444778E+01  mag=    16.9688
 curvature:  -0.00 expect dE=-0.108E-04 dE for cont linesearch -0.642E-05
 ZBRENT: bisectioning
 opt :   0.0000  next Energy=  -277.854025 (dE=-0.445E+01)
 bond charge predicted
       N       E                     dE             d eps       ncg     rms          rms(c)
DAV:   1    -0.277854024987E+03   -0.35354E-05   -0.29994E-07  4456   0.234E-03    0.365E-04
RMM:   2    -0.277854025147E+03   -0.16017E-06   -0.26201E-08   642   0.721E-04
  17 F= -.27785403E+03 E0= -.27785801E+03  d E =-.444779E+01  mag=    16.9688
 curvature:  -0.00 expect dE=-0.541E-05 dE for cont linesearch -0.322E-05
 ZBRENT: bisectioning
 opt :   0.0000  next Energy=  -277.854027 (dE=-0.445E+01)
 bond charge predicted
       N       E                     dE             d eps       ncg     rms          rms(c)
DAV:   1    -0.277854026843E+03   -0.18559E-05   -0.81673E-08  4362   0.113E-03    0.223E-04
RMM:   2    -0.277854026936E+03   -0.93292E-07   -0.31219E-09   472   0.457E-04
  18 F= -.27785403E+03 E0= -.27785801E+03  d E =-.444779E+01  mag=    16.9688
 curvature:  -0.00 expect dE=-0.270E-05 dE for cont linesearch -0.161E-05
 ZBRENT: bisectioning
 opt :   0.0000  next Energy=  -277.854028 (dE=-0.445E+01)
 bond charge predicted
       N       E                     dE             d eps       ncg     rms          rms(c)
DAV:   1    -0.277854027799E+03   -0.95632E-06   -0.30997E-08  4390   0.550E-04    0.163E-04
RMM:   2    -0.277854027833E+03   -0.33288E-07   -0.24367E-10   365   0.251E-04
  19 F= -.27785403E+03 E0= -.27785801E+03  d E =-.444779E+01  mag=    16.9688
 curvature:  -0.00 expect dE=-0.135E-05 dE for cont linesearch -0.806E-06
 ZBRENT:  can not reach accuracy
 opt :   0.0000  next Energy=     0.000000 (dE= 0.273E+03)
 bond charge predicted
       N       E                     dE             d eps       ncg     rms          rms(c)
DAV:   1    -0.277854028656E+03   -0.85685E-06   -0.12986E-08  4304   0.463E-04    0.850E-05
RMM:   2    -0.277854028677E+03   -0.20642E-07   -0.36318E-11   281   0.230E-04
  20 F= -.27785403E+03 E0= -.27785802E+03  d E =-.444779E+01  mag=    16.9688
 curvature:   0.00 expect dE= 0.464-321 dE for cont linesearch  0.277-321
 ZBRENT:  accuracy reached
 opt :   0.0000  next Energy=     0.000000 (dE= 0.273E+03)
 bond charge predicted
       N       E                     dE             d eps       ncg     rms          rms(c)
DAV:   1    -0.277854028693E+03   -0.36402E-07   -0.57548E-09  4318   0.230E-04    0.919E-05
RMM:   2    -0.277854028711E+03   -0.17812E-07    0.40168E-41   226   0.974E-05
  21 F= -.27785403E+03 E0= -.27785802E+03  d E =-.444779E+01  mag=    16.9688
 curvature:   0.00 expect dE= 0.464-321 dE for cont linesearch  0.277-321
 ZBRENT:  accuracy reached
 opt :   0.0000  next Energy=     0.000000 (dE= 0.273E+03)
 bond charge predicted
       N       E                     dE             d eps       ncg     rms          rms(c)
DAV:   1    -0.277854028724E+03   -0.31563E-07   -0.15672E-09  4248   0.106E-04    0.533E-05
RMM:   2    -0.277854028741E+03   -0.17135E-07    0.30335E-41   188   0.582E-05
  22 F= -.27785403E+03 E0= -.27785802E+03  d E =-.444779E+01  mag=    16.9688
 curvature:   0.00 expect dE= 0.464-321 dE for cont linesearch  0.277-321
 ZBRENT:  accuracy reached
 opt :   0.0000  next Energy=     0.000000 (dE= 0.273E+03)
 bond charge predicted
       N       E                     dE             d eps       ncg     rms          rms(c)
DAV:   1    -0.277854028754E+03   -0.29766E-07   -0.63135E-10  4256   0.620E-05    0.529E-05
RMM:   2    -0.277854028771E+03   -0.17004E-07    0.22497E-41   156   0.385E-05
  23 F= -.27785403E+03 E0= -.27785802E+03  d E =-.444779E+01  mag=    16.9688
 curvature:   0.00 expect dE= 0.464-321 dE for cont linesearch  0.277-321
 ZBRENT:  accuracy reached
 opt :   0.0000  next Energy=     0.000000 (dE= 0.273E+03)
 bond charge predicted
       N       E                     dE             d eps       ncg     rms          rms(c)
DAV:   1    -0.277854028783E+03   -0.28871E-07   -0.29535E-10  4224   0.429E-05    0.378E-05
RMM:   2    -0.277854028800E+03   -0.17375E-07    0.21643E-51   139   0.250E-05
  24 F= -.27785403E+03 E0= -.27785802E+03  d E =-.444779E+01  mag=    16.9688
 curvature:   0.00 expect dE= 0.464-321 dE for cont linesearch  0.277-321
 ZBRENT:  accuracy reached
 opt :   0.0000  next Energy=     0.000000 (dE= 0.273E+03)
 bond charge predicted
       N       E                     dE             d eps       ncg     rms          rms(c)
DAV:   1    -0.277854028812E+03   -0.29053E-07   -0.14598E-10  4210   0.279E-05    0.314E-05
RMM:   2    -0.277854028830E+03   -0.17593E-07    0.26398E-54   124   0.184E-05
  25 F= -.27785403E+03 E0= -.27785802E+03  d E =-.444779E+01  mag=    16.9688
 curvature:   0.00 expect dE= 0.464-321 dE for cont linesearch  0.277-321
 ZBRENT:  accuracy reached
 opt :   0.0000  next Energy=     0.000000 (dE= 0.273E+03)
 bond charge predicted
       N       E                     dE             d eps       ncg     rms          rms(c)
DAV:   1    -0.277854028841E+03   -0.29017E-07   -0.85556E-11  4148   0.208E-05    0.250E-05
RMM:   2    -0.277854028858E+03   -0.16982E-07    0.20998-111   119   0.131E-05
  26 F= -.27785403E+03 E0= -.27785802E+03  d E =-.444779E+01  mag=    16.9688
 curvature:   0.00 expect dE= 0.464-321 dE for cont linesearch  0.277-321
 ZBRENT:  accuracy reached
 opt :   0.0000  next Energy=     0.000000 (dE= 0.273E+03)
 bond charge predicted
       N       E                     dE             d eps       ncg     rms          rms(c)
DAV:   1    -0.277854028869E+03   -0.28020E-07   -0.57950E-11  4188   0.151E-05    0.225E-05
RMM:   2    -0.277854028886E+03   -0.17360E-07    0.84645E-50   113   0.105E-05
  27 F= -.27785403E+03 E0= -.27785802E+03  d E =-.444779E+01  mag=    16.9688
 curvature:   0.00 expect dE= 0.464-321 dE for cont linesearch  0.277-321
 ZBRENT:  accuracy reached
 opt :   0.0000  next Energy=     0.000000 (dE= 0.273E+03)
 bond charge predicted
       N       E                     dE             d eps       ncg     rms          rms(c)
DAV:   1    -0.277854028897E+03   -0.28071E-07   -0.45061E-11  4156   0.122E-05    0.197E-05
RMM:   2    -0.277854028914E+03   -0.16822E-07    0.28918E-51   107   0.834E-06
  28 F= -.27785403E+03 E0= -.27785802E+03  d E =-.444779E+01  mag=    16.9688
 curvature:   0.00 expect dE= 0.464-321 dE for cont linesearch  0.277-321
 ZBRENT:  accuracy reached
 opt :   0.0000  next Energy=     0.000000 (dE= 0.273E+03)
 bond charge predicted
       N       E                     dE             d eps       ncg     rms          rms(c)
DAV:   1    -0.277854028924E+03   -0.27052E-07   -0.38552E-11  4172   0.984E-06    0.183E-05
RMM:   2    -0.277854028940E+03   -0.15905E-07    0.65857-115   110   0.718E-06
  29 F= -.27785403E+03 E0= -.27785802E+03  d E =-.444779E+01  mag=    16.9688
 curvature:   0.00 expect dE= 0.464-321 dE for cont linesearch  0.277-321
 ZBRENT:  accuracy reached
 opt :   0.0000  next Energy=     0.000000 (dE= 0.273E+03)
 bond charge predicted
       N       E                     dE             d eps       ncg     rms          rms(c)
DAV:   1    -0.277854028951E+03   -0.26412E-07   -0.34070E-11  4140   0.856E-06    0.165E-05
RMM:   2    -0.277854028966E+03   -0.15425E-07    0.20865-116   103   0.618E-06
  30 F= -.27785403E+03 E0= -.27785802E+03  d E =-.444779E+01  mag=    16.9688
 curvature:   0.00 expect dE= 0.464-321 dE for cont linesearch  0.277-321
 ZBRENT:  accuracy reached
 opt :   0.0000  next Energy=     0.000000 (dE= 0.273E+03)
 bond charge predicted
       N       E                     dE             d eps       ncg     rms          rms(c)
DAV:   1    -0.277854028975E+03   -0.24869E-07   -0.28515E-11  4194   0.745E-06    0.152E-05
RMM:   2    -0.277854028990E+03   -0.14523E-07    0.19676-116   100   0.558E-06
  31 F= -.27785403E+03 E0= -.27785802E+03  d E =-.444779E+01  mag=    16.9688
 curvature:   0.00 expect dE= 0.464-321 dE for cont linesearch  0.277-321
 ZBRENT:  accuracy reached
 opt :   0.0000  next Energy=     0.000000 (dE= 0.273E+03)
 bond charge predicted
       N       E                     dE             d eps       ncg     rms          rms(c)
DAV:   1    -0.277854028999E+03   -0.23807E-07   -0.29408E-11  4134   0.676E-06    0.137E-05
RMM:   2    -0.277854029013E+03   -0.13584E-07    0.27992-101    97   0.506E-06
  32 F= -.27785403E+03 E0= -.27785802E+03  d E =-.444779E+01  mag=    16.9688
 curvature:   0.00 expect dE= 0.464-321 dE for cont linesearch  0.277-321
 ZBRENT:  accuracy reached
 opt :   0.0000  next Energy=     0.000000 (dE= 0.273E+03)
 bond charge predicted
       N       E                     dE             d eps       ncg     rms          rms(c)
DAV:   1    -0.277854029021E+03   -0.21908E-07   -0.22389E-11  4170   0.614E-06    0.125E-05
RMM:   2    -0.277854029034E+03   -0.13053E-07    0.18148-116    97   0.470E-06
  33 F= -.27785403E+03 E0= -.27785802E+03  d E =-.444779E+01  mag=    16.9688
 curvature:   0.00 expect dE= 0.464-321 dE for cont linesearch  0.277-321
 ZBRENT:  accuracy reached
 opt :   0.0000  next Energy=     0.000000 (dE= 0.273E+03)
 bond charge predicted
       N       E                     dE             d eps       ncg     rms          rms(c)
DAV:   1    -0.277854029043E+03   -0.21573E-07   -0.22406E-11  4150   0.570E-06    0.114E-05
RMM:   2    -0.277854029055E+03   -0.11911E-07    0.31194E-51    97   0.438E-06
  34 F= -.27785403E+03 E0= -.27785802E+03  d E =-.444779E+01  mag=    16.9688
 curvature:   0.00 expect dE= 0.464-321 dE for cont linesearch  0.277-321
 ZBRENT:  accuracy reached
 opt :   0.0000  next Energy=     0.000000 (dE= 0.273E+03)
 bond charge predicted
       N       E                     dE             d eps       ncg     rms          rms(c)
DAV:   1    -0.277854029062E+03   -0.19485E-07   -0.17400E-11  4154   0.530E-06    0.105E-05
RMM:   2    -0.277854029074E+03   -0.11350E-07    0.16059-116    91   0.413E-06
  35 F= -.27785403E+03 E0= -.27785802E+03  d E =-.444779E+01  mag=    16.9688
 curvature:   0.00 expect dE= 0.464-321 dE for cont linesearch  0.277-321
 ZBRENT:  accuracy reached
 opt :   0.0000  next Energy=     0.000000 (dE= 0.273E+03)
 bond charge predicted
       N       E                     dE             d eps       ncg     rms          rms(c)
DAV:   1    -0.277854029081E+03   -0.18532E-07   -0.17349E-11  4106   0.501E-06    0.962E-06
RMM:   2    -0.277854029091E+03   -0.10383E-07    0.15382-116    89   0.390E-06
  36 F= -.27785403E+03 E0= -.27785802E+03  d E =-.444779E+01  mag=    16.9688
 curvature:   0.00 expect dE= 0.464-321 dE for cont linesearch  0.277-321
 ZBRENT:  accuracy reached
 opt :   0.0000  next Energy=     0.000000 (dE= 0.273E+03)
 bond charge predicted
       N       E                     dE             d eps       ncg     rms          rms(c)
DAV:   1    -0.277854029098E+03   -0.17099E-07   -0.16462E-11  4184   0.472E-06    0.891E-06
RMM:   2    -0.277854029108E+03   -0.97134E-08    0.14757-116    84   0.372E-06
  37 F= -.27785403E+03 E0= -.27785802E+03  d E =-.444779E+01  mag=    16.9688
 curvature:   0.00 expect dE= 0.464-321 dE for cont linesearch  0.277-321
 ZBRENT:  accuracy reached
 opt :   0.0000  next Energy=     0.000000 (dE= 0.273E+03)
 bond charge predicted
       N       E                     dE             d eps       ncg     rms          rms(c)
DAV:   1    -0.277854029114E+03   -0.16087E-07   -0.13925E-11  4100   0.449E-06    0.818E-06
RMM:   2    -0.277854029123E+03   -0.92768E-08    0.14757-116    88   0.354E-06
  38 F= -.27785403E+03 E0= -.27785802E+03  d E =-.444779E+01  mag=    16.9688
 curvature:   0.00 expect dE= 0.464-321 dE for cont linesearch  0.277-321
 ZBRENT:  accuracy reached
 opt :   0.0000  next Energy=     0.000000 (dE= 0.273E+03)
 bond charge predicted
       N       E                     dE             d eps       ncg     rms          rms(c)
DAV:   1    -0.277854029129E+03   -0.15047E-07   -0.11746E-11  4148   0.427E-06    0.759E-06
RMM:   2    -0.277854029137E+03   -0.84983E-08    0.14170-116    83   0.339E-06
  39 F= -.27785403E+03 E0= -.27785802E+03  d E =-.444779E+01  mag=    16.9688
 curvature:   0.00 expect dE= 0.464-321 dE for cont linesearch  0.277-321
 ZBRENT:  accuracy reached
 opt :   0.0000  next Energy=     0.000000 (dE= 0.273E+03)
 bond charge predicted
       N       E                     dE             d eps       ncg     rms          rms(c)
DAV:   1    -0.277854029143E+03   -0.13599E-07   -0.12869E-11  4106   0.409E-06    0.700E-06
RMM:   2    -0.277854029151E+03   -0.82291E-08    0.14079-116    82   0.323E-06
  40 F= -.27785403E+03 E0= -.27785802E+03  d E =-.444779E+01  mag=    16.9688
 curvature:   0.00 expect dE= 0.464-321 dE for cont linesearch  0.277-321
 ZBRENT:  accuracy reached
 opt :   0.0000  next Energy=     0.000000 (dE= 0.273E+03)
 bond charge predicted
       N       E                     dE             d eps       ncg     rms          rms(c)
DAV:   1    -0.277854029156E+03   -0.13075E-07   -0.11463E-11  4156   0.389E-06    0.651E-06
RMM:   2    -0.277854029163E+03   -0.73269E-08    0.13823-116    77   0.310E-06
  41 F= -.27785403E+03 E0= -.27785802E+03  d E =-.444779E+01  mag=    16.9688
 curvature:   0.00 expect dE= 0.464-321 dE for cont linesearch  0.277-321
 ZBRENT:  accuracy reached
 opt :   0.0000  next Energy=     0.000000 (dE= 0.273E+03)
 bond charge predicted
       N       E                     dE             d eps       ncg     rms          rms(c)
DAV:   1    -0.277854029167E+03   -0.11780E-07   -0.75933E-12  4120   0.373E-06    0.602E-06
RMM:   2    -0.277854029175E+03   -0.71232E-08    0.13187-116    78   0.296E-06
  42 F= -.27785403E+03 E0= -.27785802E+03  d E =-.444779E+01  mag=    16.9688
 curvature:   0.00 expect dE= 0.464-321 dE for cont linesearch  0.277-321
 ZBRENT:  accuracy reached
 opt :   0.0000  next Energy=     0.000000 (dE= 0.273E+03)
 bond charge predicted
       N       E                     dE             d eps       ncg     rms          rms(c)
DAV:   1    -0.277854029178E+03   -0.11081E-07   -0.94607E-12  4142   0.357E-06    0.561E-06
RMM:   2    -0.277854029185E+03   -0.63374E-08    0.12546-116    71   0.285E-06
  43 F= -.27785403E+03 E0= -.27785802E+03  d E =-.444779E+01  mag=    16.9688
 curvature:   0.00 expect dE= 0.464-321 dE for cont linesearch  0.277-321
 ZBRENT:  accuracy reached
 opt :   0.0000  next Energy=     0.000000 (dE= 0.273E+03)
 bond charge predicted
       N       E                     dE             d eps       ncg     rms          rms(c)
DAV:   1    -0.277854029189E+03   -0.10368E-07   -0.40692E-12  4094   0.344E-06    0.521E-06
RMM:   2    -0.277854029194E+03   -0.55297E-08    0.12116-116    77   0.274E-06
  44 F= -.27785403E+03 E0= -.27785802E+03  d E =-.444779E+01  mag=    16.9688
 curvature:   0.00 expect dE= 0.464-321 dE for cont linesearch  0.277-321
 ZBRENT:  accuracy reached
 opt :   0.0000  next Energy=     0.000000 (dE= 0.273E+03)
 bond charge predicted
       N       E                     dE             d eps       ncg     rms          rms(c)
DAV:   1    -0.277854029198E+03   -0.90804E-08   -0.10511E-12  4180   0.330E-06    0.486E-06
RMM:   2    -0.277854029204E+03   -0.55661E-08    0.11830-116    63   0.265E-06
  45 F= -.27785403E+03 E0= -.27785802E+03  d E =-.444779E+01  mag=    16.9688
 curvature:   0.00 expect dE= 0.464-321 dE for cont linesearch  0.277-321
 ZBRENT:  accuracy reached
 opt :   0.0000  next Energy=     0.000000 (dE= 0.273E+03)
 bond charge predicted
       N       E                     dE             d eps       ncg     rms          rms(c)
DAV:   1    -0.277854029207E+03   -0.87311E-08   -0.49240E-12  4088   0.319E-06    0.452E-06
RMM:   2    -0.277854029212E+03   -0.48458E-08    0.11410-116    71   0.254E-06
  46 F= -.27785403E+03 E0= -.27785802E+03  d E =-.444779E+01  mag=    16.9688
 curvature:   0.00 expect dE= 0.464-321 dE for cont linesearch  0.277-321
 ZBRENT:  accuracy reached
 opt :   0.0000  next Energy=     0.000000 (dE= 0.273E+03)
 bond charge predicted
       N       E                     dE             d eps       ncg     rms          rms(c)
DAV:   1    -0.277854029214E+03   -0.76980E-08   -0.16501E-12  4136   0.307E-06    0.423E-06
RMM:   2    -0.277854029219E+03   -0.48167E-08    0.11123-116    68   0.246E-06
  47 F= -.27785403E+03 E0= -.27785802E+03  d E =-.444779E+01  mag=    16.9689
 curvature:   0.00 expect dE= 0.464-321 dE for cont linesearch  0.277-321
 ZBRENT:  accuracy reached
 opt :   0.0000  next Energy=     0.000000 (dE= 0.273E+03)
 bond charge predicted
       N       E                     dE             d eps       ncg     rms          rms(c)
DAV:   1    -0.277854029222E+03   -0.72614E-08   -0.26102E-12  4110   0.297E-06    0.394E-06
RMM:   2    -0.277854029226E+03   -0.43292E-08    0.98991-117    67   0.237E-06
  48 F= -.27785403E+03 E0= -.27785802E+03  d E =-.444779E+01  mag=    16.9689
 curvature:   0.00 expect dE= 0.464-321 dE for cont linesearch  0.277-321
 ZBRENT:  accuracy reached
 opt :   0.0000  next Energy=     0.000000 (dE= 0.273E+03)
 bond charge predicted
       N       E                     dE             d eps       ncg     rms          rms(c)
DAV:   1    -0.277854029228E+03   -0.65993E-08   -0.10844E-12  4148   0.287E-06    0.368E-06
RMM:   2    -0.277854029232E+03   -0.39508E-08    0.89868-117    65   0.230E-06
  49 F= -.27785403E+03 E0= -.27785802E+03  d E =-.444779E+01  mag=    16.9689
 curvature:   0.00 expect dE= 0.464-321 dE for cont linesearch  0.277-321
 ZBRENT:  accuracy reached
 opt :   0.0000  next Energy=     0.000000 (dE= 0.273E+03)
 bond charge predicted
       N       E                     dE             d eps       ncg     rms          rms(c)
DAV:   1    -0.277854029235E+03   -0.64683E-08    0.21802E-12  4108   0.280E-06    0.344E-06
RMM:   2    -0.277854029238E+03   -0.31141E-08    0.86900-117    68   0.223E-06
  50 F= -.27785403E+03 E0= -.27785802E+03  d E =-.444779E+01  mag=    16.9689
 curvature:   0.00 expect dE= 0.464-321 dE for cont linesearch  0.277-321
 ZBRENT:  accuracy reached
 opt :   0.0000  next Energy=     0.000000 (dE= 0.273E+03)
 bond charge predicted
       N       E                     dE             d eps       ncg     rms          rms(c)
DAV:   1    -0.277854029240E+03   -0.53769E-08    0.54198E-13  4160   0.273E-06    0.322E-06
RMM:   2    -0.277854029243E+03   -0.32087E-08    0.76950-117    59   0.217E-06
  51 F= -.27785403E+03 E0= -.27785802E+03  d E =-.444779E+01  mag=    16.9689
 curvature:   0.00 expect dE= 0.464-321 dE for cont linesearch  0.277-321
 ZBRENT:  accuracy reached
 opt :   0.0000  next Energy=     0.000000 (dE= 0.273E+03)
 bond charge predicted
       N       E                     dE             d eps       ncg     rms          rms(c)
DAV:   1    -0.277854029245E+03   -0.49331E-08    0.28637E-12  4100   0.267E-06    0.300E-06
RMM:   2    -0.277854029248E+03   -0.28595E-08    0.81835-117    68   0.210E-06
  52 F= -.27785403E+03 E0= -.27785802E+03  d E =-.444779E+01  mag=    16.9689
 curvature:   0.00 expect dE= 0.464-321 dE for cont linesearch  0.277-321
 ZBRENT:  accuracy reached
 opt :   0.0000  next Energy=     0.000000 (dE= 0.273E+03)
 bond charge predicted
       N       E                     dE             d eps       ncg     rms          rms(c)
DAV:   1    -0.277854029250E+03   -0.47003E-08    0.23349E-12  4130   0.259E-06    0.280E-06
RMM:   2    -0.277854029252E+03   -0.26193E-08    0.77476-117    65   0.204E-06
  53 F= -.27785403E+03 E0= -.27785802E+03  d E =-.444779E+01  mag=    16.9689
 curvature:   0.00 expect dE= 0.464-321 dE for cont linesearch  0.277-321
 ZBRENT:  accuracy reached
 opt :   0.0000  next Energy=     0.000000 (dE= 0.273E+03)
 bond charge predicted
       N       E                     dE             d eps       ncg     rms          rms(c)
DAV:   1    -0.277854029254E+03   -0.47512E-08    0.58690E-12  4106   0.252E-06    0.261E-06
RMM:   2    -0.277854029256E+03   -0.19500E-08    0.80714-117    58   0.197E-06
  54 F= -.27785403E+03 E0= -.27785802E+03  d E =-.444779E+01  mag=    16.9689
 curvature:   0.00 expect dE= 0.464-321 dE for cont linesearch  0.277-321
 ZBRENT:  accuracy reached
 opt :   0.0000  next Energy=     0.000000 (dE= 0.273E+03)
 bond charge predicted
       N       E                     dE             d eps       ncg     rms          rms(c)
DAV:   1    -0.277854029257E+03   -0.29249E-08    0.24851E-12  4138   0.243E-06    0.244E-06
RMM:   2    -0.277854029259E+03   -0.20518E-08    0.69010-117    58   0.189E-06
  55 F= -.27785403E+03 E0= -.27785802E+03  d E =-.444779E+01  mag=    16.9689
 curvature:   0.00 expect dE= 0.464-321 dE for cont linesearch  0.277-321
 ZBRENT:  accuracy reached
 opt :   0.0000  next Energy=     0.000000 (dE= 0.273E+03)
 bond charge predicted
       N       E                     dE             d eps       ncg     rms          rms(c)
DAV:   1    -0.277854029261E+03   -0.34634E-08    0.42471E-12  4098   0.234E-06    0.227E-06
RMM:   2    -0.277854029263E+03   -0.17099E-08    0.68980-117    56   0.180E-06
  56 F= -.27785403E+03 E0= -.27785802E+03  d E =-.444779E+01  mag=    16.9689
 curvature:   0.00 expect dE= 0.464-321 dE for cont linesearch  0.277-321
 ZBRENT:  accuracy reached
 opt :   0.0000  next Energy=     0.000000 (dE= 0.273E+03)
 bond charge predicted
       N       E                     dE             d eps       ncg     rms          rms(c)
DAV:   1    -0.277854029263E+03   -0.26412E-08    0.50767E-12  4136   0.221E-06    0.211E-06
RMM:   2    -0.277854029265E+03   -0.18481E-08    0.56758-117    59   0.169E-06
  57 F= -.27785403E+03 E0= -.27785802E+03  d E =-.444779E+01  mag=    16.9689
 curvature:   0.00 expect dE= 0.464-321 dE for cont linesearch  0.277-321
 ZBRENT:  accuracy reached
 opt :   0.0000  next Energy=     0.000000 (dE= 0.273E+03)
 bond charge predicted
       N       E                     dE             d eps       ncg     rms          rms(c)
DAV:   1    -0.277854029266E+03   -0.26121E-08    0.24344E-12  4096   0.207E-06    0.197E-06
RMM:   2    -0.277854029267E+03   -0.10405E-08    0.54435-117    61   0.158E-06
  58 F= -.27785403E+03 E0= -.27785802E+03  d E =-.444779E+01  mag=    16.9689
 curvature:   0.00 expect dE= 0.464-321 dE for cont linesearch  0.277-321
 ZBRENT:  accuracy reached
 opt :   0.0000  next Energy=     0.000000 (dE= 0.273E+03)
 bond charge predicted
       N       E                     dE             d eps       ncg     rms          rms(c)
DAV:   1    -0.277854029268E+03   -0.21901E-08    0.43015E-12  4130   0.192E-06    0.183E-06
RMM:   2    -0.277854029269E+03   -0.63301E-09    0.43846-117    56   0.147E-06
  59 F= -.27785403E+03 E0= -.27785802E+03  d E =-.444779E+01  mag=    16.9689
 curvature:   0.00 expect dE= 0.464-321 dE for cont linesearch  0.277-321
 ZBRENT:  accuracy reached
 opt :   0.0000  next Energy=     0.000000 (dE= 0.273E+03)
 bond charge predicted
       N       E                     dE             d eps       ncg     rms          rms(c)
DAV:   1    -0.277854029269E+03   -0.11350E-08    0.37604E-12  4084   0.178E-06    0.171E-06
RMM:   2    -0.277854029270E+03   -0.86584E-09    0.40839-117    53   0.136E-06
  60 F= -.27785403E+03 E0= -.27785802E+03  d E =-.444779E+01  mag=    16.9689
 curvature:   0.00 expect dE= 0.464-321 dE for cont linesearch  0.277-321
 ZBRENT:  accuracy reached
 opt :   0.0000  next Energy=     0.000000 (dE= 0.273E+03)
 bond charge predicted
       N       E                     dE             d eps       ncg     rms          rms(c)
DAV:   1    -0.277854029271E+03   -0.14406E-08    0.18014E-12  4140   0.164E-06    0.159E-06
RMM:   2    -0.277854029272E+03   -0.98225E-09    0.32514-117    48   0.126E-06
  61 F= -.27785403E+03 E0= -.27785802E+03  d E =-.444779E+01  mag=    16.9689
 curvature:   0.00 expect dE= 0.464-321 dE for cont linesearch  0.277-321
 ZBRENT:  accuracy reached
 opt :   0.0000  next Energy=     0.000000 (dE= 0.273E+03)
 bond charge predicted
       N       E                     dE             d eps       ncg     rms          rms(c)
DAV:   1    -0.277854029272E+03   -0.14479E-08    0.42372E-12  4084   0.152E-06    0.149E-06
RMM:   2    -0.277854029273E+03   -0.53842E-09    0.29988-117    48   0.117E-06
  62 F= -.27785403E+03 E0= -.27785802E+03  d E =-.444779E+01  mag=    16.9689
 curvature:   0.00 expect dE= 0.464-321 dE for cont linesearch  0.277-321
 ZBRENT:  accuracy reached
 opt :   0.0000  next Energy=     0.000000 (dE= 0.273E+03)
 bond charge predicted
       N       E                     dE             d eps       ncg     rms          rms(c)
DAV:   1    -0.277854029273E+03   -0.90222E-09    0.53306E-12  4098   0.141E-06    0.139E-06
RMM:   2    -0.277854029274E+03   -0.50204E-09    0.93706-131    52   0.109E-06
  63 F= -.27785403E+03 E0= -.27785802E+03  d E =-.444779E+01  mag=    16.9689
 curvature:   0.00 expect dE= 0.464-321 dE for cont linesearch  0.277-321
 ZBRENT:  accuracy reached
 opt :   0.0000  next Energy=     0.000000 (dE= 0.273E+03)
 bond charge predicted
       N       E                     dE             d eps       ncg     rms          rms(c)
DAV:   1    -0.277854029274E+03   -0.94587E-09    0.50021E-12  4078   0.131E-06    0.129E-06
RMM:   2    -0.277854029275E+03   -0.38563E-09    0.83718-131    48   0.101E-06
  64 F= -.27785403E+03 E0= -.27785802E+03  d E =-.444779E+01  mag=    16.9689
 curvature:   0.00 expect dE= 0.464-321 dE for cont linesearch  0.277-321
 ZBRENT:  accuracy reached
 opt :   0.0000  next Energy=     0.000000 (dE= 0.273E+03)
 bond charge predicted
       N       E                     dE             d eps       ncg     rms          rms(c)
DAV:   1    -0.277854029275E+03   -0.90949E-09    0.63700E-12  4108   0.122E-06    0.121E-06
RMM:   2    -0.277854029275E+03   -0.20373E-09    0.78606-131    52   0.942E-07
  65 F= -.27785403E+03 E0= -.27785802E+03  d E =-.444779E+01  mag=    16.9689
 curvature:   0.00 expect dE= 0.464-321 dE for cont linesearch  0.277-321
 ZBRENT:  accuracy reached
 opt :   0.0000  next Energy=     0.000000 (dE= 0.273E+03)
 bond charge predicted
       N       E                     dE             d eps       ncg     rms          rms(c)
DAV:   1    -0.277854029275E+03   -0.40018E-09    0.54649E-12  4070   0.114E-06    0.113E-06
RMM:   2    -0.277854029276E+03   -0.40745E-09    0.57139-131    47   0.877E-07
  66 F= -.27785403E+03 E0= -.27785802E+03  d E =-.444779E+01  mag=    16.9689
 curvature:   0.00 expect dE= 0.464-321 dE for cont linesearch  0.277-321
 ZBRENT:  accuracy reached
 opt :   0.0000  next Energy=     0.000000 (dE= 0.273E+03)
 bond charge predicted
       N       E                     dE             d eps       ncg     rms          rms(c)
DAV:   1    -0.277854029276E+03   -0.69122E-09    0.57714E-12  4102   0.106E-06    0.105E-06
RMM:   2    -0.277854029276E+03   -0.58208E-10    0.56655-131    43   0.819E-07
  67 F= -.27785403E+03 E0= -.27785802E+03  d E =-.444779E+01  mag=    16.9689
 curvature:   0.00 expect dE= 0.464-321 dE for cont linesearch  0.277-321
 ZBRENT:  accuracy reached
 opt :   0.0000  next Energy=     0.000000 (dE= 0.273E+03)
 bond charge predicted
       N       E                     dE             d eps       ncg     rms          rms(c)
DAV:   1    -0.277854029277E+03   -0.34197E-09    0.54393E-12  4070   0.990E-07    0.980E-07
RMM:   2    -0.277854029277E+03   -0.36380E-09    0.55737-131    41   0.763E-07
  68 F= -.27785403E+03 E0= -.27785802E+03  d E =-.444779E+01  mag=    16.9689
 curvature:   0.00 expect dE= 0.464-321 dE for cont linesearch  0.277-321
 ZBRENT:  accuracy reached
 opt :   0.0000  next Energy=     0.000000 (dE= 0.273E+03)
 bond charge predicted
       N       E                     dE             d eps       ncg     rms          rms(c)
DAV:   1    -0.277854029277E+03   -0.38563E-09    0.51862E-12  4084   0.923E-07    0.914E-07
RMM:   2    -0.277854029277E+03   -0.65484E-10    0.55371-131    43   0.713E-07
  69 F= -.27785403E+03 E0= -.27785802E+03  d E =-.444779E+01  mag=    16.9689
 curvature:   0.00 expect dE= 0.464-321 dE for cont linesearch  0.277-321
 ZBRENT:  accuracy reached
 opt :   0.0000  next Energy=     0.000000 (dE= 0.273E+03)
 bond charge predicted
       N       E                     dE             d eps       ncg     rms          rms(c)
DAV:   1    -0.277854029277E+03   -0.54570E-09    0.75024E-12  4064   0.862E-07    0.852E-07
RMM:   2    -0.277854029278E+03   -0.10914E-09    0.54498-131    42   0.665E-07
  70 F= -.27785403E+03 E0= -.27785802E+03  d E =-.444779E+01  mag=    16.9689
 curvature:   0.00 expect dE= 0.464-321 dE for cont linesearch  0.277-321
 ZBRENT:  accuracy reached
 opt :   0.0000  next Energy=     0.000000 (dE= 0.273E+03)
 bond charge predicted
       N       E                     dE             d eps       ncg     rms          rms(c)
DAV:   1    -0.277854029278E+03   -0.12369E-09    0.72787E-12  4080   0.804E-07    0.794E-07
RMM:   2    -0.277854029278E+03   -0.15280E-09    0.54155-131    41   0.621E-07
  71 F= -.27785403E+03 E0= -.27785802E+03  d E =-.444779E+01  mag=    16.9689
 curvature:   0.00 expect dE= 0.464-321 dE for cont linesearch  0.277-321
 ZBRENT:  accuracy reached
 opt :   0.0000  next Energy=     0.000000 (dE= 0.273E+03)
 bond charge predicted
       N       E                     dE             d eps       ncg     rms          rms(c)
DAV:   1    -0.277854029278E+03   -0.71304E-09    0.50407E-12  4058   0.751E-07    0.739E-07
RMM:   2    -0.277854029278E+03    0.24011E-09    0.53313-131    39   0.580E-07
  72 F= -.27785403E+03 E0= -.27785802E+03  d E =-.444779E+01  mag=    16.9689
 curvature:   0.00 expect dE= 0.464-321 dE for cont linesearch  0.277-321
 ZBRENT:  accuracy reached
 opt :   0.0000  next Energy=     0.000000 (dE= 0.273E+03)
 bond charge predicted
       N       E                     dE             d eps       ncg     rms          rms(c)
DAV:   1    -0.277854029278E+03   -0.43656E-10    0.76371E-12  4066   0.700E-07    0.689E-07
RMM:   2    -0.277854029278E+03    0.25466E-09    0.52997-131    41   0.541E-07
  73 F= -.27785403E+03 E0= -.27785802E+03  d E =-.444779E+01  mag=    16.9689
 curvature:   0.00 expect dE= 0.464-321 dE for cont linesearch  0.277-321
 ZBRENT:  accuracy reached
 opt :   0.0000  next Energy=     0.000000 (dE= 0.273E+03)
 bond charge predicted
       N       E                     dE             d eps       ncg     rms          rms(c)
DAV:   1    -0.277854029279E+03   -0.46566E-09    0.53118E-12  4058   0.654E-07    0.641E-07
RMM:   2    -0.277854029279E+03    0.16007E-09    0.52245-131    40   0.504E-07
  74 F= -.27785403E+03 E0= -.27785802E+03  d E =-.444779E+01  mag=    16.9689
 curvature:   0.00 expect dE= 0.464-321 dE for cont linesearch  0.277-321
 ZBRENT:  accuracy reached
 opt :   0.0000  next Energy=     0.000000 (dE= 0.273E+03)
 bond charge predicted
       N       E                     dE             d eps       ncg     rms          rms(c)
DAV:   1    -0.277854029278E+03    0.37107E-09    0.53944E-12  4074   0.609E-07    0.597E-07
RMM:   2    -0.277854029278E+03   -0.14552E-10    0.51818-131    40   0.471E-07
  75 F= -.27785403E+03 E0= -.27785802E+03  d E =-.444779E+01  mag=    16.9689
 curvature:   0.00 expect dE= 0.464-321 dE for cont linesearch  0.277-321
 ZBRENT:  accuracy reached
 opt :   0.0000  next Energy=     0.000000 (dE= 0.273E+03)
 bond charge predicted
       N       E                     dE             d eps       ncg     rms          rms(c)
DAV:   1    -0.277854029279E+03   -0.17462E-09    0.37938E-12  4058   0.569E-07    0.555E-07
RMM:   2    -0.277854029279E+03   -0.15280E-09    0.51193-131    38   0.439E-07
  76 F= -.27785403E+03 E0= -.27785802E+03  d E =-.444779E+01  mag=    16.9689
 curvature:   0.00 expect dE= 0.464-321 dE for cont linesearch  0.277-321
 ZBRENT:  accuracy reached
 opt :   0.0000  next Energy=     0.000000 (dE= 0.273E+03)
 bond charge predicted
       N       E                     dE             d eps       ncg     rms          rms(c)
DAV:   1    -0.277854029279E+03   -0.22555E-09    0.43534E-12  4062   0.531E-07    0.517E-07
RMM:   2    -0.277854029279E+03   -0.43656E-10    0.50704-131    37   0.410E-07
  77 F= -.27785403E+03 E0= -.27785802E+03  d E =-.444779E+01  mag=    16.9689
 curvature:   0.00 expect dE= 0.464-321 dE for cont linesearch  0.277-321
 ZBRENT:  accuracy reached
 opt :   0.0000  next Energy=     0.000000 (dE= 0.273E+03)
 bond charge predicted
       N       E                     dE             d eps       ncg     rms          rms(c)
DAV:   1    -0.277854029279E+03   -0.50932E-10    0.59169E-12  4058   0.496E-07    0.481E-07
RMM:   2    -0.277854029279E+03   -0.26193E-09    0.50229-131    38   0.382E-07
  78 F= -.27785403E+03 E0= -.27785802E+03  d E =-.444779E+01  mag=    16.9689
 curvature:   0.00 expect dE= 0.464-321 dE for cont linesearch  0.277-321
 ZBRENT:  accuracy reached
 opt :   0.0000  next Energy=     0.000000 (dE= 0.273E+03)
 bond charge predicted
       N       E                     dE             d eps       ncg     rms          rms(c)
DAV:   1    -0.277854029279E+03    0.12369E-09    0.49814E-12  4074   0.462E-07    0.448E-07
RMM:   2    -0.277854029279E+03   -0.51659E-09    0.49877-131    37   0.357E-07
  79 F= -.27785403E+03 E0= -.27785802E+03  d E =-.444779E+01  mag=    16.9689
 curvature:   0.00 expect dE= 0.464-321 dE for cont linesearch  0.277-321
 ZBRENT:  accuracy reached
 opt :   0.0000  next Energy=     0.000000 (dE= 0.273E+03)
 bond charge predicted
       N       E                     dE             d eps       ncg     rms          rms(c)
DAV:   1    -0.277854029279E+03   -0.18190E-09    0.53614E-12  4058   0.431E-07    0.417E-07
RMM:   2    -0.277854029280E+03   -0.61846E-09    0.49646-131    36   0.333E-07
  80 F= -.27785403E+03 E0= -.27785802E+03  d E =-.444779E+01  mag=    16.9689
 curvature:   0.00 expect dE= 0.464-321 dE for cont linesearch  0.277-321
 ZBRENT:  accuracy reached
 opt :   0.0000  next Energy=     0.000000 (dE= 0.273E+03)
 bond charge predicted
       N       E                     dE             d eps       ncg     rms          rms(c)
DAV:   1    -0.277854029279E+03   -0.56752E-09    0.50582E-12  4058   0.403E-07    0.389E-07
RMM:   2    -0.277854029279E+03    0.21828E-09    0.49635-131    37   0.311E-07
  81 F= -.27785403E+03 E0= -.27785802E+03  d E =-.444779E+01  mag=    16.9689
 curvature:   0.00 expect dE= 0.464-321 dE for cont linesearch  0.277-321
 ZBRENT:  accuracy reached
 opt :   0.0000  next Energy=     0.000000 (dE= 0.273E+03)
 bond charge predicted
       N       E                     dE             d eps       ncg     rms          rms(c)
DAV:   1    -0.277854029279E+03    0.87311E-10    0.38317E-12  4058   0.375E-07    0.361E-07
RMM:   2    -0.277854029279E+03    0.36380E-10    0.49882-131    38   0.290E-07
  82 F= -.27785403E+03 E0= -.27785802E+03  d E =-.444779E+01  mag=    16.9689
 curvature:   0.00 expect dE= 0.464-321 dE for cont linesearch  0.277-321
 ZBRENT:  accuracy reached
 opt :   0.0000  next Energy=     0.000000 (dE= 0.273E+03)
 bond charge predicted
       N       E                     dE             d eps       ncg     rms          rms(c)
DAV:   1    -0.277854029279E+03    0.29104E-10    0.49069E-12  4058   0.350E-07    0.337E-07
RMM:   2    -0.277854029279E+03    0.36380E-10    0.50520-131    36   0.271E-07
  83 F= -.27785403E+03 E0= -.27785802E+03  d E =-.444779E+01  mag=    16.9689
 curvature:   0.00 expect dE= 0.464-321 dE for cont linesearch  0.277-321
 ZBRENT:  accuracy reached
 opt :   0.0000  next Energy=     0.000000 (dE= 0.273E+03)
 bond charge predicted
       N       E                     dE             d eps       ncg     rms          rms(c)
DAV:   1    -0.277854029280E+03   -0.30559E-09    0.38751E-12  4062   0.327E-07    0.314E-07
RMM:   2    -0.277854029280E+03    0.17462E-09    0.51642-131    36   0.253E-07
  84 F= -.27785403E+03 E0= -.27785802E+03  d E =-.444779E+01  mag=    16.9689
 curvature:   0.00 expect dE= 0.464-321 dE for cont linesearch  0.277-321
 ZBRENT:  accuracy reached
 opt :   0.0000  next Energy=     0.000000 (dE= 0.273E+03)
 bond charge predicted
       N       E                     dE             d eps       ncg     rms          rms(c)
DAV:   1    -0.277854029280E+03    0.58208E-10    0.65253E-12  4060   0.305E-07    0.293E-07
RMM:   2    -0.277854029279E+03    0.34925E-09    0.53394-131    36   0.236E-07
  85 F= -.27785403E+03 E0= -.27785802E+03  d E =-.444779E+01  mag=    16.9689
 curvature:   0.00 expect dE= 0.464-321 dE for cont linesearch  0.277-321
 ZBRENT:  accuracy reached
 opt :   0.0000  next Energy=     0.000000 (dE= 0.273E+03)
 bond charge predicted
       N       E                     dE             d eps       ncg     rms          rms(c)
DAV:   1    -0.277854029280E+03    0.10914E-09    0.62291E-12  4058   0.285E-07    0.273E-07
RMM:   2    -0.277854029280E+03   -0.10914E-09    0.55935-131    33   0.220E-07
  86 F= -.27785403E+03 E0= -.27785802E+03  d E =-.444779E+01  mag=    16.9689
 curvature:   0.00 expect dE= 0.464-321 dE for cont linesearch  0.277-321
 ZBRENT:  accuracy reached
 opt :   0.0000  next Energy=     0.000000 (dE= 0.273E+03)
 bond charge predicted
       N       E                     dE             d eps       ncg     rms          rms(c)
DAV:   1    -0.277854029280E+03    0.72760E-11    0.36267E-12  4058   0.266E-07    0.255E-07
RMM:   2    -0.277854029280E+03   -0.25466E-09    0.59348-131    35   0.205E-07
  87 F= -.27785403E+03 E0= -.27785802E+03  d E =-.444779E+01  mag=    16.9689
 curvature:   0.00 expect dE= 0.464-321 dE for cont linesearch  0.277-321
 ZBRENT:  accuracy reached
 opt :   0.0000  next Energy=     0.000000 (dE= 0.273E+03)
 bond charge predicted
       N       E                     dE             d eps       ncg     rms          rms(c)
DAV:   1    -0.277854029280E+03    0.00000E+00    0.55318E-12  4058   0.248E-07    0.237E-07
RMM:   2    -0.277854029280E+03   -0.17462E-09    0.63898-131    33   0.192E-07
  88 F= -.27785403E+03 E0= -.27785802E+03  d E =-.444779E+01  mag=    16.9689
 curvature:   0.00 expect dE= 0.464-321 dE for cont linesearch  0.277-321
 ZBRENT:  accuracy reached
 opt :   0.0000  next Energy=     0.000000 (dE= 0.273E+03)
 bond charge predicted
       N       E                     dE             d eps       ncg     rms          rms(c)
DAV:   1    -0.277854029280E+03   -0.26193E-09    0.60024E-12  4058   0.232E-07    0.221E-07
RMM:   2    -0.277854029280E+03    0.25466E-09    0.69480-131    32   0.179E-07
  89 F= -.27785403E+03 E0= -.27785802E+03  d E =-.444779E+01  mag=    16.9689
 curvature:   0.00 expect dE= 0.464-321 dE for cont linesearch  0.277-321
 ZBRENT:  accuracy reached
 opt :   0.0000  next Energy=     0.000000 (dE= 0.273E+03)
 bond charge predicted
       N       E                     dE             d eps       ncg     rms          rms(c)
DAV:   1    -0.277854029280E+03   -0.87311E-10    0.51066E-12  4058   0.216E-07    0.206E-07
RMM:   2    -0.277854029280E+03    0.24011E-09    0.76557-131    32   0.167E-07
  90 F= -.27785403E+03 E0= -.27785802E+03  d E =-.444779E+01  mag=    16.9689
 curvature:   0.00 expect dE= 0.464-321 dE for cont linesearch  0.277-321
 ZBRENT:  accuracy reached
 opt :   0.0000  next Energy=     0.000000 (dE= 0.273E+03)
 bond charge predicted
       N       E                     dE             d eps       ncg     rms          rms(c)
DAV:   1    -0.277854029280E+03    0.13097E-09    0.62940E-12  4056   0.202E-07    0.192E-07
RMM:   2    -0.277854029280E+03    0.36380E-10    0.84660-131    31   0.156E-07
  91 F= -.27785403E+03 E0= -.27785802E+03  d E =-.444779E+01  mag=    16.9689
 curvature:   0.00 expect dE= 0.464-321 dE for cont linesearch  0.277-321
 ZBRENT:  accuracy reached
 opt :   0.0000  next Energy=     0.000000 (dE= 0.273E+03)
 bond charge predicted
       N       E                     dE             d eps       ncg     rms          rms(c)
DAV:   1    -0.277854029280E+03   -0.16007E-09    0.69683E-12  4052   0.188E-07    0.179E-07
RMM:   2    -0.277854029280E+03   -0.13097E-09    0.94714-131    32   0.146E-07
  92 F= -.27785403E+03 E0= -.27785802E+03  d E =-.444779E+01  mag=    16.9689
 curvature:   0.00 expect dE= 0.464-321 dE for cont linesearch  0.277-321
 ZBRENT:  accuracy reached
 opt :   0.0000  next Energy=     0.000000 (dE= 0.273E+03)
 bond charge predicted
       N       E                     dE             d eps       ncg     rms          rms(c)
DAV:   1    -0.277854029280E+03   -0.72760E-11    0.60137E-12  4052   0.176E-07    0.167E-07
RMM:   2    -0.277854029280E+03    0.16735E-09    0.10561-130    31   0.136E-07
  93 F= -.27785403E+03 E0= -.27785802E+03  d E =-.444779E+01  mag=    16.9689
 curvature:   0.00 expect dE= 0.464-321 dE for cont linesearch  0.277-321
 ZBRENT:  accuracy reached
 opt :   0.0000  next Energy=     0.000000 (dE= 0.273E+03)
 bond charge predicted
       N       E                     dE             d eps       ncg     rms          rms(c)
DAV:   1    -0.277854029280E+03    0.21828E-10    0.52713E-12  4052   0.164E-07    0.156E-07
RMM:   2    -0.277854029280E+03    0.72760E-10    0.11910-130    31   0.127E-07
  94 F= -.27785403E+03 E0= -.27785802E+03  d E =-.444779E+01  mag=    16.9689
 curvature:   0.00 expect dE= 0.464-321 dE for cont linesearch  0.277-321
 ZBRENT:  accuracy reached
 opt :   0.0000  next Energy=     0.000000 (dE= 0.273E+03)
 bond charge predicted
       N       E                     dE             d eps       ncg     rms          rms(c)
DAV:   1    -0.277854029280E+03   -0.31287E-09    0.50463E-12  4052   0.153E-07    0.145E-07
RMM:   2    -0.277854029280E+03    0.26921E-09    0.13192-130    31   0.118E-07
  95 F= -.27785403E+03 E0= -.27785802E+03  d E =-.444779E+01  mag=    16.9689
 curvature:   0.00 expect dE= 0.464-321 dE for cont linesearch  0.277-321
 ZBRENT:  accuracy reached
 opt :   0.0000  next Energy=     0.000000 (dE= 0.273E+03)
 bond charge predicted
       N       E                     dE             d eps       ncg     rms          rms(c)
DAV:   1    -0.277854029280E+03    0.25466E-09    0.35783E-12  4052   0.143E-07    0.135E-07
RMM:   2    -0.277854029280E+03   -0.43656E-10    0.13968-130    29   0.110E-07
  96 F= -.27785403E+03 E0= -.27785802E+03  d E =-.444779E+01  mag=    16.9689
 curvature:   0.00 expect dE= 0.464-321 dE for cont linesearch  0.277-321
 ZBRENT:  accuracy reached
 opt :   0.0000  next Energy=     0.000000 (dE= 0.273E+03)
 bond charge predicted
       N       E                     dE             d eps       ncg     rms          rms(c)
DAV:   1    -0.277854029280E+03   -0.50932E-10    0.62247E-12  4052   0.133E-07    0.126E-07
RMM:   2    -0.277854029280E+03    0.16007E-09    0.91497-131    29   0.103E-07
  97 F= -.27785403E+03 E0= -.27785802E+03  d E =-.444779E+01  mag=    16.9689
 curvature:   0.00 expect dE= 0.464-321 dE for cont linesearch  0.277-321
 ZBRENT:  accuracy reached
 opt :   0.0000  next Energy=     0.000000 (dE= 0.273E+03)
 bond charge predicted
       N       E                     dE             d eps       ncg     rms          rms(c)
DAV:   1    -0.277854029279E+03    0.76398E-09    0.66468E-12  4052   0.124E-07    0.118E-07
RMM:   2    -0.277854029280E+03   -0.58935E-09    0.41615-131    29   0.964E-08
  98 F= -.27785403E+03 E0= -.27785802E+03  d E =-.444779E+01  mag=    16.9689
 curvature:   0.00 expect dE= 0.464-321 dE for cont linesearch  0.277-321
 ZBRENT:  accuracy reached
 opt :   0.0000  next Energy=     0.000000 (dE= 0.273E+03)
 bond charge predicted
       N       E                     dE             d eps       ncg     rms          rms(c)
DAV:   1    -0.277854029280E+03   -0.61118E-09    0.40775E-12  4052   0.116E-07    0.110E-07
RMM:   2    -0.277854029280E+03   -0.25466E-09    0.36382-131    29   0.902E-08
  99 F= -.27785403E+03 E0= -.27785802E+03  d E =-.444779E+01  mag=    16.9689
 curvature:   0.00 expect dE= 0.464-321 dE for cont linesearch  0.277-321
 ZBRENT:  accuracy reached
 opt :   0.0000  next Energy=     0.000000 (dE= 0.273E+03)
 bond charge predicted
       N       E                     dE             d eps       ncg     rms          rms(c)
DAV:   1    -0.277854029280E+03   -0.58208E-10    0.65824E-12  4052   0.109E-07    0.102E-07
RMM:   2    -0.277854029280E+03   -0.29104E-10    0.35774-131    29   0.841E-08
 100 F= -.27785403E+03 E0= -.27785802E+03  d E =-.444779E+01  mag=    16.9689
 curvature:   0.00 expect dE= 0.464-321 dE for cont linesearch  0.277-321
 ZBRENT:  accuracy reached
 opt :   0.0000  next Energy=     0.000000 (dE= 0.273E+03)
 bond charge predicted
       N       E                     dE             d eps       ncg     rms          rms(c)
DAV:   1    -0.277854029280E+03    0.16735E-09    0.69989E-12  4052   0.101E-07    0.954E-08
RMM:   2    -0.277854029280E+03   -0.28376E-09    0.35701-131    28   0.784E-08
 101 F= -.27785403E+03 E0= -.27785802E+03  d E =-.444779E+01  mag=    16.9689
 curvature:   0.00 expect dE= 0.464-321 dE for cont linesearch  0.277-321
 ZBRENT:  accuracy reached
 opt :   0.0000  next Energy=     0.000000 (dE= 0.273E+03)
 bond charge predicted
       N       E                     dE             d eps       ncg     rms          rms(c)
DAV:   1    -0.277854029280E+03   -0.36380E-10    0.59747E-12  4052   0.946E-08    0.889E-08
RMM:   2    -0.277854029280E+03    0.72760E-10    0.36141-131    26   0.734E-08
 102 F= -.27785403E+03 E0= -.27785802E+03  d E =-.444779E+01  mag=    16.9689
 curvature:   0.00 expect dE= 0.464-321 dE for cont linesearch  0.277-321
 ZBRENT:  accuracy reached
 opt :   0.0000  next Energy=     0.000000 (dE= 0.273E+03)
 bond charge predicted
       N       E                     dE             d eps       ncg     rms          rms(c)
DAV:   1    -0.277854029280E+03   -0.16735E-09    0.59761E-12  4052   0.882E-08    0.825E-08
RMM:   2    -0.277854029280E+03    0.58208E-10    0.37375-131    26   0.685E-08
 103 F= -.27785403E+03 E0= -.27785802E+03  d E =-.444779E+01  mag=    16.9689
 curvature:   0.00 expect dE= 0.464-321 dE for cont linesearch  0.277-321
 ZBRENT:  accuracy reached
 opt :   0.0000  next Energy=     0.000000 (dE= 0.273E+03)
 bond charge predicted
       N       E                     dE             d eps       ncg     rms          rms(c)
DAV:   1    -0.277854029280E+03    0.36380E-09    0.55036E-12  4052   0.827E-08    0.770E-08
RMM:   2    -0.277854029280E+03   -0.12369E-09    0.39713-131    25   0.641E-08
 104 F= -.27785403E+03 E0= -.27785802E+03  d E =-.444779E+01  mag=    16.9689
 curvature:   0.00 expect dE= 0.464-321 dE for cont linesearch  0.277-321
 ZBRENT:  accuracy reached
 opt :   0.0000  next Energy=     0.000000 (dE= 0.273E+03)
 bond charge predicted
       N       E                     dE             d eps       ncg     rms          rms(c)
DAV:   1    -0.277854029280E+03    0.29104E-10    0.77936E-12  4052   0.773E-08    0.717E-08
RMM:   2    -0.277854029280E+03   -0.19645E-09    0.43736-131    25   0.599E-08
 105 F= -.27785403E+03 E0= -.27785802E+03  d E =-.444779E+01  mag=    16.9689
 curvature:   0.00 expect dE= 0.464-321 dE for cont linesearch  0.277-321
 ZBRENT:  accuracy reached
 opt :   0.0000  next Energy=     0.000000 (dE= 0.273E+03)
 bond charge predicted
       N       E                     dE             d eps       ncg     rms          rms(c)
DAV:   1    -0.277854029280E+03   -0.42201E-09    0.79111E-12  4052   0.722E-08    0.668E-08
RMM:   2    -0.277854029280E+03    0.10186E-09    0.50150-131    24   0.559E-08
 106 F= -.27785403E+03 E0= -.27785802E+03  d E =-.444779E+01  mag=    16.9689
 curvature:   0.00 expect dE= 0.464-321 dE for cont linesearch  0.277-321
 ZBRENT:  accuracy reached
 opt :   0.0000  next Energy=     0.000000 (dE= 0.273E+03)
 bond charge predicted
       N       E                     dE             d eps       ncg     rms          rms(c)
DAV:   1    -0.277854029280E+03    0.30559E-09    0.32831E-12  4052   0.672E-08    0.624E-08
RMM:   2    -0.277854029280E+03   -0.23283E-09    0.59659-131    24   0.522E-08
 107 F= -.27785403E+03 E0= -.27785802E+03  d E =-.444779E+01  mag=    16.9689
 curvature:   0.00 expect dE= 0.464-321 dE for cont linesearch  0.277-321
 ZBRENT:  accuracy reached
 opt :   0.0000  next Energy=     0.000000 (dE= 0.273E+03)
 bond charge predicted
       N       E                     dE             d eps       ncg     rms          rms(c)
DAV:   1    -0.277854029280E+03   -0.15280E-09    0.56063E-12  4052   0.630E-08    0.581E-08
RMM:   2    -0.277854029280E+03    0.29104E-10    0.73175-131    22   0.489E-08
 108 F= -.27785403E+03 E0= -.27785802E+03  d E =-.444779E+01  mag=    16.9689
 curvature:   0.00 expect dE= 0.464-321 dE for cont linesearch  0.277-321
 ZBRENT:  accuracy reached
 opt :   0.0000  next Energy=     0.000000 (dE= 0.273E+03)
 bond charge predicted
       N       E                     dE             d eps       ncg     rms          rms(c)
DAV:   1    -0.277854029280E+03    0.11642E-09    0.36883E-12  4052   0.589E-08    0.542E-08
RMM:   2    -0.277854029280E+03   -0.26921E-09    0.89304-131    21   0.456E-08
 109 F= -.27785403E+03 E0= -.27785802E+03  d E =-.444779E+01  mag=    16.9689
 curvature:   0.00 expect dE= 0.464-321 dE for cont linesearch  0.277-321
 ZBRENT:  accuracy reached
 opt :   0.0000  next Energy=     0.000000 (dE= 0.273E+03)
 bond charge predicted
       N       E                     dE             d eps       ncg     rms          rms(c)
DAV:   1    -0.277854029280E+03   -0.13097E-09    0.42533E-12  4052   0.548E-08    0.504E-08
RMM:   2    -0.277854029280E+03   -0.94587E-10    0.10741-130    21   0.428E-08
 110 F= -.27785403E+03 E0= -.27785802E+03  d E =-.444779E+01  mag=    16.9689
 curvature:   0.00 expect dE= 0.464-321 dE for cont linesearch  0.277-321
 ZBRENT:  accuracy reached
 opt :   0.0000  next Energy=     0.000000 (dE= 0.273E+03)
 bond charge predicted
       N       E                     dE             d eps       ncg     rms          rms(c)
DAV:   1    -0.277854029280E+03    0.00000E+00    0.55625E-12  4052   0.514E-08    0.470E-08
RMM:   2    -0.277854029280E+03   -0.15280E-09    0.11657-130    21   0.400E-08
 111 F= -.27785403E+03 E0= -.27785802E+03  d E =-.444779E+01  mag=    16.9689
 curvature:   0.00 expect dE= 0.464-321 dE for cont linesearch  0.277-321
 ZBRENT:  accuracy reached
 opt :   0.0000  next Energy=     0.000000 (dE= 0.273E+03)
 bond charge predicted
       N       E                     dE             d eps       ncg     rms          rms(c)
DAV:   1    -0.277854029280E+03   -0.11642E-09    0.69064E-12  4052   0.481E-08    0.438E-08
RMM:   2    -0.277854029280E+03   -0.94587E-10    0.78416-131    19   0.375E-08
 112 F= -.27785403E+03 E0= -.27785802E+03  d E =-.444779E+01  mag=    16.9689
 curvature:   0.00 expect dE= 0.464-321 dE for cont linesearch  0.277-321
 ZBRENT:  accuracy reached
 opt :   0.0000  next Energy=     0.000000 (dE= 0.273E+03)
 bond charge predicted
       N       E                     dE             d eps       ncg     rms          rms(c)
DAV:   1    -0.277854029280E+03   -0.14552E-10    0.44200E-12  4052   0.454E-08    0.410E-08
RMM:   2    -0.277854029280E+03   -0.80036E-10    0.28542-131    18   0.352E-08
 113 F= -.27785403E+03 E0= -.27785802E+03  d E =-.444779E+01  mag=    16.9689
 curvature:   0.00 expect dE= 0.464-321 dE for cont linesearch  0.277-321
 ZBRENT:  accuracy reached
 opt :   0.0000  next Energy=     0.000000 (dE= 0.273E+03)
 bond charge predicted
       N       E                     dE             d eps       ncg     rms          rms(c)
DAV:   1    -0.277854029280E+03    0.29104E-09    0.52088E-12  4052   0.424E-08    0.379E-08
RMM:   2    -0.277854029280E+03   -0.72760E-11    0.24630-131    19   0.327E-08
 114 F= -.27785403E+03 E0= -.27785802E+03  d E =-.444779E+01  mag=    16.9689
 curvature:   0.00 expect dE= 0.464-321 dE for cont linesearch  0.277-321
 ZBRENT:  accuracy reached
 opt :   0.0000  next Energy=     0.000000 (dE= 0.273E+03)
 bond charge predicted
       N       E                     dE             d eps       ncg     rms          rms(c)
DAV:   1    -0.277854029280E+03   -0.10186E-09    0.68402E-12  4052   0.394E-08    0.352E-08
RMM:   2    -0.277854029280E+03   -0.65484E-10    0.23407-131    18   0.308E-08
 115 F= -.27785403E+03 E0= -.27785802E+03  d E =-.444779E+01  mag=    16.9689
 curvature:   0.00 expect dE= 0.464-321 dE for cont linesearch  0.277-321
 ZBRENT:  accuracy reached
 opt :   0.0000  next Energy=     0.000000 (dE= 0.273E+03)
 bond charge predicted
       N       E                     dE             d eps       ncg     rms          rms(c)
DAV:   1    -0.277854029280E+03    0.19645E-09    0.56714E-12  4052   0.370E-08    0.326E-08
RMM:   2    -0.277854029280E+03   -0.34197E-09    0.22612-131    17   0.288E-08
 116 F= -.27785403E+03 E0= -.27785802E+03  d E =-.444779E+01  mag=    16.9689
 curvature:   0.00 expect dE= 0.464-321 dE for cont linesearch  0.277-321
 ZBRENT:  accuracy reached
 opt :   0.0000  next Energy=     0.000000 (dE= 0.273E+03)
 bond charge predicted
       N       E                     dE             d eps       ncg     rms          rms(c)
DAV:   1    -0.277854029280E+03   -0.33469E-09    0.72416E-12  4052   0.348E-08    0.307E-08
RMM:   2    -0.277854029280E+03   -0.50932E-10    0.22248-131    17   0.269E-08
 117 F= -.27785403E+03 E0= -.27785802E+03  d E =-.444779E+01  mag=    16.9689
 curvature:   0.00 expect dE= 0.464-321 dE for cont linesearch  0.277-321
 ZBRENT:  accuracy reached
 opt :   0.0000  next Energy=     0.000000 (dE= 0.273E+03)
 bond charge predicted
       N       E                     dE             d eps       ncg     rms          rms(c)
DAV:   1    -0.277854029280E+03    0.19645E-09    0.60589E-12  4052   0.324E-08    0.284E-08
RMM:   2    -0.277854029280E+03   -0.22555E-09    0.22073-131    17   0.252E-08
 118 F= -.27785403E+03 E0= -.27785802E+03  d E =-.444779E+01  mag=    16.9689
 curvature:   0.00 expect dE= 0.464-321 dE for cont linesearch  0.277-321
 ZBRENT:  accuracy reached
 opt :   0.0000  next Energy=     0.000000 (dE= 0.273E+03)
 bond charge predicted
       N       E                     dE             d eps       ncg     rms          rms(c)
DAV:   1    -0.277854029280E+03   -0.16735E-09    0.64175E-12  4052   0.304E-08    0.263E-08
RMM:   2    -0.277854029280E+03   -0.87311E-10    0.22138-131    15   0.237E-08
 119 F= -.27785403E+03 E0= -.27785802E+03  d E =-.444779E+01  mag=    16.9689
 curvature:   0.00 expect dE= 0.464-321 dE for cont linesearch  0.277-321
 ZBRENT:  accuracy reached
 opt :   0.0000  next Energy=     0.000000 (dE= 0.273E+03)
 bond charge predicted
       N       E                     dE             d eps       ncg     rms          rms(c)
DAV:   1    -0.277854029280E+03   -0.21828E-09    0.39418E-12  4052   0.285E-08    0.245E-08
RMM:   2    -0.277854029280E+03    0.72760E-11    0.22535-131    16   0.222E-08
 120 F= -.27785403E+03 E0= -.27785802E+03  d E =-.444779E+01  mag=    16.9689
 curvature:   0.00 expect dE= 0.464-321 dE for cont linesearch  0.277-321
 ZBRENT:  accuracy reached
 opt :   0.0000  next Energy=     0.000000 (dE= 0.273E+03)
 bond charge predicted
       N       E                     dE             d eps       ncg     rms          rms(c)
DAV:   1    -0.277854029280E+03    0.36380E-10    0.64779E-12  4052   0.268E-08    0.231E-08
RMM:   2    -0.277854029280E+03    0.43656E-10    0.23471-131    16   0.207E-08
 121 F= -.27785403E+03 E0= -.27785802E+03  d E =-.444779E+01  mag=    16.9689
 curvature:   0.00 expect dE= 0.464-321 dE for cont linesearch  0.277-321
 ZBRENT:  accuracy reached
 opt :   0.0000  next Energy=     0.000000 (dE= 0.273E+03)
 bond charge predicted
       N       E                     dE             d eps       ncg     rms          rms(c)
DAV:   1    -0.277854029280E+03    0.72760E-10    0.68815E-12  4052   0.251E-08    0.216E-08
RMM:   2    -0.277854029280E+03    0.58208E-10    0.25204-131    15   0.194E-08
 122 F= -.27785403E+03 E0= -.27785802E+03  d E =-.444779E+01  mag=    16.9689
 curvature:   0.00 expect dE= 0.464-321 dE for cont linesearch  0.277-321
 ZBRENT:  accuracy reached
 opt :   0.0000  next Energy=     0.000000 (dE= 0.273E+03)
 bond charge predicted
       N       E                     dE             d eps       ncg     rms          rms(c)
DAV:   1    -0.277854029280E+03   -0.15280E-09    0.61693E-12  4052   0.234E-08    0.202E-08
RMM:   2    -0.277854029280E+03    0.26193E-09    0.28173-131    15   0.182E-08
 123 F= -.27785403E+03 E0= -.27785802E+03  d E =-.444779E+01  mag=    16.9689
 curvature:   0.00 expect dE= 0.464-321 dE for cont linesearch  0.277-321
 ZBRENT:  accuracy reached
 opt :   0.0000  next Energy=     0.000000 (dE= 0.273E+03)
 bond charge predicted
       N       E                     dE             d eps       ncg     rms          rms(c)
DAV:   1    -0.277854029280E+03    0.24011E-09    0.46947E-12  4052   0.221E-08    0.188E-08
RMM:   2    -0.277854029280E+03   -0.94587E-10    0.32910-131    15   0.171E-08
 124 F= -.27785403E+03 E0= -.27785802E+03  d E =-.444779E+01  mag=    16.9689
 curvature:   0.00 expect dE= 0.464-321 dE for cont linesearch  0.277-321
 ZBRENT:  accuracy reached
 opt :   0.0000  next Energy=     0.000000 (dE= 0.273E+03)
 bond charge predicted
       N       E                     dE             d eps       ncg     rms          rms(c)
DAV:   1    -0.277854029280E+03    0.13824E-09    0.49149E-12  4052   0.205E-08    0.176E-08
RMM:   2    -0.277854029280E+03   -0.21828E-09    0.39928-131    15   0.161E-08
 125 F= -.27785403E+03 E0= -.27785802E+03  d E =-.444779E+01  mag=    16.9689
 curvature:   0.00 expect dE= 0.464-321 dE for cont linesearch  0.277-321
 ZBRENT:  accuracy reached
 opt :   0.0000  next Energy=     0.000000 (dE= 0.273E+03)
 bond charge predicted
       N       E                     dE             d eps       ncg     rms          rms(c)
DAV:   1    -0.277854029280E+03   -0.37835E-09    0.73698E-12  4052   0.194E-08    0.167E-08
RMM:   2    -0.277854029280E+03    0.15280E-09    0.49696-131    15   0.151E-08
 126 F= -.27785403E+03 E0= -.27785802E+03  d E =-.444779E+01  mag=    16.9689
 curvature:   0.00 expect dE= 0.464-321 dE for cont linesearch  0.277-321
 ZBRENT:  accuracy reached
 opt :   0.0000  next Energy=     0.000000 (dE= 0.273E+03)
 bond charge predicted
       N       E                     dE             d eps       ncg     rms          rms(c)
DAV:   1    -0.277854029280E+03    0.25466E-09    0.62664E-12  4052   0.181E-08    0.154E-08
RMM:   2    -0.277854029280E+03   -0.12369E-09    0.60829-131    15   0.140E-08
 127 F= -.27785403E+03 E0= -.27785802E+03  d E =-.444779E+01  mag=    16.9689
 curvature:   0.00 expect dE= 0.464-321 dE for cont linesearch  0.277-321
 ZBRENT:  accuracy reached
 opt :   0.0000  next Energy=     0.000000 (dE= 0.273E+03)
 bond charge predicted
       N       E                     dE             d eps       ncg     rms          rms(c)
DAV:   1    -0.277854029280E+03   -0.72760E-11    0.35101E-12  4052   0.168E-08    0.142E-08
RMM:   2    -0.277854029280E+03    0.13824E-09    0.71901-131    14   0.132E-08
 128 F= -.27785403E+03 E0= -.27785802E+03  d E =-.444779E+01  mag=    16.9689
 curvature:   0.00 expect dE= 0.464-321 dE for cont linesearch  0.277-321
 ZBRENT:  accuracy reached
 opt :   0.0000  next Energy=     0.000000 (dE= 0.273E+03)
 bond charge predicted
       N       E                     dE             d eps       ncg     rms          rms(c)
DAV:   1    -0.277854029280E+03    0.65484E-10    0.66509E-12  4052   0.159E-08    0.131E-08
RMM:   2    -0.277854029280E+03    0.43656E-10    0.76242-131    14   0.124E-08
 129 F= -.27785403E+03 E0= -.27785802E+03  d E =-.444779E+01  mag=    16.9689
 curvature:   0.00 expect dE= 0.464-321 dE for cont linesearch  0.277-321
 ZBRENT:  accuracy reached
 opt :   0.0000  next Energy=     0.000000 (dE= 0.273E+03)
 bond charge predicted
       N       E                     dE             d eps       ncg     rms          rms(c)
DAV:   1    -0.277854029280E+03    0.36380E-10    0.46127E-12  4052   0.150E-08    0.121E-08
RMM:   2    -0.277854029280E+03    0.43656E-10    0.60158-131    14   0.116E-08
 130 F= -.27785403E+03 E0= -.27785802E+03  d E =-.444779E+01  mag=    16.9689
 curvature:   0.00 expect dE= 0.464-321 dE for cont linesearch  0.277-321
 ZBRENT:  accuracy reached
 opt :   0.0000  next Energy=     0.000000 (dE= 0.273E+03)
 bond charge predicted
       N       E                     dE             d eps       ncg     rms          rms(c)
DAV:   1    -0.277854029280E+03   -0.50932E-10    0.39721E-12  4052   0.143E-08    0.117E-08
RMM:   2    -0.277854029280E+03   -0.94587E-10    0.21523-131    14   0.114E-08
 131 F= -.27785403E+03 E0= -.27785802E+03  d E =-.444779E+01  mag=    16.9689
 curvature:   0.00 expect dE= 0.464-321 dE for cont linesearch  0.277-321
 ZBRENT:  accuracy reached
 opt :   0.0000  next Energy=     0.000000 (dE= 0.273E+03)
 bond charge predicted
       N       E                     dE             d eps       ncg     rms          rms(c)
DAV:   1    -0.277854029280E+03   -0.28376E-09    0.73415E-12  4052   0.135E-08    0.110E-08
RMM:   2    -0.277854029280E+03    0.31287E-09    0.15846-131    14   0.104E-08
 132 F= -.27785403E+03 E0= -.27785802E+03  d E =-.444779E+01  mag=    16.9689
 curvature:   0.00 expect dE= 0.464-321 dE for cont linesearch  0.277-321
 ZBRENT:  accuracy reached
 opt :   0.0000  next Energy=     0.000000 (dE= 0.273E+03)
 bond charge predicted
       N       E                     dE             d eps       ncg     rms          rms(c)
DAV:   1    -0.277854029280E+03    0.48749E-09    0.77967E-12  4052   0.123E-08    0.103E-08
RMM:   2    -0.277854029280E+03   -0.30559E-09    0.15229-131    14   0.981E-09
 133 F= -.27785403E+03 E0= -.27785802E+03  d E =-.444779E+01  mag=    16.9689
 curvature:   0.00 expect dE= 0.464-321 dE for cont linesearch  0.277-321
 ZBRENT:  accuracy reached
 opt :   0.0000  next Energy=     0.000000 (dE= 0.273E+03)
 bond charge predicted
       N       E                     dE             d eps       ncg     rms          rms(c)
DAV:   1    -0.277854029280E+03   -0.21100E-09    0.52518E-12  4052   0.118E-08    0.954E-09
RMM:   2    -0.277854029280E+03    0.65484E-10    0.14761-131    14   0.912E-09
 134 F= -.27785403E+03 E0= -.27785802E+03  d E =-.444779E+01  mag=    16.9689
 curvature:   0.00 expect dE= 0.464-321 dE for cont linesearch  0.277-321
 ZBRENT:  accuracy reached
 opt :   0.0000  next Energy=     0.000000 (dE= 0.273E+03)
 bond charge predicted
       N       E                     dE             d eps       ncg     rms          rms(c)
DAV:   1    -0.277854029280E+03   -0.26921E-09    0.93245E-12  4052   0.112E-08    0.891E-09
RMM:   2    -0.277854029280E+03    0.72760E-10    0.14356-131    14   0.868E-09
 135 F= -.27785403E+03 E0= -.27785802E+03  d E =-.444779E+01  mag=    16.9689
 curvature:   0.00 expect dE= 0.464-321 dE for cont linesearch  0.277-321
 ZBRENT:  accuracy reached
 opt :   0.0000  next Energy=     0.000000 (dE= 0.273E+03)
 bond charge predicted
       N       E                     dE             d eps       ncg     rms          rms(c)
DAV:   1    -0.277854029280E+03    0.22555E-09    0.58106E-12  4052   0.103E-08    0.819E-09
RMM:   2    -0.277854029280E+03   -0.13097E-09    0.14016-131    13   0.814E-09
 136 F= -.27785403E+03 E0= -.27785802E+03  d E =-.444779E+01  mag=    16.9689
 curvature:   0.00 expect dE= 0.464-321 dE for cont linesearch  0.277-321
 ZBRENT:  accuracy reached
 opt :   0.0000  next Energy=     0.000000 (dE= 0.273E+03)
 bond charge predicted
       N       E                     dE             d eps       ncg     rms          rms(c)
DAV:   1    -0.277854029280E+03    0.10186E-09    0.55550E-12  4052   0.993E-09    0.794E-09
RMM:   2    -0.277854029280E+03   -0.13097E-09    0.13746-131    14   0.788E-09
 137 F= -.27785403E+03 E0= -.27785802E+03  d E =-.444779E+01  mag=    16.9689
 curvature:   0.00 expect dE= 0.464-321 dE for cont linesearch  0.277-321
 ZBRENT:  accuracy reached
 opt :   0.0000  next Energy=     0.000000 (dE= 0.273E+03)
 bond charge predicted
       N       E                     dE             d eps       ncg     rms          rms(c)
DAV:   1    -0.277854029280E+03   -0.80036E-10    0.45658E-12  4056   0.928E-09    0.737E-09
RMM:   2    -0.277854029280E+03    0.13824E-09    0.13550-131    13   0.742E-09
 138 F= -.27785403E+03 E0= -.27785802E+03  d E =-.444779E+01  mag=    16.9689
 curvature:   0.00 expect dE= 0.464-321 dE for cont linesearch  0.277-321
 ZBRENT:  accuracy reached
 opt :   0.0000  next Energy=     0.000000 (dE= 0.273E+03)
 bond charge predicted
       N       E                     dE             d eps       ncg     rms          rms(c)
DAV:   1    -0.277854029280E+03   -0.43656E-10    0.64479E-12  4052   0.887E-09    0.673E-09
RMM:   2    -0.277854029280E+03   -0.19645E-09    0.13433-131    11   0.690E-09
 139 F= -.27785403E+03 E0= -.27785802E+03  d E =-.444779E+01  mag=    16.9689
 curvature:   0.00 expect dE= 0.464-321 dE for cont linesearch  0.277-321
 ZBRENT:  accuracy reached
 opt :   0.0000  next Energy=     0.000000 (dE= 0.273E+03)
 bond charge predicted
       N       E                     dE             d eps       ncg     rms          rms(c)
DAV:   1    -0.277854029280E+03   -0.10186E-09    0.62776E-12  4052   0.820E-09    0.598E-09
RMM:   2    -0.277854029280E+03    0.10914E-09    0.13407-131    11   0.647E-09
 140 F= -.27785403E+03 E0= -.27785802E+03  d E =-.444779E+01  mag=    16.9689
 curvature:   0.00 expect dE= 0.464-321 dE for cont linesearch  0.277-321
 ZBRENT:  accuracy reached
 opt :   0.0000  next Energy=     0.000000 (dE= 0.273E+03)
 bond charge predicted
       N       E                     dE             d eps       ncg     rms          rms(c)
DAV:   1    -0.277854029280E+03   -0.72760E-10    0.59357E-12  4052   0.769E-09    0.535E-09
RMM:   2    -0.277854029280E+03    0.21828E-09    0.13485-131    11   0.615E-09
 141 F= -.27785403E+03 E0= -.27785802E+03  d E =-.444779E+01  mag=    16.9689
 curvature:   0.00 expect dE= 0.464-321 dE for cont linesearch  0.277-321
 ZBRENT:  accuracy reached
 opt :   0.0000  next Energy=     0.000000 (dE= 0.273E+03)
 bond charge predicted
       N       E                     dE             d eps       ncg     rms          rms(c)
DAV:   1    -0.277854029280E+03    0.12369E-09    0.49784E-12  4052   0.722E-09    0.489E-09
RMM:   2    -0.277854029280E+03    0.87311E-10    0.13684-131    11   0.564E-09
 142 F= -.27785403E+03 E0= -.27785802E+03  d E =-.444779E+01  mag=    16.9689
 curvature:   0.00 expect dE= 0.464-321 dE for cont linesearch  0.277-321
 ZBRENT:  accuracy reached
 opt :   0.0000  next Energy=     0.000000 (dE= 0.273E+03)
 bond charge predicted
       N       E                     dE             d eps       ncg     rms          rms(c)
DAV:   1    -0.277854029280E+03    0.16007E-09    0.59763E-12  4052   0.656E-09    0.465E-09
RMM:   2    -0.277854029280E+03   -0.27649E-09    0.14035-131    11   0.537E-09
 143 F= -.27785403E+03 E0= -.27785802E+03  d E =-.444779E+01  mag=    16.9689
 curvature:   0.00 expect dE= 0.464-321 dE for cont linesearch  0.277-321
 ZBRENT:  accuracy reached
 opt :   0.0000  next Energy=     0.000000 (dE= 0.273E+03)
 bond charge predicted
       N       E                     dE             d eps       ncg     rms          rms(c)
DAV:   1    -0.277854029280E+03   -0.13824E-09    0.45726E-12  4052   0.686E-09    0.433E-09
RMM:   2    -0.277854029280E+03    0.80036E-10    0.14547-131    11   0.511E-09
 144 F= -.27785403E+03 E0= -.27785802E+03  d E =-.444779E+01  mag=    16.9689
 curvature:   0.00 expect dE= 0.464-321 dE for cont linesearch  0.277-321
 ZBRENT:  accuracy reached
 opt :   0.0000  next Energy=     0.000000 (dE= 0.273E+03)
 bond charge predicted
       N       E                     dE             d eps       ncg     rms          rms(c)
DAV:   1    -0.277854029280E+03    0.15280E-09    0.44538E-12  4052   0.633E-09    0.420E-09
RMM:   2    -0.277854029280E+03   -0.16735E-09    0.15158-131    11   0.501E-09
 145 F= -.27785403E+03 E0= -.27785802E+03  d E =-.444779E+01  mag=    16.9689
 curvature:   0.00 expect dE= 0.464-321 dE for cont linesearch  0.277-321
 ZBRENT:  accuracy reached
 opt :   0.0000  next Energy=     0.000000 (dE= 0.273E+03)
 bond charge predicted
       N       E                     dE             d eps       ncg     rms          rms(c)
DAV:   1    -0.277854029280E+03   -0.29104E-09    0.29509E-12  4052   0.596E-09    0.393E-09
RMM:   2    -0.277854029280E+03    0.10914E-09    0.16425-131    11   0.492E-09
 146 F= -.27785403E+03 E0= -.27785802E+03  d E =-.444779E+01  mag=    16.9689
 curvature:   0.00 expect dE= 0.464-321 dE for cont linesearch  0.277-321
 ZBRENT:  accuracy reached
 opt :   0.0000  next Energy=     0.000000 (dE= 0.273E+03)
 bond charge predicted
       N       E                     dE             d eps       ncg     rms          rms(c)
DAV:   1    -0.277854029280E+03    0.00000E+00    0.60610E-12  4052   0.584E-09    0.365E-09
RMM:   2    -0.277854029280E+03    0.24738E-09    0.18462-131    11   0.427E-09
 147 F= -.27785403E+03 E0= -.27785802E+03  d E =-.444779E+01  mag=    16.9689
 curvature:   0.00 expect dE= 0.464-321 dE for cont linesearch  0.277-321
 ZBRENT:  accuracy reached
 opt :   0.0000  next Energy=     0.000000 (dE= 0.273E+03)
 bond charge predicted
       N       E                     dE             d eps       ncg     rms          rms(c)
DAV:   1    -0.277854029280E+03    0.17462E-09    0.57769E-12  4052   0.539E-09    0.361E-09
RMM:   2    -0.277854029280E+03    0.14552E-10    0.21207-131    11   0.415E-09
 148 F= -.27785403E+03 E0= -.27785802E+03  d E =-.444779E+01  mag=    16.9689
 curvature:   0.00 expect dE= 0.464-321 dE for cont linesearch  0.277-321
 ZBRENT:  accuracy reached
 opt :   0.0000  next Energy=     0.000000 (dE= 0.273E+03)
 bond charge predicted
       N       E                     dE             d eps       ncg     rms          rms(c)
DAV:   1    -0.277854029280E+03   -0.23283E-09    0.64349E-12  4052   0.481E-09    0.325E-09
RMM:   2    -0.277854029280E+03    0.11642E-09    0.24425-131    11   0.380E-09
 149 F= -.27785403E+03 E0= -.27785802E+03  d E =-.444779E+01  mag=    16.9689
 curvature:   0.00 expect dE= 0.464-321 dE for cont linesearch  0.277-321
 ZBRENT:  accuracy reached
 opt :   0.0000  next Energy=     0.000000 (dE= 0.273E+03)
 bond charge predicted
       N       E                     dE             d eps       ncg     rms          rms(c)
DAV:   1    -0.277854029280E+03    0.26193E-09    0.50747E-12  4052   0.476E-09    0.305E-09
RMM:   2    -0.277854029280E+03   -0.36380E-09    0.27856-131    11   0.379E-09
 150 F= -.27785403E+03 E0= -.27785802E+03  d E =-.444779E+01  mag=    16.9689
 curvature:   0.00 expect dE= 0.464-321 dE for cont linesearch  0.277-321
 ZBRENT:  accuracy reached
 opt :   0.0000  next Energy=     0.000000 (dE= 0.273E+03)
 bond charge predicted
       N       E                     dE             d eps       ncg     rms          rms(c)
DAV:   1    -0.277854029280E+03    0.16007E-09    0.42977E-12  4052   0.474E-09    0.319E-09
RMM:   2    -0.277854029280E+03   -0.25466E-09    0.30507-131    11   0.389E-09
 151 F= -.27785403E+03 E0= -.27785802E+03  d E =-.444779E+01  mag=    16.9689
 curvature:   0.00 expect dE= 0.464-321 dE for cont linesearch  0.277-321
 ZBRENT:  accuracy reached
 opt :   0.0000  next Energy=     0.000000 (dE= 0.273E+03)
 bond charge predicted
       N       E                     dE             d eps       ncg     rms          rms(c)
DAV:   1    -0.277854029280E+03   -0.29104E-10    0.54210E-12  4052   0.430E-09    0.281E-09
RMM:   2    -0.277854029280E+03   -0.10186E-09    0.32089-131    11   0.339E-09
 152 F= -.27785403E+03 E0= -.27785802E+03  d E =-.444779E+01  mag=    16.9689
 curvature:   0.00 expect dE= 0.464-321 dE for cont linesearch  0.277-321
 ZBRENT:  accuracy reached
 opt :   0.0000  next Energy=     0.000000 (dE= 0.273E+03)
 bond charge predicted
       N       E                     dE             d eps       ncg     rms          rms(c)
DAV:   1    -0.277854029280E+03    0.16007E-09    0.49544E-12  4052   0.396E-09    0.250E-09
RMM:   2    -0.277854029280E+03   -0.16735E-09    0.31899-131    11   0.333E-09
 153 F= -.27785403E+03 E0= -.27785802E+03  d E =-.444779E+01  mag=    16.9689
 curvature:   0.00 expect dE= 0.464-321 dE for cont linesearch  0.277-321
 ZBRENT:  accuracy reached
 opt :   0.0000  next Energy=     0.000000 (dE= 0.273E+03)
 bond charge predicted
       N       E                     dE             d eps       ncg     rms          rms(c)
DAV:   1    -0.277854029280E+03   -0.21828E-10    0.69326E-12  4052   0.377E-09    0.223E-09
RMM:   2    -0.277854029280E+03   -0.35652E-09    0.30675-131    11   0.319E-09
 154 F= -.27785403E+03 E0= -.27785802E+03  d E =-.444779E+01  mag=    16.9689
 curvature:   0.00 expect dE= 0.464-321 dE for cont linesearch  0.277-321
 ZBRENT:  accuracy reached
 opt :   0.0000  next Energy=     0.000000 (dE= 0.273E+03)
 bond charge predicted
       N       E                     dE             d eps       ncg     rms          rms(c)
DAV:   1    -0.277854029280E+03   -0.31287E-09    0.68982E-12  4052   0.363E-09    0.207E-09
RMM:   2    -0.277854029280E+03   -0.72760E-11    0.28482-131    11   0.300E-09
 155 F= -.27785403E+03 E0= -.27785802E+03  d E =-.444779E+01  mag=    16.9689
 curvature:   0.00 expect dE= 0.464-321 dE for cont linesearch  0.277-321
 ZBRENT:  accuracy reached
 opt :   0.0000  next Energy=     0.000000 (dE= 0.273E+03)
 bond charge predicted
       N       E                     dE             d eps       ncg     rms          rms(c)
DAV:   1    -0.277854029280E+03   -0.50932E-10    0.74069E-12  4052   0.361E-09    0.236E-09
RMM:   2    -0.277854029280E+03    0.13097E-09    0.25443-131    11   0.312E-09
 156 F= -.27785403E+03 E0= -.27785802E+03  d E =-.444779E+01  mag=    16.9689
 curvature:   0.00 expect dE= 0.464-321 dE for cont linesearch  0.277-321
 ZBRENT:  accuracy reached
 opt :   0.0000  next Energy=     0.000000 (dE= 0.273E+03)
 bond charge predicted
       N       E                     dE             d eps       ncg     rms          rms(c)
DAV:   1    -0.277854029280E+03    0.22555E-09    0.48420E-12  4052   0.358E-09    0.196E-09
RMM:   2    -0.277854029280E+03   -0.35652E-09    0.20398-131    11   0.261E-09
 157 F= -.27785403E+03 E0= -.27785802E+03  d E =-.444779E+01  mag=    16.9689
 curvature:   0.00 expect dE= 0.464-321 dE for cont linesearch  0.277-321
 ZBRENT:  accuracy reached
 opt :   0.0000  next Energy=     0.000000 (dE= 0.273E+03)
 bond charge predicted
       N       E                     dE             d eps       ncg     rms          rms(c)
DAV:   1    -0.277854029280E+03   -0.29831E-09    0.57875E-12  4052   0.321E-09    0.172E-09
RMM:   2    -0.277854029280E+03    0.28376E-09    0.15000-131    11   0.285E-09
 158 F= -.27785403E+03 E0= -.27785802E+03  d E =-.444779E+01  mag=    16.9689
 curvature:   0.00 expect dE= 0.464-321 dE for cont linesearch  0.277-321
 ZBRENT:  accuracy reached
 opt :   0.0000  next Energy=     0.000000 (dE= 0.273E+03)
 bond charge predicted
       N       E                     dE             d eps       ncg     rms          rms(c)
DAV:   1    -0.277854029280E+03    0.14552E-09    0.70449E-12  4052   0.318E-09    0.151E-09
RMM:   2    -0.277854029280E+03   -0.18190E-09    0.12102-131    11   0.262E-09
 159 F= -.27785403E+03 E0= -.27785802E+03  d E =-.444779E+01  mag=    16.9689
 curvature:   0.00 expect dE= 0.464-321 dE for cont linesearch  0.277-321
 ZBRENT:  accuracy reached
 opt :   0.0000  next Energy=     0.000000 (dE= 0.273E+03)
 bond charge predicted
       N       E                     dE             d eps       ncg     rms          rms(c)
DAV:   1    -0.277854029280E+03    0.21828E-10    0.62265E-12  4058   0.318E-09    0.146E-09
RMM:   2    -0.277854029280E+03   -0.50932E-10    0.11119-131    11   0.235E-09
 160 F= -.27785403E+03 E0= -.27785802E+03  d E =-.444779E+01  mag=    16.9689
 curvature:   0.00 expect dE= 0.464-321 dE for cont linesearch  0.277-321
 ZBRENT:  accuracy reached
 opt :   0.0000  next Energy=     0.000000 (dE= 0.273E+03)
 bond charge predicted
       N       E                     dE             d eps       ncg     rms          rms(c)
DAV:   1    -0.277854029280E+03    0.20373E-09    0.63409E-12  4052   0.307E-09    0.133E-09
RMM:   2    -0.277854029280E+03   -0.40745E-09    0.10557-131    11   0.220E-09
 161 F= -.27785403E+03 E0= -.27785802E+03  d E =-.444779E+01  mag=    16.9689
 curvature:   0.00 expect dE= 0.464-321 dE for cont linesearch  0.277-321
 ZBRENT:  accuracy reached
 opt :   0.0000  next Energy=     0.000000 (dE= 0.273E+03)
 bond charge predicted
       N       E                     dE             d eps       ncg     rms          rms(c)
DAV:   1    -0.277854029280E+03   -0.34925E-09    0.63991E-12  4052   0.276E-09    0.127E-09
RMM:   2    -0.277854029280E+03    0.14552E-10    0.10093-131    11   0.211E-09
 162 F= -.27785403E+03 E0= -.27785802E+03  d E =-.444779E+01  mag=    16.9689
 curvature:   0.00 expect dE= 0.464-321 dE for cont linesearch  0.277-321
 ZBRENT:  accuracy reached
 opt :   0.0000  next Energy=     0.000000 (dE= 0.273E+03)
 bond charge predicted
       N       E                     dE             d eps       ncg     rms          rms(c)
DAV:   1    -0.277854029280E+03    0.22555E-09    0.67300E-12  4052   0.229E-09    0.113E-09
RMM:   2    -0.277854029280E+03   -0.15280E-09    0.96195-132    11   0.207E-09
 163 F= -.27785403E+03 E0= -.27785802E+03  d E =-.444779E+01  mag=    16.9689
 curvature:   0.00 expect dE= 0.464-321 dE for cont linesearch  0.277-321
 ZBRENT:  accuracy reached
 opt :   0.0000  next Energy=     0.000000 (dE= 0.273E+03)
 bond charge predicted
       N       E                     dE             d eps       ncg     rms          rms(c)
DAV:   1    -0.277854029280E+03   -0.24738E-09    0.73447E-12  4052   0.261E-09    0.119E-09
RMM:   2    -0.277854029280E+03    0.18917E-09    0.91636-132    11   0.183E-09
 164 F= -.27785403E+03 E0= -.27785802E+03  d E =-.444779E+01  mag=    16.9689
 curvature:   0.00 expect dE= 0.464-321 dE for cont linesearch  0.277-321
 ZBRENT:  accuracy reached
 opt :   0.0000  next Energy=     0.000000 (dE= 0.273E+03)
 bond charge predicted
       N       E                     dE             d eps       ncg     rms          rms(c)
DAV:   1    -0.277854029280E+03   -0.87311E-10    0.58510E-12  4052   0.220E-09    0.132E-09
RMM:   2    -0.277854029280E+03    0.43656E-09    0.88176-132    11   0.166E-09
 165 F= -.27785403E+03 E0= -.27785802E+03  d E =-.444779E+01  mag=    16.9689
 curvature:   0.00 expect dE= 0.464-321 dE for cont linesearch  0.277-321
 ZBRENT:  accuracy reached
 opt :   0.0000  next Energy=     0.000000 (dE= 0.273E+03)
 bond charge predicted
       N       E                     dE             d eps       ncg     rms          rms(c)
DAV:   1    -0.277854029279E+03    0.72760E-09    0.75955E-12  4052   0.211E-09    0.105E-09
RMM:   2    -0.277854029280E+03   -0.37835E-09    0.85536-132    11   0.167E-09
 166 F= -.27785403E+03 E0= -.27785802E+03  d E =-.444779E+01  mag=    16.9689
 curvature:   0.00 expect dE= 0.464-321 dE for cont linesearch  0.277-321
 ZBRENT:  accuracy reached
 opt :   0.0000  next Energy=     0.000000 (dE= 0.273E+03)
 bond charge predicted
       N       E                     dE             d eps       ncg     rms          rms(c)
DAV:   1    -0.277854029280E+03   -0.73487E-09    0.49106E-12  4052   0.212E-09    0.130E-09
RMM:   2    -0.277854029280E+03    0.24738E-09    0.83433-132    11   0.165E-09
 167 F= -.27785403E+03 E0= -.27785802E+03  d E =-.444779E+01  mag=    16.9689
 curvature:   0.00 expect dE= 0.464-321 dE for cont linesearch  0.277-321
 ZBRENT:  accuracy reached
 opt :   0.0000  next Energy=     0.000000 (dE= 0.273E+03)
 bond charge predicted
       N       E                     dE             d eps       ncg     rms          rms(c)
DAV:   1    -0.277854029280E+03    0.26921E-09    0.65999E-12  4052   0.227E-09    0.867E-10
RMM:   2    -0.277854029280E+03   -0.15280E-09    0.81757-132    11   0.170E-09
 168 F= -.27785403E+03 E0= -.27785802E+03  d E =-.444779E+01  mag=    16.9689
 curvature:   0.00 expect dE= 0.464-321 dE for cont linesearch  0.277-321
 ZBRENT:  accuracy reached
 opt :   0.0000  next Energy=     0.000000 (dE= 0.273E+03)
 bond charge predicted
       N       E                     dE             d eps       ncg     rms          rms(c)
DAV:   1    -0.277854029280E+03   -0.10186E-09    0.64708E-12  4052   0.209E-09    0.856E-10
RMM:   2    -0.277854029280E+03    0.58208E-10    0.80503-132     9   0.155E-09
 169 F= -.27785403E+03 E0= -.27785802E+03  d E =-.444779E+01  mag=    16.9689
 curvature:   0.00 expect dE= 0.464-321 dE for cont linesearch  0.277-321
 ZBRENT:  accuracy reached
 opt :   0.0000  next Energy=     0.000000 (dE= 0.273E+03)
 bond charge predicted
       N       E                     dE             d eps       ncg     rms          rms(c)
DAV:   1    -0.277854029280E+03    0.72760E-11    0.29822E-12  4052   0.174E-09    0.979E-10
RMM:   2    -0.277854029280E+03    0.21828E-10    0.79604-132     9   0.179E-09
 170 F= -.27785403E+03 E0= -.27785802E+03  d E =-.444779E+01  mag=    16.9689
 curvature:   0.00 expect dE= 0.464-321 dE for cont linesearch  0.277-321
 ZBRENT:  accuracy reached
 opt :   0.0000  next Energy=     0.000000 (dE= 0.273E+03)
 bond charge predicted
       N       E                     dE             d eps       ncg     rms          rms(c)
DAV:   1    -0.277854029280E+03    0.13824E-09    0.41522E-12  4052   0.206E-09    0.801E-10
RMM:   2    -0.277854029280E+03   -0.43656E-10    0.79074-132     9   0.130E-09
 171 F= -.27785403E+03 E0= -.27785802E+03  d E =-.444779E+01  mag=    16.9689
 curvature:   0.00 expect dE= 0.464-321 dE for cont linesearch  0.277-321
 ZBRENT:  accuracy reached
 opt :   0.0000  next Energy=     0.000000 (dE= 0.273E+03)
 bond charge predicted
       N       E                     dE             d eps       ncg     rms          rms(c)
DAV:   1    -0.277854029280E+03   -0.72760E-10    0.75598E-12  4052   0.163E-09    0.693E-10
RMM:   2    -0.277854029280E+03   -0.21100E-09    0.78863-132     9   0.214E-09
 172 F= -.27785403E+03 E0= -.27785802E+03  d E =-.444779E+01  mag=    16.9689
 curvature:   0.00 expect dE= 0.464-321 dE for cont linesearch  0.277-321
 ZBRENT:  accuracy reached
 opt :   0.0000  next Energy=     0.000000 (dE= 0.273E+03)
 bond charge predicted
       N       E                     dE             d eps       ncg     rms          rms(c)
DAV:   1    -0.277854029280E+03   -0.14552E-10    0.64720E-12  4052   0.197E-09    0.802E-10
RMM:   2    -0.277854029280E+03   -0.50932E-10    0.78919-132     9   0.160E-09
 173 F= -.27785403E+03 E0= -.27785802E+03  d E =-.444779E+01  mag=    16.9689
 curvature:   0.00 expect dE= 0.464-321 dE for cont linesearch  0.277-321
 ZBRENT:  accuracy reached
 opt :   0.0000  next Energy=     0.000000 (dE= 0.273E+03)
 bond charge predicted
       N       E                     dE             d eps       ncg     rms          rms(c)
DAV:   1    -0.277854029280E+03    0.19645E-09    0.46847E-12  4052   0.195E-09    0.977E-10
RMM:   2    -0.277854029280E+03   -0.37835E-09    0.79202-132     9   0.185E-09
 174 F= -.27785403E+03 E0= -.27785802E+03  d E =-.444779E+01  mag=    16.9689
 curvature:   0.00 expect dE= 0.464-321 dE for cont linesearch  0.277-321
 ZBRENT:  accuracy reached
 opt :   0.0000  next Energy=     0.000000 (dE= 0.273E+03)
 bond charge predicted
       N       E                     dE             d eps       ncg     rms          rms(c)
DAV:   1    -0.277854029280E+03   -0.32742E-09    0.56853E-12  4052   0.176E-09    0.739E-10
RMM:   2    -0.277854029280E+03    0.22555E-09    0.79594-132     9   0.156E-09
 175 F= -.27785403E+03 E0= -.27785802E+03  d E =-.444779E+01  mag=    16.9689
 curvature:   0.00 expect dE= 0.464-321 dE for cont linesearch  0.277-321
 ZBRENT:  accuracy reached
 opt :   0.0000  next Energy=     0.000000 (dE= 0.273E+03)
 bond charge predicted
       N       E                     dE             d eps       ncg     rms          rms(c)
DAV:   1    -0.277854029280E+03   -0.72760E-11    0.67223E-12  4052   0.186E-09    0.647E-10
RMM:   2    -0.277854029280E+03    0.21828E-09    0.80050-132     9   0.112E-09
 176 F= -.27785403E+03 E0= -.27785802E+03  d E =-.444779E+01  mag=    16.9689
 curvature:   0.00 expect dE= 0.464-321 dE for cont linesearch  0.277-321
 ZBRENT:  accuracy reached
 opt :   0.0000  next Energy=     0.000000 (dE= 0.273E+03)
 bond charge predicted
       N       E                     dE             d eps       ncg     rms          rms(c)
DAV:   1    -0.277854029279E+03    0.55297E-09    0.41435E-12  4052   0.127E-09    0.658E-10
RMM:   2    -0.277854029280E+03   -0.38563E-09    0.80346-132     9   0.130E-09
 177 F= -.27785403E+03 E0= -.27785802E+03  d E =-.444779E+01  mag=    16.9689
 curvature:   0.00 expect dE= 0.464-321 dE for cont linesearch  0.277-321
 ZBRENT:  accuracy reached
 opt :   0.0000  next Energy=     0.000000 (dE= 0.273E+03)
 bond charge predicted
       N       E                     dE             d eps       ncg     rms          rms(c)
DAV:   1    -0.277854029280E+03   -0.47294E-09    0.54870E-12  4052   0.141E-09    0.613E-10
RMM:   2    -0.277854029280E+03    0.22555E-09    0.80459-132     8   0.144E-09
 178 F= -.27785403E+03 E0= -.27785802E+03  d E =-.444779E+01  mag=    16.9689
 curvature:   0.00 expect dE= 0.464-321 dE for cont linesearch  0.277-321
 ZBRENT:  accuracy reached
 opt :   0.0000  next Energy=     0.000000 (dE= 0.273E+03)
 bond charge predicted
       N       E                     dE             d eps       ncg     rms          rms(c)
DAV:   1    -0.277854029280E+03   -0.72760E-11    0.84999E-12  4052   0.151E-09    0.107E-09
RMM:   2    -0.277854029280E+03    0.19645E-09    0.80126-132     8   0.123E-09
 179 F= -.27785403E+03 E0= -.27785802E+03  d E =-.444779E+01  mag=    16.9689
 curvature:   0.00 expect dE= 0.464-321 dE for cont linesearch  0.277-321
 ZBRENT:  accuracy reached
 opt :   0.0000  next Energy=     0.000000 (dE= 0.273E+03)
 bond charge predicted
       N       E                     dE             d eps       ncg     rms          rms(c)
DAV:   1    -0.277854029280E+03    0.94587E-10    0.67636E-12  4052   0.163E-09    0.918E-10
RMM:   2    -0.277854029280E+03   -0.32742E-09    0.79396-132     8   0.126E-09
 180 F= -.27785403E+03 E0= -.27785802E+03  d E =-.444779E+01  mag=    16.9689
 curvature:   0.00 expect dE= 0.464-321 dE for cont linesearch  0.277-321
 ZBRENT:  accuracy reached
 opt :   0.0000  next Energy=     0.000000 (dE= 0.273E+03)
 bond charge predicted
       N       E                     dE             d eps       ncg     rms          rms(c)
DAV:   1    -0.277854029280E+03    0.72760E-10    0.66071E-12  4052   0.165E-09    0.766E-10
RMM:   2    -0.277854029280E+03   -0.94587E-10    0.78091-132     8   0.164E-09
 181 F= -.27785403E+03 E0= -.27785802E+03  d E =-.444779E+01  mag=    16.9689
 curvature:   0.00 expect dE= 0.464-321 dE for cont linesearch  0.277-321
 ZBRENT:  accuracy reached
 opt :   0.0000  next Energy=     0.000000 (dE= 0.273E+03)
 bond charge predicted
       N       E                     dE             d eps       ncg     rms          rms(c)
DAV:   1    -0.277854029280E+03    0.11642E-09    0.82787E-12  4052   0.148E-09    0.598E-10
RMM:   2    -0.277854029280E+03   -0.32742E-09    0.76366-132     8   0.111E-09
 182 F= -.27785403E+03 E0= -.27785802E+03  d E =-.444779E+01  mag=    16.9689
 curvature:   0.00 expect dE= 0.464-321 dE for cont linesearch  0.277-321
 ZBRENT:  accuracy reached
 opt :   0.0000  next Energy=     0.000000 (dE= 0.273E+03)
 bond charge predicted
       N       E                     dE             d eps       ncg     rms          rms(c)
DAV:   1    -0.277854029280E+03   -0.41473E-09    0.61258E-12  4052   0.120E-09    0.662E-10
RMM:   2    -0.277854029279E+03    0.61118E-09    0.17563-133     7   0.136E-09
 183 F= -.27785403E+03 E0= -.27785802E+03  d E =-.444779E+01  mag=    16.9689
 curvature:   0.00 expect dE= 0.464-321 dE for cont linesearch  0.277-321
 ZBRENT:  accuracy reached
 opt :   0.0000  next Energy=     0.000000 (dE= 0.273E+03)
 bond charge predicted
       N       E                     dE             d eps       ncg     rms          rms(c)
DAV:   1    -0.277854029280E+03    0.26193E-09    0.50233E-12  4052   0.182E-09    0.764E-10
RMM:   2    -0.277854029280E+03   -0.24738E-09    0.16809-133     7   0.100E-09
 184 F= -.27785403E+03 E0= -.27785802E+03  d E =-.444779E+01  mag=    16.9689
 curvature:   0.00 expect dE= 0.464-321 dE for cont linesearch  0.277-321
 ZBRENT:  accuracy reached
 opt :   0.0000  next Energy=     0.000000 (dE= 0.273E+03)
 bond charge predicted
       N       E                     dE             d eps       ncg     rms          rms(c)
DAV:   1    -0.277854029280E+03   -0.19645E-09    0.58799E-12  4052   0.161E-09    0.796E-10
RMM:   2    -0.277854029280E+03    0.32742E-09    0.15955-133     7   0.116E-09
 185 F= -.27785403E+03 E0= -.27785802E+03  d E =-.444779E+01  mag=    16.9689
 curvature:   0.00 expect dE= 0.464-321 dE for cont linesearch  0.277-321
 ZBRENT:  accuracy reached
 opt :   0.0000  next Energy=     0.000000 (dE= 0.273E+03)
 bond charge predicted
       N       E                     dE             d eps       ncg     rms          rms(c)
DAV:   1    -0.277854029280E+03    0.10914E-09    0.70909E-12  4052   0.181E-09    0.107E-09
RMM:   2    -0.277854029280E+03    0.50932E-10    0.15100-133     7   0.132E-09
 186 F= -.27785403E+03 E0= -.27785802E+03  d E =-.444779E+01  mag=    16.9689
 curvature:   0.00 expect dE= 0.464-321 dE for cont linesearch  0.277-321
 ZBRENT:  accuracy reached
 opt :   0.0000  next Energy=     0.000000 (dE= 0.273E+03)
 bond charge predicted
       N       E                     dE             d eps       ncg     rms          rms(c)
DAV:   1    -0.277854029280E+03    0.80036E-10    0.84922E-12  4052   0.144E-09    0.765E-10
RMM:   2    -0.277854029280E+03    0.72760E-11    0.14276-133     7   0.991E-10
 187 F= -.27785403E+03 E0= -.27785802E+03  d E =-.444779E+01  mag=    16.9689
 curvature:   0.00 expect dE= 0.464-321 dE for cont linesearch  0.277-321
 ZBRENT:  accuracy reached
 opt :   0.0000  next Energy=     0.000000 (dE= 0.273E+03)
 bond charge predicted
       N       E                     dE             d eps       ncg     rms          rms(c)
DAV:   1    -0.277854029280E+03   -0.16735E-09    0.83581E-12  4052   0.128E-09    0.110E-09
RMM:   2    -0.277854029280E+03    0.65484E-10    0.13506-133     7   0.156E-09
 188 F= -.27785403E+03 E0= -.27785802E+03  d E =-.444779E+01  mag=    16.9689
 curvature:   0.00 expect dE= 0.464-321 dE for cont linesearch  0.277-321
 ZBRENT:  accuracy reached
 opt :   0.0000  next Energy=     0.000000 (dE= 0.273E+03)
 bond charge predicted
       N       E                     dE             d eps       ncg     rms          rms(c)
DAV:   1    -0.277854029280E+03    0.20373E-09    0.54729E-12  4052   0.130E-09    0.107E-09
RMM:   2    -0.277854029280E+03   -0.16007E-09    0.12796-133     7   0.149E-09
 189 F= -.27785403E+03 E0= -.27785802E+03  d E =-.444779E+01  mag=    16.9689
 curvature:   0.00 expect dE= 0.464-321 dE for cont linesearch  0.277-321
 ZBRENT:  accuracy reached
 opt :   0.0000  next Energy=     0.000000 (dE= 0.273E+03)
 bond charge predicted
       N       E                     dE             d eps       ncg     rms          rms(c)
DAV:   1    -0.277854029280E+03   -0.18917E-09    0.72681E-12  4052   0.121E-09    0.643E-10
RMM:   2    -0.277854029280E+03    0.21828E-10    0.12143-133     7   0.161E-09
 190 F= -.27785403E+03 E0= -.27785802E+03  d E =-.444779E+01  mag=    16.9689
 curvature:   0.00 expect dE= 0.464-321 dE for cont linesearch  0.277-321
 ZBRENT:  accuracy reached
 opt :   0.0000  next Energy=     0.000000 (dE= 0.273E+03)
 bond charge predicted
       N       E                     dE             d eps       ncg     rms          rms(c)
DAV:   1    -0.277854029280E+03   -0.94587E-10    0.66545E-12  4052   0.140E-09    0.810E-10
RMM:   2    -0.277854029280E+03    0.21828E-09    0.11554-133     7   0.123E-09
 191 F= -.27785403E+03 E0= -.27785802E+03  d E =-.444779E+01  mag=    16.9689
 curvature:   0.00 expect dE= 0.464-321 dE for cont linesearch  0.277-321
 ZBRENT:  accuracy reached
 opt :   0.0000  next Energy=     0.000000 (dE= 0.273E+03)
 bond charge predicted
       N       E                     dE             d eps       ncg     rms          rms(c)
DAV:   1    -0.277854029280E+03    0.20373E-09    0.55477E-12  4052   0.128E-09    0.801E-10
RMM:   2    -0.277854029280E+03    0.29104E-10    0.11028-133     7   0.143E-09
 192 F= -.27785403E+03 E0= -.27785802E+03  d E =-.444779E+01  mag=    16.9689
 curvature:   0.00 expect dE= 0.464-321 dE for cont linesearch  0.277-321
 ZBRENT:  accuracy reached
 opt :   0.0000  next Energy=     0.000000 (dE= 0.273E+03)
 bond charge predicted
       N       E                     dE             d eps       ncg     rms          rms(c)
DAV:   1    -0.277854029280E+03   -0.14552E-10    0.83126E-12  4052   0.102E-09    0.519E-10
RMM:   2    -0.277854029280E+03    0.11642E-09    0.10568-133     7   0.116E-09
 193 F= -.27785403E+03 E0= -.27785802E+03  d E =-.444779E+01  mag=    16.9689
 curvature:   0.00 expect dE= 0.464-321 dE for cont linesearch  0.277-321
 ZBRENT:  accuracy reached
 opt :   0.0000  next Energy=     0.000000 (dE= 0.273E+03)
 bond charge predicted
       N       E                     dE             d eps       ncg     rms          rms(c)
DAV:   1    -0.277854029280E+03   -0.87311E-10    0.80859E-12  4052   0.129E-09    0.738E-10
RMM:   2    -0.277854029280E+03   -0.72760E-11    0.10166-133     7   0.990E-10
 194 F= -.27785403E+03 E0= -.27785802E+03  d E =-.444779E+01  mag=    16.9689
 curvature:   0.00 expect dE= 0.464-321 dE for cont linesearch  0.277-321
 ZBRENT:  accuracy reached
 opt :   0.0000  next Energy=     0.000000 (dE= 0.273E+03)
 bond charge predicted
       N       E                     dE             d eps       ncg     rms          rms(c)
DAV:   1    -0.277854029280E+03    0.27649E-09    0.64739E-12  4052   0.159E-09    0.678E-10
RMM:   2    -0.277854029280E+03   -0.19645E-09    0.98291-134     7   0.118E-09
 195 F= -.27785403E+03 E0= -.27785802E+03  d E =-.444779E+01  mag=    16.9689
 curvature:   0.00 expect dE= 0.464-321 dE for cont linesearch  0.277-321
 ZBRENT:  accuracy reached
 opt :   0.0000  next Energy=     0.000000 (dE= 0.273E+03)
 bond charge predicted
       N       E                     dE             d eps       ncg     rms          rms(c)
DAV:   1    -0.277854029280E+03   -0.26193E-09    0.73417E-12  4052   0.130E-09    0.704E-10
RMM:   2    -0.277854029280E+03    0.65484E-10    0.95364-134     7   0.961E-10
 196 F= -.27785403E+03 E0= -.27785802E+03  d E =-.444779E+01  mag=    16.9689
 curvature:   0.00 expect dE= 0.464-321 dE for cont linesearch  0.277-321
 ZBRENT:  accuracy reached
 opt :   0.0000  next Energy=     0.000000 (dE= 0.273E+03)
 bond charge predicted
       N       E                     dE             d eps       ncg     rms          rms(c)
DAV:   1    -0.277854029280E+03   -0.16735E-09    0.67344E-12  4052   0.101E-09    0.675E-10
RMM:   2    -0.277854029280E+03    0.24738E-09    0.92901-134     7   0.119E-09
 197 F= -.27785403E+03 E0= -.27785802E+03  d E =-.444779E+01  mag=    16.9689
 curvature:   0.00 expect dE= 0.464-321 dE for cont linesearch  0.277-321
 ZBRENT:  accuracy reached
 opt :   0.0000  next Energy=     0.000000 (dE= 0.273E+03)
 bond charge predicted
       N       E                     dE             d eps       ncg     rms          rms(c)
DAV:   1    -0.277854029280E+03   -0.80036E-10    0.67150E-12  4052   0.848E-10    0.103E-09
RMM:   2    -0.277854029280E+03    0.40018E-09    0.90746-134     7   0.140E-09
 198 F= -.27785403E+03 E0= -.27785802E+03  d E =-.444779E+01  mag=    16.9689
 curvature:   0.00 expect dE= 0.464-321 dE for cont linesearch  0.277-321
 ZBRENT:  accuracy reached
 opt :   0.0000  next Energy=     0.000000 (dE= 0.273E+03)
 bond charge predicted
       N       E                     dE             d eps       ncg     rms          rms(c)
DAV:   1    -0.277854029280E+03    0.11642E-09    0.51867E-12  4052   0.121E-09    0.559E-10
RMM:   2    -0.277854029280E+03    0.18917E-09    0.88929-134     7   0.145E-09
 199 F= -.27785403E+03 E0= -.27785802E+03  d E =-.444779E+01  mag=    16.9689
 curvature:   0.00 expect dE= 0.464-321 dE for cont linesearch  0.277-321
 ZBRENT:  accuracy reached
 opt :   0.0000  next Energy=     0.000000 (dE= 0.273E+03)
 bond charge predicted
       N       E                     dE             d eps       ncg     rms          rms(c)
DAV:   1    -0.277854029280E+03    0.20373E-09    0.56855E-12  4052   0.123E-09    0.817E-10
RMM:   2    -0.277854029280E+03    0.94587E-10    0.87228-134     7   0.127E-09
 200 F= -.27785403E+03 E0= -.27785802E+03  d E =-.444779E+01  mag=    16.9689
 curvature:   0.00 expect dE= 0.464-321 dE for cont linesearch  0.277-321
 ZBRENT:  accuracy reached
 opt :   0.0000  next Energy=     0.000000 (dE= 0.273E+03)
 bond charge predicted
       N       E                     dE             d eps       ncg     rms          rms(c)
DAV:   1    -0.277854029280E+03   -0.26921E-09    0.65189E-12  4052   0.125E-09    0.975E-10
RMM:   2    -0.277854029280E+03    0.87311E-10    0.85572-134     7   0.116E-09
 201 F= -.27785403E+03 E0= -.27785802E+03  d E =-.444779E+01  mag=    16.9689
 curvature:   0.00 expect dE= 0.464-321 dE for cont linesearch  0.277-321
 ZBRENT:  accuracy reached
 opt :   0.0000  next Energy=     0.000000 (dE= 0.273E+03)
 bond charge predicted
       N       E                     dE             d eps       ncg     rms          rms(c)
DAV:   1    -0.277854029279E+03    0.67666E-09    0.74447E-12  4052   0.154E-09    0.130E-09
RMM:   2    -0.277854029280E+03   -0.35652E-09    0.83915-134     6   0.109E-09
 202 F= -.27785403E+03 E0= -.27785802E+03  d E =-.444779E+01  mag=    16.9689
 curvature:   0.00 expect dE= 0.464-321 dE for cont linesearch  0.277-321
 ZBRENT:  accuracy reached
 opt :   0.0000  next Energy=     0.000000 (dE= 0.273E+03)
 bond charge predicted
       N       E                     dE             d eps       ncg     rms          rms(c)
DAV:   1    -0.277854029280E+03   -0.31287E-09    0.53893E-12  4046   0.116E-09    0.628E-10
RMM:   2    -0.277854029280E+03   -0.40018E-09    0.82161-134     6   0.120E-09
 203 F= -.27785403E+03 E0= -.27785802E+03  d E =-.444779E+01  mag=    16.9689
 curvature:   0.00 expect dE= 0.464-321 dE for cont linesearch  0.277-321
 ZBRENT:  accuracy reached
 opt :   0.0000  next Energy=     0.000000 (dE= 0.273E+03)
 bond charge predicted
       N       E                     dE             d eps       ncg     rms          rms(c)
DAV:   1    -0.277854029280E+03    0.29831E-09    0.56185E-12  4046   0.111E-09    0.851E-10
RMM:   2    -0.277854029280E+03   -0.35652E-09    0.80312-134     6   0.160E-09
 204 F= -.27785403E+03 E0= -.27785802E+03  d E =-.444779E+01  mag=    16.9689
 curvature:   0.00 expect dE= 0.464-321 dE for cont linesearch  0.277-321
 ZBRENT:  accuracy reached
 opt :   0.0000  next Energy=     0.000000 (dE= 0.273E+03)
 bond charge predicted
       N       E                     dE             d eps       ncg     rms          rms(c)
DAV:   1    -0.277854029280E+03   -0.40018E-09    0.38315E-12  4046   0.169E-09    0.126E-09
RMM:   2    -0.277854029280E+03    0.11642E-09    0.78373-134     6   0.156E-09
 205 F= -.27785403E+03 E0= -.27785802E+03  d E =-.444779E+01  mag=    16.9689
 curvature:   0.00 expect dE= 0.464-321 dE for cont linesearch  0.277-321
 ZBRENT:  accuracy reached
 opt :   0.0000  next Energy=     0.000000 (dE= 0.273E+03)
 bond charge predicted
       N       E                     dE             d eps       ncg     rms          rms(c)
DAV:   1    -0.277854029280E+03    0.72760E-11    0.58353E-12  4046   0.116E-09    0.668E-10
RMM:   2    -0.277854029280E+03    0.23283E-09    0.76339-134     6   0.160E-09
 206 F= -.27785403E+03 E0= -.27785802E+03  d E =-.444779E+01  mag=    16.9689
 curvature:   0.00 expect dE= 0.464-321 dE for cont linesearch  0.277-321
 ZBRENT:  accuracy reached
 opt :   0.0000  next Energy=     0.000000 (dE= 0.273E+03)
 bond charge predicted
       N       E                     dE             d eps       ncg     rms          rms(c)
DAV:   1    -0.277854029280E+03   -0.29104E-10    0.53293E-12  4046   0.941E-10    0.562E-10
RMM:   2    -0.277854029280E+03   -0.23283E-09    0.74183-134     6   0.117E-09
 207 F= -.27785403E+03 E0= -.27785802E+03  d E =-.444779E+01  mag=    16.9689
 curvature:   0.00 expect dE= 0.464-321 dE for cont linesearch  0.277-321
 ZBRENT:  accuracy reached
 opt :   0.0000  next Energy=     0.000000 (dE= 0.273E+03)
 bond charge predicted
       N       E                     dE             d eps       ncg     rms          rms(c)
DAV:   1    -0.277854029280E+03    0.36380E-09    0.66291E-12  4046   0.155E-09    0.561E-10
RMM:   2    -0.277854029280E+03   -0.45111E-09    0.71963-134     6   0.102E-09
 208 F= -.27785403E+03 E0= -.27785802E+03  d E =-.444779E+01  mag=    16.9689
 curvature:   0.00 expect dE= 0.464-321 dE for cont linesearch  0.277-321
 ZBRENT:  accuracy reached
 opt :   0.0000  next Energy=     0.000000 (dE= 0.273E+03)
 bond charge predicted
       N       E                     dE             d eps       ncg     rms          rms(c)
DAV:   1    -0.277854029280E+03   -0.30559E-09    0.42923E-12  4046   0.925E-10    0.532E-10
RMM:   2    -0.277854029280E+03    0.50932E-10    0.69697-134     6   0.114E-09
 209 F= -.27785403E+03 E0= -.27785802E+03  d E =-.444779E+01  mag=    16.9689
 curvature:   0.00 expect dE= 0.464-321 dE for cont linesearch  0.277-321
 ZBRENT:  accuracy reached
 opt :   0.0000  next Energy=     0.000000 (dE= 0.273E+03)
 bond charge predicted
       N       E                     dE             d eps       ncg     rms          rms(c)
DAV:   1    -0.277854029280E+03    0.00000E+00    0.56499E-12  4046   0.150E-09    0.570E-10
RMM:   2    -0.277854029280E+03    0.21100E-09    0.67449-134     6   0.108E-09
 210 F= -.27785403E+03 E0= -.27785802E+03  d E =-.444779E+01  mag=    16.9689
 curvature:   0.00 expect dE= 0.464-321 dE for cont linesearch  0.277-321
 ZBRENT:  accuracy reached
 opt :   0.0000  next Energy=     0.000000 (dE= 0.273E+03)
 bond charge predicted
       N       E                     dE             d eps       ncg     rms          rms(c)
DAV:   1    -0.277854029280E+03    0.43656E-10    0.68783E-12  4046   0.149E-09    0.763E-10
RMM:   2    -0.277854029280E+03   -0.29104E-09    0.65273-134     6   0.854E-10
 211 F= -.27785403E+03 E0= -.27785802E+03  d E =-.444779E+01  mag=    16.9689
 curvature:   0.00 expect dE= 0.464-321 dE for cont linesearch  0.277-321
 ZBRENT:  accuracy reached
 opt :   0.0000  next Energy=     0.000000 (dE= 0.273E+03)
 bond charge predicted
       N       E                     dE             d eps       ncg     rms          rms(c)
DAV:   1    -0.277854029280E+03    0.21828E-10    0.61711E-12  4046   0.149E-09    0.549E-10
RMM:   2    -0.277854029280E+03   -0.58208E-10    0.63222-134     6   0.131E-09
 212 F= -.27785403E+03 E0= -.27785802E+03  d E =-.444779E+01  mag=    16.9689
 curvature:   0.00 expect dE= 0.464-321 dE for cont linesearch  0.277-321
 ZBRENT:  accuracy reached
 opt :   0.0000  next Energy=     0.000000 (dE= 0.273E+03)
 bond charge predicted
       N       E                     dE             d eps       ncg     rms          rms(c)
DAV:   1    -0.277854029280E+03   -0.80036E-10    0.60772E-12  4046   0.109E-09    0.381E-10
RMM:   2    -0.277854029280E+03    0.50932E-10    0.11854-142     5   0.599E-10
 213 F= -.27785403E+03 E0= -.27785802E+03  d E =-.444779E+01  mag=    16.9689
 curvature:   0.00 expect dE= 0.464-321 dE for cont linesearch  0.277-321
 ZBRENT:  accuracy reached
 opt :   0.0000  next Energy=     0.000000 (dE= 0.273E+03)
 bond charge predicted
       N       E                     dE             d eps       ncg     rms          rms(c)
DAV:   1    -0.277854029280E+03    0.80036E-10    0.71362E-12  4052   0.885E-10    0.339E-10
RMM:   2    -0.277854029280E+03   -0.65484E-10    0.36048-141     6   0.775E-10
 214 F= -.27785403E+03 E0= -.27785802E+03  d E =-.444779E+01  mag=    16.9689
 curvature:   0.00 expect dE= 0.464-321 dE for cont linesearch  0.277-321
 ZBRENT:  accuracy reached
 opt :   0.0000  next Energy=     0.000000 (dE= 0.273E+03)
 bond charge predicted
       N       E                     dE             d eps       ncg     rms          rms(c)
DAV:   1    -0.277854029280E+03    0.13824E-09    0.50497E-12  4052   0.148E-09    0.760E-10
RMM:   2    -0.277854029280E+03   -0.29831E-09    0.84095-143     5   0.175E-09
 215 F= -.27785403E+03 E0= -.27785802E+03  d E =-.444779E+01  mag=    16.9689
 curvature:   0.00 expect dE= 0.464-321 dE for cont linesearch  0.277-321
 ZBRENT:  accuracy reached
 opt :   0.0000  next Energy=     0.000000 (dE= 0.273E+03)
 bond charge predicted
       N       E                     dE             d eps       ncg     rms          rms(c)
DAV:   1    -0.277854029280E+03   -0.30559E-09    0.31331E-12  4046   0.121E-09    0.580E-10
RMM:   2    -0.277854029280E+03   -0.18190E-09    0.21336-143     5   0.710E-10
 216 F= -.27785403E+03 E0= -.27785802E+03  d E =-.444779E+01  mag=    16.9689
 curvature:   0.00 expect dE= 0.464-321 dE for cont linesearch  0.277-321
 ZBRENT:  accuracy reached
 opt :   0.0000  next Energy=     0.000000 (dE= 0.273E+03)
 bond charge predicted
       N       E                     dE             d eps       ncg     rms          rms(c)
DAV:   1    -0.277854029280E+03    0.00000E+00    0.36998E-12  4046   0.150E-09    0.731E-10
RMM:   2    -0.277854029280E+03    0.10914E-09    0.10481-143     5   0.110E-09
 217 F= -.27785403E+03 E0= -.27785802E+03  d E =-.444779E+01  mag=    16.9689
 curvature:   0.00 expect dE= 0.464-321 dE for cont linesearch  0.277-321
 ZBRENT:  accuracy reached
 opt :   0.0000  next Energy=     0.000000 (dE= 0.273E+03)
 bond charge predicted
       N       E                     dE             d eps       ncg     rms          rms(c)
DAV:   1    -0.277854029280E+03   -0.80036E-10    0.50750E-12  4046   0.120E-09    0.828E-10
RMM:   2    -0.277854029280E+03    0.18917E-09    0.77324-144     5   0.115E-09
 218 F= -.27785403E+03 E0= -.27785802E+03  d E =-.444779E+01  mag=    16.9689
 curvature:   0.00 expect dE= 0.464-321 dE for cont linesearch  0.277-321
 ZBRENT:  accuracy reached
 opt :   0.0000  next Energy=     0.000000 (dE= 0.273E+03)
 bond charge predicted
       N       E                     dE             d eps       ncg     rms          rms(c)
DAV:   1    -0.277854029280E+03   -0.21828E-10    0.60056E-12  4046   0.863E-10    0.543E-10
RMM:   2    -0.277854029280E+03   -0.12369E-09    0.69842-144     5   0.890E-10
 219 F= -.27785403E+03 E0= -.27785802E+03  d E =-.444779E+01  mag=    16.9689
 curvature:   0.00 expect dE= 0.464-321 dE for cont linesearch  0.277-321
 ZBRENT:  accuracy reached
 opt :   0.0000  next Energy=     0.000000 (dE= 0.273E+03)
 bond charge predicted
       N       E                     dE             d eps       ncg     rms          rms(c)
DAV:   1    -0.277854029280E+03    0.21828E-10    0.66832E-12  4046   0.130E-09    0.568E-10
RMM:   2    -0.277854029280E+03    0.94587E-10    0.62151-150     4   0.132E-09
 220 F= -.27785403E+03 E0= -.27785802E+03  d E =-.444779E+01  mag=    16.9689
 curvature:   0.00 expect dE= 0.464-321 dE for cont linesearch  0.277-321
 ZBRENT:  accuracy reached
 opt :   0.0000  next Energy=     0.000000 (dE= 0.273E+03)
 bond charge predicted
       N       E                     dE             d eps       ncg     rms          rms(c)
DAV:   1    -0.277854029280E+03    0.39290E-09    0.72718E-12  4046   0.964E-10    0.450E-10
RMM:   2    -0.277854029280E+03   -0.47294E-09    0.61737-150     4   0.140E-09
 221 F= -.27785403E+03 E0= -.27785802E+03  d E =-.444779E+01  mag=    16.9689
 curvature:   0.00 expect dE= 0.464-321 dE for cont linesearch  0.277-321
 ZBRENT:  accuracy reached
 opt :   0.0000  next Energy=     0.000000 (dE= 0.273E+03)
 bond charge predicted
       N       E                     dE             d eps       ncg     rms          rms(c)
DAV:   1    -0.277854029280E+03   -0.26921E-09    0.50172E-12  4046   0.120E-09    0.515E-10
RMM:   2    -0.277854029280E+03   -0.21828E-10    0.60703-150     3   0.114E-09
 222 F= -.27785403E+03 E0= -.27785802E+03  d E =-.444779E+01  mag=    16.9689
 curvature:   0.00 expect dE= 0.464-321 dE for cont linesearch  0.277-321
 ZBRENT:  accuracy reached
 opt :   0.0000  next Energy=     0.000000 (dE= 0.273E+03)
 bond charge predicted
       N       E                     dE             d eps       ncg     rms          rms(c)
DAV:   1    -0.277854029280E+03   -0.18190E-09    0.52008E-12  4046   0.907E-10    0.472E-10
RMM:   2    -0.277854029280E+03    0.40018E-09    0.60300-150     3   0.827E-10
 223 F= -.27785403E+03 E0= -.27785802E+03  d E =-.444779E+01  mag=    16.9689
 curvature:   0.00 expect dE= 0.464-321 dE for cont linesearch  0.277-321
 ZBRENT:  accuracy reached
 opt :   0.0000  next Energy=     0.000000 (dE= 0.273E+03)
 bond charge predicted
       N       E                     dE             d eps       ncg     rms          rms(c)
DAV:   1    -0.277854029280E+03    0.17462E-09    0.59375E-12  4046   0.151E-09    0.769E-10
RMM:   2    -0.277854029280E+03    0.72760E-11    0.50462-144     4   0.917E-10
 224 F= -.27785403E+03 E0= -.27785802E+03  d E =-.444779E+01  mag=    16.9689
 curvature:   0.00 expect dE= 0.464-321 dE for cont linesearch  0.277-321
 ZBRENT:  accuracy reached
 opt :   0.0000  next Energy=     0.000000 (dE= 0.273E+03)
 bond charge predicted
       N       E                     dE             d eps       ncg     rms          rms(c)
DAV:   1    -0.277854029280E+03    0.26193E-09    0.68617E-12  4046   0.150E-09    0.103E-09
RMM:   2    -0.277854029280E+03   -0.72760E-10    0.70448-144     4   0.148E-09
 225 F= -.27785403E+03 E0= -.27785802E+03  d E =-.444779E+01  mag=    16.9689
 curvature:   0.00 expect dE= 0.464-321 dE for cont linesearch  0.277-321
 ZBRENT:  accuracy reached
 opt :   0.0000  next Energy=     0.000000 (dE= 0.273E+03)
 bond charge predicted
       N       E                     dE             d eps       ncg     rms          rms(c)
DAV:   1    -0.277854029280E+03    0.16735E-09    0.60713E-12  4046   0.138E-09    0.509E-10
RMM:   2    -0.277854029280E+03   -0.50204E-09    0.60077-144     4   0.890E-10
 226 F= -.27785403E+03 E0= -.27785802E+03  d E =-.444779E+01  mag=    16.9689
 curvature:   0.00 expect dE= 0.464-321 dE for cont linesearch  0.277-321
 ZBRENT:  accuracy reached
 opt :   0.0000  next Energy=     0.000000 (dE= 0.273E+03)
 bond charge predicted
       N       E                     dE             d eps       ncg     rms          rms(c)
DAV:   1    -0.277854029280E+03   -0.41473E-09    0.75032E-12  4046   0.148E-09    0.676E-10
RMM:   2    -0.277854029280E+03    0.29104E-10    0.57525-150     3   0.119E-09
 227 F= -.27785403E+03 E0= -.27785802E+03  d E =-.444779E+01  mag=    16.9689
 curvature:   0.00 expect dE= 0.464-321 dE for cont linesearch  0.277-321
 ZBRENT:  accuracy reached
 opt :   0.0000  next Energy=     0.000000 (dE= 0.273E+03)
 bond charge predicted
       N       E                     dE             d eps       ncg     rms          rms(c)
DAV:   1    -0.277854029280E+03    0.21828E-10    0.47497E-12  4046   0.134E-09    0.569E-10
RMM:   2    -0.277854029280E+03   -0.13097E-09    0.56556-150     3   0.121E-09
 228 F= -.27785403E+03 E0= -.27785802E+03  d E =-.444779E+01  mag=    16.9689
 curvature:   0.00 expect dE= 0.464-321 dE for cont linesearch  0.277-321
 ZBRENT:  accuracy reached
 opt :   0.0000  next Energy=     0.000000 (dE= 0.273E+03)
 bond charge predicted
       N       E                     dE             d eps       ncg     rms          rms(c)
DAV:   1    -0.277854029280E+03    0.21828E-10    0.42324E-12  4046   0.130E-09    0.434E-10
RMM:   2    -0.277854029280E+03    0.21828E-10    0.56187-150     3   0.944E-10
 229 F= -.27785403E+03 E0= -.27785802E+03  d E =-.444779E+01  mag=    16.9689
 curvature:   0.00 expect dE= 0.464-321 dE for cont linesearch  0.277-321
 ZBRENT:  accuracy reached
 opt :   0.0000  next Energy=     0.000000 (dE= 0.273E+03)
 bond charge predicted
       N       E                     dE             d eps       ncg     rms          rms(c)
DAV:   1    -0.277854029280E+03   -0.16007E-09    0.56637E-12  4046   0.107E-09    0.510E-10
RMM:   2    -0.277854029280E+03    0.00000E+00    0.55237-150     3   0.869E-10
 230 F= -.27785403E+03 E0= -.27785802E+03  d E =-.444779E+01  mag=    16.9689
 curvature:   0.00 expect dE= 0.464-321 dE for cont linesearch  0.277-321
 ZBRENT:  accuracy reached
 opt :   0.0000  next Energy=     0.000000 (dE= 0.273E+03)
 bond charge predicted
       N       E                     dE             d eps       ncg     rms          rms(c)
DAV:   1    -0.277854029280E+03    0.18190E-09    0.76270E-12  4046   0.705E-10    0.110E-09
RMM:   2    -0.277854029280E+03   -0.11642E-09    0.54879-150     3   0.144E-09
 231 F= -.27785403E+03 E0= -.27785802E+03  d E =-.444779E+01  mag=    16.9689
 curvature:   0.00 expect dE= 0.464-321 dE for cont linesearch  0.277-321
 ZBRENT:  accuracy reached
 opt :   0.0000  next Energy=     0.000000 (dE= 0.273E+03)
 bond charge predicted
       N       E                     dE             d eps       ncg     rms          rms(c)
DAV:   1    -0.277854029280E+03   -0.16735E-09    0.54700E-12  4046   0.137E-09    0.704E-10
RMM:   2    -0.277854029280E+03    0.32014E-09    0.53959-150     3   0.114E-09
 232 F= -.27785403E+03 E0= -.27785802E+03  d E =-.444779E+01  mag=    16.9689
 curvature:   0.00 expect dE= 0.464-321 dE for cont linesearch  0.277-321
 ZBRENT:  accuracy reached
 opt :   0.0000  next Energy=     0.000000 (dE= 0.273E+03)
 bond charge predicted
       N       E                     dE             d eps       ncg     rms          rms(c)
DAV:   1    -0.277854029280E+03    0.26921E-09    0.57876E-12  4046   0.138E-09    0.562E-10
RMM:   2    -0.277854029280E+03   -0.12369E-09    0.53598-150     3   0.112E-09
 233 F= -.27785403E+03 E0= -.27785802E+03  d E =-.444779E+01  mag=    16.9689
 curvature:   0.00 expect dE= 0.464-321 dE for cont linesearch  0.277-321
 ZBRENT:  accuracy reached
 opt :   0.0000  next Energy=     0.000000 (dE= 0.273E+03)
 bond charge predicted
       N       E                     dE             d eps       ncg     rms          rms(c)
DAV:   1    -0.277854029280E+03   -0.43656E-10    0.43722E-12  4046   0.994E-10    0.402E-10
RMM:   2    -0.277854029280E+03   -0.50932E-10    0.52696-150     3   0.121E-09
 234 F= -.27785403E+03 E0= -.27785802E+03  d E =-.444779E+01  mag=    16.9689
 curvature:   0.00 expect dE= 0.464-321 dE for cont linesearch  0.277-321
 ZBRENT:  accuracy reached
 opt :   0.0000  next Energy=     0.000000 (dE= 0.273E+03)
 bond charge predicted
       N       E                     dE             d eps       ncg     rms          rms(c)
DAV:   1    -0.277854029280E+03   -0.87311E-10    0.77969E-12  4046   0.117E-09    0.430E-10
RMM:   2    -0.277854029280E+03   -0.14552E-10    0.52358-150     3   0.125E-09
 235 F= -.27785403E+03 E0= -.27785802E+03  d E =-.444779E+01  mag=    16.9689
 curvature:   0.00 expect dE= 0.464-321 dE for cont linesearch  0.277-321
 ZBRENT:  accuracy reached
 opt :   0.0000  next Energy=     0.000000 (dE= 0.273E+03)
 bond charge predicted
       N       E                     dE             d eps       ncg     rms          rms(c)
DAV:   1    -0.277854029280E+03   -0.33469E-09    0.60262E-12  4046   0.846E-10    0.666E-10
RMM:   2    -0.277854029280E+03    0.44383E-09    0.51474-150     3   0.139E-09
 236 F= -.27785403E+03 E0= -.27785802E+03  d E =-.444779E+01  mag=    16.9689
 curvature:   0.00 expect dE= 0.464-321 dE for cont linesearch  0.277-321
 ZBRENT:  accuracy reached
 opt :   0.0000  next Energy=     0.000000 (dE= 0.273E+03)
 bond charge predicted
       N       E                     dE             d eps       ncg     rms          rms(c)
DAV:   1    -0.277854029280E+03    0.87311E-10    0.46369E-12  4046   0.134E-09    0.489E-10
RMM:   2    -0.277854029280E+03   -0.36380E-10    0.51135-150     3   0.141E-09
 237 F= -.27785403E+03 E0= -.27785802E+03  d E =-.444779E+01  mag=    16.9689
 curvature:   0.00 expect dE= 0.464-321 dE for cont linesearch  0.277-321
 ZBRENT:  accuracy reached
 opt :   0.0000  next Energy=     0.000000 (dE= 0.273E+03)
 bond charge predicted
       N       E                     dE             d eps       ncg     rms          rms(c)
DAV:   1    -0.277854029280E+03   -0.72760E-10    0.59241E-12  4046   0.170E-09    0.557E-10
RMM:   2    -0.277854029280E+03    0.27649E-09    0.50283-150     3   0.783E-10
 238 F= -.27785403E+03 E0= -.27785802E+03  d E =-.444779E+01  mag=    16.9689
 curvature:   0.00 expect dE= 0.464-321 dE for cont linesearch  0.277-321
 ZBRENT:  accuracy reached
 opt :   0.0000  next Energy=     0.000000 (dE= 0.273E+03)
 bond charge predicted
       N       E                     dE             d eps       ncg     rms          rms(c)
DAV:   1    -0.277854029280E+03    0.23283E-09    0.50970E-12  4046   0.129E-09    0.535E-10
RMM:   2    -0.277854029280E+03    0.72760E-11    0.49949-150     3   0.804E-10
 239 F= -.27785403E+03 E0= -.27785802E+03  d E =-.444779E+01  mag=    16.9689
 curvature:   0.00 expect dE= 0.464-321 dE for cont linesearch  0.277-321
 ZBRENT:  accuracy reached
 opt :   0.0000  next Energy=     0.000000 (dE= 0.273E+03)
 bond charge predicted
       N       E                     dE             d eps       ncg     rms          rms(c)
DAV:   1    -0.277854029280E+03    0.24738E-09    0.63703E-12  4046   0.125E-09    0.513E-10
RMM:   2    -0.277854029280E+03   -0.27649E-09    0.49115-150     3   0.764E-10
 240 F= -.27785403E+03 E0= -.27785802E+03  d E =-.444779E+01  mag=    16.9689
 curvature:   0.00 expect dE= 0.464-321 dE for cont linesearch  0.277-321
 ZBRENT:  accuracy reached
 opt :   0.0000  next Energy=     0.000000 (dE= 0.273E+03)
 bond charge predicted
       N       E                     dE             d eps       ncg     rms          rms(c)
DAV:   1    -0.277854029280E+03   -0.13097E-09    0.70099E-12  4046   0.962E-10    0.861E-10
RMM:   2    -0.277854029280E+03   -0.13097E-09    0.48791-150     3   0.164E-09
 241 F= -.27785403E+03 E0= -.27785802E+03  d E =-.444779E+01  mag=    16.9689
 curvature:   0.00 expect dE= 0.464-321 dE for cont linesearch  0.277-321
 ZBRENT:  accuracy reached
 opt :   0.0000  next Energy=     0.000000 (dE= 0.273E+03)
 bond charge predicted
       N       E                     dE             d eps       ncg     rms          rms(c)
DAV:   1    -0.277854029280E+03    0.00000E+00    0.78547E-12  4046   0.859E-10    0.963E-10
RMM:   2    -0.277854029280E+03    0.80036E-10    0.47975-150     3   0.956E-10
 242 F= -.27785403E+03 E0= -.27785802E+03  d E =-.444779E+01  mag=    16.9689
 curvature:   0.00 expect dE= 0.464-321 dE for cont linesearch  0.277-321
 ZBRENT:  accuracy reached
 opt :   0.0000  next Energy=     0.000000 (dE= 0.273E+03)
 bond charge predicted
       N       E                     dE             d eps       ncg     rms          rms(c)
DAV:   1    -0.277854029280E+03    0.87311E-10    0.73423E-12  4046   0.187E-09    0.654E-10
RMM:   2    -0.277854029280E+03    0.16735E-09    0.47659-150     3   0.110E-09
 243 F= -.27785403E+03 E0= -.27785802E+03  d E =-.444779E+01  mag=    16.9689
 curvature:   0.00 expect dE= 0.464-321 dE for cont linesearch  0.277-321
 ZBRENT:  accuracy reached
 opt :   0.0000  next Energy=     0.000000 (dE= 0.273E+03)
 bond charge predicted
       N       E                     dE             d eps       ncg     rms          rms(c)
DAV:   1    -0.277854029280E+03   -0.32742E-09    0.65216E-12  4046   0.113E-09    0.508E-10
RMM:   2    -0.277854029280E+03    0.24738E-09    0.46862-150     3   0.916E-10
 244 F= -.27785403E+03 E0= -.27785802E+03  d E =-.444779E+01  mag=    16.9689
 curvature:   0.00 expect dE= 0.464-321 dE for cont linesearch  0.277-321
 ZBRENT:  accuracy reached
 opt :   0.0000  next Energy=     0.000000 (dE= 0.273E+03)
 bond charge predicted
       N       E                     dE             d eps       ncg     rms          rms(c)
DAV:   1    -0.277854029280E+03    0.43656E-10    0.50729E-12  4046   0.114E-09    0.641E-10
RMM:   2    -0.277854029280E+03    0.16007E-09    0.46550-150     3   0.802E-10
 245 F= -.27785403E+03 E0= -.27785802E+03  d E =-.444779E+01  mag=    16.9689
 curvature:   0.00 expect dE= 0.464-321 dE for cont linesearch  0.277-321
 ZBRENT:  accuracy reached
 opt :   0.0000  next Energy=     0.000000 (dE= 0.273E+03)
 bond charge predicted
       N       E                     dE             d eps       ncg     rms          rms(c)
DAV:   1    -0.277854029280E+03   -0.94587E-10    0.50594E-12  4046   0.144E-09    0.597E-10
RMM:   2    -0.277854029280E+03    0.38563E-09    0.45770-150     3   0.169E-09
 246 F= -.27785403E+03 E0= -.27785802E+03  d E =-.444779E+01  mag=    16.9689
 curvature:   0.00 expect dE= 0.464-321 dE for cont linesearch  0.277-321
 ZBRENT:  accuracy reached
 opt :   0.0000  next Energy=     0.000000 (dE= 0.273E+03)
 bond charge predicted
       N       E                     dE             d eps       ncg     rms          rms(c)
DAV:   1    -0.277854029280E+03    0.14552E-10    0.50542E-12  4046   0.114E-09    0.956E-10
RMM:   2    -0.277854029280E+03    0.40018E-09    0.45476-150     3   0.195E-09
 247 F= -.27785403E+03 E0= -.27785802E+03  d E =-.444779E+01  mag=    16.9689
 curvature:   0.00 expect dE= 0.464-321 dE for cont linesearch  0.277-321
 ZBRENT:  accuracy reached
 opt :   0.0000  next Energy=     0.000000 (dE= 0.273E+03)
 bond charge predicted
       N       E                     dE             d eps       ncg     rms          rms(c)
DAV:   1    -0.277854029280E+03    0.42928E-09    0.46085E-12  4046   0.890E-10    0.842E-10
RMM:   2    -0.277854029280E+03   -0.18190E-09    0.44718-150     3   0.108E-09
 248 F= -.27785403E+03 E0= -.27785802E+03  d E =-.444779E+01  mag=    16.9689
 curvature:   0.00 expect dE= 0.464-321 dE for cont linesearch  0.277-321
 ZBRENT:  accuracy reached
 opt :   0.0000  next Energy=     0.000000 (dE= 0.273E+03)
 bond charge predicted
       N       E                     dE             d eps       ncg     rms          rms(c)
DAV:   1    -0.277854029280E+03   -0.18190E-09    0.41881E-12  4046   0.133E-09    0.103E-09
RMM:   2    -0.277854029280E+03    0.31287E-09    0.44415-150     3   0.125E-09
 249 F= -.27785403E+03 E0= -.27785802E+03  d E =-.444779E+01  mag=    16.9689
 curvature:   0.00 expect dE= 0.464-321 dE for cont linesearch  0.277-321
 ZBRENT:  accuracy reached
 opt :   0.0000  next Energy=     0.000000 (dE= 0.273E+03)
 bond charge predicted
       N       E                     dE             d eps       ncg     rms          rms(c)
DAV:   1    -0.277854029280E+03   -0.26921E-09    0.65868E-12  4046   0.128E-09    0.510E-10
RMM:   2    -0.277854029280E+03    0.14552E-10    0.43676-150     3   0.111E-09
 250 F= -.27785403E+03 E0= -.27785802E+03  d E =-.444779E+01  mag=    16.9689
 curvature:   0.00 expect dE= 0.464-321 dE for cont linesearch  0.277-321
 ZBRENT:  accuracy reached
 opt :   0.0000  next Energy=     0.000000 (dE= 0.273E+03)
 bond charge predicted
       N       E                     dE             d eps       ncg     rms          rms(c)
DAV:   1    -0.277854029280E+03    0.58208E-09    0.76515E-12  4046   0.184E-09    0.950E-10
RMM:   2    -0.277854029280E+03   -0.39290E-09    0.43379-150     3   0.160E-09
 251 F= -.27785403E+03 E0= -.27785802E+03  d E =-.444779E+01  mag=    16.9689
 curvature:   0.00 expect dE= 0.464-321 dE for cont linesearch  0.277-321
 ZBRENT:  accuracy reached
 opt :   0.0000  next Energy=     0.000000 (dE= 0.273E+03)
 bond charge predicted
       N       E                     dE             d eps       ncg     rms          rms(c)
DAV:   1    -0.277854029280E+03   -0.56752E-09    0.56363E-12  4046   0.124E-09    0.577E-10
RMM:   2    -0.277854029280E+03   -0.36380E-10    0.18982-259     2   0.154E-09
 252 F= -.27785403E+03 E0= -.27785802E+03  d E =-.444779E+01  mag=    16.9689
 curvature:   0.00 expect dE= 0.464-321 dE for cont linesearch  0.277-321
 ZBRENT:  accuracy reached
 opt :   0.0000  next Energy=     0.000000 (dE= 0.273E+03)
 bond charge predicted
       N       E                     dE             d eps       ncg     rms          rms(c)
DAV:   1    -0.277854029280E+03    0.24738E-09    0.64473E-12  4046   0.836E-10    0.623E-10
RMM:   2    -0.277854029280E+03    0.50932E-10    0.80096-260     2   0.854E-10
 253 F= -.27785403E+03 E0= -.27785802E+03  d E =-.444779E+01  mag=    16.9689
 curvature:   0.00 expect dE= 0.464-321 dE for cont linesearch  0.277-321
 ZBRENT:  accuracy reached
 opt :   0.0000  next Energy=     0.000000 (dE= 0.273E+03)
 bond charge predicted
       N       E                     dE             d eps       ncg     rms          rms(c)
DAV:   1    -0.277854029280E+03   -0.10186E-09    0.60411E-12  4046   0.158E-09    0.798E-10
RMM:   2    -0.277854029280E+03    0.65484E-10    0.19662-259     2   0.141E-09
 254 F= -.27785403E+03 E0= -.27785802E+03  d E =-.444779E+01  mag=    16.9689
 curvature:   0.00 expect dE= 0.464-321 dE for cont linesearch  0.277-321
 ZBRENT:  accuracy reached
 opt :   0.0000  next Energy=     0.000000 (dE= 0.273E+03)
 bond charge predicted
       N       E                     dE             d eps       ncg     rms          rms(c)
DAV:   1    -0.277854029280E+03    0.10186E-09    0.43863E-12  4046   0.113E-09    0.618E-10
RMM:   2    -0.277854029280E+03    0.72760E-11    0.80988-260     2   0.145E-09
 255 F= -.27785403E+03 E0= -.27785802E+03  d E =-.444779E+01  mag=    16.9689
 curvature:   0.00 expect dE= 0.464-321 dE for cont linesearch  0.277-321
 ZBRENT:  accuracy reached
 opt :   0.0000  next Energy=     0.000000 (dE= 0.273E+03)
 bond charge predicted
       N       E                     dE             d eps       ncg     rms          rms(c)
DAV:   1    -0.277854029280E+03   -0.29831E-09    0.38227E-12  4046   0.118E-09    0.615E-10
RMM:   2    -0.277854029280E+03    0.40018E-09    0.20044-259     2   0.102E-09
 256 F= -.27785403E+03 E0= -.27785802E+03  d E =-.444779E+01  mag=    16.9689
 curvature:   0.00 expect dE= 0.464-321 dE for cont linesearch  0.277-321
 ZBRENT:  accuracy reached
 opt :   0.0000  next Energy=     0.000000 (dE= 0.273E+03)
 bond charge predicted
       N       E                     dE             d eps       ncg     rms          rms(c)
DAV:   1    -0.277854029280E+03    0.53114E-09    0.58179E-12  4046   0.851E-10    0.631E-10
RMM:   2    -0.277854029280E+03   -0.28376E-09    0.93620-260     2   0.152E-09
 257 F= -.27785403E+03 E0= -.27785802E+03  d E =-.444779E+01  mag=    16.9689
 curvature:   0.00 expect dE= 0.464-321 dE for cont linesearch  0.277-321
 ZBRENT:  accuracy reached
 opt :   0.0000  next Energy=     0.000000 (dE= 0.273E+03)
 bond charge predicted
       N       E                     dE             d eps       ncg     rms          rms(c)
DAV:   1    -0.277854029280E+03   -0.42928E-09    0.48643E-12  4046   0.120E-09    0.581E-10
RMM:   2    -0.277854029280E+03    0.25466E-09    0.27265-259     2   0.981E-10
 258 F= -.27785403E+03 E0= -.27785802E+03  d E =-.444779E+01  mag=    16.9689
 curvature:   0.00 expect dE= 0.464-321 dE for cont linesearch  0.277-321
 ZBRENT:  accuracy reached
 opt :   0.0000  next Energy=     0.000000 (dE= 0.273E+03)
 bond charge predicted
       N       E                     dE             d eps       ncg     rms          rms(c)
DAV:   1    -0.277854029280E+03    0.36380E-10    0.85501E-12  4046   0.829E-10    0.593E-10
RMM:   2    -0.277854029280E+03    0.11642E-09    0.10427-259     2   0.137E-09
 259 F= -.27785403E+03 E0= -.27785802E+03  d E =-.444779E+01  mag=    16.9689
 curvature:   0.00 expect dE= 0.464-321 dE for cont linesearch  0.277-321
 ZBRENT:  accuracy reached
 opt :   0.0000  next Energy=     0.000000 (dE= 0.273E+03)
 bond charge predicted
       N       E                     dE             d eps       ncg     rms          rms(c)
DAV:   1    -0.277854029280E+03    0.13097E-09    0.64193E-12  4046   0.728E-10    0.647E-10
RMM:   2    -0.277854029280E+03    0.43656E-10    0.16724-259     2   0.666E-10
 260 F= -.27785403E+03 E0= -.27785802E+03  d E =-.444779E+01  mag=    16.9689
 curvature:   0.00 expect dE= 0.464-321 dE for cont linesearch  0.277-321
 ZBRENT:  accuracy reached
 opt :   0.0000  next Energy=     0.000000 (dE= 0.273E+03)
 bond charge predicted
       N       E                     dE             d eps       ncg     rms          rms(c)
DAV:   1    -0.277854029280E+03    0.94587E-10    0.60353E-12  4046   0.128E-09    0.676E-10
RMM:   2    -0.277854029280E+03   -0.65484E-10    0.10452-259     2   0.122E-09
 261 F= -.27785403E+03 E0= -.27785802E+03  d E =-.444779E+01  mag=    16.9689
 curvature:   0.00 expect dE= 0.464-321 dE for cont linesearch  0.277-321
 ZBRENT:  accuracy reached
 opt :   0.0000  next Energy=     0.000000 (dE= 0.273E+03)
 bond charge predicted
       N       E                     dE             d eps       ncg     rms          rms(c)
DAV:   1    -0.277854029280E+03   -0.22555E-09    0.58316E-12  4046   0.109E-09    0.555E-10
RMM:   2    -0.277854029280E+03    0.87311E-10    0.20530-259     2   0.794E-10
 262 F= -.27785403E+03 E0= -.27785802E+03  d E =-.444779E+01  mag=    16.9689
 curvature:   0.00 expect dE= 0.464-321 dE for cont linesearch  0.277-321
 ZBRENT:  accuracy reached
 opt :   0.0000  next Energy=     0.000000 (dE= 0.273E+03)
 bond charge predicted
       N       E                     dE             d eps       ncg     rms          rms(c)
DAV:   1    -0.277854029280E+03   -0.58208E-10    0.51060E-12  4046   0.837E-10    0.581E-10
RMM:   2    -0.277854029280E+03    0.25466E-09    0.13503-259     2   0.127E-09
 263 F= -.27785403E+03 E0= -.27785802E+03  d E =-.444779E+01  mag=    16.9689
 curvature:   0.00 expect dE= 0.464-321 dE for cont linesearch  0.277-321
 ZBRENT:  accuracy reached
 opt :   0.0000  next Energy=     0.000000 (dE= 0.273E+03)
 bond charge predicted
       N       E                     dE             d eps       ncg     rms          rms(c)
DAV:   1    -0.277854029280E+03    0.25466E-09    0.50738E-12  4046   0.116E-09    0.606E-10
RMM:   2    -0.277854029280E+03   -0.18190E-09    0.17201-259     2   0.106E-09
 264 F= -.27785403E+03 E0= -.27785802E+03  d E =-.444779E+01  mag=    16.9689
 curvature:   0.00 expect dE= 0.464-321 dE for cont linesearch  0.277-321
 ZBRENT:  accuracy reached
 opt :   0.0000  next Energy=     0.000000 (dE= 0.273E+03)
 bond charge predicted
       N       E                     dE             d eps       ncg     rms          rms(c)
DAV:   1    -0.277854029280E+03    0.29104E-10    0.57086E-12  4046   0.990E-10    0.600E-10
RMM:   2    -0.277854029280E+03   -0.24738E-09    0.17311-259     2   0.151E-09
 265 F= -.27785403E+03 E0= -.27785802E+03  d E =-.444779E+01  mag=    16.9689
 curvature:   0.00 expect dE= 0.464-321 dE for cont linesearch  0.277-321
 ZBRENT:  accuracy reached
 opt :   0.0000  next Energy=     0.000000 (dE= 0.273E+03)
 bond charge predicted
       N       E                     dE             d eps       ncg     rms          rms(c)
DAV:   1    -0.277854029280E+03    0.11642E-09    0.47759E-12  4046   0.157E-09    0.719E-10
RMM:   2    -0.277854029280E+03   -0.26193E-09    0.15162-259     2   0.133E-09
 266 F= -.27785403E+03 E0= -.27785802E+03  d E =-.444779E+01  mag=    16.9689
 curvature:   0.00 expect dE= 0.464-321 dE for cont linesearch  0.277-321
 ZBRENT:  accuracy reached
 opt :   0.0000  next Energy=     0.000000 (dE= 0.273E+03)
 bond charge predicted
       N       E                     dE             d eps       ncg     rms          rms(c)
DAV:   1    -0.277854029280E+03   -0.56752E-09    0.60778E-12  4046   0.893E-10    0.111E-09
RMM:   2    -0.277854029280E+03    0.57480E-09    0.16314-259     2   0.146E-09
 267 F= -.27785403E+03 E0= -.27785802E+03  d E =-.444779E+01  mag=    16.9689
 curvature:   0.00 expect dE= 0.464-321 dE for cont linesearch  0.277-321
 ZBRENT:  accuracy reached
 opt :   0.0000  next Energy=     0.000000 (dE= 0.273E+03)
 bond charge predicted
       N       E                     dE             d eps       ncg     rms          rms(c)
DAV:   1    -0.277854029280E+03    0.36380E-09    0.63123E-12  4046   0.197E-09    0.651E-10
RMM:   2    -0.277854029280E+03   -0.26193E-09    0.13684-259     2   0.157E-09
 268 F= -.27785403E+03 E0= -.27785802E+03  d E =-.444779E+01  mag=    16.9689
 curvature:   0.00 expect dE= 0.464-321 dE for cont linesearch  0.277-321
 ZBRENT:  accuracy reached
 opt :   0.0000  next Energy=     0.000000 (dE= 0.273E+03)
 bond charge predicted
       N       E                     dE             d eps       ncg     rms          rms(c)
DAV:   1    -0.277854029280E+03    0.15280E-09    0.49732E-12  4046   0.200E-09    0.120E-09
RMM:   2    -0.277854029280E+03   -0.40745E-09    0.21216-259     2   0.171E-09
 269 F= -.27785403E+03 E0= -.27785802E+03  d E =-.444779E+01  mag=    16.9689
 curvature:   0.00 expect dE= 0.464-321 dE for cont linesearch  0.277-321
 ZBRENT:  accuracy reached
 opt :   0.0000  next Energy=     0.000000 (dE= 0.273E+03)
 bond charge predicted
       N       E                     dE             d eps       ncg     rms          rms(c)
DAV:   1    -0.277854029280E+03   -0.12369E-09    0.51112E-12  4046   0.140E-09    0.605E-10
RMM:   2    -0.277854029280E+03   -0.14552E-10    0.12001-259     2   0.113E-09
 270 F= -.27785403E+03 E0= -.27785802E+03  d E =-.444779E+01  mag=    16.9689
 curvature:   0.00 expect dE= 0.464-321 dE for cont linesearch  0.277-321
 ZBRENT:  accuracy reached
 opt :   0.0000  next Energy=     0.000000 (dE= 0.273E+03)
 bond charge predicted
       N       E                     dE             d eps       ncg     rms          rms(c)
DAV:   1    -0.277854029280E+03    0.24738E-09    0.74355E-12  4046   0.160E-09    0.747E-10
RMM:   2    -0.277854029280E+03   -0.37107E-09    0.34959-259     2   0.122E-09
 271 F= -.27785403E+03 E0= -.27785802E+03  d E =-.444779E+01  mag=    16.9689
 curvature:   0.00 expect dE= 0.464-321 dE for cont linesearch  0.277-321
 ZBRENT:  accuracy reached
 opt :   0.0000  next Energy=     0.000000 (dE= 0.273E+03)
 bond charge predicted
       N       E                     dE             d eps       ncg     rms          rms(c)
DAV:   1    -0.277854029280E+03   -0.71304E-09    0.77283E-12  4046   0.114E-09    0.103E-09
RMM:   2    -0.277854029280E+03    0.66211E-09    0.94238-260     2   0.123E-09
 272 F= -.27785403E+03 E0= -.27785802E+03  d E =-.444779E+01  mag=    16.9689
 curvature:   0.00 expect dE= 0.464-321 dE for cont linesearch  0.277-321
 ZBRENT:  accuracy reached
 opt :   0.0000  next Energy=     0.000000 (dE= 0.273E+03)
 bond charge predicted
       N       E                     dE             d eps       ncg     rms          rms(c)
DAV:   1    -0.277854029280E+03    0.45111E-09    0.54868E-12  4046   0.149E-09    0.905E-10
RMM:   2    -0.277854029280E+03   -0.87311E-10    0.21734-259     2   0.968E-10
 273 F= -.27785403E+03 E0= -.27785802E+03  d E =-.444779E+01  mag=    16.9689
 curvature:   0.00 expect dE= 0.464-321 dE for cont linesearch  0.277-321
 ZBRENT:  accuracy reached
 opt :   0.0000  next Energy=     0.000000 (dE= 0.273E+03)
 bond charge predicted
       N       E                     dE             d eps       ncg     rms          rms(c)
DAV:   1    -0.277854029280E+03    0.21828E-09    0.67332E-12  4046   0.156E-09    0.538E-10
RMM:   2    -0.277854029280E+03   -0.10186E-09    0.93191-260     2   0.120E-09
 274 F= -.27785403E+03 E0= -.27785802E+03  d E =-.444779E+01  mag=    16.9689
 curvature:   0.00 expect dE= 0.464-321 dE for cont linesearch  0.277-321
 ZBRENT:  accuracy reached
 opt :   0.0000  next Energy=     0.000000 (dE= 0.273E+03)
 bond charge predicted
       N       E                     dE             d eps       ncg     rms          rms(c)
DAV:   1    -0.277854029280E+03   -0.32014E-09    0.33709E-12  4046   0.137E-09    0.119E-09
RMM:   2    -0.277854029280E+03    0.21828E-09    0.23122-259     2   0.178E-09
 275 F= -.27785403E+03 E0= -.27785802E+03  d E =-.444779E+01  mag=    16.9689
 curvature:   0.00 expect dE= 0.464-321 dE for cont linesearch  0.277-321
 ZBRENT:  accuracy reached
 opt :   0.0000  next Energy=     0.000000 (dE= 0.273E+03)
 bond charge predicted
       N       E                     dE             d eps       ncg     rms          rms(c)
DAV:   1    -0.277854029280E+03    0.18917E-09    0.44896E-12  4046   0.140E-09    0.963E-10
RMM:   2    -0.277854029280E+03   -0.21100E-09    0.96994-260     2   0.117E-09
 276 F= -.27785403E+03 E0= -.27785802E+03  d E =-.444779E+01  mag=    16.9689
 curvature:   0.00 expect dE= 0.464-321 dE for cont linesearch  0.277-321
 ZBRENT:  accuracy reached
 opt :   0.0000  next Energy=     0.000000 (dE= 0.273E+03)
 bond charge predicted
       N       E                     dE             d eps       ncg     rms          rms(c)
DAV:   1    -0.277854029280E+03   -0.36380E-10    0.63674E-12  4046   0.159E-09    0.622E-10
RMM:   2    -0.277854029280E+03   -0.58208E-10    0.51231-259     2   0.151E-09
 277 F= -.27785403E+03 E0= -.27785802E+03  d E =-.444779E+01  mag=    16.9689
 curvature:   0.00 expect dE= 0.464-321 dE for cont linesearch  0.277-321
 ZBRENT:  accuracy reached
 opt :   0.0000  next Energy=     0.000000 (dE= 0.273E+03)
 bond charge predicted
       N       E                     dE             d eps       ncg     rms          rms(c)
DAV:   1    -0.277854029280E+03    0.13097E-09    0.72364E-12  4046   0.113E-09    0.457E-10
RMM:   2    -0.277854029280E+03   -0.31287E-09    0.85455-260     2   0.108E-09
 278 F= -.27785403E+03 E0= -.27785802E+03  d E =-.444779E+01  mag=    16.9689
 curvature:   0.00 expect dE= 0.464-321 dE for cont linesearch  0.277-321
 ZBRENT:  accuracy reached
 opt :   0.0000  next Energy=     0.000000 (dE= 0.273E+03)
 bond charge predicted
       N       E                     dE             d eps       ncg     rms          rms(c)
DAV:   1    -0.277854029280E+03   -0.25466E-09    0.41407E-12  4046   0.165E-09    0.636E-10
RMM:   2    -0.277854029280E+03    0.87311E-10    0.49049-259     2   0.157E-09
 279 F= -.27785403E+03 E0= -.27785802E+03  d E =-.444779E+01  mag=    16.9689
 curvature:   0.00 expect dE= 0.464-321 dE for cont linesearch  0.277-321
 ZBRENT:  accuracy reached
 opt :   0.0000  next Energy=     0.000000 (dE= 0.273E+03)
 bond charge predicted
       N       E                     dE             d eps       ncg     rms          rms(c)
DAV:   1    -0.277854029280E+03   -0.19645E-09    0.57043E-12  4046   0.126E-09    0.640E-10
RMM:   2    -0.277854029280E+03    0.19645E-09    0.82335-260     2   0.158E-09
 280 F= -.27785403E+03 E0= -.27785802E+03  d E =-.444779E+01  mag=    16.9689
 curvature:   0.00 expect dE= 0.464-321 dE for cont linesearch  0.277-321
 ZBRENT:  accuracy reached
 opt :   0.0000  next Energy=     0.000000 (dE= 0.273E+03)
 bond charge predicted
       N       E                     dE             d eps       ncg     rms          rms(c)
DAV:   1    -0.277854029280E+03    0.26921E-09    0.48021E-12  4046   0.106E-09    0.968E-10
RMM:   2    -0.277854029280E+03    0.72760E-11    0.46278-259     2   0.102E-09
 281 F= -.27785403E+03 E0= -.27785802E+03  d E =-.444779E+01  mag=    16.9689
 curvature:   0.00 expect dE= 0.464-321 dE for cont linesearch  0.277-321
 ZBRENT:  accuracy reached
 opt :   0.0000  next Energy=     0.000000 (dE= 0.273E+03)
 bond charge predicted
       N       E                     dE             d eps       ncg     rms          rms(c)
DAV:   1    -0.277854029280E+03    0.37835E-09    0.71099E-12  4046   0.147E-09    0.114E-09
RMM:   2    -0.277854029280E+03   -0.50204E-09    0.80170-260     2   0.124E-09
 282 F= -.27785403E+03 E0= -.27785802E+03  d E =-.444779E+01  mag=    16.9689
 curvature:   0.00 expect dE= 0.464-321 dE for cont linesearch  0.277-321
 ZBRENT:  accuracy reached
 opt :   0.0000  next Energy=     0.000000 (dE= 0.273E+03)
 bond charge predicted
       N       E                     dE             d eps       ncg     rms          rms(c)
DAV:   1    -0.277854029280E+03   -0.38563E-09    0.51870E-12  4046   0.184E-09    0.660E-10
RMM:   2    -0.277854029280E+03    0.58208E-10    0.31841-259     2   0.117E-09
 283 F= -.27785403E+03 E0= -.27785802E+03  d E =-.444779E+01  mag=    16.9689
 curvature:   0.00 expect dE= 0.464-321 dE for cont linesearch  0.277-321
 ZBRENT:  accuracy reached
 opt :   0.0000  next Energy=     0.000000 (dE= 0.273E+03)
 bond charge predicted
       N       E                     dE             d eps       ncg     rms          rms(c)
DAV:   1    -0.277854029280E+03   -0.24738E-09    0.47610E-12  4046   0.128E-09    0.435E-10
RMM:   2    -0.277854029280E+03    0.50932E-10    0.91754-260     2   0.889E-10
 284 F= -.27785403E+03 E0= -.27785802E+03  d E =-.444779E+01  mag=    16.9689
 curvature:   0.00 expect dE= 0.464-321 dE for cont linesearch  0.277-321
 ZBRENT:  accuracy reached
 opt :   0.0000  next Energy=     0.000000 (dE= 0.273E+03)
 bond charge predicted
       N       E                     dE             d eps       ncg     rms          rms(c)
DAV:   1    -0.277854029280E+03    0.19645E-09    0.67471E-12  4046   0.112E-09    0.507E-10
RMM:   2    -0.277854029280E+03    0.00000E+00    0.27423-259     2   0.132E-09
 285 F= -.27785403E+03 E0= -.27785802E+03  d E =-.444779E+01  mag=    16.9689
 curvature:   0.00 expect dE= 0.464-321 dE for cont linesearch  0.277-321
 ZBRENT:  accuracy reached
 opt :   0.0000  next Energy=     0.000000 (dE= 0.273E+03)
 bond charge predicted
       N       E                     dE             d eps       ncg     rms          rms(c)
DAV:   1    -0.277854029280E+03    0.25466E-09    0.64037E-12  4046   0.924E-10    0.719E-10
RMM:   2    -0.277854029280E+03   -0.38563E-09    0.10299-259     2   0.191E-09
 286 F= -.27785403E+03 E0= -.27785802E+03  d E =-.444779E+01  mag=    16.9689
 curvature:   0.00 expect dE= 0.464-321 dE for cont linesearch  0.277-321
 ZBRENT:  accuracy reached
 opt :   0.0000  next Energy=     0.000000 (dE= 0.273E+03)
 bond charge predicted
       N       E                     dE             d eps       ncg     rms          rms(c)
DAV:   1    -0.277854029280E+03   -0.14552E-09    0.60160E-12  4046   0.114E-09    0.504E-10
RMM:   2    -0.277854029280E+03   -0.29104E-10    0.21972-259     2   0.129E-09
 287 F= -.27785403E+03 E0= -.27785802E+03  d E =-.444779E+01  mag=    16.9689
 curvature:   0.00 expect dE= 0.464-321 dE for cont linesearch  0.277-321
 ZBRENT:  accuracy reached
 opt :   0.0000  next Energy=     0.000000 (dE= 0.273E+03)
 bond charge predicted
       N       E                     dE             d eps       ncg     rms          rms(c)
DAV:   1    -0.277854029280E+03   -0.11642E-09    0.53362E-12  4046   0.138E-09    0.870E-10
RMM:   2    -0.277854029280E+03    0.17462E-09    0.11724-259     2   0.116E-09
 288 F= -.27785403E+03 E0= -.27785802E+03  d E =-.444779E+01  mag=    16.9689
 curvature:   0.00 expect dE= 0.464-321 dE for cont linesearch  0.277-321
 ZBRENT:  accuracy reached
 opt :   0.0000  next Energy=     0.000000 (dE= 0.273E+03)
 bond charge predicted
       N       E                     dE             d eps       ncg     rms          rms(c)
DAV:   1    -0.277854029280E+03    0.18190E-09    0.43623E-12  4046   0.769E-10    0.597E-10
RMM:   2    -0.277854029280E+03   -0.80036E-10    0.18117-259     2   0.947E-10
 289 F= -.27785403E+03 E0= -.27785802E+03  d E =-.444779E+01  mag=    16.9689
 curvature:   0.00 expect dE= 0.464-321 dE for cont linesearch  0.277-321
 ZBRENT:  accuracy reached
 opt :   0.0000  next Energy=     0.000000 (dE= 0.273E+03)
 bond charge predicted
       N       E                     dE             d eps       ncg     rms          rms(c)
DAV:   1    -0.277854029280E+03   -0.21100E-09    0.65049E-12  4046   0.115E-09    0.594E-10
RMM:   2    -0.277854029280E+03    0.21828E-10    0.11424-259     2   0.145E-09
 290 F= -.27785403E+03 E0= -.27785802E+03  d E =-.444779E+01  mag=    16.9689
 curvature:   0.00 expect dE= 0.464-321 dE for cont linesearch  0.277-321
 ZBRENT:  accuracy reached
 opt :   0.0000  next Energy=     0.000000 (dE= 0.273E+03)
 bond charge predicted
       N       E                     dE             d eps       ncg     rms          rms(c)
DAV:   1    -0.277854029280E+03    0.14552E-09    0.62865E-12  4046   0.111E-09    0.519E-10
RMM:   2    -0.277854029280E+03    0.94587E-10    0.22814-259     2   0.120E-09
 291 F= -.27785403E+03 E0= -.27785802E+03  d E =-.444779E+01  mag=    16.9689
 curvature:   0.00 expect dE= 0.464-321 dE for cont linesearch  0.277-321
 ZBRENT:  accuracy reached
 opt :   0.0000  next Energy=     0.000000 (dE= 0.273E+03)
 bond charge predicted
       N       E                     dE             d eps       ncg     rms          rms(c)
DAV:   1    -0.277854029280E+03   -0.27649E-09    0.65118E-12  4046   0.150E-09    0.680E-10
RMM:   2    -0.277854029280E+03   -0.72760E-11    0.10305-259     2   0.103E-09
 292 F= -.27785403E+03 E0= -.27785802E+03  d E =-.444779E+01  mag=    16.9689
 curvature:   0.00 expect dE= 0.464-321 dE for cont linesearch  0.277-321
 ZBRENT:  accuracy reached
 opt :   0.0000  next Energy=     0.000000 (dE= 0.273E+03)
 bond charge predicted
       N       E                     dE             d eps       ncg     rms          rms(c)
DAV:   1    -0.277854029280E+03    0.37107E-09    0.53705E-12  4046   0.193E-09    0.106E-09
RMM:   2    -0.277854029280E+03   -0.24011E-09    0.27937-259     2   0.134E-09
 293 F= -.27785403E+03 E0= -.27785802E+03  d E =-.444779E+01  mag=    16.9689
 curvature:   0.00 expect dE= 0.464-321 dE for cont linesearch  0.277-321
 ZBRENT:  accuracy reached
 opt :   0.0000  next Energy=     0.000000 (dE= 0.273E+03)
 bond charge predicted
       N       E                     dE             d eps       ncg     rms          rms(c)
DAV:   1    -0.277854029280E+03   -0.26193E-09    0.59114E-12  4046   0.107E-09    0.489E-10
RMM:   2    -0.277854029280E+03   -0.13824E-09    0.88759-260     2   0.108E-09
 294 F= -.27785403E+03 E0= -.27785802E+03  d E =-.444779E+01  mag=    16.9689
 curvature:   0.00 expect dE= 0.464-321 dE for cont linesearch  0.277-321
 ZBRENT:  accuracy reached
 opt :   0.0000  next Energy=     0.000000 (dE= 0.273E+03)
 bond charge predicted
       N       E                     dE             d eps       ncg     rms          rms(c)
DAV:   1    -0.277854029280E+03   -0.14552E-10    0.58669E-12  4046   0.707E-10    0.440E-10
RMM:   2    -0.277854029280E+03    0.16007E-09    0.27647-259     2   0.113E-09
 295 F= -.27785403E+03 E0= -.27785802E+03  d E =-.444779E+01  mag=    16.9689
 curvature:   0.00 expect dE= 0.464-321 dE for cont linesearch  0.277-321
 ZBRENT:  accuracy reached
 opt :   0.0000  next Energy=     0.000000 (dE= 0.273E+03)
 bond charge predicted
       N       E                     dE             d eps       ncg     rms          rms(c)
DAV:   1    -0.277854029280E+03    0.18917E-09    0.52822E-12  4046   0.126E-09    0.517E-10
RMM:   2    -0.277854029280E+03   -0.18190E-09    0.97993-260     2   0.913E-10
 296 F= -.27785403E+03 E0= -.27785802E+03  d E =-.444779E+01  mag=    16.9689
 curvature:   0.00 expect dE= 0.464-321 dE for cont linesearch  0.277-321
 ZBRENT:  accuracy reached
 opt :   0.0000  next Energy=     0.000000 (dE= 0.273E+03)
 bond charge predicted
       N       E                     dE             d eps       ncg     rms          rms(c)
DAV:   1    -0.277854029280E+03    0.20373E-09    0.65320E-12  4046   0.939E-10    0.504E-10
RMM:   2    -0.277854029280E+03   -0.17462E-09    0.21889-259     2   0.757E-10
 297 F= -.27785403E+03 E0= -.27785802E+03  d E =-.444779E+01  mag=    16.9689
 curvature:   0.00 expect dE= 0.464-321 dE for cont linesearch  0.277-321
 ZBRENT:  accuracy reached
 opt :   0.0000  next Energy=     0.000000 (dE= 0.273E+03)
 bond charge predicted
       N       E                     dE             d eps       ncg     rms          rms(c)
DAV:   1    -0.277854029280E+03   -0.41473E-09    0.67862E-12  4046   0.140E-09    0.555E-10
RMM:   2    -0.277854029280E+03    0.15280E-09    0.10074-259     2   0.122E-09
 298 F= -.27785403E+03 E0= -.27785802E+03  d E =-.444779E+01  mag=    16.9689
 curvature:   0.00 expect dE= 0.464-321 dE for cont linesearch  0.277-321
 ZBRENT:  accuracy reached
 opt :   0.0000  next Energy=     0.000000 (dE= 0.273E+03)
 bond charge predicted
       N       E                     dE             d eps       ncg     rms          rms(c)
DAV:   1    -0.277854029280E+03    0.23283E-09    0.73827E-12  4046   0.140E-09    0.557E-10
RMM:   2    -0.277854029280E+03   -0.80036E-10    0.31768-259     2   0.147E-09
 299 F= -.27785403E+03 E0= -.27785802E+03  d E =-.444779E+01  mag=    16.9689
 curvature:   0.00 expect dE= 0.464-321 dE for cont linesearch  0.277-321
 ZBRENT:  accuracy reached
 opt :   0.0000  next Energy=     0.000000 (dE= 0.273E+03)
 bond charge predicted
       N       E                     dE             d eps       ncg     rms          rms(c)
DAV:   1    -0.277854029280E+03    0.14552E-10    0.44942E-12  4046   0.133E-09    0.777E-10
RMM:   2    -0.277854029280E+03   -0.58208E-10    0.88179-260     2   0.110E-09
 300 F= -.27785403E+03 E0= -.27785802E+03  d E =-.444779E+01  mag=    16.9689
 curvature:   0.00 expect dE= 0.464-321 dE for cont linesearch  0.277-321
 ZBRENT:  accuracy reached
 opt :   0.0000  next Energy=     0.000000 (dE= 0.273E+03)
 bond charge predicted
       N       E                     dE             d eps       ncg     rms          rms(c)
DAV:   1    -0.277854029280E+03    0.72760E-10    0.84824E-12  4046   0.156E-09    0.690E-10
RMM:   2    -0.277854029280E+03   -0.34925E-09    0.36410-259     2   0.957E-10
 301 F= -.27785403E+03 E0= -.27785802E+03  d E =-.444779E+01  mag=    16.9689
 curvature:   0.00 expect dE= 0.464-321 dE for cont linesearch  0.277-321
 ZBRENT:  accuracy reached
 opt :   0.0000  next Energy=     0.000000 (dE= 0.273E+03)
 bond charge predicted
       N       E                     dE             d eps       ncg     rms          rms(c)
DAV:   1    -0.277854029280E+03   -0.18190E-09    0.58211E-12  4046   0.206E-09    0.110E-09
RMM:   2    -0.277854029280E+03   -0.94587E-10    0.81807-260     2   0.173E-09
 302 F= -.27785403E+03 E0= -.27785802E+03  d E =-.444779E+01  mag=    16.9689
 curvature:   0.00 expect dE= 0.464-321 dE for cont linesearch  0.277-321
 ZBRENT:  accuracy reached
 opt :   0.0000  next Energy=     0.000000 (dE= 0.273E+03)
 bond charge predicted
       N       E                     dE             d eps       ncg     rms          rms(c)
DAV:   1    -0.277854029280E+03   -0.11642E-09    0.52745E-12  4046   0.141E-09    0.508E-10
RMM:   2    -0.277854029280E+03    0.36380E-10    0.44367-259     2   0.132E-09
 303 F= -.27785403E+03 E0= -.27785802E+03  d E =-.444779E+01  mag=    16.9689
 curvature:   0.00 expect dE= 0.464-321 dE for cont linesearch  0.277-321
 ZBRENT:  accuracy reached
 opt :   0.0000  next Energy=     0.000000 (dE= 0.273E+03)
 bond charge predicted
       N       E                     dE             d eps       ncg     rms          rms(c)
DAV:   1    -0.277854029280E+03    0.16007E-09    0.57525E-12  4046   0.115E-09    0.846E-10
RMM:   2    -0.277854029280E+03   -0.80036E-10    0.74007-260     2   0.169E-09
 304 F= -.27785403E+03 E0= -.27785802E+03  d E =-.444779E+01  mag=    16.9689
 curvature:   0.00 expect dE= 0.464-321 dE for cont linesearch  0.277-321
 ZBRENT:  accuracy reached
 opt :   0.0000  next Energy=     0.000000 (dE= 0.273E+03)
 bond charge predicted
       N       E                     dE             d eps       ncg     rms          rms(c)
DAV:   1    -0.277854029280E+03   -0.16007E-09    0.59756E-12  4046   0.132E-09    0.811E-10
RMM:   2    -0.277854029280E+03    0.40745E-09    0.69586-259     2   0.104E-09
 305 F= -.27785403E+03 E0= -.27785802E+03  d E =-.444779E+01  mag=    16.9689
 curvature:   0.00 expect dE= 0.464-321 dE for cont linesearch  0.277-321
 ZBRENT:  accuracy reached
 opt :   0.0000  next Energy=     0.000000 (dE= 0.273E+03)
 bond charge predicted
       N       E                     dE             d eps       ncg     rms          rms(c)
DAV:   1    -0.277854029280E+03    0.27649E-09    0.51717E-12  4046   0.209E-09    0.866E-10
RMM:   2    -0.277854029280E+03   -0.33469E-09    0.65053-260     2   0.125E-09
 306 F= -.27785403E+03 E0= -.27785802E+03  d E =-.444779E+01  mag=    16.9689
 curvature:   0.00 expect dE= 0.464-321 dE for cont linesearch  0.277-321
 ZBRENT:  accuracy reached
 opt :   0.0000  next Energy=     0.000000 (dE= 0.273E+03)
 bond charge predicted
       N       E                     dE             d eps       ncg     rms          rms(c)
DAV:   1    -0.277854029280E+03   -0.32742E-09    0.72358E-12  4046   0.130E-09    0.582E-10
RMM:   2    -0.277854029280E+03    0.14552E-09    0.12603-258     2   0.763E-10
 307 F= -.27785403E+03 E0= -.27785802E+03  d E =-.444779E+01  mag=    16.9689
 curvature:   0.00 expect dE= 0.464-321 dE for cont linesearch  0.277-321
 ZBRENT:  accuracy reached
 opt :   0.0000  next Energy=     0.000000 (dE= 0.273E+03)
 bond charge predicted
       N       E                     dE             d eps       ncg     rms          rms(c)
DAV:   1    -0.277854029280E+03   -0.50932E-10    0.71043E-12  4046   0.658E-10    0.371E-10
RMM:   2    -0.277854029280E+03    0.20373E-09    0.56996-260     2   0.841E-10
 308 F= -.27785403E+03 E0= -.27785802E+03  d E =-.444779E+01  mag=    16.9689
 curvature:   0.00 expect dE= 0.464-321 dE for cont linesearch  0.277-321
 ZBRENT:  accuracy reached
 opt :   0.0000  next Energy=     0.000000 (dE= 0.273E+03)
 bond charge predicted
       N       E                     dE             d eps       ncg     rms          rms(c)
DAV:   1    -0.277854029280E+03    0.29104E-09    0.53519E-12  4046   0.661E-10    0.360E-10
RMM:   2    -0.277854029280E+03    0.14552E-09    0.65178-259     2   0.983E-10
 309 F= -.27785403E+03 E0= -.27785802E+03  d E =-.444779E+01  mag=    16.9689
 curvature:   0.00 expect dE= 0.464-321 dE for cont linesearch  0.277-321
 ZBRENT:  accuracy reached
 opt :   0.0000  next Energy=     0.000000 (dE= 0.273E+03)
 bond charge predicted
       N       E                     dE             d eps       ncg     rms          rms(c)
DAV:   1    -0.277854029280E+03   -0.50932E-10    0.55535E-12  4046   0.640E-10    0.478E-10
RMM:   2    -0.277854029280E+03    0.87311E-10    0.74007-260     2   0.120E-09
 310 F= -.27785403E+03 E0= -.27785802E+03  d E =-.444779E+01  mag=    16.9689
 curvature:   0.00 expect dE= 0.464-321 dE for cont linesearch  0.277-321
 ZBRENT:  accuracy reached
 opt :   0.0000  next Energy=     0.000000 (dE= 0.273E+03)
 bond charge predicted
       N       E                     dE             d eps       ncg     rms          rms(c)
DAV:   1    -0.277854029280E+03   -0.21100E-09    0.43995E-12  4046   0.149E-09    0.534E-10
RMM:   2    -0.277854029280E+03    0.28376E-09    0.56499-259     2   0.102E-09
 311 F= -.27785403E+03 E0= -.27785802E+03  d E =-.444779E+01  mag=    16.9689
 curvature:   0.00 expect dE= 0.464-321 dE for cont linesearch  0.277-321
 ZBRENT:  accuracy reached
 opt :   0.0000  next Energy=     0.000000 (dE= 0.273E+03)
 bond charge predicted
       N       E                     dE             d eps       ncg     rms          rms(c)
DAV:   1    -0.277854029280E+03    0.27649E-09    0.71382E-12  4046   0.116E-09    0.590E-10
RMM:   2    -0.277854029280E+03   -0.43656E-10    0.72517-260     2   0.105E-09
 312 F= -.27785403E+03 E0= -.27785802E+03  d E =-.444779E+01  mag=    16.9689
 curvature:   0.00 expect dE= 0.464-321 dE for cont linesearch  0.277-321
 ZBRENT:  accuracy reached
 opt :   0.0000  next Energy=     0.000000 (dE= 0.273E+03)
 bond charge predicted
       N       E                     dE             d eps       ncg     rms          rms(c)
DAV:   1    -0.277854029280E+03   -0.22555E-09    0.52097E-12  4046   0.102E-09    0.480E-10
RMM:   2    -0.277854029280E+03    0.33469E-09    0.49819-259     2   0.689E-10
 313 F= -.27785403E+03 E0= -.27785802E+03  d E =-.444779E+01  mag=    16.9689
 curvature:   0.00 expect dE= 0.464-321 dE for cont linesearch  0.277-321
 ZBRENT:  accuracy reached
 opt :   0.0000  next Energy=     0.000000 (dE= 0.273E+03)
 bond charge predicted
       N       E                     dE             d eps       ncg     rms          rms(c)
DAV:   1    -0.277854029280E+03    0.29104E-09    0.59855E-12  4046   0.705E-10    0.588E-10
RMM:   2    -0.277854029280E+03   -0.22555E-09    0.76204-260     2   0.107E-09
 314 F= -.27785403E+03 E0= -.27785802E+03  d E =-.444779E+01  mag=    16.9689
 curvature:   0.00 expect dE= 0.464-321 dE for cont linesearch  0.277-321
 ZBRENT:  accuracy reached
 opt :   0.0000  next Energy=     0.000000 (dE= 0.273E+03)
 bond charge predicted
       N       E                     dE             d eps       ncg     rms          rms(c)
DAV:   1    -0.277854029280E+03   -0.21100E-09    0.53355E-12  4046   0.111E-09    0.522E-10
RMM:   2    -0.277854029280E+03   -0.13097E-09    0.55626-259     2   0.121E-09
 315 F= -.27785403E+03 E0= -.27785802E+03  d E =-.444779E+01  mag=    16.9689
 curvature:   0.00 expect dE= 0.464-321 dE for cont linesearch  0.277-321
 ZBRENT:  accuracy reached
 opt :   0.0000  next Energy=     0.000000 (dE= 0.273E+03)
 bond charge predicted
       N       E                     dE             d eps       ncg     rms          rms(c)
DAV:   1    -0.277854029280E+03   -0.87311E-10    0.51128E-12  4046   0.869E-10    0.475E-10
RMM:   2    -0.277854029280E+03    0.36380E-10    0.71192-260     2   0.116E-09
 316 F= -.27785403E+03 E0= -.27785802E+03  d E =-.444779E+01  mag=    16.9689
 curvature:   0.00 expect dE= 0.464-321 dE for cont linesearch  0.277-321
 ZBRENT:  accuracy reached
 opt :   0.0000  next Energy=     0.000000 (dE= 0.273E+03)
 bond charge predicted
       N       E                     dE             d eps       ncg     rms          rms(c)
DAV:   1    -0.277854029280E+03    0.20373E-09    0.73076E-12  4046   0.110E-09    0.493E-10
RMM:   2    -0.277854029280E+03   -0.13824E-09    0.63565-259     2   0.724E-10
 317 F= -.27785403E+03 E0= -.27785802E+03  d E =-.444779E+01  mag=    16.9689
 curvature:   0.00 expect dE= 0.464-321 dE for cont linesearch  0.277-321
 ZBRENT:  accuracy reached
 opt :   0.0000  next Energy=     0.000000 (dE= 0.273E+03)
 bond charge predicted
       N       E                     dE             d eps       ncg     rms          rms(c)
DAV:   1    -0.277854029280E+03    0.24011E-09    0.56771E-12  4046   0.128E-09    0.479E-10
RMM:   2    -0.277854029280E+03   -0.23283E-09    0.65511-260     2   0.107E-09
 318 F= -.27785403E+03 E0= -.27785802E+03  d E =-.444779E+01  mag=    16.9689
 curvature:   0.00 expect dE= 0.464-321 dE for cont linesearch  0.277-321
 ZBRENT:  accuracy reached
 opt :   0.0000  next Energy=     0.000000 (dE= 0.273E+03)
 bond charge predicted
       N       E                     dE             d eps       ncg     rms          rms(c)
DAV:   1    -0.277854029280E+03   -0.33469E-09    0.74002E-12  4046   0.150E-09    0.420E-10
RMM:   2    -0.277854029280E+03    0.13824E-09    0.80499-259     2   0.785E-10
 319 F= -.27785403E+03 E0= -.27785802E+03  d E =-.444779E+01  mag=    16.9689
 curvature:   0.00 expect dE= 0.464-321 dE for cont linesearch  0.277-321
 ZBRENT:  accuracy reached
 opt :   0.0000  next Energy=     0.000000 (dE= 0.273E+03)
 bond charge predicted
       N       E                     dE             d eps       ncg     rms          rms(c)
DAV:   1    -0.277854029280E+03   -0.14552E-09    0.50340E-12  4046   0.825E-10    0.563E-10
RMM:   2    -0.277854029280E+03    0.32742E-09    0.57694-260     2   0.107E-09
 320 F= -.27785403E+03 E0= -.27785802E+03  d E =-.444779E+01  mag=    16.9689
 curvature:   0.00 expect dE= 0.464-321 dE for cont linesearch  0.277-321
 ZBRENT:  accuracy reached
 opt :   0.0000  next Energy=     0.000000 (dE= 0.273E+03)
 bond charge predicted
       N       E                     dE             d eps       ncg     rms          rms(c)
DAV:   1    -0.277854029280E+03    0.32742E-09    0.49356E-12  4046   0.928E-10    0.539E-10
RMM:   2    -0.277854029280E+03   -0.10914E-09    0.97693-259     2   0.134E-09
 321 F= -.27785403E+03 E0= -.27785802E+03  d E =-.444779E+01  mag=    16.9689
 curvature:   0.00 expect dE= 0.464-321 dE for cont linesearch  0.277-321
 ZBRENT:  accuracy reached
 opt :   0.0000  next Energy=     0.000000 (dE= 0.273E+03)
 bond charge predicted
       N       E                     dE             d eps       ncg     rms          rms(c)
DAV:   1    -0.277854029280E+03   -0.87311E-10    0.52689E-12  4046   0.969E-10    0.558E-10
RMM:   2    -0.277854029280E+03    0.27649E-09    0.56788-260     2   0.866E-10
 322 F= -.27785403E+03 E0= -.27785802E+03  d E =-.444779E+01  mag=    16.9689
 curvature:   0.00 expect dE= 0.464-321 dE for cont linesearch  0.277-321
 ZBRENT:  accuracy reached
 opt :   0.0000  next Energy=     0.000000 (dE= 0.273E+03)
 bond charge predicted
       N       E                     dE             d eps       ncg     rms          rms(c)
DAV:   1    -0.277854029280E+03    0.80036E-10    0.61855E-12  4046   0.684E-10    0.442E-10
RMM:   2    -0.277854029280E+03   -0.23283E-09    0.13687-258     2   0.106E-09
 323 F= -.27785403E+03 E0= -.27785802E+03  d E =-.444779E+01  mag=    16.9689
 curvature:   0.00 expect dE= 0.464-321 dE for cont linesearch  0.277-321
 ZBRENT:  accuracy reached
 opt :   0.0000  next Energy=     0.000000 (dE= 0.273E+03)
 bond charge predicted
       N       E                     dE             d eps       ncg     rms          rms(c)
DAV:   1    -0.277854029280E+03   -0.64756E-09    0.56480E-12  4046   0.122E-09    0.498E-10
RMM:   2    -0.277854029280E+03    0.60390E-09    0.50422-260     2   0.128E-09
 324 F= -.27785403E+03 E0= -.27785802E+03  d E =-.444779E+01  mag=    16.9689
 curvature:   0.00 expect dE= 0.464-321 dE for cont linesearch  0.277-321
 ZBRENT:  accuracy reached
 opt :   0.0000  next Energy=     0.000000 (dE= 0.273E+03)
 bond charge predicted
       N       E                     dE             d eps       ncg     rms          rms(c)
DAV:   1    -0.277854029280E+03    0.49477E-09    0.67835E-12  4046   0.873E-10    0.408E-10
RMM:   2    -0.277854029280E+03    0.10186E-09    0.14682-258     2   0.714E-10
 325 F= -.27785403E+03 E0= -.27785802E+03  d E =-.444779E+01  mag=    16.9689
 curvature:   0.00 expect dE= 0.464-321 dE for cont linesearch  0.277-321
 ZBRENT:  accuracy reached
 opt :   0.0000  next Energy=     0.000000 (dE= 0.273E+03)
 bond charge predicted
       N       E                     dE             d eps       ncg     rms          rms(c)
DAV:   1    -0.277854029280E+03    0.19645E-09    0.43671E-12  4046   0.985E-10    0.505E-10
RMM:   2    -0.277854029280E+03   -0.16007E-09    0.48684-260     2   0.933E-10
 326 F= -.27785403E+03 E0= -.27785802E+03  d E =-.444779E+01  mag=    16.9689
 curvature:   0.00 expect dE= 0.464-321 dE for cont linesearch  0.277-321
 ZBRENT:  accuracy reached
 opt :   0.0000  next Energy=     0.000000 (dE= 0.273E+03)
 bond charge predicted
       N       E                     dE             d eps       ncg     rms          rms(c)
DAV:   1    -0.277854029280E+03   -0.17462E-09    0.39927E-12  4046   0.108E-09    0.429E-10
RMM:   2    -0.277854029280E+03    0.94587E-10    0.70107-259     2   0.784E-10
 327 F= -.27785403E+03 E0= -.27785802E+03  d E =-.444779E+01  mag=    16.9689
 curvature:   0.00 expect dE= 0.464-321 dE for cont linesearch  0.277-321
 ZBRENT:  accuracy reached
 opt :   0.0000  next Energy=     0.000000 (dE= 0.273E+03)
 bond charge predicted
       N       E                     dE             d eps       ncg     rms          rms(c)
DAV:   1    -0.277854029280E+03   -0.50932E-10    0.65783E-12  4046   0.105E-09    0.491E-10
RMM:   2    -0.277854029280E+03    0.72760E-10    0.49219-260     2   0.726E-10
 328 F= -.27785403E+03 E0= -.27785802E+03  d E =-.444779E+01  mag=    16.9689
 curvature:   0.00 expect dE= 0.464-321 dE for cont linesearch  0.277-321
 ZBRENT:  accuracy reached
 opt :   0.0000  next Energy=     0.000000 (dE= 0.273E+03)
 bond charge predicted
       N       E                     dE             d eps       ncg     rms          rms(c)
DAV:   1    -0.277854029280E+03    0.21828E-10    0.61859E-12  4046   0.105E-09    0.395E-10
RMM:   2    -0.277854029280E+03    0.29104E-10    0.10924-258     2   0.928E-10
 329 F= -.27785403E+03 E0= -.27785802E+03  d E =-.444779E+01  mag=    16.9689
 curvature:   0.00 expect dE= 0.464-321 dE for cont linesearch  0.277-321
 ZBRENT:  accuracy reached
 opt :   0.0000  next Energy=     0.000000 (dE= 0.273E+03)
 bond charge predicted
       N       E                     dE             d eps       ncg     rms          rms(c)
DAV:   1    -0.277854029280E+03    0.94587E-10    0.63977E-12  4046   0.765E-10    0.456E-10
RMM:   2    -0.277854029280E+03   -0.28376E-09    0.41285-260     2   0.750E-10
 330 F= -.27785403E+03 E0= -.27785802E+03  d E =-.444779E+01  mag=    16.9689
 curvature:   0.00 expect dE= 0.464-321 dE for cont linesearch  0.277-321
 ZBRENT:  accuracy reached
 opt :   0.0000  next Energy=     0.000000 (dE= 0.273E+03)
 bond charge predicted
       N       E                     dE             d eps       ncg     rms          rms(c)
DAV:   1    -0.277854029280E+03   -0.22555E-09    0.69264E-12  4046   0.123E-09    0.384E-10
RMM:   2    -0.277854029280E+03   -0.87311E-10    0.93945-259     2   0.113E-09
 331 F= -.27785403E+03 E0= -.27785802E+03  d E =-.444779E+01  mag=    16.9689
 curvature:   0.00 expect dE= 0.464-321 dE for cont linesearch  0.277-321
 ZBRENT:  accuracy reached
 opt :   0.0000  next Energy=     0.000000 (dE= 0.273E+03)
 bond charge predicted
       N       E                     dE             d eps       ncg     rms          rms(c)
DAV:   1    -0.277854029280E+03    0.30559E-09    0.78162E-12  4046   0.114E-09    0.465E-10
RMM:   2    -0.277854029280E+03   -0.35652E-09    0.64913-260     2   0.110E-09
 332 F= -.27785403E+03 E0= -.27785802E+03  d E =-.444779E+01  mag=    16.9689
 curvature:   0.00 expect dE= 0.464-321 dE for cont linesearch  0.277-321
 ZBRENT:  accuracy reached
 opt :   0.0000  next Energy=     0.000000 (dE= 0.273E+03)
 bond charge predicted
       N       E                     dE             d eps       ncg     rms          rms(c)
DAV:   1    -0.277854029280E+03   -0.18917E-09    0.52734E-12  4046   0.781E-10    0.483E-10
RMM:   2    -0.277854029280E+03   -0.15280E-09    0.42186-259     2   0.120E-09
 333 F= -.27785403E+03 E0= -.27785802E+03  d E =-.444779E+01  mag=    16.9689
 curvature:   0.00 expect dE= 0.464-321 dE for cont linesearch  0.277-321
 ZBRENT:  accuracy reached
 opt :   0.0000  next Energy=     0.000000 (dE= 0.273E+03)
 bond charge predicted
       N       E                     dE             d eps       ncg     rms          rms(c)
DAV:   1    -0.277854029280E+03    0.80036E-10    0.74925E-12  4046   0.761E-10    0.386E-10
RMM:   2    -0.277854029280E+03   -0.25466E-09    0.69313-260     2   0.112E-09
 334 F= -.27785403E+03 E0= -.27785802E+03  d E =-.444779E+01  mag=    16.9689
 curvature:   0.00 expect dE= 0.464-321 dE for cont linesearch  0.277-321
 ZBRENT:  accuracy reached
 opt :   0.0000  next Energy=     0.000000 (dE= 0.273E+03)
 bond charge predicted
       N       E                     dE             d eps       ncg     rms          rms(c)
DAV:   1    -0.277854029280E+03    0.21100E-09    0.56978E-12  4046   0.109E-09    0.584E-10
RMM:   2    -0.277854029280E+03    0.72760E-11    0.41972-259     2   0.131E-09
 335 F= -.27785403E+03 E0= -.27785802E+03  d E =-.444779E+01  mag=    16.9689
 curvature:   0.00 expect dE= 0.464-321 dE for cont linesearch  0.277-321
 ZBRENT:  accuracy reached
 opt :   0.0000  next Energy=     0.000000 (dE= 0.273E+03)
 bond charge predicted
       N       E                     dE             d eps       ncg     rms          rms(c)
DAV:   1    -0.277854029280E+03   -0.32014E-09    0.48184E-12  4046   0.196E-09    0.769E-10
RMM:   2    -0.277854029280E+03    0.21828E-10    0.85653-260     2   0.118E-09
 336 F= -.27785403E+03 E0= -.27785802E+03  d E =-.444779E+01  mag=    16.9689
 curvature:   0.00 expect dE= 0.464-321 dE for cont linesearch  0.277-321
 ZBRENT:  accuracy reached
 opt :   0.0000  next Energy=     0.000000 (dE= 0.273E+03)
 bond charge predicted
       N       E                     dE             d eps       ncg     rms          rms(c)
DAV:   1    -0.277854029280E+03    0.14552E-09    0.81495E-12  4046   0.115E-09    0.510E-10
RMM:   2    -0.277854029280E+03   -0.12369E-09    0.49990-259     2   0.937E-10
 337 F= -.27785403E+03 E0= -.27785802E+03  d E =-.444779E+01  mag=    16.9689
 curvature:   0.00 expect dE= 0.464-321 dE for cont linesearch  0.277-321
 ZBRENT:  accuracy reached
 opt :   0.0000  next Energy=     0.000000 (dE= 0.273E+03)
 bond charge predicted
       N       E                     dE             d eps       ncg     rms          rms(c)
DAV:   1    -0.277854029280E+03   -0.22555E-09    0.32955E-12  4046   0.117E-09    0.621E-10
RMM:   2    -0.277854029280E+03    0.26921E-09    0.59490-260     2   0.907E-10
 338 F= -.27785403E+03 E0= -.27785802E+03  d E =-.444779E+01  mag=    16.9689
 curvature:   0.00 expect dE= 0.464-321 dE for cont linesearch  0.277-321
 ZBRENT:  accuracy reached
 opt :   0.0000  next Energy=     0.000000 (dE= 0.273E+03)
 bond charge predicted
       N       E                     dE             d eps       ncg     rms          rms(c)
DAV:   1    -0.277854029280E+03    0.21828E-09    0.68195E-12  4046   0.139E-09    0.471E-10
RMM:   2    -0.277854029280E+03   -0.16735E-09    0.48620-259     2   0.130E-09
 339 F= -.27785403E+03 E0= -.27785802E+03  d E =-.444779E+01  mag=    16.9689
 curvature:   0.00 expect dE= 0.464-321 dE for cont linesearch  0.277-321
 ZBRENT:  accuracy reached
 opt :   0.0000  next Energy=     0.000000 (dE= 0.273E+03)
 bond charge predicted
       N       E                     dE             d eps       ncg     rms          rms(c)
DAV:   1    -0.277854029280E+03   -0.13097E-09    0.66140E-12  4046   0.145E-09    0.659E-10
RMM:   2    -0.277854029280E+03    0.29104E-09    0.94918-260     2   0.101E-09
 340 F= -.27785403E+03 E0= -.27785802E+03  d E =-.444779E+01  mag=    16.9689
 curvature:   0.00 expect dE= 0.464-321 dE for cont linesearch  0.277-321
 ZBRENT:  accuracy reached
 opt :   0.0000  next Energy=     0.000000 (dE= 0.273E+03)
 bond charge predicted
       N       E                     dE             d eps       ncg     rms          rms(c)
DAV:   1    -0.277854029280E+03    0.13824E-09    0.57017E-12  4046   0.144E-09    0.642E-10
RMM:   2    -0.277854029280E+03   -0.21828E-09    0.44435-259     2   0.108E-09
 341 F= -.27785403E+03 E0= -.27785802E+03  d E =-.444779E+01  mag=    16.9689
 curvature:   0.00 expect dE= 0.464-321 dE for cont linesearch  0.277-321
 ZBRENT:  accuracy reached
 opt :   0.0000  next Energy=     0.000000 (dE= 0.273E+03)
 bond charge predicted
       N       E                     dE             d eps       ncg     rms          rms(c)
DAV:   1    -0.277854029280E+03   -0.15280E-09    0.58290E-12  4046   0.162E-09    0.582E-10
RMM:   2    -0.277854029280E+03   -0.14552E-10    0.11326-259     2   0.127E-09
 342 F= -.27785403E+03 E0= -.27785802E+03  d E =-.444779E+01  mag=    16.9689
 curvature:   0.00 expect dE= 0.464-321 dE for cont linesearch  0.277-321
 ZBRENT:  accuracy reached
 opt :   0.0000  next Energy=     0.000000 (dE= 0.273E+03)
 bond charge predicted
       N       E                     dE             d eps       ncg     rms          rms(c)
DAV:   1    -0.277854029280E+03    0.10914E-09    0.53690E-12  4046   0.949E-10    0.494E-10
RMM:   2    -0.277854029280E+03   -0.13824E-09    0.37544-259     2   0.113E-09
 343 F= -.27785403E+03 E0= -.27785802E+03  d E =-.444779E+01  mag=    16.9689
 curvature:   0.00 expect dE= 0.464-321 dE for cont linesearch  0.277-321
 ZBRENT:  accuracy reached
 opt :   0.0000  next Energy=     0.000000 (dE= 0.273E+03)
 bond charge predicted
       N       E                     dE             d eps       ncg     rms          rms(c)
DAV:   1    -0.277854029280E+03    0.65484E-10    0.67702E-12  4046   0.133E-09    0.450E-10
RMM:   2    -0.277854029280E+03    0.14552E-10    0.11972-259     2   0.817E-10
 344 F= -.27785403E+03 E0= -.27785802E+03  d E =-.444779E+01  mag=    16.9689
 curvature:   0.00 expect dE= 0.464-321 dE for cont linesearch  0.277-321
 ZBRENT:  accuracy reached
 opt :   0.0000  next Energy=     0.000000 (dE= 0.273E+03)
 bond charge predicted
       N       E                     dE             d eps       ncg     rms          rms(c)
DAV:   1    -0.277854029280E+03   -0.18190E-09    0.45368E-12  4046   0.162E-09    0.550E-10
RMM:   2    -0.277854029280E+03    0.13824E-09    0.34271-259     2   0.124E-09
 345 F= -.27785403E+03 E0= -.27785802E+03  d E =-.444779E+01  mag=    16.9689
 curvature:   0.00 expect dE= 0.464-321 dE for cont linesearch  0.277-321
 ZBRENT:  accuracy reached
 opt :   0.0000  next Energy=     0.000000 (dE= 0.273E+03)
 bond charge predicted
       N       E                     dE             d eps       ncg     rms          rms(c)
DAV:   1    -0.277854029280E+03    0.13824E-09    0.53029E-12  4044   0.104E-09    0.528E-10
RMM:   2    -0.277854029280E+03    0.36380E-10    0.60277-260     2   0.111E-09
 346 F= -.27785403E+03 E0= -.27785802E+03  d E =-.444779E+01  mag=    16.9689
 curvature:   0.00 expect dE= 0.464-321 dE for cont linesearch  0.277-321
 ZBRENT:  accuracy reached
 opt :   0.0000  next Energy=     0.000000 (dE= 0.273E+03)
 bond charge predicted
       N       E                     dE             d eps       ncg     rms          rms(c)
DAV:   1    -0.277854029280E+03   -0.80036E-10    0.29730E-12  4046   0.826E-10    0.519E-10
RMM:   2    -0.277854029280E+03    0.58208E-10    0.11405-258     2   0.118E-09
 347 F= -.27785403E+03 E0= -.27785802E+03  d E =-.444779E+01  mag=    16.9689
 curvature:   0.00 expect dE= 0.464-321 dE for cont linesearch  0.277-321
 ZBRENT:  accuracy reached
 opt :   0.0000  next Energy=     0.000000 (dE= 0.273E+03)
 bond charge predicted
       N       E                     dE             d eps       ncg     rms          rms(c)
DAV:   1    -0.277854029280E+03    0.36380E-10    0.67497E-12  4046   0.847E-10    0.443E-10
RMM:   2    -0.277854029280E+03   -0.26921E-09    0.58987-260     2   0.883E-10
 348 F= -.27785403E+03 E0= -.27785802E+03  d E =-.444779E+01  mag=    16.9689
 curvature:   0.00 expect dE= 0.464-321 dE for cont linesearch  0.277-321
 ZBRENT:  accuracy reached
 opt :   0.0000  next Energy=     0.000000 (dE= 0.273E+03)
 bond charge predicted
       N       E                     dE             d eps       ncg     rms          rms(c)
DAV:   1    -0.277854029280E+03   -0.12369E-09    0.67382E-12  4046   0.141E-09    0.553E-10
RMM:   2    -0.277854029280E+03    0.19645E-09    0.71612-259     2   0.773E-10
 349 F= -.27785403E+03 E0= -.27785802E+03  d E =-.444779E+01  mag=    16.9689
 curvature:   0.00 expect dE= 0.464-321 dE for cont linesearch  0.277-321
 ZBRENT:  accuracy reached
 opt :   0.0000  next Energy=     0.000000 (dE= 0.273E+03)
 bond charge predicted
       N       E                     dE             d eps       ncg     rms          rms(c)
DAV:   1    -0.277854029280E+03    0.43656E-10    0.58725E-12  4046   0.118E-09    0.650E-10
RMM:   2    -0.277854029280E+03    0.72760E-11    0.59169-260     2   0.124E-09
 350 F= -.27785403E+03 E0= -.27785802E+03  d E =-.444779E+01  mag=    16.9689
 curvature:   0.00 expect dE= 0.464-321 dE for cont linesearch  0.277-321
 ZBRENT:  accuracy reached
 opt :   0.0000  next Energy=     0.000000 (dE= 0.273E+03)
 bond charge predicted
       N       E                     dE             d eps       ncg     rms          rms(c)
DAV:   1    -0.277854029280E+03    0.17462E-09    0.64379E-12  4046   0.102E-09    0.109E-09
RMM:   2    -0.277854029280E+03   -0.16735E-09    0.59337-259     2   0.131E-09
 351 F= -.27785403E+03 E0= -.27785802E+03  d E =-.444779E+01  mag=    16.9689
 curvature:   0.00 expect dE= 0.464-321 dE for cont linesearch  0.277-321
 ZBRENT:  accuracy reached
 opt :   0.0000  next Energy=     0.000000 (dE= 0.273E+03)
 bond charge predicted
       N       E                     dE             d eps       ncg     rms          rms(c)
DAV:   1    -0.277854029280E+03   -0.22555E-09    0.48997E-12  4046   0.135E-09    0.841E-10
RMM:   2    -0.277854029280E+03    0.25466E-09    0.73140-260     2   0.117E-09
 352 F= -.27785403E+03 E0= -.27785802E+03  d E =-.444779E+01  mag=    16.9689
 curvature:   0.00 expect dE= 0.464-321 dE for cont linesearch  0.277-321
 ZBRENT:  accuracy reached
 opt :   0.0000  next Energy=     0.000000 (dE= 0.273E+03)
 bond charge predicted
       N       E                     dE             d eps       ncg     rms          rms(c)
DAV:   1    -0.277854029280E+03    0.18917E-09    0.49277E-12  4046   0.178E-09    0.515E-10
RMM:   2    -0.277854029280E+03    0.72760E-10    0.51312-259     2   0.164E-09
 353 F= -.27785403E+03 E0= -.27785802E+03  d E =-.444779E+01  mag=    16.9689
 curvature:   0.00 expect dE= 0.464-321 dE for cont linesearch  0.277-321
 ZBRENT:  accuracy reached
 opt :   0.0000  next Energy=     0.000000 (dE= 0.273E+03)
 bond charge predicted
       N       E                     dE             d eps       ncg     rms          rms(c)
DAV:   1    -0.277854029280E+03    0.14552E-10    0.57942E-12  4046   0.122E-09    0.505E-10
RMM:   2    -0.277854029280E+03   -0.14552E-09    0.72401-260     2   0.747E-10
 354 F= -.27785403E+03 E0= -.27785802E+03  d E =-.444779E+01  mag=    16.9689
 curvature:   0.00 expect dE= 0.464-321 dE for cont linesearch  0.277-321
 ZBRENT:  accuracy reached
 opt :   0.0000  next Energy=     0.000000 (dE= 0.273E+03)
 bond charge predicted
       N       E                     dE             d eps       ncg     rms          rms(c)
DAV:   1    -0.277854029280E+03    0.17462E-09    0.57147E-12  4046   0.146E-09    0.497E-10
RMM:   2    -0.277854029280E+03   -0.80036E-10    0.44861-259     2   0.133E-09
 355 F= -.27785403E+03 E0= -.27785802E+03  d E =-.444779E+01  mag=    16.9689
 curvature:   0.00 expect dE= 0.464-321 dE for cont linesearch  0.277-321
 ZBRENT:  accuracy reached
 opt :   0.0000  next Energy=     0.000000 (dE= 0.273E+03)
 bond charge predicted
       N       E                     dE             d eps       ncg     rms          rms(c)
DAV:   1    -0.277854029280E+03   -0.65484E-10    0.51777E-12  4046   0.172E-09    0.540E-10
RMM:   2    -0.277854029280E+03   -0.32014E-09    0.71850-260     2   0.124E-09
 356 F= -.27785403E+03 E0= -.27785802E+03  d E =-.444779E+01  mag=    16.9689
 curvature:   0.00 expect dE= 0.464-321 dE for cont linesearch  0.277-321
 ZBRENT:  accuracy reached
 opt :   0.0000  next Energy=     0.000000 (dE= 0.273E+03)
 bond charge predicted
       N       E                     dE             d eps       ncg     rms          rms(c)
DAV:   1    -0.277854029280E+03   -0.20373E-09    0.48288E-12  4046   0.148E-09    0.500E-10
RMM:   2    -0.277854029280E+03   -0.80036E-10    0.44969-259     2   0.998E-10
 357 F= -.27785403E+03 E0= -.27785802E+03  d E =-.444779E+01  mag=    16.9689
 curvature:   0.00 expect dE= 0.464-321 dE for cont linesearch  0.277-321
 ZBRENT:  accuracy reached
 opt :   0.0000  next Energy=     0.000000 (dE= 0.273E+03)
 bond charge predicted
       N       E                     dE             d eps       ncg     rms          rms(c)
DAV:   1    -0.277854029280E+03   -0.43656E-10    0.64216E-12  4046   0.961E-10    0.404E-10
RMM:   2    -0.277854029280E+03   -0.17462E-09    0.71727-260     2   0.676E-10
 358 F= -.27785403E+03 E0= -.27785802E+03  d E =-.444779E+01  mag=    16.9689
 curvature:   0.00 expect dE= 0.464-321 dE for cont linesearch  0.277-321
 ZBRENT:  accuracy reached
 opt :   0.0000  next Energy=     0.000000 (dE= 0.273E+03)
 bond charge predicted
       N       E                     dE             d eps       ncg     rms          rms(c)
DAV:   1    -0.277854029280E+03   -0.50932E-10    0.59472E-12  4046   0.144E-09    0.559E-10
RMM:   2    -0.277854029280E+03    0.11642E-09    0.42670-259     2   0.808E-10
 359 F= -.27785403E+03 E0= -.27785802E+03  d E =-.444779E+01  mag=    16.9689
 curvature:   0.00 expect dE= 0.464-321 dE for cont linesearch  0.277-321
 ZBRENT:  accuracy reached
 opt :   0.0000  next Energy=     0.000000 (dE= 0.273E+03)
 bond charge predicted
       N       E                     dE             d eps       ncg     rms          rms(c)
DAV:   1    -0.277854029280E+03    0.58208E-10    0.51691E-12  4046   0.113E-09    0.548E-10
RMM:   2    -0.277854029280E+03   -0.72760E-11    0.73431-260     2   0.967E-10
 360 F= -.27785403E+03 E0= -.27785802E+03  d E =-.444779E+01  mag=    16.9689
 curvature:   0.00 expect dE= 0.464-321 dE for cont linesearch  0.277-321
 ZBRENT:  accuracy reached
 opt :   0.0000  next Energy=     0.000000 (dE= 0.273E+03)
 bond charge predicted
       N       E                     dE             d eps       ncg     rms          rms(c)
DAV:   1    -0.277854029280E+03   -0.11642E-09    0.46317E-12  4046   0.116E-09    0.888E-10
RMM:   2    -0.277854029280E+03    0.94587E-10    0.42843-259     2   0.106E-09
 361 F= -.27785403E+03 E0= -.27785802E+03  d E =-.444779E+01  mag=    16.9689
 curvature:   0.00 expect dE= 0.464-321 dE for cont linesearch  0.277-321
 ZBRENT:  accuracy reached
 opt :   0.0000  next Energy=     0.000000 (dE= 0.273E+03)
 bond charge predicted
       N       E                     dE             d eps       ncg     rms          rms(c)
DAV:   1    -0.277854029280E+03    0.26921E-09    0.60452E-12  4046   0.134E-09    0.668E-10
RMM:   2    -0.277854029280E+03   -0.10186E-09    0.74089-260     2   0.142E-09
 362 F= -.27785403E+03 E0= -.27785802E+03  d E =-.444779E+01  mag=    16.9689
 curvature:   0.00 expect dE= 0.464-321 dE for cont linesearch  0.277-321
 ZBRENT:  accuracy reached
 opt :   0.0000  next Energy=     0.000000 (dE= 0.273E+03)
 bond charge predicted
       N       E                     dE             d eps       ncg     rms          rms(c)
DAV:   1    -0.277854029280E+03   -0.16735E-09    0.49793E-12  4046   0.149E-09    0.576E-10
RMM:   2    -0.277854029280E+03    0.12369E-09    0.42376-259     2   0.102E-09
 363 F= -.27785403E+03 E0= -.27785802E+03  d E =-.444779E+01  mag=    16.9689
 curvature:   0.00 expect dE= 0.464-321 dE for cont linesearch  0.277-321
 ZBRENT:  accuracy reached
 opt :   0.0000  next Energy=     0.000000 (dE= 0.273E+03)
 bond charge predicted
       N       E                     dE             d eps       ncg     rms          rms(c)
DAV:   1    -0.277854029280E+03   -0.17462E-09    0.51271E-12  4046   0.885E-10    0.477E-10
RMM:   2    -0.277854029280E+03    0.13824E-09    0.77952-260     2   0.137E-09
 364 F= -.27785403E+03 E0= -.27785802E+03  d E =-.444779E+01  mag=    16.9689
 curvature:   0.00 expect dE= 0.464-321 dE for cont linesearch  0.277-321
 ZBRENT:  accuracy reached
 opt :   0.0000  next Energy=     0.000000 (dE= 0.273E+03)
 bond charge predicted
       N       E                     dE             d eps       ncg     rms          rms(c)
DAV:   1    -0.277854029280E+03   -0.80036E-10    0.56130E-12  4046   0.117E-09    0.424E-10
RMM:   2    -0.277854029280E+03    0.30559E-09    0.42498-259     2   0.882E-10
 365 F= -.27785403E+03 E0= -.27785802E+03  d E =-.444779E+01  mag=    16.9689
 curvature:   0.00 expect dE= 0.464-321 dE for cont linesearch  0.277-321
 ZBRENT:  accuracy reached
 opt :   0.0000  next Energy=     0.000000 (dE= 0.273E+03)
 bond charge predicted
       N       E                     dE             d eps       ncg     rms          rms(c)
DAV:   1    -0.277854029280E+03    0.65484E-10    0.88747E-12  4046   0.133E-09    0.591E-10
RMM:   2    -0.277854029280E+03    0.45839E-09    0.83580-260     2   0.133E-09
 366 F= -.27785403E+03 E0= -.27785802E+03  d E =-.444779E+01  mag=    16.9689
 curvature:   0.00 expect dE= 0.464-321 dE for cont linesearch  0.277-321
 ZBRENT:  accuracy reached
 opt :   0.0000  next Energy=     0.000000 (dE= 0.273E+03)
 bond charge predicted
       N       E                     dE             d eps       ncg     rms          rms(c)
DAV:   1    -0.277854029280E+03    0.31287E-09    0.49524E-12  4046   0.152E-09    0.592E-10
RMM:   2    -0.277854029280E+03   -0.72760E-10    0.37623-259     2   0.157E-09
 367 F= -.27785403E+03 E0= -.27785802E+03  d E =-.444779E+01  mag=    16.9689
 curvature:   0.00 expect dE= 0.464-321 dE for cont linesearch  0.277-321
 ZBRENT:  accuracy reached
 opt :   0.0000  next Energy=     0.000000 (dE= 0.273E+03)
 bond charge predicted
       N       E                     dE             d eps       ncg     rms          rms(c)
DAV:   1    -0.277854029280E+03   -0.19645E-09    0.49986E-12  4046   0.126E-09    0.569E-10
RMM:   2    -0.277854029280E+03   -0.87311E-10    0.82329-260     2   0.133E-09
 368 F= -.27785403E+03 E0= -.27785802E+03  d E =-.444779E+01  mag=    16.9689
 curvature:   0.00 expect dE= 0.464-321 dE for cont linesearch  0.277-321
 ZBRENT:  accuracy reached
 opt :   0.0000  next Energy=     0.000000 (dE= 0.273E+03)
 bond charge predicted
       N       E                     dE             d eps       ncg     rms          rms(c)
DAV:   1    -0.277854029280E+03   -0.43656E-10    0.53545E-12  4046   0.127E-09    0.485E-10
RMM:   2    -0.277854029280E+03    0.22555E-09    0.37404-259     2   0.896E-10
 369 F= -.27785403E+03 E0= -.27785802E+03  d E =-.444779E+01  mag=    16.9689
 curvature:   0.00 expect dE= 0.464-321 dE for cont linesearch  0.277-321
 ZBRENT:  accuracy reached
 opt :   0.0000  next Energy=     0.000000 (dE= 0.273E+03)
 bond charge predicted
       N       E                     dE             d eps       ncg     rms          rms(c)
DAV:   1    -0.277854029280E+03    0.10914E-09    0.53159E-12  4046   0.183E-09    0.635E-10
RMM:   2    -0.277854029280E+03    0.58208E-10    0.81156-260     2   0.165E-09
 370 F= -.27785403E+03 E0= -.27785802E+03  d E =-.444779E+01  mag=    16.9689
 curvature:   0.00 expect dE= 0.464-321 dE for cont linesearch  0.277-321
 ZBRENT:  accuracy reached
 opt :   0.0000  next Energy=     0.000000 (dE= 0.273E+03)
 bond charge predicted
       N       E                     dE             d eps       ncg     rms          rms(c)
DAV:   1    -0.277854029280E+03    0.20373E-09    0.53550E-12  4046   0.124E-09    0.575E-10
RMM:   2    -0.277854029280E+03   -0.12369E-09    0.37660-259     2   0.947E-10
 371 F= -.27785403E+03 E0= -.27785802E+03  d E =-.444779E+01  mag=    16.9689
 curvature:   0.00 expect dE= 0.464-321 dE for cont linesearch  0.277-321
 ZBRENT:  accuracy reached
 opt :   0.0000  next Energy=     0.000000 (dE= 0.273E+03)
 bond charge predicted
       N       E                     dE             d eps       ncg     rms          rms(c)
DAV:   1    -0.277854029280E+03   -0.21828E-09    0.80565E-12  4046   0.104E-09    0.844E-10
RMM:   2    -0.277854029280E+03    0.65484E-10    0.81499-260     2   0.127E-09
 372 F= -.27785403E+03 E0= -.27785802E+03  d E =-.444779E+01  mag=    16.9689
 curvature:   0.00 expect dE= 0.464-321 dE for cont linesearch  0.277-321
 ZBRENT:  accuracy reached
 opt :   0.0000  next Energy=     0.000000 (dE= 0.273E+03)
 bond charge predicted
       N       E                     dE             d eps       ncg     rms          rms(c)
DAV:   1    -0.277854029280E+03    0.87311E-10    0.64534E-12  4046   0.112E-09    0.457E-10
RMM:   2    -0.277854029280E+03   -0.11642E-09    0.39223-259     2   0.129E-09
 373 F= -.27785403E+03 E0= -.27785802E+03  d E =-.444779E+01  mag=    16.9689
 curvature:   0.00 expect dE= 0.464-321 dE for cont linesearch  0.277-321
 ZBRENT:  accuracy reached
 opt :   0.0000  next Energy=     0.000000 (dE= 0.273E+03)
 bond charge predicted
       N       E                     dE             d eps       ncg     rms          rms(c)
DAV:   1    -0.277854029280E+03   -0.16735E-09    0.64571E-12  4046   0.131E-09    0.418E-10
RMM:   2    -0.277854029280E+03    0.18917E-09    0.79854-260     2   0.926E-10
 374 F= -.27785403E+03 E0= -.27785802E+03  d E =-.444779E+01  mag=    16.9689
 curvature:   0.00 expect dE= 0.464-321 dE for cont linesearch  0.277-321
 ZBRENT:  accuracy reached
 opt :   0.0000  next Energy=     0.000000 (dE= 0.273E+03)
 bond charge predicted
       N       E                     dE             d eps       ncg     rms          rms(c)
DAV:   1    -0.277854029280E+03    0.22555E-09    0.67179E-12  4046   0.120E-09    0.367E-10
RMM:   2    -0.277854029280E+03   -0.21828E-10    0.39619-259     2   0.956E-10
 375 F= -.27785403E+03 E0= -.27785802E+03  d E =-.444779E+01  mag=    16.9689
 curvature:   0.00 expect dE= 0.464-321 dE for cont linesearch  0.277-321
 ZBRENT:  accuracy reached
 opt :   0.0000  next Energy=     0.000000 (dE= 0.273E+03)
 bond charge predicted
       N       E                     dE             d eps       ncg     rms          rms(c)
DAV:   1    -0.277854029280E+03    0.00000E+00    0.46241E-12  4046   0.120E-09    0.602E-10
RMM:   2    -0.277854029280E+03   -0.18190E-09    0.80215-260     2   0.916E-10
 376 F= -.27785403E+03 E0= -.27785802E+03  d E =-.444779E+01  mag=    16.9689
 curvature:   0.00 expect dE= 0.464-321 dE for cont linesearch  0.277-321
 ZBRENT:  accuracy reached
 opt :   0.0000  next Energy=     0.000000 (dE= 0.273E+03)
 bond charge predicted
       N       E                     dE             d eps       ncg     rms          rms(c)
DAV:   1    -0.277854029280E+03    0.50932E-10    0.65624E-12  4046   0.118E-09    0.863E-10
RMM:   2    -0.277854029280E+03   -0.36380E-10    0.39890-259     2   0.167E-09
 377 F= -.27785403E+03 E0= -.27785802E+03  d E =-.444779E+01  mag=    16.9689
 curvature:   0.00 expect dE= 0.464-321 dE for cont linesearch  0.277-321
 ZBRENT:  accuracy reached
 opt :   0.0000  next Energy=     0.000000 (dE= 0.273E+03)
 bond charge predicted
       N       E                     dE             d eps       ncg     rms          rms(c)
DAV:   1    -0.277854029280E+03   -0.28376E-09    0.62624E-12  4046   0.101E-09    0.662E-10
RMM:   2    -0.277854029280E+03    0.30559E-09    0.80575-260     2   0.108E-09
 378 F= -.27785403E+03 E0= -.27785802E+03  d E =-.444779E+01  mag=    16.9689
 curvature:   0.00 expect dE= 0.464-321 dE for cont linesearch  0.277-321
 ZBRENT:  accuracy reached
 opt :   0.0000  next Energy=     0.000000 (dE= 0.273E+03)
 bond charge predicted
       N       E                     dE             d eps       ncg     rms          rms(c)
DAV:   1    -0.277854029280E+03    0.21828E-10    0.58613E-12  4046   0.140E-09    0.571E-10
RMM:   2    -0.277854029280E+03    0.24011E-09    0.40894-259     2   0.132E-09
 379 F= -.27785403E+03 E0= -.27785802E+03  d E =-.444779E+01  mag=    16.9689
 curvature:   0.00 expect dE= 0.464-321 dE for cont linesearch  0.277-321
 ZBRENT:  accuracy reached
 opt :   0.0000  next Energy=     0.000000 (dE= 0.273E+03)
 bond charge predicted
       N       E                     dE             d eps       ncg     rms          rms(c)
DAV:   1    -0.277854029280E+03    0.20373E-09    0.62341E-12  4046   0.968E-10    0.366E-10
RMM:   2    -0.277854029280E+03    0.21828E-10    0.85267-260     2   0.835E-10
 380 F= -.27785403E+03 E0= -.27785802E+03  d E =-.444779E+01  mag=    16.9689
 curvature:   0.00 expect dE= 0.464-321 dE for cont linesearch  0.277-321
 ZBRENT:  accuracy reached
 opt :   0.0000  next Energy=     0.000000 (dE= 0.273E+03)
 bond charge predicted
       N       E                     dE             d eps       ncg     rms          rms(c)
DAV:   1    -0.277854029280E+03   -0.12369E-09    0.50466E-12  4046   0.129E-09    0.377E-10
RMM:   2    -0.277854029280E+03    0.65484E-10    0.39660-259     2   0.678E-10
 381 F= -.27785403E+03 E0= -.27785802E+03  d E =-.444779E+01  mag=    16.9689
 curvature:   0.00 expect dE= 0.464-321 dE for cont linesearch  0.277-321
 ZBRENT:  accuracy reached
 opt :   0.0000  next Energy=     0.000000 (dE= 0.273E+03)
 bond charge predicted
       N       E                     dE             d eps       ncg     rms          rms(c)
DAV:   1    -0.277854029280E+03    0.80036E-10    0.39084E-12  4046   0.852E-10    0.812E-10
RMM:   2    -0.277854029280E+03   -0.15280E-09    0.81756-260     2   0.127E-09
 382 F= -.27785403E+03 E0= -.27785802E+03  d E =-.444779E+01  mag=    16.9689
 curvature:   0.00 expect dE= 0.464-321 dE for cont linesearch  0.277-321
 ZBRENT:  accuracy reached
 opt :   0.0000  next Energy=     0.000000 (dE= 0.273E+03)
 bond charge predicted
       N       E                     dE             d eps       ncg     rms          rms(c)
DAV:   1    -0.277854029280E+03   -0.21100E-09    0.55421E-12  4046   0.700E-10    0.731E-10
RMM:   2    -0.277854029280E+03    0.30559E-09    0.42854-259     2   0.667E-10
 383 F= -.27785403E+03 E0= -.27785802E+03  d E =-.444779E+01  mag=    16.9689
 curvature:   0.00 expect dE= 0.464-321 dE for cont linesearch  0.277-321
 ZBRENT:  accuracy reached
 opt :   0.0000  next Energy=     0.000000 (dE= 0.273E+03)
 bond charge predicted
       N       E                     dE             d eps       ncg     rms          rms(c)
DAV:   1    -0.277854029280E+03    0.29104E-10    0.56257E-12  4046   0.139E-09    0.507E-10
RMM:   2    -0.277854029280E+03    0.58208E-10    0.82092-260     2   0.109E-09
 384 F= -.27785403E+03 E0= -.27785802E+03  d E =-.444779E+01  mag=    16.9689
 curvature:   0.00 expect dE= 0.464-321 dE for cont linesearch  0.277-321
 ZBRENT:  accuracy reached
 opt :   0.0000  next Energy=     0.000000 (dE= 0.273E+03)
 bond charge predicted
       N       E                     dE             d eps       ncg     rms          rms(c)
DAV:   1    -0.277854029280E+03   -0.36380E-10    0.57832E-12  4046   0.144E-09    0.492E-10
RMM:   2    -0.277854029280E+03    0.13824E-09    0.41150-259     2   0.109E-09
 385 F= -.27785403E+03 E0= -.27785802E+03  d E =-.444779E+01  mag=    16.9689
 curvature:   0.00 expect dE= 0.464-321 dE for cont linesearch  0.277-321
 ZBRENT:  accuracy reached
 opt :   0.0000  next Energy=     0.000000 (dE= 0.273E+03)
 bond charge predicted
       N       E                     dE             d eps       ncg     rms          rms(c)
DAV:   1    -0.277854029280E+03    0.38563E-09    0.46563E-12  4046   0.123E-09    0.514E-10
RMM:   2    -0.277854029280E+03   -0.40745E-09    0.80021-260     2   0.774E-10
 386 F= -.27785403E+03 E0= -.27785802E+03  d E =-.444779E+01  mag=    16.9689
 curvature:   0.00 expect dE= 0.464-321 dE for cont linesearch  0.277-321
 ZBRENT:  accuracy reached
 opt :   0.0000  next Energy=     0.000000 (dE= 0.273E+03)
 bond charge predicted
       N       E                     dE             d eps       ncg     rms          rms(c)
DAV:   1    -0.277854029280E+03    0.36380E-10    0.60057E-12  4046   0.128E-09    0.524E-10
RMM:   2    -0.277854029280E+03   -0.37835E-09    0.41365-259     2   0.806E-10
 387 F= -.27785403E+03 E0= -.27785802E+03  d E =-.444779E+01  mag=    16.9689
 curvature:   0.00 expect dE= 0.464-321 dE for cont linesearch  0.277-321
 ZBRENT:  accuracy reached
 opt :   0.0000  next Energy=     0.000000 (dE= 0.273E+03)
 bond charge predicted
       N       E                     dE             d eps       ncg     rms          rms(c)
DAV:   1    -0.277854029280E+03   -0.43656E-10    0.51016E-12  4046   0.832E-10    0.116E-09
RMM:   2    -0.277854029280E+03   -0.10186E-09    0.79398-260     2   0.187E-09
 388 F= -.27785403E+03 E0= -.27785802E+03  d E =-.444779E+01  mag=    16.9689
 curvature:   0.00 expect dE= 0.464-321 dE for cont linesearch  0.277-321
 ZBRENT:  accuracy reached
 opt :   0.0000  next Energy=     0.000000 (dE= 0.273E+03)
 bond charge predicted
       N       E                     dE             d eps       ncg     rms          rms(c)
DAV:   1    -0.277854029280E+03   -0.32014E-09    0.58516E-12  4046   0.211E-09    0.145E-09
RMM:   2    -0.277854029280E+03    0.58208E-10    0.42520-259     2   0.152E-09
 389 F= -.27785403E+03 E0= -.27785802E+03  d E =-.444779E+01  mag=    16.9689
 curvature:   0.00 expect dE= 0.464-321 dE for cont linesearch  0.277-321
 ZBRENT:  accuracy reached
 opt :   0.0000  next Energy=     0.000000 (dE= 0.273E+03)
 bond charge predicted
       N       E                     dE             d eps       ncg     rms          rms(c)
DAV:   1    -0.277854029280E+03   -0.72760E-11    0.57459E-12  4046   0.156E-09    0.958E-10
RMM:   2    -0.277854029280E+03    0.24738E-09    0.83378-260     2   0.105E-09
 390 F= -.27785403E+03 E0= -.27785802E+03  d E =-.444779E+01  mag=    16.9689
 curvature:   0.00 expect dE= 0.464-321 dE for cont linesearch  0.277-321
 ZBRENT:  accuracy reached
 opt :   0.0000  next Energy=     0.000000 (dE= 0.273E+03)
 bond charge predicted
       N       E                     dE             d eps       ncg     rms          rms(c)
DAV:   1    -0.277854029280E+03    0.13824E-09    0.59472E-12  4046   0.138E-09    0.778E-10
RMM:   2    -0.277854029280E+03    0.72760E-11    0.41344-259     2   0.946E-10
 391 F= -.27785403E+03 E0= -.27785802E+03  d E =-.444779E+01  mag=    16.9689
 curvature:   0.00 expect dE= 0.464-321 dE for cont linesearch  0.277-321
 ZBRENT:  accuracy reached
 opt :   0.0000  next Energy=     0.000000 (dE= 0.273E+03)
 bond charge predicted
       N       E                     dE             d eps       ncg     rms          rms(c)
DAV:   1    -0.277854029280E+03    0.29104E-10    0.74349E-12  4046   0.161E-09    0.567E-10
RMM:   2    -0.277854029280E+03   -0.14552E-09    0.82522-260     2   0.787E-10
 392 F= -.27785403E+03 E0= -.27785802E+03  d E =-.444779E+01  mag=    16.9689
 curvature:   0.00 expect dE= 0.464-321 dE for cont linesearch  0.277-321
 ZBRENT:  accuracy reached
 opt :   0.0000  next Energy=     0.000000 (dE= 0.273E+03)
 bond charge predicted
       N       E                     dE             d eps       ncg     rms          rms(c)
DAV:   1    -0.277854029280E+03   -0.12369E-09    0.54901E-12  4046   0.104E-09    0.753E-10
RMM:   2    -0.277854029280E+03   -0.65484E-10    0.40521-259     2   0.138E-09
 393 F= -.27785403E+03 E0= -.27785802E+03  d E =-.444779E+01  mag=    16.9689
 curvature:   0.00 expect dE= 0.464-321 dE for cont linesearch  0.277-321
 ZBRENT:  accuracy reached
 opt :   0.0000  next Energy=     0.000000 (dE= 0.273E+03)
 bond charge predicted
       N       E                     dE             d eps       ncg     rms          rms(c)
DAV:   1    -0.277854029280E+03   -0.13097E-09    0.48896E-12  4046   0.115E-09    0.732E-10
RMM:   2    -0.277854029280E+03    0.36380E-09    0.82875-260     2   0.756E-10
 394 F= -.27785403E+03 E0= -.27785802E+03  d E =-.444779E+01  mag=    16.9689
 curvature:   0.00 expect dE= 0.464-321 dE for cont linesearch  0.277-321
 ZBRENT:  accuracy reached
 opt :   0.0000  next Energy=     0.000000 (dE= 0.273E+03)
 bond charge predicted
       N       E                     dE             d eps       ncg     rms          rms(c)
DAV:   1    -0.277854029280E+03    0.32014E-09    0.56823E-12  4046   0.139E-09    0.617E-10
RMM:   2    -0.277854029280E+03   -0.16735E-09    0.40206-259     2   0.122E-09
 395 F= -.27785403E+03 E0= -.27785802E+03  d E =-.444779E+01  mag=    16.9689
 curvature:   0.00 expect dE= 0.464-321 dE for cont linesearch  0.277-321
 ZBRENT:  accuracy reached
 opt :   0.0000  next Energy=     0.000000 (dE= 0.273E+03)
 bond charge predicted
       N       E                     dE             d eps       ncg     rms          rms(c)
DAV:   1    -0.277854029280E+03    0.72760E-10    0.57585E-12  4046   0.150E-09    0.125E-09
RMM:   2    -0.277854029280E+03   -0.45111E-09    0.81724-260     2   0.167E-09
 396 F= -.27785403E+03 E0= -.27785802E+03  d E =-.444779E+01  mag=    16.9689
 curvature:   0.00 expect dE= 0.464-321 dE for cont linesearch  0.277-321
 ZBRENT:  accuracy reached
 opt :   0.0000  next Energy=     0.000000 (dE= 0.273E+03)
 bond charge predicted
       N       E                     dE             d eps       ncg     rms          rms(c)
DAV:   1    -0.277854029280E+03   -0.59663E-09    0.67951E-12  4046   0.987E-10    0.913E-10
RMM:   2    -0.277854029280E+03    0.57480E-09    0.41186-259     2   0.953E-10
 397 F= -.27785403E+03 E0= -.27785802E+03  d E =-.444779E+01  mag=    16.9689
 curvature:   0.00 expect dE= 0.464-321 dE for cont linesearch  0.277-321
 ZBRENT:  accuracy reached
 opt :   0.0000  next Energy=     0.000000 (dE= 0.273E+03)
 bond charge predicted
       N       E                     dE             d eps       ncg     rms          rms(c)
DAV:   1    -0.277854029280E+03    0.81491E-09    0.68680E-12  4046   0.148E-09    0.112E-09
RMM:   2    -0.277854029280E+03   -0.53842E-09    0.82070-260     2   0.140E-09
 398 F= -.27785403E+03 E0= -.27785802E+03  d E =-.444779E+01  mag=    16.9689
 curvature:   0.00 expect dE= 0.464-321 dE for cont linesearch  0.277-321
 ZBRENT:  accuracy reached
 opt :   0.0000  next Energy=     0.000000 (dE= 0.273E+03)
 bond charge predicted
       N       E                     dE             d eps       ncg     rms          rms(c)
DAV:   1    -0.277854029280E+03   -0.27649E-09    0.63524E-12  4046   0.151E-09    0.934E-10
RMM:   2    -0.277854029280E+03   -0.58208E-10    0.40946-259     2   0.108E-09
 399 F= -.27785403E+03 E0= -.27785802E+03  d E =-.444779E+01  mag=    16.9689
 curvature:   0.00 expect dE= 0.464-321 dE for cont linesearch  0.277-321
 ZBRENT:  accuracy reached
 opt :   0.0000  next Energy=     0.000000 (dE= 0.273E+03)
 bond charge predicted
       N       E                     dE             d eps       ncg     rms          rms(c)
DAV:   1    -0.277854029280E+03   -0.43656E-10    0.51905E-12  4046   0.134E-09    0.552E-10
RMM:   2    -0.277854029280E+03    0.23283E-09    0.81659-260     2   0.111E-09
 400 F= -.27785403E+03 E0= -.27785802E+03  d E =-.444779E+01  mag=    16.9689
 curvature:   0.00 expect dE= 0.464-321 dE for cont linesearch  0.277-321
 ZBRENT:  accuracy reached
 opt :   0.0000  next Energy=     0.000000 (dE= 0.273E+03)
 bond charge predicted
       N       E                     dE             d eps       ncg     rms          rms(c)
DAV:   1    -0.277854029280E+03   -0.50932E-10    0.74734E-12  4046   0.107E-09    0.558E-10
RMM:   2    -0.277854029280E+03   -0.18917E-09    0.41826-259     2   0.892E-10
 401 F= -.27785403E+03 E0= -.27785802E+03  d E =-.444779E+01  mag=    16.9689
 curvature:   0.00 expect dE= 0.464-321 dE for cont linesearch  0.277-321
 ZBRENT:  accuracy reached
 opt :   0.0000  next Energy=     0.000000 (dE= 0.273E+03)
 bond charge predicted
       N       E                     dE             d eps       ncg     rms          rms(c)
DAV:   1    -0.277854029280E+03    0.10186E-09    0.68847E-12  4046   0.135E-09    0.818E-10
RMM:   2    -0.277854029280E+03   -0.18190E-09    0.83393-260     2   0.151E-09
 402 F= -.27785403E+03 E0= -.27785802E+03  d E =-.444779E+01  mag=    16.9689
 curvature:   0.00 expect dE= 0.464-321 dE for cont linesearch  0.277-321
 ZBRENT:  accuracy reached
 opt :   0.0000  next Energy=     0.000000 (dE= 0.273E+03)
 bond charge predicted
       N       E                     dE             d eps       ncg     rms          rms(c)
DAV:   1    -0.277854029280E+03   -0.44383E-09    0.56875E-12  4046   0.124E-09    0.869E-10
RMM:   2    -0.277854029280E+03    0.66939E-09    0.41087-259     2   0.122E-09
 403 F= -.27785403E+03 E0= -.27785802E+03  d E =-.444779E+01  mag=    16.9689
 curvature:   0.00 expect dE= 0.464-321 dE for cont linesearch  0.277-321
 ZBRENT:  accuracy reached
 opt :   0.0000  next Energy=     0.000000 (dE= 0.273E+03)
 bond charge predicted
       N       E                     dE             d eps       ncg     rms          rms(c)
DAV:   1    -0.277854029280E+03    0.26193E-09    0.58824E-12  4046   0.160E-09    0.639E-10
RMM:   2    -0.277854029280E+03    0.14552E-09    0.84947-260     2   0.141E-09
 404 F= -.27785403E+03 E0= -.27785802E+03  d E =-.444779E+01  mag=    16.9689
 curvature:   0.00 expect dE= 0.464-321 dE for cont linesearch  0.277-321
 ZBRENT:  accuracy reached
 opt :   0.0000  next Energy=     0.000000 (dE= 0.273E+03)
 bond charge predicted
       N       E                     dE             d eps       ncg     rms          rms(c)
DAV:   1    -0.277854029280E+03   -0.14552E-09    0.54336E-12  4046   0.118E-09    0.572E-10
RMM:   2    -0.277854029280E+03    0.12369E-09    0.41735-259     2   0.112E-09
 405 F= -.27785403E+03 E0= -.27785802E+03  d E =-.444779E+01  mag=    16.9689
 curvature:   0.00 expect dE= 0.464-321 dE for cont linesearch  0.277-321
 ZBRENT:  accuracy reached
 opt :   0.0000  next Energy=     0.000000 (dE= 0.273E+03)
 bond charge predicted
       N       E                     dE             d eps       ncg     rms          rms(c)
DAV:   1    -0.277854029280E+03    0.34197E-09    0.43732E-12  4046   0.134E-09    0.130E-09
RMM:   2    -0.277854029280E+03    0.00000E+00    0.85296-260     2   0.179E-09
 406 F= -.27785403E+03 E0= -.27785802E+03  d E =-.444779E+01  mag=    16.9689
 curvature:   0.00 expect dE= 0.464-321 dE for cont linesearch  0.277-321
 ZBRENT:  accuracy reached
 opt :   0.0000  next Energy=     0.000000 (dE= 0.273E+03)
 bond charge predicted
       N       E                     dE             d eps       ncg     rms          rms(c)
DAV:   1    -0.277854029280E+03   -0.16735E-09    0.70120E-12  4046   0.182E-09    0.173E-09
RMM:   2    -0.277854029280E+03   -0.16007E-09    0.41225-259     2   0.152E-09
 407 F= -.27785403E+03 E0= -.27785802E+03  d E =-.444779E+01  mag=    16.9689
 curvature:   0.00 expect dE= 0.464-321 dE for cont linesearch  0.277-321
 ZBRENT:  accuracy reached
 opt :   0.0000  next Energy=     0.000000 (dE= 0.273E+03)
 bond charge predicted
       N       E                     dE             d eps       ncg     rms          rms(c)
DAV:   1    -0.277854029280E+03    0.28376E-09    0.84074E-12  4046   0.178E-09    0.142E-09
RMM:   2    -0.277854029280E+03   -0.25466E-09    0.85637-260     2   0.123E-09
 408 F= -.27785403E+03 E0= -.27785802E+03  d E =-.444779E+01  mag=    16.9689
 curvature:   0.00 expect dE= 0.464-321 dE for cont linesearch  0.277-321
 ZBRENT:  accuracy reached
 opt :   0.0000  next Energy=     0.000000 (dE= 0.273E+03)
 bond charge predicted
       N       E                     dE             d eps       ncg     rms          rms(c)
DAV:   1    -0.277854029280E+03   -0.32742E-09    0.67734E-12  4046   0.144E-09    0.112E-09
RMM:   2    -0.277854029280E+03    0.11642E-09    0.40952-259     2   0.121E-09
 409 F= -.27785403E+03 E0= -.27785802E+03  d E =-.444779E+01  mag=    16.9689
 curvature:   0.00 expect dE= 0.464-321 dE for cont linesearch  0.277-321
 ZBRENT:  accuracy reached
 opt :   0.0000  next Energy=     0.000000 (dE= 0.273E+03)
 bond charge predicted
       N       E                     dE             d eps       ncg     rms          rms(c)
DAV:   1    -0.277854029280E+03    0.31287E-09    0.41759E-12  4046   0.130E-09    0.693E-10
RMM:   2    -0.277854029280E+03   -0.15280E-09    0.85468-260     2   0.784E-10
 410 F= -.27785403E+03 E0= -.27785802E+03  d E =-.444779E+01  mag=    16.9689
 curvature:   0.00 expect dE= 0.464-321 dE for cont linesearch  0.277-321
 ZBRENT:  accuracy reached
 opt :   0.0000  next Energy=     0.000000 (dE= 0.273E+03)
 bond charge predicted
       N       E                     dE             d eps       ncg     rms          rms(c)
DAV:   1    -0.277854029280E+03   -0.52387E-09    0.61198E-12  4046   0.114E-09    0.972E-10
RMM:   2    -0.277854029280E+03    0.41473E-09    0.40873-259     2   0.141E-09
 411 F= -.27785403E+03 E0= -.27785802E+03  d E =-.444779E+01  mag=    16.9689
 curvature:   0.00 expect dE= 0.464-321 dE for cont linesearch  0.277-321
 ZBRENT:  accuracy reached
 opt :   0.0000  next Energy=     0.000000 (dE= 0.273E+03)
 bond charge predicted
       N       E                     dE             d eps       ncg     rms          rms(c)
DAV:   1    -0.277854029280E+03    0.21828E-09    0.44617E-12  4046   0.100E-09    0.531E-10
RMM:   2    -0.277854029280E+03   -0.21828E-10    0.10246-259     2   0.132E-09
 412 F= -.27785403E+03 E0= -.27785802E+03  d E =-.444779E+01  mag=    16.9689
 curvature:   0.00 expect dE= 0.464-321 dE for cont linesearch  0.277-321
 ZBRENT:  accuracy reached
 opt :   0.0000  next Energy=     0.000000 (dE= 0.273E+03)
 bond charge predicted
       N       E                     dE             d eps       ncg     rms          rms(c)
DAV:   1    -0.277854029280E+03    0.47294E-09    0.39416E-12  4046   0.143E-09    0.117E-09
RMM:   2    -0.277854029280E+03   -0.53114E-09    0.38263-259     2   0.173E-09
 413 F= -.27785403E+03 E0= -.27785802E+03  d E =-.444779E+01  mag=    16.9689
 curvature:   0.00 expect dE= 0.464-321 dE for cont linesearch  0.277-321
 ZBRENT:  accuracy reached
 opt :   0.0000  next Energy=     0.000000 (dE= 0.273E+03)
 bond charge predicted
       N       E                     dE             d eps       ncg     rms          rms(c)
DAV:   1    -0.277854029280E+03   -0.74942E-09    0.63773E-12  4046   0.189E-09    0.175E-09
RMM:   2    -0.277854029280E+03    0.26921E-09    0.96644-260     2   0.167E-09
 414 F= -.27785403E+03 E0= -.27785802E+03  d E =-.444779E+01  mag=    16.9689
 curvature:   0.00 expect dE= 0.464-321 dE for cont linesearch  0.277-321
 ZBRENT:  accuracy reached
 opt :   0.0000  next Energy=     0.000000 (dE= 0.273E+03)
 bond charge predicted
       N       E                     dE             d eps       ncg     rms          rms(c)
DAV:   1    -0.277854029280E+03    0.39290E-09    0.64017E-12  4046   0.151E-09    0.143E-09
RMM:   2    -0.277854029280E+03   -0.18917E-09    0.35778-259     2   0.999E-10
 415 F= -.27785403E+03 E0= -.27785802E+03  d E =-.444779E+01  mag=    16.9689
 curvature:   0.00 expect dE= 0.464-321 dE for cont linesearch  0.277-321
 ZBRENT:  accuracy reached
 opt :   0.0000  next Energy=     0.000000 (dE= 0.273E+03)
 bond charge predicted
       N       E                     dE             d eps       ncg     rms          rms(c)
DAV:   1    -0.277854029280E+03   -0.72760E-10    0.77568E-12  4046   0.151E-09    0.720E-10
RMM:   2    -0.277854029280E+03   -0.65484E-10    0.97444-260     2   0.161E-09
 416 F= -.27785403E+03 E0= -.27785802E+03  d E =-.444779E+01  mag=    16.9689
 curvature:   0.00 expect dE= 0.464-321 dE for cont linesearch  0.277-321
 ZBRENT:  accuracy reached
 opt :   0.0000  next Energy=     0.000000 (dE= 0.273E+03)
 bond charge predicted
       N       E                     dE             d eps       ncg     rms          rms(c)
DAV:   1    -0.277854029280E+03    0.65484E-10    0.41982E-12  4046   0.113E-09    0.552E-10
RMM:   2    -0.277854029280E+03   -0.29104E-10    0.35262-259     2   0.658E-10
 417 F= -.27785403E+03 E0= -.27785802E+03  d E =-.444779E+01  mag=    16.9689
 curvature:   0.00 expect dE= 0.464-321 dE for cont linesearch  0.277-321
 ZBRENT:  accuracy reached
 opt :   0.0000  next Energy=     0.000000 (dE= 0.273E+03)
 bond charge predicted
       N       E                     dE             d eps       ncg     rms          rms(c)
DAV:   1    -0.277854029280E+03    0.65484E-10    0.52717E-12  4046   0.871E-10    0.914E-10
RMM:   2    -0.277854029280E+03   -0.43656E-10    0.99274-260     2   0.152E-09
 418 F= -.27785403E+03 E0= -.27785802E+03  d E =-.444779E+01  mag=    16.9689
 curvature:   0.00 expect dE= 0.464-321 dE for cont linesearch  0.277-321
 ZBRENT:  accuracy reached
 opt :   0.0000  next Energy=     0.000000 (dE= 0.273E+03)
 bond charge predicted
       N       E                     dE             d eps       ncg     rms          rms(c)
DAV:   1    -0.277854029280E+03   -0.28376E-09    0.60213E-12  4046   0.105E-09    0.916E-10
RMM:   2    -0.277854029280E+03    0.33469E-09    0.34383-259     2   0.123E-09
 419 F= -.27785403E+03 E0= -.27785802E+03  d E =-.444779E+01  mag=    16.9689
 curvature:   0.00 expect dE= 0.464-321 dE for cont linesearch  0.277-321
 ZBRENT:  accuracy reached
 opt :   0.0000  next Energy=     0.000000 (dE= 0.273E+03)
 bond charge predicted
       N       E                     dE             d eps       ncg     rms          rms(c)
DAV:   1    -0.277854029280E+03   -0.14552E-10    0.53102E-12  4046   0.132E-09    0.572E-10
RMM:   2    -0.277854029280E+03    0.17462E-09    0.10123-259     2   0.128E-09
 420 F= -.27785403E+03 E0= -.27785802E+03  d E =-.444779E+01  mag=    16.9689
 curvature:   0.00 expect dE= 0.464-321 dE for cont linesearch  0.277-321
 ZBRENT:  accuracy reached
 opt :   0.0000  next Energy=     0.000000 (dE= 0.273E+03)
 bond charge predicted
       N       E                     dE             d eps       ncg     rms          rms(c)
DAV:   1    -0.277854029280E+03    0.21828E-10    0.66583E-12  4046   0.136E-09    0.931E-10
RMM:   2    -0.277854029280E+03    0.43656E-10    0.33460-259     2   0.119E-09
 421 F= -.27785403E+03 E0= -.27785802E+03  d E =-.444779E+01  mag=    16.9689
 curvature:   0.00 expect dE= 0.464-321 dE for cont linesearch  0.277-321
 ZBRENT:  accuracy reached
 opt :   0.0000  next Energy=     0.000000 (dE= 0.273E+03)
 bond charge predicted
       N       E                     dE             d eps       ncg     rms          rms(c)
DAV:   1    -0.277854029280E+03    0.12369E-09    0.57368E-12  4046   0.986E-10    0.788E-10
RMM:   2    -0.277854029280E+03    0.87311E-10    0.10270-259     2   0.794E-10
 422 F= -.27785403E+03 E0= -.27785802E+03  d E =-.444779E+01  mag=    16.9689
 curvature:   0.00 expect dE= 0.464-321 dE for cont linesearch  0.277-321
 ZBRENT:  accuracy reached
 opt :   0.0000  next Energy=     0.000000 (dE= 0.273E+03)
 bond charge predicted
       N       E                     dE             d eps       ncg     rms          rms(c)
DAV:   1    -0.277854029280E+03    0.65484E-10    0.53831E-12  4046   0.124E-09    0.429E-10
RMM:   2    -0.277854029280E+03    0.15280E-09    0.34025-259     2   0.120E-09
 423 F= -.27785403E+03 E0= -.27785802E+03  d E =-.444779E+01  mag=    16.9689
 curvature:   0.00 expect dE= 0.464-321 dE for cont linesearch  0.277-321
 ZBRENT:  accuracy reached
 opt :   0.0000  next Energy=     0.000000 (dE= 0.273E+03)
 bond charge predicted
       N       E                     dE             d eps       ncg     rms          rms(c)
DAV:   1    -0.277854029280E+03    0.72760E-11    0.66094E-12  4046   0.133E-09    0.541E-10
RMM:   2    -0.277854029280E+03   -0.72760E-11    0.10088-259     2   0.149E-09
 424 F= -.27785403E+03 E0= -.27785802E+03  d E =-.444779E+01  mag=    16.9689
 curvature:   0.00 expect dE= 0.464-321 dE for cont linesearch  0.277-321
 ZBRENT:  accuracy reached
 opt :   0.0000  next Energy=     0.000000 (dE= 0.273E+03)
 bond charge predicted
       N       E                     dE             d eps       ncg     rms          rms(c)
DAV:   1    -0.277854029280E+03    0.37835E-09    0.84803E-12  4046   0.157E-09    0.934E-10
RMM:   2    -0.277854029280E+03   -0.47294E-09    0.33469-259     2   0.125E-09
 425 F= -.27785403E+03 E0= -.27785802E+03  d E =-.444779E+01  mag=    16.9689
 curvature:   0.00 expect dE= 0.464-321 dE for cont linesearch  0.277-321
 ZBRENT:  accuracy reached
 opt :   0.0000  next Energy=     0.000000 (dE= 0.273E+03)
 bond charge predicted
       N       E                     dE             d eps       ncg     rms          rms(c)
DAV:   1    -0.277854029280E+03   -0.25466E-09    0.48647E-12  4046   0.127E-09    0.610E-10
RMM:   2    -0.277854029280E+03   -0.58208E-10    0.10346-259     2   0.155E-09
 426 F= -.27785403E+03 E0= -.27785802E+03  d E =-.444779E+01  mag=    16.9689
 curvature:   0.00 expect dE= 0.464-321 dE for cont linesearch  0.277-321
 ZBRENT:  accuracy reached
 opt :   0.0000  next Energy=     0.000000 (dE= 0.273E+03)
 bond charge predicted
       N       E                     dE             d eps       ncg     rms          rms(c)
DAV:   1    -0.277854029280E+03    0.12369E-09    0.70869E-12  4046   0.941E-10    0.525E-10
RMM:   2    -0.277854029280E+03   -0.48021E-09    0.33613-259     2   0.138E-09
 427 F= -.27785403E+03 E0= -.27785802E+03  d E =-.444779E+01  mag=    16.9689
 curvature:   0.00 expect dE= 0.464-321 dE for cont linesearch  0.277-321
 ZBRENT:  accuracy reached
 opt :   0.0000  next Energy=     0.000000 (dE= 0.273E+03)
 bond charge predicted
       N       E                     dE             d eps       ncg     rms          rms(c)
DAV:   1    -0.277854029280E+03   -0.34925E-09    0.61355E-12  4046   0.115E-09    0.485E-10
RMM:   2    -0.277854029280E+03    0.21828E-10    0.11536-259     2   0.683E-10
 428 F= -.27785403E+03 E0= -.27785802E+03  d E =-.444779E+01  mag=    16.9689
 curvature:   0.00 expect dE= 0.464-321 dE for cont linesearch  0.277-321
 ZBRENT:  accuracy reached
 opt :   0.0000  next Energy=     0.000000 (dE= 0.273E+03)
 bond charge predicted
       N       E                     dE             d eps       ncg     rms          rms(c)
DAV:   1    -0.277854029280E+03   -0.11642E-09    0.62939E-12  4046   0.706E-10    0.377E-10
RMM:   2    -0.277854029280E+03    0.14552E-09    0.41501-259     2   0.722E-10
 429 F= -.27785403E+03 E0= -.27785802E+03  d E =-.444779E+01  mag=    16.9689
 curvature:   0.00 expect dE= 0.464-321 dE for cont linesearch  0.277-321
 ZBRENT:  accuracy reached
 opt :   0.0000  next Energy=     0.000000 (dE= 0.273E+03)
 bond charge predicted
       N       E                     dE             d eps       ncg     rms          rms(c)
DAV:   1    -0.277854029280E+03    0.29104E-09    0.70552E-12  4046   0.134E-09    0.761E-10
RMM:   2    -0.277854029280E+03   -0.10186E-09    0.10655-259     2   0.178E-09
 430 F= -.27785403E+03 E0= -.27785802E+03  d E =-.444779E+01  mag=    16.9689
 curvature:   0.00 expect dE= 0.464-321 dE for cont linesearch  0.277-321
 ZBRENT:  accuracy reached
 opt :   0.0000  next Energy=     0.000000 (dE= 0.273E+03)
 bond charge predicted
       N       E                     dE             d eps       ncg     rms          rms(c)
DAV:   1    -0.277854029280E+03   -0.24011E-09    0.62172E-12  4046   0.103E-09    0.100E-09
RMM:   2    -0.277854029280E+03    0.40018E-09    0.36849-259     2   0.120E-09
 431 F= -.27785403E+03 E0= -.27785802E+03  d E =-.444779E+01  mag=    16.9689
 curvature:   0.00 expect dE= 0.464-321 dE for cont linesearch  0.277-321
 ZBRENT:  accuracy reached
 opt :   0.0000  next Energy=     0.000000 (dE= 0.273E+03)
 bond charge predicted
       N       E                     dE             d eps       ncg     rms          rms(c)
DAV:   1    -0.277854029280E+03    0.29104E-09    0.51473E-12  4046   0.166E-09    0.910E-10
RMM:   2    -0.277854029280E+03   -0.21100E-09    0.10792-259     2   0.101E-09
 432 F= -.27785403E+03 E0= -.27785802E+03  d E =-.444779E+01  mag=    16.9689
 curvature:   0.00 expect dE= 0.464-321 dE for cont linesearch  0.277-321
 ZBRENT:  accuracy reached
 opt :   0.0000  next Energy=     0.000000 (dE= 0.273E+03)
 bond charge predicted
       N       E                     dE             d eps       ncg     rms          rms(c)
DAV:   1    -0.277854029280E+03   -0.23283E-09    0.52276E-12  4046   0.154E-09    0.587E-10
RMM:   2    -0.277854029280E+03   -0.36380E-10    0.32671-259     2   0.154E-09
 433 F= -.27785403E+03 E0= -.27785802E+03  d E =-.444779E+01  mag=    16.9689
 curvature:   0.00 expect dE= 0.464-321 dE for cont linesearch  0.277-321
 ZBRENT:  accuracy reached
 opt :   0.0000  next Energy=     0.000000 (dE= 0.273E+03)
 bond charge predicted
       N       E                     dE             d eps       ncg     rms          rms(c)
DAV:   1    -0.277854029280E+03    0.10186E-09    0.55460E-12  4046   0.146E-09    0.122E-09
RMM:   2    -0.277854029280E+03   -0.26921E-09    0.10427-259     2   0.161E-09
 434 F= -.27785403E+03 E0= -.27785802E+03  d E =-.444779E+01  mag=    16.9689
 curvature:   0.00 expect dE= 0.464-321 dE for cont linesearch  0.277-321
 ZBRENT:  accuracy reached
 opt :   0.0000  next Energy=     0.000000 (dE= 0.273E+03)
 bond charge predicted
       N       E                     dE             d eps       ncg     rms          rms(c)
DAV:   1    -0.277854029280E+03   -0.21828E-09    0.54549E-12  4046   0.118E-09    0.122E-09
RMM:   2    -0.277854029280E+03    0.58208E-09    0.34037-259     2   0.979E-10
 435 F= -.27785403E+03 E0= -.27785802E+03  d E =-.444779E+01  mag=    16.9689
 curvature:   0.00 expect dE= 0.464-321 dE for cont linesearch  0.277-321
 ZBRENT:  accuracy reached
 opt :   0.0000  next Energy=     0.000000 (dE= 0.273E+03)
 bond charge predicted
       N       E                     dE             d eps       ncg     rms          rms(c)
DAV:   1    -0.277854029280E+03    0.40745E-09    0.45993E-12  4046   0.186E-09    0.727E-10
RMM:   2    -0.277854029280E+03   -0.24011E-09    0.10248-259     2   0.153E-09
 436 F= -.27785403E+03 E0= -.27785802E+03  d E =-.444779E+01  mag=    16.9689
 curvature:   0.00 expect dE= 0.464-321 dE for cont linesearch  0.277-321
 ZBRENT:  accuracy reached
 opt :   0.0000  next Energy=     0.000000 (dE= 0.273E+03)
 bond charge predicted
       N       E                     dE             d eps       ncg     rms          rms(c)
DAV:   1    -0.277854029280E+03   -0.87311E-10    0.73367E-12  4046   0.158E-09    0.864E-10
RMM:   2    -0.277854029280E+03   -0.11642E-09    0.33378-259     2   0.106E-09
 437 F= -.27785403E+03 E0= -.27785802E+03  d E =-.444779E+01  mag=    16.9689
 curvature:   0.00 expect dE= 0.464-321 dE for cont linesearch  0.277-321
 ZBRENT:  accuracy reached
 opt :   0.0000  next Energy=     0.000000 (dE= 0.273E+03)
 bond charge predicted
       N       E                     dE             d eps       ncg     rms          rms(c)
DAV:   1    -0.277854029280E+03    0.11642E-09    0.54755E-12  4046   0.863E-10    0.576E-10
RMM:   2    -0.277854029280E+03   -0.24011E-09    0.10528-259     2   0.151E-09
 438 F= -.27785403E+03 E0= -.27785802E+03  d E =-.444779E+01  mag=    16.9689
 curvature:   0.00 expect dE= 0.464-321 dE for cont linesearch  0.277-321
 ZBRENT:  accuracy reached
 opt :   0.0000  next Energy=     0.000000 (dE= 0.273E+03)
 bond charge predicted
       N       E                     dE             d eps       ncg     rms          rms(c)
DAV:   1    -0.277854029280E+03   -0.21828E-09    0.56344E-12  4046   0.118E-09    0.417E-10
RMM:   2    -0.277854029280E+03   -0.25466E-09    0.34687-259     2   0.862E-10
 439 F= -.27785403E+03 E0= -.27785802E+03  d E =-.444779E+01  mag=    16.9689
 curvature:   0.00 expect dE= 0.464-321 dE for cont linesearch  0.277-321
 ZBRENT:  accuracy reached
 opt :   0.0000  next Energy=     0.000000 (dE= 0.273E+03)
 bond charge predicted
       N       E                     dE             d eps       ncg     rms          rms(c)
DAV:   1    -0.277854029280E+03    0.29831E-09    0.44831E-12  4046   0.114E-09    0.103E-09
RMM:   2    -0.277854029280E+03   -0.55297E-09    0.10227-259     2   0.162E-09
 440 F= -.27785403E+03 E0= -.27785802E+03  d E =-.444779E+01  mag=    16.9689
 curvature:   0.00 expect dE= 0.464-321 dE for cont linesearch  0.277-321
 ZBRENT:  accuracy reached
 opt :   0.0000  next Energy=     0.000000 (dE= 0.273E+03)
 bond charge predicted
       N       E                     dE             d eps       ncg     rms          rms(c)
DAV:   1    -0.277854029280E+03   -0.36380E-10    0.56999E-12  4046   0.132E-09    0.432E-10
RMM:   2    -0.277854029280E+03   -0.21828E-09    0.33865-259     2   0.145E-09
 441 F= -.27785403E+03 E0= -.27785802E+03  d E =-.444779E+01  mag=    16.9689
 curvature:   0.00 expect dE= 0.464-321 dE for cont linesearch  0.277-321
 ZBRENT:  accuracy reached
 opt :   0.0000  next Energy=     0.000000 (dE= 0.273E+03)
 bond charge predicted
       N       E                     dE             d eps       ncg     rms          rms(c)
DAV:   1    -0.277854029280E+03   -0.37835E-09    0.57032E-12  4046   0.147E-09    0.717E-10
RMM:   2    -0.277854029280E+03    0.16007E-09    0.10078-259     2   0.136E-09
 442 F= -.27785403E+03 E0= -.27785802E+03  d E =-.444779E+01  mag=    16.9689
 curvature:   0.00 expect dE= 0.464-321 dE for cont linesearch  0.277-321
 ZBRENT:  accuracy reached
 opt :   0.0000  next Energy=     0.000000 (dE= 0.273E+03)
 bond charge predicted
       N       E                     dE             d eps       ncg     rms          rms(c)
DAV:   1    -0.277854029280E+03   -0.22555E-09    0.66958E-12  4046   0.954E-10    0.622E-10
RMM:   2    -0.277854029280E+03    0.19645E-09    0.34849-259     2   0.116E-09
 443 F= -.27785403E+03 E0= -.27785802E+03  d E =-.444779E+01  mag=    16.9689
 curvature:   0.00 expect dE= 0.464-321 dE for cont linesearch  0.277-321
 ZBRENT:  accuracy reached
 opt :   0.0000  next Energy=     0.000000 (dE= 0.273E+03)
 bond charge predicted
       N       E                     dE             d eps       ncg     rms          rms(c)
DAV:   1    -0.277854029280E+03    0.61846E-09    0.55308E-12  4046   0.118E-09    0.713E-10
RMM:   2    -0.277854029280E+03   -0.37835E-09    0.10025-259     2   0.114E-09
 444 F= -.27785403E+03 E0= -.27785802E+03  d E =-.444779E+01  mag=    16.9689
 curvature:   0.00 expect dE= 0.464-321 dE for cont linesearch  0.277-321
 ZBRENT:  accuracy reached
 opt :   0.0000  next Energy=     0.000000 (dE= 0.273E+03)
 bond charge predicted
       N       E                     dE             d eps       ncg     rms          rms(c)
DAV:   1    -0.277854029280E+03   -0.87311E-10    0.82020E-12  4046   0.798E-10    0.638E-10
RMM:   2    -0.277854029280E+03   -0.22555E-09    0.35354-259     2   0.153E-09
 445 F= -.27785403E+03 E0= -.27785802E+03  d E =-.444779E+01  mag=    16.9689
 curvature:   0.00 expect dE= 0.464-321 dE for cont linesearch  0.277-321
 ZBRENT:  accuracy reached
 opt :   0.0000  next Energy=     0.000000 (dE= 0.273E+03)
 bond charge predicted
       N       E                     dE             d eps       ncg     rms          rms(c)
DAV:   1    -0.277854029280E+03   -0.58208E-10    0.67935E-12  4046   0.119E-09    0.597E-10
RMM:   2    -0.277854029280E+03   -0.65484E-10    0.10290-259     2   0.141E-09
 446 F= -.27785403E+03 E0= -.27785802E+03  d E =-.444779E+01  mag=    16.9689
 curvature:   0.00 expect dE= 0.464-321 dE for cont linesearch  0.277-321
 ZBRENT:  accuracy reached
 opt :   0.0000  next Energy=     0.000000 (dE= 0.273E+03)
 bond charge predicted
       N       E                     dE             d eps       ncg     rms          rms(c)
DAV:   1    -0.277854029280E+03   -0.29104E-10    0.58475E-12  4046   0.123E-09    0.705E-10
RMM:   2    -0.277854029280E+03    0.21828E-10    0.35161-259     2   0.855E-10
 447 F= -.27785403E+03 E0= -.27785802E+03  d E =-.444779E+01  mag=    16.9689
 curvature:   0.00 expect dE= 0.464-321 dE for cont linesearch  0.277-321
 ZBRENT:  accuracy reached
 opt :   0.0000  next Energy=     0.000000 (dE= 0.273E+03)
 bond charge predicted
       N       E                     dE             d eps       ncg     rms          rms(c)
DAV:   1    -0.277854029280E+03   -0.28376E-09    0.66297E-12  4046   0.117E-09    0.599E-10
RMM:   2    -0.277854029280E+03    0.58208E-10    0.10299-259     2   0.122E-09
 448 F= -.27785403E+03 E0= -.27785802E+03  d E =-.444779E+01  mag=    16.9689
 curvature:   0.00 expect dE= 0.464-321 dE for cont linesearch  0.277-321
 ZBRENT:  accuracy reached
 opt :   0.0000  next Energy=     0.000000 (dE= 0.273E+03)
 bond charge predicted
       N       E                     dE             d eps       ncg     rms          rms(c)
DAV:   1    -0.277854029280E+03    0.50932E-10    0.72984E-12  4046   0.138E-09    0.676E-10
RMM:   2    -0.277854029280E+03    0.43656E-10    0.35360-259     2   0.115E-09
 449 F= -.27785403E+03 E0= -.27785802E+03  d E =-.444779E+01  mag=    16.9689
 curvature:   0.00 expect dE= 0.464-321 dE for cont linesearch  0.277-321
 ZBRENT:  accuracy reached
 opt :   0.0000  next Energy=     0.000000 (dE= 0.273E+03)
 bond charge predicted
       N       E                     dE             d eps       ncg     rms          rms(c)
DAV:   1    -0.277854029280E+03   -0.58208E-10    0.72781E-12  4046   0.913E-10    0.618E-10
RMM:   2    -0.277854029280E+03    0.13097E-09    0.10288-259     2   0.130E-09
 450 F= -.27785403E+03 E0= -.27785802E+03  d E =-.444779E+01  mag=    16.9689
 curvature:   0.00 expect dE= 0.464-321 dE for cont linesearch  0.277-321
 ZBRENT:  accuracy reached
 opt :   0.0000  next Energy=     0.000000 (dE= 0.273E+03)
 bond charge predicted
       N       E                     dE             d eps       ncg     rms          rms(c)
DAV:   1    -0.277854029280E+03    0.12369E-09    0.49205E-12  4046   0.142E-09    0.114E-09
RMM:   2    -0.277854029280E+03    0.22555E-09    0.35472-259     2   0.149E-09
 451 F= -.27785403E+03 E0= -.27785802E+03  d E =-.444779E+01  mag=    16.9689
 curvature:   0.00 expect dE= 0.464-321 dE for cont linesearch  0.277-321
 ZBRENT:  accuracy reached
 opt :   0.0000  next Energy=     0.000000 (dE= 0.273E+03)
 bond charge predicted
       N       E                     dE             d eps       ncg     rms          rms(c)
DAV:   1    -0.277854029280E+03   -0.87311E-10    0.72832E-12  4046   0.110E-09    0.901E-10
RMM:   2    -0.277854029280E+03    0.16007E-09    0.10295-259     2   0.103E-09
 452 F= -.27785403E+03 E0= -.27785802E+03  d E =-.444779E+01  mag=    16.9689
 curvature:   0.00 expect dE= 0.464-321 dE for cont linesearch  0.277-321
 ZBRENT:  accuracy reached
 opt :   0.0000  next Energy=     0.000000 (dE= 0.273E+03)
 bond charge predicted
       N       E                     dE             d eps       ncg     rms          rms(c)
DAV:   1    -0.277854029280E+03   -0.29104E-10    0.72639E-12  4046   0.123E-09    0.107E-09
RMM:   2    -0.277854029280E+03    0.18190E-09    0.33769-259     2   0.108E-09
 453 F= -.27785403E+03 E0= -.27785802E+03  d E =-.444779E+01  mag=    16.9689
 curvature:   0.00 expect dE= 0.464-321 dE for cont linesearch  0.277-321
 ZBRENT:  accuracy reached
 opt :   0.0000  next Energy=     0.000000 (dE= 0.273E+03)
 bond charge predicted
       N       E                     dE             d eps       ncg     rms          rms(c)
DAV:   1    -0.277854029280E+03    0.32014E-09    0.58138E-12  4046   0.119E-09    0.124E-09
RMM:   2    -0.277854029280E+03    0.72760E-10    0.10315-259     2   0.106E-09
 454 F= -.27785403E+03 E0= -.27785802E+03  d E =-.444779E+01  mag=    16.9689
 curvature:   0.00 expect dE= 0.464-321 dE for cont linesearch  0.277-321
 ZBRENT:  accuracy reached
 opt :   0.0000  next Energy=     0.000000 (dE= 0.273E+03)
 bond charge predicted
       N       E                     dE             d eps       ncg     rms          rms(c)
DAV:   1    -0.277854029280E+03   -0.16735E-09    0.42469E-12  4046   0.140E-09    0.161E-09
RMM:   2    -0.277854029280E+03   -0.13097E-09    0.34532-259     2   0.154E-09
 455 F= -.27785403E+03 E0= -.27785802E+03  d E =-.444779E+01  mag=    16.9689
 curvature:   0.00 expect dE= 0.464-321 dE for cont linesearch  0.277-321
 ZBRENT:  accuracy reached
 opt :   0.0000  next Energy=     0.000000 (dE= 0.273E+03)
 bond charge predicted
       N       E                     dE             d eps       ncg     rms          rms(c)
DAV:   1    -0.277854029280E+03    0.23283E-09    0.59513E-12  4046   0.178E-09    0.130E-09
RMM:   2    -0.277854029280E+03   -0.30559E-09    0.10981-259     2   0.114E-09
 456 F= -.27785403E+03 E0= -.27785802E+03  d E =-.444779E+01  mag=    16.9689
 curvature:   0.00 expect dE= 0.464-321 dE for cont linesearch  0.277-321
 ZBRENT:  accuracy reached
 opt :   0.0000  next Energy=     0.000000 (dE= 0.273E+03)
 bond charge predicted
       N       E                     dE             d eps       ncg     rms          rms(c)
DAV:   1    -0.277854029280E+03   -0.33469E-09    0.59399E-12  4046   0.142E-09    0.776E-10
RMM:   2    -0.277854029280E+03    0.72760E-10    0.32162-259     2   0.140E-09
 457 F= -.27785403E+03 E0= -.27785802E+03  d E =-.444779E+01  mag=    16.9689
 curvature:   0.00 expect dE= 0.464-321 dE for cont linesearch  0.277-321
 ZBRENT:  accuracy reached
 opt :   0.0000  next Energy=     0.000000 (dE= 0.273E+03)
 bond charge predicted
       N       E                     dE             d eps       ncg     rms          rms(c)
DAV:   1    -0.277854029280E+03    0.35652E-09    0.45257E-12  4046   0.145E-09    0.563E-10
RMM:   2    -0.277854029280E+03   -0.80036E-10    0.10763-259     2   0.121E-09
 458 F= -.27785403E+03 E0= -.27785802E+03  d E =-.444779E+01  mag=    16.9689
 curvature:   0.00 expect dE= 0.464-321 dE for cont linesearch  0.277-321
 ZBRENT:  accuracy reached
 opt :   0.0000  next Energy=     0.000000 (dE= 0.273E+03)
 bond charge predicted
       N       E                     dE             d eps       ncg     rms          rms(c)
DAV:   1    -0.277854029280E+03   -0.24738E-09    0.54156E-12  4046   0.143E-09    0.465E-10
RMM:   2    -0.277854029280E+03   -0.13824E-09    0.32938-259     2   0.902E-10
 459 F= -.27785403E+03 E0= -.27785802E+03  d E =-.444779E+01  mag=    16.9689
 curvature:   0.00 expect dE= 0.464-321 dE for cont linesearch  0.277-321
 ZBRENT:  accuracy reached
 opt :   0.0000  next Energy=     0.000000 (dE= 0.273E+03)
 bond charge predicted
       N       E                     dE             d eps       ncg     rms          rms(c)
DAV:   1    -0.277854029280E+03    0.72760E-10    0.53346E-12  4046   0.132E-09    0.522E-10
RMM:   2    -0.277854029280E+03   -0.50932E-10    0.10687-259     2   0.922E-10
 460 F= -.27785403E+03 E0= -.27785802E+03  d E =-.444779E+01  mag=    16.9689
 curvature:   0.00 expect dE= 0.464-321 dE for cont linesearch  0.277-321
 ZBRENT:  accuracy reached
 opt :   0.0000  next Energy=     0.000000 (dE= 0.273E+03)
 bond charge predicted
       N       E                     dE             d eps       ncg     rms          rms(c)
DAV:   1    -0.277854029280E+03   -0.12369E-09    0.42641E-12  4046   0.115E-09    0.108E-09
RMM:   2    -0.277854029280E+03    0.80036E-10    0.32931-259     2   0.139E-09
 461 F= -.27785403E+03 E0= -.27785802E+03  d E =-.444779E+01  mag=    16.9689
 curvature:   0.00 expect dE= 0.464-321 dE for cont linesearch  0.277-321
 ZBRENT:  accuracy reached
 opt :   0.0000  next Energy=     0.000000 (dE= 0.273E+03)
 bond charge predicted
       N       E                     dE             d eps       ncg     rms          rms(c)
DAV:   1    -0.277854029279E+03    0.56025E-09    0.35164E-12  4046   0.978E-10    0.119E-09
RMM:   2    -0.277854029280E+03   -0.73487E-09    0.10871-259     2   0.132E-09
 462 F= -.27785403E+03 E0= -.27785802E+03  d E =-.444779E+01  mag=    16.9689
 curvature:   0.00 expect dE= 0.464-321 dE for cont linesearch  0.277-321
 ZBRENT:  accuracy reached
 opt :   0.0000  next Energy=     0.000000 (dE= 0.273E+03)
 bond charge predicted
       N       E                     dE             d eps       ncg     rms          rms(c)
DAV:   1    -0.277854029280E+03   -0.39290E-09    0.58588E-12  4046   0.180E-09    0.643E-10
RMM:   2    -0.277854029280E+03   -0.87311E-10    0.32998-259     2   0.162E-09
 463 F= -.27785403E+03 E0= -.27785802E+03  d E =-.444779E+01  mag=    16.9689
 curvature:   0.00 expect dE= 0.464-321 dE for cont linesearch  0.277-321
 ZBRENT:  accuracy reached
 opt :   0.0000  next Energy=     0.000000 (dE= 0.273E+03)
 bond charge predicted
       N       E                     dE             d eps       ncg     rms          rms(c)
DAV:   1    -0.277854029280E+03   -0.29104E-09    0.54868E-12  4046   0.125E-09    0.956E-10
RMM:   2    -0.277854029280E+03    0.37107E-09    0.10535-259     2   0.159E-09
 464 F= -.27785403E+03 E0= -.27785802E+03  d E =-.444779E+01  mag=    16.9689
 curvature:   0.00 expect dE= 0.464-321 dE for cont linesearch  0.277-321
 ZBRENT:  accuracy reached
 opt :   0.0000  next Energy=     0.000000 (dE= 0.273E+03)
 bond charge predicted
       N       E                     dE             d eps       ncg     rms          rms(c)
DAV:   1    -0.277854029280E+03    0.80036E-10    0.55144E-12  4046   0.166E-09    0.613E-10
RMM:   2    -0.277854029280E+03    0.94587E-10    0.33254-259     2   0.111E-09
 465 F= -.27785403E+03 E0= -.27785802E+03  d E =-.444779E+01  mag=    16.9689
 curvature:   0.00 expect dE= 0.464-321 dE for cont linesearch  0.277-321
 ZBRENT:  accuracy reached
 opt :   0.0000  next Energy=     0.000000 (dE= 0.273E+03)
 bond charge predicted
       N       E                     dE             d eps       ncg     rms          rms(c)
DAV:   1    -0.277854029280E+03   -0.29104E-10    0.38640E-12  4046   0.130E-09    0.494E-10
RMM:   2    -0.277854029280E+03   -0.36380E-10    0.10448-259     2   0.101E-09
 466 F= -.27785403E+03 E0= -.27785802E+03  d E =-.444779E+01  mag=    16.9689
 curvature:   0.00 expect dE= 0.464-321 dE for cont linesearch  0.277-321
 ZBRENT:  accuracy reached
 opt :   0.0000  next Energy=     0.000000 (dE= 0.273E+03)
 bond charge predicted
       N       E                     dE             d eps       ncg     rms          rms(c)
DAV:   1    -0.277854029280E+03    0.50932E-10    0.47794E-12  4046   0.145E-09    0.885E-10
RMM:   2    -0.277854029280E+03   -0.16007E-09    0.33676-259     2   0.132E-09
 467 F= -.27785403E+03 E0= -.27785802E+03  d E =-.444779E+01  mag=    16.9689
 curvature:   0.00 expect dE= 0.464-321 dE for cont linesearch  0.277-321
 ZBRENT:  accuracy reached
 opt :   0.0000  next Energy=     0.000000 (dE= 0.273E+03)
 bond charge predicted
       N       E                     dE             d eps       ncg     rms          rms(c)
DAV:   1    -0.277854029280E+03    0.24011E-09    0.64158E-12  4046   0.104E-09    0.612E-10
RMM:   2    -0.277854029280E+03   -0.32742E-09    0.10505-259     2   0.147E-09
 468 F= -.27785403E+03 E0= -.27785802E+03  d E =-.444779E+01  mag=    16.9689
 curvature:   0.00 expect dE= 0.464-321 dE for cont linesearch  0.277-321
 ZBRENT:  accuracy reached
 opt :   0.0000  next Energy=     0.000000 (dE= 0.273E+03)
 bond charge predicted
       N       E                     dE             d eps       ncg     rms          rms(c)
DAV:   1    -0.277854029280E+03   -0.37107E-09    0.65949E-12  4046   0.115E-09    0.505E-10
RMM:   2    -0.277854029280E+03    0.41473E-09    0.34166-259     2   0.116E-09
 469 F= -.27785403E+03 E0= -.27785802E+03  d E =-.444779E+01  mag=    16.9689
 curvature:   0.00 expect dE= 0.464-321 dE for cont linesearch  0.277-321
 ZBRENT:  accuracy reached
 opt :   0.0000  next Energy=     0.000000 (dE= 0.273E+03)
 bond charge predicted
       N       E                     dE             d eps       ncg     rms          rms(c)
DAV:   1    -0.277854029280E+03    0.29831E-09    0.53406E-12  4046   0.149E-09    0.592E-10
RMM:   2    -0.277854029280E+03   -0.21100E-09    0.10437-259     2   0.120E-09
 470 F= -.27785403E+03 E0= -.27785802E+03  d E =-.444779E+01  mag=    16.9689
 curvature:   0.00 expect dE= 0.464-321 dE for cont linesearch  0.277-321
 ZBRENT:  accuracy reached
 opt :   0.0000  next Energy=     0.000000 (dE= 0.273E+03)
 bond charge predicted
       N       E                     dE             d eps       ncg     rms          rms(c)
DAV:   1    -0.277854029280E+03   -0.16007E-09    0.57883E-12  4046   0.175E-09    0.562E-10
RMM:   2    -0.277854029280E+03    0.13097E-09    0.34236-259     2   0.145E-09
 471 F= -.27785403E+03 E0= -.27785802E+03  d E =-.444779E+01  mag=    16.9689
 curvature:   0.00 expect dE= 0.464-321 dE for cont linesearch  0.277-321
 ZBRENT:  accuracy reached
 opt :   0.0000  next Energy=     0.000000 (dE= 0.273E+03)
 bond charge predicted
       N       E                     dE             d eps       ncg     rms          rms(c)
DAV:   1    -0.277854029280E+03    0.30559E-09    0.60529E-12  4046   0.139E-09    0.965E-10
RMM:   2    -0.277854029280E+03   -0.10914E-09    0.10283-259     2   0.136E-09
 472 F= -.27785403E+03 E0= -.27785802E+03  d E =-.444779E+01  mag=    16.9689
 curvature:   0.00 expect dE= 0.464-321 dE for cont linesearch  0.277-321
 ZBRENT:  accuracy reached
 opt :   0.0000  next Energy=     0.000000 (dE= 0.273E+03)
 bond charge predicted
       N       E                     dE             d eps       ncg     rms          rms(c)
DAV:   1    -0.277854029280E+03   -0.53842E-09    0.66023E-12  4046   0.100E-09    0.689E-10
RMM:   2    -0.277854029280E+03    0.31287E-09    0.34507-259     2   0.123E-09
 473 F= -.27785403E+03 E0= -.27785802E+03  d E =-.444779E+01  mag=    16.9689
 curvature:   0.00 expect dE= 0.464-321 dE for cont linesearch  0.277-321
 ZBRENT:  accuracy reached
 opt :   0.0000  next Energy=     0.000000 (dE= 0.273E+03)
 bond charge predicted
       N       E                     dE             d eps       ncg     rms          rms(c)
DAV:   1    -0.277854029280E+03    0.32742E-09    0.50841E-12  4046   0.107E-09    0.602E-10
RMM:   2    -0.277854029280E+03    0.36380E-10    0.10643-259     2   0.109E-09
 474 F= -.27785403E+03 E0= -.27785802E+03  d E =-.444779E+01  mag=    16.9689
 curvature:   0.00 expect dE= 0.464-321 dE for cont linesearch  0.277-321
 ZBRENT:  accuracy reached
 opt :   0.0000  next Energy=     0.000000 (dE= 0.273E+03)
 bond charge predicted
       N       E                     dE             d eps       ncg     rms          rms(c)
DAV:   1    -0.277854029280E+03   -0.29104E-10    0.54275E-12  4046   0.812E-10    0.511E-10
RMM:   2    -0.277854029280E+03   -0.20373E-09    0.35397-259     2   0.105E-09
 475 F= -.27785403E+03 E0= -.27785802E+03  d E =-.444779E+01  mag=    16.9689
 curvature:   0.00 expect dE= 0.464-321 dE for cont linesearch  0.277-321
 ZBRENT:  accuracy reached
 opt :   0.0000  next Energy=     0.000000 (dE= 0.273E+03)
 bond charge predicted
       N       E                     dE             d eps       ncg     rms          rms(c)
DAV:   1    -0.277854029280E+03    0.16735E-09    0.84332E-12  4046   0.104E-09    0.507E-10
RMM:   2    -0.277854029280E+03   -0.21828E-10    0.11069-259     2   0.727E-10
 476 F= -.27785403E+03 E0= -.27785802E+03  d E =-.444779E+01  mag=    16.9689
 curvature:   0.00 expect dE= 0.464-321 dE for cont linesearch  0.277-321
 ZBRENT:  accuracy reached
 opt :   0.0000  next Energy=     0.000000 (dE= 0.273E+03)
 bond charge predicted
       N       E                     dE             d eps       ncg     rms          rms(c)
DAV:   1    -0.277854029280E+03   -0.24738E-09    0.68452E-12  4046   0.970E-10    0.974E-10
RMM:   2    -0.277854029280E+03    0.18190E-09    0.32757-259     2   0.158E-09
 477 F= -.27785403E+03 E0= -.27785802E+03  d E =-.444779E+01  mag=    16.9689
 curvature:   0.00 expect dE= 0.464-321 dE for cont linesearch  0.277-321
 ZBRENT:  accuracy reached
 opt :   0.0000  next Energy=     0.000000 (dE= 0.273E+03)
 bond charge predicted
       N       E                     dE             d eps       ncg     rms          rms(c)
DAV:   1    -0.277854029280E+03   -0.13097E-09    0.89744E-12  4046   0.106E-09    0.109E-09
RMM:   2    -0.277854029280E+03    0.10914E-09    0.11193-259     2   0.105E-09
 478 F= -.27785403E+03 E0= -.27785802E+03  d E =-.444779E+01  mag=    16.9689
 curvature:   0.00 expect dE= 0.464-321 dE for cont linesearch  0.277-321
 ZBRENT:  accuracy reached
 opt :   0.0000  next Energy=     0.000000 (dE= 0.273E+03)
 bond charge predicted
       N       E                     dE             d eps       ncg     rms          rms(c)
DAV:   1    -0.277854029280E+03    0.13097E-09    0.72423E-12  4046   0.130E-09    0.525E-10
RMM:   2    -0.277854029280E+03    0.23283E-09    0.31709-259     2   0.108E-09
 479 F= -.27785403E+03 E0= -.27785802E+03  d E =-.444779E+01  mag=    16.9689
 curvature:   0.00 expect dE= 0.464-321 dE for cont linesearch  0.277-321
 ZBRENT:  accuracy reached
 opt :   0.0000  next Energy=     0.000000 (dE= 0.273E+03)
 bond charge predicted
       N       E                     dE             d eps       ncg     rms          rms(c)
DAV:   1    -0.277854029280E+03   -0.20373E-09    0.42179E-12  4046   0.142E-09    0.936E-10
RMM:   2    -0.277854029280E+03    0.41473E-09    0.10985-259     2   0.142E-09
 480 F= -.27785403E+03 E0= -.27785802E+03  d E =-.444779E+01  mag=    16.9689
 curvature:   0.00 expect dE= 0.464-321 dE for cont linesearch  0.277-321
 ZBRENT:  accuracy reached
 opt :   0.0000  next Energy=     0.000000 (dE= 0.273E+03)
 bond charge predicted
       N       E                     dE             d eps       ncg     rms          rms(c)
DAV:   1    -0.277854029280E+03    0.23283E-09    0.58614E-12  4046   0.169E-09    0.101E-09
RMM:   2    -0.277854029280E+03   -0.72760E-10    0.32023-259     2   0.137E-09
 481 F= -.27785403E+03 E0= -.27785802E+03  d E =-.444779E+01  mag=    16.9689
 curvature:   0.00 expect dE= 0.464-321 dE for cont linesearch  0.277-321
 ZBRENT:  accuracy reached
 opt :   0.0000  next Energy=     0.000000 (dE= 0.273E+03)
 bond charge predicted
       N       E                     dE             d eps       ncg     rms          rms(c)
DAV:   1    -0.277854029280E+03    0.94587E-10    0.44480E-12  4046   0.176E-09    0.559E-10
RMM:   2    -0.277854029280E+03    0.36380E-10    0.11073-259     2   0.142E-09
 482 F= -.27785403E+03 E0= -.27785802E+03  d E =-.444779E+01  mag=    16.9689
 curvature:   0.00 expect dE= 0.464-321 dE for cont linesearch  0.277-321
 ZBRENT:  accuracy reached
 opt :   0.0000  next Energy=     0.000000 (dE= 0.273E+03)
 bond charge predicted
       N       E                     dE             d eps       ncg     rms          rms(c)
DAV:   1    -0.277854029280E+03    0.94587E-10    0.61463E-12  4046   0.176E-09    0.958E-10
RMM:   2    -0.277854029280E+03   -0.17462E-09    0.32534-259     2   0.133E-09
 483 F= -.27785403E+03 E0= -.27785802E+03  d E =-.444779E+01  mag=    16.9689
 curvature:   0.00 expect dE= 0.464-321 dE for cont linesearch  0.277-321
 ZBRENT:  accuracy reached
 opt :   0.0000  next Energy=     0.000000 (dE= 0.273E+03)
 bond charge predicted
       N       E                     dE             d eps       ncg     rms          rms(c)
DAV:   1    -0.277854029280E+03   -0.50932E-10    0.75216E-12  4046   0.130E-09    0.751E-10
RMM:   2    -0.277854029280E+03   -0.58208E-10    0.11161-259     2   0.766E-10
 484 F= -.27785403E+03 E0= -.27785802E+03  d E =-.444779E+01  mag=    16.9689
 curvature:   0.00 expect dE= 0.464-321 dE for cont linesearch  0.277-321
 ZBRENT:  accuracy reached
 opt :   0.0000  next Energy=     0.000000 (dE= 0.273E+03)
 bond charge predicted
       N       E                     dE             d eps       ncg     rms          rms(c)
DAV:   1    -0.277854029280E+03   -0.26193E-09    0.70399E-12  4046   0.127E-09    0.783E-10
RMM:   2    -0.277854029280E+03    0.17462E-09    0.32523-259     2   0.786E-10
 485 F= -.27785403E+03 E0= -.27785802E+03  d E =-.444779E+01  mag=    16.9689
 curvature:   0.00 expect dE= 0.464-321 dE for cont linesearch  0.277-321
 ZBRENT:  accuracy reached
 opt :   0.0000  next Energy=     0.000000 (dE= 0.273E+03)
 bond charge predicted
       N       E                     dE             d eps       ncg     rms          rms(c)
DAV:   1    -0.277854029280E+03    0.57480E-09    0.54149E-12  4046   0.103E-09    0.132E-09
RMM:   2    -0.277854029280E+03   -0.27649E-09    0.11167-259     2   0.163E-09
 486 F= -.27785403E+03 E0= -.27785802E+03  d E =-.444779E+01  mag=    16.9689
 curvature:   0.00 expect dE= 0.464-321 dE for cont linesearch  0.277-321
 ZBRENT:  accuracy reached
 opt :   0.0000  next Energy=     0.000000 (dE= 0.273E+03)
 bond charge predicted
       N       E                     dE             d eps       ncg     rms          rms(c)
DAV:   1    -0.277854029280E+03   -0.17462E-09    0.60162E-12  4046   0.143E-09    0.779E-10
RMM:   2    -0.277854029280E+03   -0.24738E-09    0.32481-259     2   0.110E-09
 487 F= -.27785403E+03 E0= -.27785802E+03  d E =-.444779E+01  mag=    16.9689
 curvature:   0.00 expect dE= 0.464-321 dE for cont linesearch  0.277-321
 ZBRENT:  accuracy reached
 opt :   0.0000  next Energy=     0.000000 (dE= 0.273E+03)
 bond charge predicted
       N       E                     dE             d eps       ncg     rms          rms(c)
DAV:   1    -0.277854029280E+03   -0.52387E-09    0.73402E-12  4046   0.142E-09    0.657E-10
RMM:   2    -0.277854029280E+03    0.28376E-09    0.11140-259     2   0.792E-10
 488 F= -.27785403E+03 E0= -.27785802E+03  d E =-.444779E+01  mag=    16.9689
 curvature:   0.00 expect dE= 0.464-321 dE for cont linesearch  0.277-321
 ZBRENT:  accuracy reached
 opt :   0.0000  next Energy=     0.000000 (dE= 0.273E+03)
 bond charge predicted
       N       E                     dE             d eps       ncg     rms          rms(c)
DAV:   1    -0.277854029280E+03    0.69122E-09    0.51253E-12  4046   0.942E-10    0.681E-10
RMM:   2    -0.277854029280E+03   -0.48021E-09    0.31540-259     2   0.136E-09
 489 F= -.27785403E+03 E0= -.27785802E+03  d E =-.444779E+01  mag=    16.9689
 curvature:   0.00 expect dE= 0.464-321 dE for cont linesearch  0.277-321
 ZBRENT:  accuracy reached
 opt :   0.0000  next Energy=     0.000000 (dE= 0.273E+03)
 bond charge predicted
       N       E                     dE             d eps       ncg     rms          rms(c)
DAV:   1    -0.277854029280E+03   -0.70577E-09    0.61038E-12  4046   0.857E-10    0.484E-10
RMM:   2    -0.277854029280E+03    0.40745E-09    0.12069-259     2   0.666E-10
 490 F= -.27785403E+03 E0= -.27785802E+03  d E =-.444779E+01  mag=    16.9689
 curvature:   0.00 expect dE= 0.464-321 dE for cont linesearch  0.277-321
 ZBRENT:  accuracy reached
 opt :   0.0000  next Energy=     0.000000 (dE= 0.273E+03)
 bond charge predicted
       N       E                     dE             d eps       ncg     rms          rms(c)
DAV:   1    -0.277854029280E+03    0.49477E-09    0.45949E-12  4046   0.153E-09    0.633E-10
RMM:   2    -0.277854029280E+03   -0.12369E-09    0.31418-259     2   0.122E-09
 491 F= -.27785403E+03 E0= -.27785802E+03  d E =-.444779E+01  mag=    16.9689
 curvature:   0.00 expect dE= 0.464-321 dE for cont linesearch  0.277-321
 ZBRENT:  accuracy reached
 opt :   0.0000  next Energy=     0.000000 (dE= 0.273E+03)
 bond charge predicted
       N       E                     dE             d eps       ncg     rms          rms(c)
DAV:   1    -0.277854029280E+03   -0.26921E-09    0.51197E-12  4046   0.124E-09    0.477E-10
RMM:   2    -0.277854029280E+03   -0.14552E-10    0.11451-259     2   0.126E-09
 492 F= -.27785403E+03 E0= -.27785802E+03  d E =-.444779E+01  mag=    16.9689
 curvature:   0.00 expect dE= 0.464-321 dE for cont linesearch  0.277-321
 ZBRENT:  accuracy reached
 opt :   0.0000  next Energy=     0.000000 (dE= 0.273E+03)
 bond charge predicted
       N       E                     dE             d eps       ncg     rms          rms(c)
DAV:   1    -0.277854029280E+03    0.35652E-09    0.70961E-12  4046   0.125E-09    0.678E-10
RMM:   2    -0.277854029280E+03   -0.26921E-09    0.30477-259     2   0.134E-09
 493 F= -.27785403E+03 E0= -.27785802E+03  d E =-.444779E+01  mag=    16.9689
 curvature:   0.00 expect dE= 0.464-321 dE for cont linesearch  0.277-321
 ZBRENT:  accuracy reached
 opt :   0.0000  next Energy=     0.000000 (dE= 0.273E+03)
 bond charge predicted
       N       E                     dE             d eps       ncg     rms          rms(c)
DAV:   1    -0.277854029280E+03   -0.14552E-09    0.65499E-12  4046   0.106E-09    0.512E-10
RMM:   2    -0.277854029280E+03    0.21828E-10    0.11428-259     2   0.116E-09
 494 F= -.27785403E+03 E0= -.27785802E+03  d E =-.444779E+01  mag=    16.9689
 curvature:   0.00 expect dE= 0.464-321 dE for cont linesearch  0.277-321
 ZBRENT:  accuracy reached
 opt :   0.0000  next Energy=     0.000000 (dE= 0.273E+03)
 bond charge predicted
       N       E                     dE             d eps       ncg     rms          rms(c)
DAV:   1    -0.277854029280E+03    0.17462E-09    0.45598E-12  4046   0.157E-09    0.595E-10
RMM:   2    -0.277854029280E+03   -0.24011E-09    0.30333-259     2   0.103E-09
 495 F= -.27785403E+03 E0= -.27785802E+03  d E =-.444779E+01  mag=    16.9689
 curvature:   0.00 expect dE= 0.464-321 dE for cont linesearch  0.277-321
 ZBRENT:  accuracy reached
 opt :   0.0000  next Energy=     0.000000 (dE= 0.273E+03)
 bond charge predicted
       N       E                     dE             d eps       ncg     rms          rms(c)
DAV:   1    -0.277854029280E+03   -0.28376E-09    0.56515E-12  4046   0.110E-09    0.101E-09
RMM:   2    -0.277854029280E+03    0.21828E-10    0.11554-259     2   0.141E-09
 496 F= -.27785403E+03 E0= -.27785802E+03  d E =-.444779E+01  mag=    16.9689
 curvature:   0.00 expect dE= 0.464-321 dE for cont linesearch  0.277-321
 ZBRENT:  accuracy reached
 opt :   0.0000  next Energy=     0.000000 (dE= 0.273E+03)
 bond charge predicted
       N       E                     dE             d eps       ncg     rms          rms(c)
DAV:   1    -0.277854029279E+03    0.42928E-09    0.43361E-12  4046   0.102E-09    0.103E-09
RMM:   2    -0.277854029280E+03   -0.51659E-09    0.36929-259     2   0.115E-09
 497 F= -.27785403E+03 E0= -.27785802E+03  d E =-.444779E+01  mag=    16.9689
 curvature:   0.00 expect dE= 0.464-321 dE for cont linesearch  0.277-321
 ZBRENT:  accuracy reached
 opt :   0.0000  next Energy=     0.000000 (dE= 0.273E+03)
 bond charge predicted
       N       E                     dE             d eps       ncg     rms          rms(c)
DAV:   1    -0.277854029280E+03   -0.42201E-09    0.46412E-12  4046   0.186E-09    0.650E-10
RMM:   2    -0.277854029280E+03   -0.80036E-10    0.11143-259     2   0.139E-09
 498 F= -.27785403E+03 E0= -.27785802E+03  d E =-.444779E+01  mag=    16.9689
 curvature:   0.00 expect dE= 0.464-321 dE for cont linesearch  0.277-321
 ZBRENT:  accuracy reached
 opt :   0.0000  next Energy=     0.000000 (dE= 0.273E+03)
 bond charge predicted
       N       E                     dE             d eps       ncg     rms          rms(c)
DAV:   1    -0.277854029280E+03   -0.24738E-09    0.42339E-12  4046   0.128E-09    0.491E-10
RMM:   2    -0.277854029280E+03    0.18190E-09    0.31876-259     2   0.115E-09
 499 F= -.27785403E+03 E0= -.27785802E+03  d E =-.444779E+01  mag=    16.9689
 curvature:   0.00 expect dE= 0.464-321 dE for cont linesearch  0.277-321
 ZBRENT:  accuracy reached
 opt :   0.0000  next Energy=     0.000000 (dE= 0.273E+03)
 bond charge predicted
       N       E                     dE             d eps       ncg     rms          rms(c)
DAV:   1    -0.277854029280E+03    0.53842E-09    0.57750E-12  4046   0.127E-09    0.663E-10
RMM:   2    -0.277854029280E+03   -0.41473E-09    0.11220-259     2   0.120E-09
 500 F= -.27785403E+03 E0= -.27785802E+03  d E =-.444779E+01  mag=    16.9689
 curvature:   0.00 expect dE= 0.464-321 dE for cont linesearch  0.277-321
 ZBRENT:  accuracy reached
 opt :   0.0000  next Energy=     0.000000 (dE= 0.273E+03)
