Mn O  H 
 1.0000000000000000
     5.7471469900000001    0.0000000000000000    0.0000000000000000
     0.0000000000000000    5.7471469900000001    0.0000000000000000
     0.0000000000000000    0.0000000000000000   38.3523056924327008
 Mn  O   H  
  15  22   6
Selective dynamics
Direct
 -0.0093835343744717  0.2391760241319369  0.2623916092900749   F   F   F
  0.7489864879576713  0.4968346817732093  0.3235847127412249   F   F   F
  0.4715341896300960  0.2428879324795478  0.3939822735381664   T   T   T
  0.7295456388254046 -0.0071095900344232  0.4547159420327814   T   T   T
  0.2344781796666542 -0.0053455991998253  0.4602258959196536   T   T   T
  0.2510151206674320  0.4955812159049278  0.3269556710605909   F   F   F
  0.4727600301430209  0.7417112700052675  0.3941736813510646   T   T   T
 -0.0100916428494874  0.7513987945614823  0.2627757334990781   F   F   F
  0.0024768544779153 -0.0045784375955736  0.3571699137271092   F   F   F
 -0.0292736076138113  0.4962134836624753  0.4268575137828720   T   T   T
  0.4548013513014637  0.5012056858057369  0.4926007903649419   T   T   T
  0.4872487909802456 -0.0043314717839424  0.2917774653642574   F   F   F
  0.4415139600057341  0.0929890870902169  0.5579212321354625   T   T   T
 -0.0043000108801065  0.2354925531283885  0.5211182527481432   T   T   T
 -0.0009318007207035  0.7347880819626226  0.5226744204180167   T   T   T
  0.9746709645453573  0.2207969118276038  0.4620626000186815   T   T   T
  0.7747574636748692  0.4958631552600724  0.2647010163483396   F   F   F
  0.4994775423373534  0.2678073900728424  0.3280746410023943   F   F   F
  0.7031228385687577 -0.0084587944292670  0.3969466385454019   T   T   T
  0.0037645548922136  0.2690184215424850  0.3222536979589821   F   F   F
  0.7692367725186661 -0.0055241815224737  0.2597891457639432   F   F   F
  0.4808393900059611  0.2243440679026621  0.4551602180335588   T   T   T
  0.7001710211509393  0.4931186534385713  0.3910358250696267   T   T   T
  0.2111692605782599 -0.0057975698878655  0.2583053953367737   F   F   F
  0.2419486049881537  0.4937200093896675  0.3912521101739772   T   T   T
  0.2272536477132092  0.4962741366236937  0.2626329689737672   F   F   F
  0.2458849992357518 -0.0091695197121566  0.3969156669696899   T   T   T
  0.4987015056994976  0.7247605740973498  0.3278246169346272   F   F   F
 -0.0232146767560416  0.7671927193983125  0.4627887833091985   T   T   T
  0.4817258536306985  0.7629553189241778  0.4546398249334701   T   T   T
  0.0041034282560547  0.7236694402594225  0.3222276800561435   F   F   F
  0.7334458502349750  0.4868542127699982  0.5262606283913487   T   T   T
  0.2392196042671322  0.4802101605605934  0.5353292449126076   T   T   T
  0.6174487912380423  0.3270355736411987  0.5876927089613272   T   T   T
  0.2536876309689610 -0.0108823657773174  0.5155502532899096   T   T   T
  0.8002414995902778 -0.0188029473658803  0.5518195322209036   T   T   T
  0.3276851565735711  0.7651965846623984  0.5857644094855095   T   T   T
  0.3862807976787250  0.4992215041381847  0.2532026820654570   F   F   F
  0.6812110148381048  0.4556566431383664  0.5517153503007987   T   T   T
  0.2959017669746760  0.6362027698883994  0.5666811154459866   T   T   T
  0.5408208799632149  0.4463492111725813  0.6014613135766039   T   T   T
  0.2063317114641957  0.7524544196340969  0.6033065825869969   T   T   T
  0.8385541363192319  0.0309019906770532  0.5755224045034013   T   T   T
