Mn O  H 
 1.0000000000000000
     5.7471469900000001    0.0000000000000000    0.0000000000000000
     0.0000000000000000    5.7471469900000001    0.0000000000000000
     0.0000000000000000    0.0000000000000000   38.3523056924327008
 Mn  O   H  
  15  22   5
Selective dynamics
Direct
 -0.0093835343744717  0.2391760241319369  0.2623916092900749   F   F   F
  0.7489864879576713  0.4968346817732093  0.3235847127412249   F   F   F
  0.4746125498278046  0.2472686979731470  0.3945365530355162   T   T   T
  0.7189260107612762 -0.0018566873589259  0.4591831688540610   T   T   T
  0.2224401586941786  0.0003891357527778  0.4589028923914931   T   T   T
  0.2510151206674320  0.4955812159049278  0.3269556710605909   F   F   F
  0.4748112580824054  0.7479221115489764  0.3944129111961012   T   T   T
 -0.0100916428494874  0.7513987945614823  0.2627757334990781   F   F   F
  0.0024768544779153 -0.0045784375955736  0.3571699137271092   F   F   F
 -0.0272997885549453  0.4997026542549458  0.4265570221517835   T   T   T
  0.4504676108610383  0.4959793308514439  0.4911403666981367   T   T   T
  0.4872487909802456 -0.0043314717839424  0.2917774653642574   F   F   F
  0.4675433979622926  0.0432070035448564  0.5561837092529964   T   T   T
  0.9740567537329055  0.2416044654397946  0.5214526929711396   T   T   T
  0.9757849757409366  0.7402983058646597  0.5196939372081694   T   T   T
  0.9694300500633739  0.2283388269384258  0.4624242410071056   T   T   T
  0.7747574636748692  0.4958631552600724  0.2647010163483396   F   F   F
  0.4994775423373534  0.2678073900728424  0.3280746410023943   F   F   F
  0.7033115854494788 -0.0041490139499279  0.3979479493496478   T   T   T
  0.0037645548922136  0.2690184215424850  0.3222536979589821   F   F   F
  0.7692367725186661 -0.0055241815224737  0.2597891457639432   F   F   F
  0.4711490375010687  0.2282100421535070  0.4553078562883933   T   T   T
  0.7013158436159016  0.4984347672856217  0.3916102430592137   T   T   T
  0.2111692605782599 -0.0057975698878655  0.2583053953367737   F   F   F
  0.2458136630648290  0.4993397449988435  0.3914546194719041   T   T   T
  0.2272536477132092  0.4962741366236937  0.2626329689737672   F   F   F
  0.2452116157476592 -0.0033017187078195  0.3975013188108577   T   T   T
  0.4987015056994976  0.7247605740973498  0.3278246169346272   F   F   F
 -0.0289177208277862  0.7694689222654545  0.4622073159021217   T   T   T
  0.4700249400849637  0.7690769236186710  0.4563967808979393   T   T   T
  0.0041034282560547  0.7236694402594225  0.3222276800561435   F   F   F
  0.7229582169012662  0.4784752941729770  0.5284475469283464   T   T   T
  0.1986182615854722  0.4759336403995892  0.5275441173334933   T   T   T
  0.5375947991473381  0.3372811622242749  0.5874110990653217   T   T   T
  0.2102999943107423  0.0094564826126340  0.5208471641909129   T   T   T
  0.7393063757266438  0.0036468012734877  0.5229061127471522   T   T   T
  0.3872729573409813  0.7593429857120146  0.5932626836862397   T   T   T
  0.3862807976787250  0.4992215041381847  0.2532026820654570   F   F   F
  0.6569713317516129  0.4457973627741296  0.5524959043928118   T   T   T
  0.4446832472178652  0.5880849074971417  0.5905951952401176   T   T   T
  0.6324593642642439  0.3096051043222957  0.6079562357542609   T   T   T
  0.2189770336630362  0.7425511202274433  0.5943513616751834   T   T   T
