Mn  O  H                                
   1.00000000000000     
     5.7471469900000001    0.0000000000000000    0.0000000000000000
     0.0000000000000000    5.7471469900000001    0.0000000000000000
     0.0000000000000000    0.0000000000000000   38.3054457869999965
   Mn   O    H 
    14    21     5
Selective dynamics
Direct
  0.0005898578905175  0.2476707142651335  0.2914703058693817   F   F   F
  0.5003588531439790  0.7429769969349711  0.4178120674341854   T   T   T
  0.5001712160769327  0.2444152343272826  0.4184512956054013   T   T   T
  0.0005898578905175  0.7476701061373063  0.2914703058693817   F   F   F
  0.7505898156956690  0.4976695402043276  0.3529281469578436   F   F   F
  0.7557788352474123 -0.0125108520625635  0.4797587117824785   T   T   T
  0.2505904238234891  0.4976695402043276  0.3529281469578436   F   F   F
  0.2553378890326747 -0.0141127993900614  0.4851408319480168   T   T   T
  0.0024344788934259  0.9962462004295918  0.3856280375026831   T   T   T
  0.5494203130124643  0.4902019830647264  0.5117484780111410   T   T   T
  0.0054122239110909  0.4951663236983408  0.4521954314702402   T   T   T
  0.5005892497626903  0.9976706720702850  0.3221990958838745   F   F   F
  0.0145497549682269  0.2329098223997979  0.5469414991654407   T   T   T
  0.0137814520371405  0.7183616508693109  0.5521915359771502   T   T   T
  0.0020996255723914  0.2129580439211901  0.4873293216995495   T   T   T
  0.5005892497626903  0.7242654498384411  0.3546474847346772   F   F   F
  0.5005892497626903  0.2710753705639917  0.3546474847346772   F   F   F
 -0.0025878658813625  0.7617856899548898  0.4899902897375514   T   T   T
  0.7739944719945271  0.4976695402043276  0.2931896436462154   F   F   F
  0.7316405934106489  0.9933866977548106  0.4209363773887231   T   T   T
  0.5058255961461019  0.2120957570414017  0.4783704913747208   T   T   T
  0.0005898578905175  0.7242654498384411  0.3512088091810099   F   F   F
  0.0005898578905175  0.2710753705639917  0.3512088091810099   F   F   F
  0.5069460269755405  0.7641986437968843  0.4781057863259409   T   T   T
  0.7271396660414446  0.4964151035672452  0.4165364957040731   T   T   T
  0.7739944719945271  0.9976706720702850  0.2897509680925552   F   F   F
  0.2711011459175567  0.4946861721059385  0.4151967418677675   T   T   T
  0.2271857675246238  0.9976706720702850  0.2897509680925552   F   F   F
  0.2728868941426807  0.9917420319073524  0.4205352537738072   T   T   T
  0.2271857675246238  0.4976695402043276  0.2931896436462154   F   F   F
  0.7920760900912922  0.4829036894361389  0.5478339403994951   T   T   T
  0.2526054766560922  0.9676065243926817  0.5441635484856965   T   T   T
  0.2760418555295301  0.4841114641582660  0.5469592285126458   T   T   T
  0.0511932480772561  0.6640080187485259  0.6012619159851671   T   T   T
  0.7864025109040875  0.9749339087370730  0.5618672617903896   T   T   T
  0.3544680523300840  0.4873861769803085  0.2714496538643303   F   F   F
  0.4006502549127949  0.9576304167481846  0.5569926277541155   T   T   T
  0.3534430936511132  0.4910803090074087  0.5697729349042313   T   T   T
  0.8021260272621504  0.9784047589028014  0.5875719648848162   T   T   T
 -0.1032778353989510  0.6323464863225119  0.6113977599135011   T   T   T
 
  0.00000000E+00  0.00000000E+00  0.00000000E+00
  0.00000000E+00  0.00000000E+00  0.00000000E+00
  0.00000000E+00  0.00000000E+00  0.00000000E+00
  0.00000000E+00  0.00000000E+00  0.00000000E+00
  0.00000000E+00  0.00000000E+00  0.00000000E+00
  0.00000000E+00  0.00000000E+00  0.00000000E+00
  0.00000000E+00  0.00000000E+00  0.00000000E+00
  0.00000000E+00  0.00000000E+00  0.00000000E+00
  0.00000000E+00  0.00000000E+00  0.00000000E+00
  0.00000000E+00  0.00000000E+00  0.00000000E+00
  0.00000000E+00  0.00000000E+00  0.00000000E+00
  0.00000000E+00  0.00000000E+00  0.00000000E+00
  0.00000000E+00  0.00000000E+00  0.00000000E+00
  0.00000000E+00  0.00000000E+00  0.00000000E+00
  0.00000000E+00  0.00000000E+00  0.00000000E+00
  0.00000000E+00  0.00000000E+00  0.00000000E+00
  0.00000000E+00  0.00000000E+00  0.00000000E+00
  0.00000000E+00  0.00000000E+00  0.00000000E+00
  0.00000000E+00  0.00000000E+00  0.00000000E+00
  0.00000000E+00  0.00000000E+00  0.00000000E+00
  0.00000000E+00  0.00000000E+00  0.00000000E+00
  0.00000000E+00  0.00000000E+00  0.00000000E+00
  0.00000000E+00  0.00000000E+00  0.00000000E+00
  0.00000000E+00  0.00000000E+00  0.00000000E+00
  0.00000000E+00  0.00000000E+00  0.00000000E+00
  0.00000000E+00  0.00000000E+00  0.00000000E+00
  0.00000000E+00  0.00000000E+00  0.00000000E+00
  0.00000000E+00  0.00000000E+00  0.00000000E+00
  0.00000000E+00  0.00000000E+00  0.00000000E+00
  0.00000000E+00  0.00000000E+00  0.00000000E+00
  0.00000000E+00  0.00000000E+00  0.00000000E+00
  0.00000000E+00  0.00000000E+00  0.00000000E+00
  0.00000000E+00  0.00000000E+00  0.00000000E+00
  0.00000000E+00  0.00000000E+00  0.00000000E+00
  0.00000000E+00  0.00000000E+00  0.00000000E+00
  0.00000000E+00  0.00000000E+00  0.00000000E+00
  0.00000000E+00  0.00000000E+00  0.00000000E+00
  0.00000000E+00  0.00000000E+00  0.00000000E+00
  0.00000000E+00  0.00000000E+00  0.00000000E+00
  0.00000000E+00  0.00000000E+00  0.00000000E+00
