Mn  O  H                                
   1.00000000000000     
     5.7471469900000001    0.0000000000000000    0.0000000000000000
     0.0000000000000000    5.7471469900000001    0.0000000000000000
     0.0000000000000000    0.0000000000000000   38.3054457869999965
   Mn   O    H 
    14    21     5
Selective dynamics
Direct
  0.0005898578905175  0.2476707142651335  0.2914703058693817   F   F   F
  0.4930568167006300  0.7461824114576884  0.4168148855069235   T   T   T
  0.4928775973415612  0.2468076773515762  0.4165700117087638   T   T   T
  0.0005898578905175  0.7476701061373063  0.2914703058693817   F   F   F
  0.7505898156956690  0.4976695402043276  0.3529281469578436   F   F   F
  0.7442477563937189  0.0008493818481909  0.4782284105623021   T   T   T
  0.2505904238234891  0.4976695402043276  0.3529281469578436   F   F   F
  0.2378079581576173  0.0027608664438290  0.4836222870175889   T   T   T
  0.9961829773906672  0.9974009730347930  0.3853666155481648   T   T   T
  0.5436054437998478  0.4976699571093306  0.5112965532913593   T   T   T
  0.9984227361876279  0.5060137305808680  0.4500934205246736   T   T   T
  0.5005892497626903  0.9976706720702850  0.3221990958838745   F   F   F
  0.9927685333388042  0.2544992188403867  0.5729210386163360   T   T   T
  0.0017379586364470  0.7243590340753698  0.5531381194357863   T   T   T
  0.9877062087311332  0.2242097839568658  0.4822005357166077   T   T   T
  0.5005892497626903  0.7242654498384411  0.3546474847346772   F   F   F
  0.5005892497626903  0.2710753705639917  0.3546474847346772   F   F   F
  0.9867141695575866  0.7735290497064682  0.4873122482294008   T   T   T
  0.7739944719945271  0.4976695402043276  0.2931896436462154   F   F   F
  0.7231936136716044  0.9978377114729042  0.4203219586459994   T   T   T
  0.4913998953216491  0.2261208455312982  0.4783127062847256   T   T   T
  0.0005898578905175  0.7242654498384411  0.3512088091810099   F   F   F
  0.0005898578905175  0.2710753705639917  0.3512088091810099   F   F   F
  0.4909785395417857  0.7759022181103604  0.4789741151995557   T   T   T
  0.7215649794960228  0.4960826658794061  0.4147144008800795   T   T   T
  0.7739944719945271  0.9976706720702850  0.2897509680925552   F   F   F
  0.2648775127291428  0.4961540056242769  0.4137443038289561   T   T   T
  0.2271857675246238  0.9976706720702850  0.2897509680925552   F   F   F
  0.2679486017461343  0.9971782538313008  0.4196901946891316   T   T   T
  0.2271857675246238  0.4976695402043276  0.2931896436462154   F   F   F
  0.7772790262185724  0.4917178704340159  0.5489998836957426   T   T   T
  0.2165974309068588 -0.0049991280536617  0.5491797707494329   T   T   T
  0.2683185698011243  0.5042256346071740  0.5467919837535931   T   T   T
  0.0811787224668734  0.5236237164263783  0.6065023379576643   T   T   T
  0.7694930153500580  0.9589940449049195  0.5699445321264918   T   T   T
  0.3544680523300840  0.4873861769803085  0.2714496538643303   F   F   F
  0.3795507211859074  0.9776327352619631  0.5561332422213923   T   T   T
  0.3479079682287605  0.5200262259012617  0.5693475201500390   T   T   T
  0.6943335325558592  0.8872879349119032  0.5900267407928368   T   T   T
  0.0065053978017602  0.5512497289227482  0.6288355295287859   T   T   T
 
  0.00000000E+00  0.00000000E+00  0.00000000E+00
  0.00000000E+00  0.00000000E+00  0.00000000E+00
  0.00000000E+00  0.00000000E+00  0.00000000E+00
  0.00000000E+00  0.00000000E+00  0.00000000E+00
  0.00000000E+00  0.00000000E+00  0.00000000E+00
  0.00000000E+00  0.00000000E+00  0.00000000E+00
  0.00000000E+00  0.00000000E+00  0.00000000E+00
  0.00000000E+00  0.00000000E+00  0.00000000E+00
  0.00000000E+00  0.00000000E+00  0.00000000E+00
  0.00000000E+00  0.00000000E+00  0.00000000E+00
  0.00000000E+00  0.00000000E+00  0.00000000E+00
  0.00000000E+00  0.00000000E+00  0.00000000E+00
  0.00000000E+00  0.00000000E+00  0.00000000E+00
  0.00000000E+00  0.00000000E+00  0.00000000E+00
  0.00000000E+00  0.00000000E+00  0.00000000E+00
  0.00000000E+00  0.00000000E+00  0.00000000E+00
  0.00000000E+00  0.00000000E+00  0.00000000E+00
  0.00000000E+00  0.00000000E+00  0.00000000E+00
  0.00000000E+00  0.00000000E+00  0.00000000E+00
  0.00000000E+00  0.00000000E+00  0.00000000E+00
  0.00000000E+00  0.00000000E+00  0.00000000E+00
  0.00000000E+00  0.00000000E+00  0.00000000E+00
  0.00000000E+00  0.00000000E+00  0.00000000E+00
  0.00000000E+00  0.00000000E+00  0.00000000E+00
  0.00000000E+00  0.00000000E+00  0.00000000E+00
  0.00000000E+00  0.00000000E+00  0.00000000E+00
  0.00000000E+00  0.00000000E+00  0.00000000E+00
  0.00000000E+00  0.00000000E+00  0.00000000E+00
  0.00000000E+00  0.00000000E+00  0.00000000E+00
  0.00000000E+00  0.00000000E+00  0.00000000E+00
  0.00000000E+00  0.00000000E+00  0.00000000E+00
  0.00000000E+00  0.00000000E+00  0.00000000E+00
  0.00000000E+00  0.00000000E+00  0.00000000E+00
  0.00000000E+00  0.00000000E+00  0.00000000E+00
  0.00000000E+00  0.00000000E+00  0.00000000E+00
  0.00000000E+00  0.00000000E+00  0.00000000E+00
  0.00000000E+00  0.00000000E+00  0.00000000E+00
  0.00000000E+00  0.00000000E+00  0.00000000E+00
  0.00000000E+00  0.00000000E+00  0.00000000E+00
  0.00000000E+00  0.00000000E+00  0.00000000E+00
