Mn O  H 
 1.0000000000000000
     5.7471469900000001    0.0000000000000000    0.0000000000000000
     0.0000000000000000    5.7471469900000001    0.0000000000000000
     0.0000000000000000    0.0000000000000000   38.3523056924327008
 Mn  O   H  
  13  18   1
Selective dynamics
Direct
 -0.0093835343744717  0.2391760241319369  0.2623916092900749   F   F   F
  0.7489864879576713  0.4968346817732093  0.3235847127412249   F   F   F
  0.4956663290311655  0.2516092089145022  0.3919014131779090   T   T   T
  0.7383931357736854 -0.0127359689334824  0.4593347707943835   T   T   T
  0.2370087566246570  0.0036801031494147  0.4547468664619215   T   T   T
  0.2510151206674320  0.4955812159049278  0.3269556710605909   F   F   F
  0.4948932224118659  0.7525836678343205  0.3922356517923896   T   T   T
 -0.0100916428494874  0.7513987945614823  0.2627757334990781   F   F   F
  0.0024768544779153 -0.0045784375955736  0.3571699137271092   F   F   F
 -0.0058526544565594  0.4901853406545428  0.4240813118670494   T   T   T
  0.4870419658702063  0.5143973976233529  0.4884011320096820   T   T   T
  0.4872487909802456 -0.0043314717839424  0.2917774653642574   F   F   F
 -0.0123144502180045  0.5590968946806435  0.5105682725027352   T   T   T
 -0.0168177044544358  0.2225676534003187  0.4608015106796383   T   T   T
  0.7747574636748692  0.4958631552600724  0.2647010163483396   F   F   F
  0.4994775423373534  0.2678073900728424  0.3280746410023943   F   F   F
  0.7221718128636936  0.0014695228808077  0.3952607550473533   T   T   T
  0.0037645548922136  0.2690184215424850  0.3222536979589821   F   F   F
  0.7692367725186661 -0.0055241815224737  0.2597891457639432   F   F   F
  0.4893536593233876  0.2256894570339061  0.4564229224904076   T   T   T
  0.7217219620093691  0.5025491174681563  0.3892932593557054   T   T   T
  0.2111692605782599 -0.0057975698878655  0.2583053953367737   F   F   F
  0.2661286386339062  0.5016596536518951  0.3889801771471748   T   T   T
  0.2272536477132092  0.4962741366236937  0.2626329689737672   F   F   F
  0.2646686416426022  0.0044511371556048  0.3952693989858009   T   T   T
  0.4987015056994976  0.7247605740973498  0.3278246169346272   F   F   F
  0.0034414246827623  0.7671548267313830  0.4590856425563167   T   T   T
  0.4806999076147665  0.7680877186525769  0.4503352295930341   T   T   T
  0.0041034282560547  0.7236694402594225  0.3222276800561435   F   F   F
  0.6894397048769915  0.7046904933910128  0.5126526672520338   T   T   T
  0.2773791138965114  0.4229884035202927  0.5211622420718215   T   T   T
  0.3862807976787250  0.4992215041381847  0.2532026820654570   F   F   F
