Mn O  H 
 1.0000000000000000
     5.7471469900000001    0.0000000000000000    0.0000000000000000
     0.0000000000000000    5.7471469900000001    0.0000000000000000
     0.0000000000000000    0.0000000000000000   38.3523056924327008
 Mn  O   H  
  13  19   2
Selective dynamics
Direct
 -0.0093835343744717  0.2391760241319369  0.2623916092900749   F   F   F
  0.7489864879576713  0.4968346817732093  0.3235847127412249   F   F   F
  0.4828004088453582  0.2581481506701680  0.3919948849622362   T   T   T
  0.7345684039596814  0.0087848968563476  0.4539641635342499   T   T   T
  0.2288025994843471  0.0023114253259688  0.4588147734781758   T   T   T
  0.2510151206674320  0.4955812159049278  0.3269556710605909   F   F   F
  0.4846117816809979  0.7588027734232043  0.3922670237809239   T   T   T
 -0.0100916428494874  0.7513987945614823  0.2627757334990781   F   F   F
  0.0024768544779153 -0.0045784375955736  0.3571699137271092   F   F   F
 -0.0145075330345982  0.5081137926398882  0.4241127013389329   T   T   T
  0.4929472880620894  0.5093163020335700  0.4892758137862437   T   T   T
  0.4872487909802456 -0.0043314717839424  0.2917774653642574   F   F   F
  0.0485963065314834  0.2997520781809784  0.5167711955343104   T   T   T
 -0.0224057143986344  0.2422814705730624  0.4607687375304629   T   T   T
  0.7747574636748692  0.4958631552600724  0.2647010163483396   F   F   F
  0.4994775423373534  0.2678073900728424  0.3280746410023943   F   F   F
  0.7122704761099619  0.0086916032796019  0.3954017668961873   T   T   T
  0.0037645548922136  0.2690184215424850  0.3222536979589821   F   F   F
  0.7692367725186661 -0.0055241815224737  0.2597891457639432   F   F   F
  0.4785865571401107  0.2298477941349562  0.4546072141273809   T   T   T
  0.7097589001066404  0.5088526176868616  0.3895763841078856   T   T   T
  0.2111692605782599 -0.0057975698878655  0.2583053953367737   F   F   F
  0.2562294420240879  0.5095795933252499  0.3889621681883509   T   T   T
  0.2272536477132092  0.4962741366236937  0.2626329689737672   F   F   F
  0.2573643581154174  0.0069952213755024  0.3951612392511442   T   T   T
  0.4987015056994976  0.7247605740973498  0.3278246169346272   F   F   F
 -0.0216916223959764  0.7858271771541142  0.4561840856223182   T   T   T
  0.4851038993090129  0.7794940514357047  0.4547754694493976   T   T   T
  0.0041034282560547  0.7236694402594225  0.3222276800561435   F   F   F
  0.7354534227195592  0.3862449152703775  0.5257003911145974   T   T   T
  0.2392539751318112  0.5173222747377556  0.5261608844037490   T   T   T
  0.1666702766807066  0.0330360647390514  0.5165768222141897   T   T   T
  0.3862807976787250  0.4992215041381847  0.2532026820654570   F   F   F
  0.6859985102220130  0.4173104529089546  0.5495065769302948   T   T   T
