Mn O  H 
 1.0000000000000000
     5.7471469900000001    0.0000000000000000    0.0000000000000000
     0.0000000000000000    5.7471469900000001    0.0000000000000000
     0.0000000000000000    0.0000000000000000   38.3523056924327008
 Mn  O   H  
  15  21   4
Selective dynamics
Direct
 -0.0093835343744717  0.2391760241319369  0.2623916092900749   F   F   F
  0.7489864879576713  0.4968346817732093  0.3235847127412249   F   F   F
  0.4861217714501845  0.2468195577180635  0.3954753208981991   T   T   T
  0.7425499192256192 -0.0048037227071864  0.4566263891179139   T   T   T
  0.2445079244475072 -0.0060661124716784  0.4621896928118733   T   T   T
  0.2510151206674320  0.4955812159049278  0.3269556710605909   F   F   F
  0.4873844590676192  0.7460498319045107  0.3957264441989825   T   T   T
 -0.0100916428494874  0.7513987945614823  0.2627757334990781   F   F   F
  0.0024768544779153 -0.0045784375955736  0.3571699137271092   F   F   F
 -0.0140668443520307  0.4968935528881663  0.4285966929836699   T   T   T
  0.4638844585813959  0.4972009581904342  0.4917852556570275   T   T   T
  0.4872487909802456 -0.0043314717839424  0.2917774653642574   F   F   F
  0.4883633510598613  0.0303662305002061  0.5564023851516708   T   T   T
  0.9893851004019445  0.2269711558692812  0.5241718811213786   T   T   T
 -0.0106782567594407  0.7470174761739238  0.5259728977094217   T   T   T
 -0.0122281601754097  0.2242068153116355  0.4646612613240171   T   T   T
  0.7747574636748692  0.4958631552600724  0.2647010163483396   F   F   F
  0.4994775423373534  0.2678073900728424  0.3280746410023943   F   F   F
  0.7182758488017581 -0.0044034279647106  0.3987750640018533   T   T   T
  0.0037645548922136  0.2690184215424850  0.3222536979589821   F   F   F
  0.7692367725186661 -0.0055241815224737  0.2597891457639432   F   F   F
  0.4914136302878533  0.2244805424398315  0.4562543736137253   T   T   T
  0.7148041755121123  0.4972228180881447  0.3929759052154154   T   T   T
  0.2111692605782599 -0.0057975698878655  0.2583053953367737   F   F   F
  0.2559713307413318  0.4977084449363064  0.3928569765038910   T   T   T
  0.2272536477132092  0.4962741366236937  0.2626329689737672   F   F   F
  0.2597432413760462 -0.0050516530406162  0.3983783871217646   T   T   T
  0.4987015056994976  0.7247605740973498  0.3278246169346272   F   F   F
 -0.0125515511698858  0.7654987130450771  0.4651401230911054   T   T   T
  0.4928895901177264  0.7636936083665717  0.4561895756554266   T   T   T
  0.0041034282560547  0.7236694402594225  0.3222276800561435   F   F   F
  0.7256298342183085  0.4782857150899789  0.5291930945819162   T   T   T
  0.4513924694535374  0.3326267966820091  0.5847419228282426   T   T   T
  0.2309880813161802  0.4892763952432611  0.5335631755069589   T   T   T
  0.8197735234849310 -0.0130321977633478  0.5526907533901874   T   T   T
  0.2625784012854299 -0.0076649019985087  0.5177810756612129   T   T   T
  0.3862807976787250  0.4992215041381847  0.2532026820654570   F   F   F
  0.6581216674370430  0.4637094679585748  0.5529103331416290   T   T   T
  0.4185886389875195  0.3457874920737417  0.6094392054745101   T   T   T
  0.3066877454307174  0.4481803211207355  0.5573349874571127   T   T   T
