unknown system                          
           1
     2.873573   -2.873573    4.708335
     5.747147    0.000000    0.000000
     0.000000   33.065691   20.180529
   Mn   O    H 
  13  22   9
Direct configuration=     1
   0.22067121  0.89240241  0.08901558
   0.67950167  0.16933414  0.21808219
   0.94927612  0.02809995  0.15233499
   0.39533345  0.32041884  0.28313838
   0.44927612  0.52809995  0.15233499
   0.89743872  0.31788734  0.28440710
   0.44927612  0.02809995  0.15233499
   0.90857832  0.81464086  0.28540804
   0.90282244  0.55132680  0.10484543
   0.35744469  0.83283677  0.23374560
   0.99771771  0.50707525  0.20361025
   0.39641577  0.76753839  0.34243075
   0.53851998  0.23347802  0.07318573
   0.77109592  0.64449626  0.31734839
   0.87926422  0.06310591  0.05527763
   0.34118252  0.33258933  0.18336406
   0.58246139  0.21150732  0.12452493
   0.05411937  0.48938583  0.25702606
   0.53923791  0.42829904  0.36466423
   0.09516526  0.72856013  0.12156099
   0.57150678  0.46025926  0.25065580
   0.73006339  0.15148030  0.31190770
   0.85888103  0.57329750  0.05350623
   0.31145683  0.84765135  0.18078239
   0.56207820  0.72169891  0.12275353
   0.01217831  0.99763700  0.25382904
   0.80405423  0.32907946  0.18416263
   0.24815480  0.63291342  0.31030004
   0.34617716  0.60305419  0.05647018
   0.24952729  0.12800133  0.31901316
   0.79882962  0.87864996  0.18478615
   0.34617716  0.05624469  0.05647018
   0.55063212  0.01370213  0.25339642
   0.09516526  0.18175063  0.12156099
   0.42049287  0.95356280  0.38123698
   0.34047062  0.60391201  0.02782883
   0.92434681  0.68523651  0.03696881
   0.34363348  0.06399961  0.02783421
   0.88838126  0.05560908  0.02665597
   0.61156437  0.41317377  0.38729841
   0.68258918  0.22087822  0.33680208
   0.87225473  0.59875398  0.33801695
   0.25137269  0.22931008  0.33936192
   0.45487880  0.85687635  0.40280459
Direct configuration=     2
   0.22067121  0.89240241  0.08901558
   0.68092701  0.16707954  0.21879275
   0.94927612  0.02809995  0.15233499
   0.39938590  0.31870421  0.28276769
   0.44927612  0.52809995  0.15233499
   0.89733480  0.31706922  0.28468286
   0.44927612  0.02809995  0.15233499
   0.90997608  0.81375350  0.28543516
   0.90282244  0.55132680  0.10484543
   0.35581281  0.83418007  0.23419400
   0.99740162  0.50728724  0.20380345
   0.39778124  0.76835083  0.34231661
   0.53851998  0.23347802  0.07318573
   0.76758378  0.64020730  0.31705210
   0.87926422  0.06310591  0.05527763
   0.34302960  0.32978611  0.18261330
   0.58246139  0.21150732  0.12452493
   0.05956508  0.48431789  0.25763708
   0.53619346  0.43224557  0.36447717
   0.09516526  0.72856013  0.12156099
   0.56746093  0.45778430  0.25111848
   0.72805353  0.15424422  0.31073581
   0.85888103  0.57329750  0.05350623
   0.31282557  0.84815158  0.18012930
   0.56207820  0.72169891  0.12275353
   0.01281898  0.00531632  0.25344144
   0.80408503  0.32722014  0.18331069
   0.24042792  0.64098139  0.31082990
   0.34617716  0.60305419  0.05647018
   0.25081970  0.12666327  0.31874424
   0.79870455  0.87990841  0.18396220
   0.34617716  0.05624469  0.05647018
   0.55770224  0.00814833  0.25336201
   0.09516526  0.18175063  0.12156099
   0.42003078  0.95102999  0.38060245
   0.34047062  0.60391201  0.02782883
   0.92434681  0.68523651  0.03696881
   0.34363348  0.06399961  0.02783421
   0.88838126  0.05560908  0.02665597
   0.61188779  0.41350792  0.38742359
   0.68120758  0.22281394  0.33720000
   0.87414480  0.59731117  0.33840321
   0.25130368  0.23063958  0.33966014
   0.45500248  0.85616255  0.40287315
Direct configuration=     3
   0.22067121  0.89240241  0.08901558
   0.68013954  0.16832516  0.21840018
   0.94927612  0.02809995  0.15233499
   0.39714701  0.31965151  0.28297249
   0.44927612  0.52809995  0.15233499
   0.89739221  0.31752122  0.28453051
   0.44927612  0.02809995  0.15233499
   0.90920385  0.81424375  0.28542018
   0.90282244  0.55132680  0.10484543
   0.35671439  0.83343792  0.23394627
   0.99757626  0.50717012  0.20369671
   0.39702685  0.76790198  0.34237967
   0.53851998  0.23347802  0.07318573
   0.76952416  0.64257686  0.31721579
   0.87926422  0.06310591  0.05527763
   0.34200912  0.33133483  0.18302808
   0.58246139  0.21150732  0.12452493
   0.05655644  0.48711782  0.25729950
   0.53787545  0.43006520  0.36458051
   0.09516526  0.72856013  0.12156099
   0.56969618  0.45915166  0.25086286
   0.72916393  0.15271721  0.31138326
   0.85888103  0.57329750  0.05350623
   0.31206937  0.84787521  0.18049012
   0.56207820  0.72169891  0.12275353
   0.01246503  0.00107366  0.25365558
   0.80406801  0.32824738  0.18378137
   0.24469686  0.63652401  0.31053717
   0.34617716  0.60305419  0.05647018
   0.25010567  0.12740252  0.31889281
   0.79877365  0.87921314  0.18441742
   0.34617716  0.05624469  0.05647018
   0.55379615  0.01121669  0.25338102
   0.09516526  0.18175063  0.12156099
   0.42028607  0.95242931  0.38095301
   0.34047062  0.60391201  0.02782883
   0.92434681  0.68523651  0.03696881
   0.34363348  0.06399961  0.02783421
   0.88838126  0.05560908  0.02665597
   0.61170911  0.41332331  0.38735443
   0.68197089  0.22174450  0.33698016
   0.87310058  0.59810829  0.33818981
   0.25134181  0.22990506  0.33949538
   0.45493415  0.85655691  0.40283527
Direct configuration=     4
   0.22067121  0.89240241  0.08901558
   0.67994418  0.16863417  0.21830279
   0.94927612  0.02809995  0.15233499
   0.39659158  0.31988651  0.28302330
   0.44927612  0.52809995  0.15233499
   0.89740646  0.31763335  0.28449271
   0.44927612  0.02809995  0.15233499
   0.90901227  0.81436537  0.28541646
   0.90282244  0.55132680  0.10484543
   0.35693805  0.83325381  0.23388481
   0.99761958  0.50714107  0.20367023
   0.39683970  0.76779062  0.34239532
   0.53851998  0.23347802  0.07318573
   0.77000553  0.64316470  0.31725640
   0.87926422  0.06310591  0.05527763
   0.34175597  0.33171903  0.18313098
   0.58246139  0.21150732  0.12452493
   0.05581006  0.48781243  0.25721576
   0.53829272  0.42952429  0.36460615
   0.09516526  0.72856013  0.12156099
   0.57025070  0.45949088  0.25079945
   0.72943940  0.15233839  0.31154387
   0.85888103  0.57329750  0.05350623
   0.31188177  0.84780665  0.18057963
   0.56207820  0.72169891  0.12275353
   0.01237722  0.00002114  0.25370870
   0.80406379  0.32850221  0.18389813
   0.24575590  0.63541823  0.31046454
   0.34617716  0.60305419  0.05647018
   0.24992854  0.12758591  0.31892967
   0.79879079  0.87904066  0.18453035
   0.34617716  0.05624469  0.05647018
   0.55282713  0.01197788  0.25338574
   0.09516526  0.18175063  0.12156099
   0.42034941  0.95277646  0.38103998
   0.34047062  0.60391201  0.02782883
   0.92434681  0.68523651  0.03696881
   0.34363348  0.06399961  0.02783421
   0.88838126  0.05560908  0.02665597
   0.61166478  0.41327751  0.38733728
   0.68216025  0.22147919  0.33692562
   0.87284153  0.59830604  0.33813687
   0.25135127  0.22972284  0.33945451
   0.45491720  0.85665474  0.40282587
Direct configuration=     5
   0.22067121  0.89240241  0.08901558
   0.67972292  0.16898416  0.21819249
   0.94927612  0.02809995  0.15233499
   0.39596252  0.32015268  0.28308084
   0.44927612  0.52809995  0.15233499
   0.89742259  0.31776034  0.28444991
   0.44927612  0.02809995  0.15233499
   0.90879530  0.81450311  0.28541225
   0.90282244  0.55132680  0.10484543
   0.35719137  0.83304529  0.23381520
   0.99766865  0.50710816  0.20364024
   0.39662773  0.76766451  0.34241303
   0.53851998  0.23347802  0.07318573
   0.77055073  0.64383048  0.31730239
   0.87926422  0.06310591  0.05527763
   0.34146924  0.33215418  0.18324752
   0.58246139  0.21150732  0.12452493
   0.05496471  0.48859913  0.25712091
   0.53876532  0.42891167  0.36463519
   0.09516526  0.72856013  0.12156099
   0.57087874  0.45987507  0.25072762
   0.72975139  0.15190935  0.31172579
   0.85888103  0.57329750  0.05350623
   0.31166930  0.84772900  0.18068101
   0.56207820  0.72169891  0.12275353
   0.01227777 -0.00117093  0.25376887
   0.80405901  0.32879084  0.18403038
   0.24695535  0.63416582  0.31038229
   0.34617716  0.60305419  0.05647018
   0.24972792  0.12779362  0.31897141
   0.79881021  0.87884531  0.18465825
   0.34617716  0.05624469  0.05647018
   0.55172962  0.01284000  0.25339108
   0.09516526  0.18175063  0.12156099
   0.42042114  0.95316963  0.38113848
   0.34047062  0.60391201  0.02782883
   0.92434681  0.68523651  0.03696881
   0.34363348  0.06399961  0.02783421
   0.88838126  0.05560908  0.02665597
   0.61161457  0.41322564  0.38731784
   0.68237471  0.22117871  0.33686385
   0.87254813  0.59853001  0.33807691
   0.25136198  0.22951646  0.33940821
   0.45489800  0.85676554  0.40281523
Direct configuration=     6
   0.22067121  0.89240241  0.08901558
   0.67961229  0.16915915  0.21813734
   0.94927612  0.02809995  0.15233499
   0.39564798  0.32028576  0.28310961
   0.44927612  0.52809995  0.15233499
   0.89743066  0.31782384  0.28442851
   0.44927612  0.02809995  0.15233499
   0.90868681  0.81457199  0.28541015
   0.90282244  0.55132680  0.10484543
   0.35731803  0.83294103  0.23378040
   0.99769318  0.50709170  0.20362525
   0.39652175  0.76760145  0.34242189
   0.53851998  0.23347802  0.07318573
   0.77082332  0.64416337  0.31732539
   0.87926422  0.06310591  0.05527763
   0.34132588  0.33237175  0.18330579
   0.58246139  0.21150732  0.12452493
   0.05454204  0.48899248  0.25707349
   0.53900162  0.42860536  0.36464971
   0.09516526  0.72856013  0.12156099
   0.57119276  0.46006716  0.25069171
   0.72990739  0.15169482  0.31181674
   0.85888103  0.57329750  0.05350623
   0.31156307  0.84769017  0.18073170
   0.56207820  0.72169891  0.12275353
   0.01222804 -0.00176696  0.25379895
   0.80405662  0.32893515  0.18409650
   0.24755508  0.63353962  0.31034117
   0.34617716  0.60305419  0.05647018
   0.24962761  0.12789747  0.31899228
   0.79881992  0.87874763  0.18472220
   0.34617716  0.05624469  0.05647018
   0.55118087  0.01327106  0.25339375
   0.09516526  0.18175063  0.12156099
   0.42045700  0.95336621  0.38118773
   0.34047062  0.60391201  0.02782883
   0.92434681  0.68523651  0.03696881
   0.34363348  0.06399961  0.02783421
   0.88838126  0.05560908  0.02665597
   0.61158947  0.41319970  0.38730813
   0.68248195  0.22102846  0.33683296
   0.87240143  0.59864200  0.33804693
   0.25136734  0.22941327  0.33938507
   0.45488840  0.85682094  0.40280991
Direct configuration=     7
   0.22067121  0.89240241  0.08901558
   0.67955698  0.16924665  0.21810977
   0.94927612  0.02809995  0.15233499
   0.39549072  0.32035230  0.28312400
   0.44927612  0.52809995  0.15233499
   0.89743469  0.31785559  0.28441780
   0.44927612  0.02809995  0.15233499
   0.90863256  0.81460642  0.28540910
   0.90282244  0.55132680  0.10484543
   0.35738136  0.83288890  0.23376300
   0.99770545  0.50708348  0.20361775
   0.39646876  0.76756992  0.34242632
   0.53851998  0.23347802  0.07318573
   0.77095962  0.64432982  0.31733689
   0.87926422  0.06310591  0.05527763
   0.34125420  0.33248054  0.18333493
   0.58246139  0.21150732  0.12452493
   0.05433070  0.48918916  0.25704978
   0.53911976  0.42845220  0.36465697
   0.09516526  0.72856013  0.12156099
   0.57134977  0.46016321  0.25067376
   0.72998539  0.15158756  0.31186222
   0.85888103  0.57329750  0.05350623
   0.31150995  0.84767076  0.18075704
   0.56207820  0.72169891  0.12275353
   0.01220318 -0.00206498  0.25381399
   0.80405542  0.32900730  0.18412956
   0.24785494  0.63322652  0.31032060
   0.34617716  0.60305419  0.05647018
   0.24957745  0.12794940  0.31900272
   0.79882477  0.87869879  0.18475418
   0.34617716  0.05624469  0.05647018
   0.55090650  0.01348660  0.25339509
   0.09516526  0.18175063  0.12156099
   0.42047494  0.95346451  0.38121235
   0.34047062  0.60391201  0.02782883
   0.92434681  0.68523651  0.03696881
   0.34363348  0.06399961  0.02783421
   0.88838126  0.05560908  0.02665597
   0.61157692  0.41318674  0.38730327
   0.68253556  0.22095334  0.33681752
   0.87232808  0.59869799  0.33803194
   0.25137001  0.22936168  0.33937349
   0.45488360  0.85684864  0.40280725
Direct configuration=     8
   0.22067121  0.89240241  0.08901558
   0.67952932  0.16929039  0.21809598
   0.94927612  0.02809995  0.15233499
   0.39541208  0.32038557  0.28313119
   0.44927612  0.52809995  0.15233499
   0.89743671  0.31787147  0.28441245
   0.44927612  0.02809995  0.15233499
   0.90860544  0.81462364  0.28540857
   0.90282244  0.55132680  0.10484543
   0.35741303  0.83286284  0.23375430
   0.99771158  0.50707936  0.20361400
   0.39644226  0.76755415  0.34242854
   0.53851998  0.23347802  0.07318573
   0.77102777  0.64441304  0.31734264
   0.87926422  0.06310591  0.05527763
   0.34121836  0.33253493  0.18334949
   0.58246139  0.21150732  0.12452493
   0.05422503  0.48928749  0.25703792
   0.53917884  0.42837562  0.36466060
   0.09516526  0.72856013  0.12156099
   0.57142828  0.46021123  0.25066478
   0.73002439  0.15153393  0.31188496
   0.85888103  0.57329750  0.05350623
   0.31148339  0.84766105  0.18076972
   0.56207820  0.72169891  0.12275353
   0.01219075 -0.00221399  0.25382152
   0.80405483  0.32904338  0.18414610
   0.24800487  0.63306997  0.31031032
   0.34617716  0.60305419  0.05647018
   0.24955237  0.12797537  0.31900794
   0.79882720  0.87867437  0.18477017
   0.34617716  0.05624469  0.05647018
   0.55076931  0.01359436  0.25339575
   0.09516526  0.18175063  0.12156099
   0.42048390  0.95351365  0.38122467
   0.34047062  0.60391201  0.02782883
   0.92434681  0.68523651  0.03696881
   0.34363348  0.06399961  0.02783421
   0.88838126  0.05560908  0.02665597
   0.61157065  0.41318025  0.38730084
   0.68256237  0.22091578  0.33680980
   0.87229141  0.59872599  0.33802445
   0.25137135  0.22933588  0.33936771
   0.45488120  0.85686249  0.40280592
Direct configuration=     9
   0.22067121  0.89240241  0.08901558
   0.67951549  0.16931227  0.21808909
   0.94927612  0.02809995  0.15233499
   0.39537277  0.32040220  0.28313479
   0.44927612  0.52809995  0.15233499
   0.89743771  0.31787940  0.28440978
   0.44927612  0.02809995  0.15233499
   0.90859188  0.81463225  0.28540831
   0.90282244  0.55132680  0.10484543
   0.35742886  0.83284980  0.23374995
   0.99771465  0.50707731  0.20361213
   0.39642901  0.76754627  0.34242965
   0.53851998  0.23347802  0.07318573
   0.77106185  0.64445465  0.31734551
   0.87926422  0.06310591  0.05527763
   0.34120044  0.33256213  0.18335678
   0.58246139  0.21150732  0.12452493
   0.05417220  0.48933666  0.25703199
   0.53920838  0.42833733  0.36466241
   0.09516526  0.72856013  0.12156099
   0.57146753  0.46023525  0.25066029
   0.73004389  0.15150712  0.31189633
   0.85888103  0.57329750  0.05350623
   0.31147011  0.84765620  0.18077605
   0.56207820  0.72169891  0.12275353
   0.01218453 -0.00228849  0.25382528
   0.80405453  0.32906142  0.18415436
   0.24807984  0.63299170  0.31030518
   0.34617716  0.60305419  0.05647018
   0.24953983  0.12798835  0.31901055
   0.79882841  0.87866217  0.18477816
   0.34617716  0.05624469  0.05647018
   0.55070071  0.01364824  0.25339609
   0.09516526  0.18175063  0.12156099
   0.42048839  0.95353823  0.38123082
   0.34047062  0.60391201  0.02782883
   0.92434681  0.68523651  0.03696881
   0.34363348  0.06399961  0.02783421
   0.88838126  0.05560908  0.02665597
   0.61156751  0.41317701  0.38729963
   0.68257578  0.22089700  0.33680594
   0.87227307  0.59873998  0.33802070
   0.25137202  0.22932298  0.33936481
   0.45488000  0.85686942  0.40280526
Direct configuration=    10
   0.22067121  0.89240241  0.08901558
   0.67974554  0.16901047  0.21811390
   0.94927612  0.02809995  0.15233499
   0.39629122  0.32059052  0.28279472
   0.44927612  0.52809995  0.15233499
   0.89743884  0.31803987  0.28441082
   0.44927612  0.02809995  0.15233499
   0.90853278  0.81551979  0.28515865
   0.90282244  0.55132680  0.10484543
   0.35738318  0.83272998  0.23373028
   0.99773059  0.50726015  0.20359713
   0.39570270  0.76860615  0.34230937
   0.53851998  0.23347802  0.07318573
   0.77107959  0.64449803  0.31731565
   0.87926422  0.06310591  0.05527763
   0.34187033  0.33156885  0.18317092
   0.58246139  0.21150732  0.12452493
   0.05441447  0.49027191  0.25718944
   0.53872719  0.42910405  0.36465474
   0.09516526  0.72856013  0.12156099
   0.57027912  0.45920397  0.25083631
   0.72998223  0.15066375  0.31187212
   0.85888103  0.57329750  0.05350623
   0.31204714  0.84754935  0.18061136
   0.56207820  0.72169891  0.12275353
   0.01149902 -0.00291278  0.25396848
   0.80469641  0.32733049  0.18392545
   0.24901499  0.63160032  0.31032845
   0.34617716  0.60305419  0.05647018
   0.24988306  0.12752102  0.31911193
   0.79912341  0.87947313  0.18462354
   0.34617716  0.05624469  0.05647018
   0.55070293  0.01485256  0.25358944
   0.09516526  0.18175063  0.12156099
   0.42066119  0.95267993  0.38110869
   0.34047062  0.60391201  0.02782883
   0.92434681  0.68523651  0.03696881
   0.34363348  0.06399961  0.02783421
   0.88838126  0.05560908  0.02665597
   0.61165182  0.41322772  0.38730943
   0.68246233  0.22086114  0.33680876
   0.87237719  0.59887298  0.33804724
   0.25144485  0.22925569  0.33939168
   0.45484029  0.85668906  0.40283715
Direct configuration=    11
   0.22067121  0.89240241  0.08901558
   0.67974600  0.16900986  0.21811395
   0.94927612  0.02809995  0.15233499
   0.39629310  0.32059091  0.28279403
   0.44927612  0.52809995  0.15233499
   0.89743885  0.31804019  0.28441082
   0.44927612  0.02809995  0.15233499
   0.90853266  0.81552160  0.28515814
   0.90282244  0.55132680  0.10484543
   0.35738308  0.83272974  0.23373024
   0.99773062  0.50726052  0.20359710
   0.39570122  0.76860831  0.34230913
   0.53851998  0.23347802  0.07318573
   0.77107962  0.64449812  0.31731559
   0.87926422  0.06310591  0.05527763
   0.34187170  0.33156682  0.18317054
   0.58246139  0.21150732  0.12452493
   0.05441497  0.49027382  0.25718976
   0.53872620  0.42910562  0.36465472
   0.09516526  0.72856013  0.12156099
   0.57027669  0.45920186  0.25083666
   0.72998210  0.15066203  0.31187207
   0.85888103  0.57329750  0.05350623
   0.31204832  0.84754913  0.18061103
   0.56207820  0.72169891  0.12275353
   0.01149762 -0.00291405  0.25396877
   0.80469772  0.32732696  0.18392498
   0.24901690  0.63159748  0.31032850
   0.34617716  0.60305419  0.05647018
   0.24988376  0.12752006  0.31911214
   0.79912401  0.87947479  0.18462323
   0.34617716  0.05624469  0.05647018
   0.55070293  0.01485502  0.25358984
   0.09516526  0.18175063  0.12156099
   0.42066154  0.95267818  0.38110844
   0.34047062  0.60391201  0.02782883
   0.92434681  0.68523651  0.03696881
   0.34363348  0.06399961  0.02783421
   0.88838126  0.05560908  0.02665597
   0.61165199  0.41322783  0.38730945
   0.68246210  0.22086106  0.33680877
   0.87237740  0.59887325  0.33804730
   0.25144500  0.22925556  0.33939174
   0.45484021  0.85668869  0.40283721
Direct configuration=    12
   0.22067121  0.89240241  0.08901558
   0.67996709  0.16878581  0.21802887
   0.94927612  0.02809995  0.15233499
   0.39594598  0.32167431  0.28277597
   0.44927612  0.52809995  0.15233499
   0.89744801  0.31837100  0.28451888
   0.44927612  0.02809995  0.15233499
   0.90811208  0.81544601  0.28519704
   0.90282244  0.55132680  0.10484543
   0.35750751  0.83258918  0.23369633
   0.99781195  0.50734165  0.20354351
   0.39516627  0.76876379  0.34222679
   0.53851998  0.23347802  0.07318573
   0.77188105  0.64472348  0.31729822
   0.87926422  0.06310591  0.05527763
   0.34191061  0.33120840  0.18313114
   0.58246139  0.21150732  0.12452493
   0.05396135  0.49134426  0.25715805
   0.53869984  0.42948823  0.36468809
   0.09516526  0.72856013  0.12156099
   0.56956633  0.45904467  0.25084725
   0.73026503  0.14988878  0.31194574
   0.85888103  0.57329750  0.05350623
   0.31248060  0.84727347  0.18060775
   0.56207820  0.72169891  0.12275353
   0.01139171 -0.00347231  0.25397438
   0.80529730  0.32649974  0.18387627
   0.25045799  0.62960010  0.31023290
   0.34617716  0.60305419  0.05647018
   0.24993523  0.12725453  0.31912079
   0.79951012  0.87954144  0.18461003
   0.34617716  0.05624469  0.05647018
   0.55024362  0.01529527  0.25361456
   0.09516526  0.18175063  0.12156099
   0.42109457  0.95170077  0.38120735
   0.34047062  0.60391201  0.02782883
   0.92434681  0.68523651  0.03696881
   0.34363348  0.06399961  0.02783421
   0.88838126  0.05560908  0.02665597
   0.61148699  0.41341342  0.38723685
   0.68236686  0.22067929  0.33675547
   0.87200698  0.59934301  0.33796473
   0.25161998  0.22934853  0.33943708
   0.45456226  0.85705568  0.40270948
Direct configuration=    13
   0.22067121  0.89240241  0.08901558
   0.67991148  0.16884217  0.21805027
   0.94927612  0.02809995  0.15233499
   0.39603330  0.32140176  0.28278051
   0.44927612  0.52809995  0.15233499
   0.89744570  0.31828778  0.28449169
   0.44927612  0.02809995  0.15233499
   0.90821788  0.81546503  0.28518726
   0.90282244  0.55132680  0.10484543
   0.35747621  0.83262454  0.23370486
   0.99779149  0.50732124  0.20355699
   0.39530085  0.76872468  0.34224750
   0.53851998  0.23347802  0.07318573
   0.77167944  0.64466679  0.31730259
   0.87926422  0.06310591  0.05527763
   0.34190082  0.33129857  0.18314105
   0.58246139  0.21150732  0.12452493
   0.05407547  0.49107497  0.25716602
   0.53870647  0.42939198  0.36467970
   0.09516526  0.72856013  0.12156099
   0.56974503  0.45908421  0.25084459
   0.73019386  0.15008331  0.31192721
   0.85888103  0.57329750  0.05350623
   0.31237185  0.84734282  0.18060858
   0.56207820  0.72169891  0.12275353
   0.01141836 -0.00333187  0.25397297
   0.80514647  0.32670784  0.18388853
   0.25009545  0.63010258  0.31025695
   0.34617716  0.60305419  0.05647018
   0.24992228  0.12732133  0.31911861
   0.79941299  0.87952468  0.18461335
   0.34617716  0.05624469  0.05647018
   0.55035917  0.01518451  0.25360834
   0.09516526  0.18175063  0.12156099
   0.42098563  0.95194666  0.38118247
   0.34047062  0.60391201  0.02782883
   0.92434681  0.68523651  0.03696881
   0.34363348  0.06399961  0.02783421
   0.88838126  0.05560908  0.02665597
   0.61152850  0.41336673  0.38725512
   0.68239082  0.22072502  0.33676888
   0.87210017  0.59922483  0.33798550
   0.25157596  0.22932514  0.33942568
   0.45463219  0.85696336  0.40274161
Direct configuration=    14
   0.22067121  0.89240241  0.08901558
   0.68003565  0.16865650  0.21800385
   0.94927612  0.02809995  0.15233499
   0.39576114  0.32200453  0.28277306
   0.44927612  0.52809995  0.15233499
   0.89751324  0.31842632  0.28457736
   0.44927612  0.02809995  0.15233499
   0.90783814  0.81539385  0.28523730
   0.90282244  0.55132680  0.10484543
   0.35757546  0.83255232  0.23368436
   0.99787652  0.50736171  0.20351102
   0.39497355  0.76867567  0.34221608
   0.53851998  0.23347802  0.07318573
   0.77198859  0.64502076  0.31722305
   0.87926422  0.06310591  0.05527763
   0.34185573  0.33109657  0.18312438
   0.58246139  0.21150732  0.12452493
   0.05350835  0.49199207  0.25711319
   0.53847596  0.42977294  0.36463209
   0.09516526  0.72856013  0.12156099
   0.56926733  0.45905468  0.25082275
   0.73055112  0.14941297  0.31197906
   0.85888103  0.57329750  0.05350623
   0.31273867  0.84706320  0.18062397
   0.56207820  0.72169891  0.12275353
   0.01138548 -0.00368540  0.25396529
   0.80566175  0.32621497  0.18387047
   0.25126204  0.62867362  0.31018829
   0.34617716  0.60305419  0.05647018
   0.24989045  0.12733721  0.31914705
   0.79977072  0.87941346  0.18461152
   0.34617716  0.05624469  0.05647018
   0.54988852  0.01548134  0.25359441
   0.09516526  0.18175063  0.12156099
   0.42108371  0.95182528  0.38108899
   0.34047062  0.60391201  0.02782883
   0.92434681  0.68523651  0.03696881
   0.34363348  0.06399961  0.02783421
   0.88838126  0.05560908  0.02665597
   0.61156577  0.41354328  0.38725092
   0.68227594  0.22055632  0.33674242
   0.87210816  0.59952529  0.33798499
   0.25176447  0.22922781  0.33943518
   0.45463596  0.85652812  0.40278666
Direct configuration=    15
   0.22067121  0.89240241  0.08901558
   0.68005098  0.16863358  0.21799812
   0.94927612  0.02809995  0.15233499
   0.39572755  0.32207894  0.28277214
   0.44927612  0.52809995  0.15233499
   0.89752158  0.31844343  0.28458794
   0.44927612  0.02809995  0.15233499
   0.90779126  0.81538507  0.28524348
   0.90282244  0.55132680  0.10484543
   0.35758771  0.83254341  0.23368183
   0.99788702  0.50736671  0.20350535
   0.39493315  0.76866962  0.34221220
   0.53851998  0.23347802  0.07318573
   0.77202675  0.64506446  0.31721324
   0.87926422  0.06310591  0.05527763
   0.34185017  0.33107163  0.18312233
   0.58246139  0.21150732  0.12452493
   0.05343834  0.49210528  0.25710667
   0.53844750  0.42981997  0.36462622
   0.09516526  0.72856013  0.12156099
   0.56920836  0.45905104  0.25082006
   0.73059522  0.14933022  0.31198546
   0.85888103  0.57329750  0.05350623
   0.31278396  0.84702868  0.18062588
   0.56207820  0.72169891  0.12275353
   0.01138142 -0.00372904  0.25396435
   0.80572535  0.32615413  0.18386824
   0.25140605  0.62849722  0.31017982
   0.34617716  0.60305419  0.05647018
   0.24988652  0.12733917  0.31915056
   0.79981488  0.87939974  0.18461129
   0.34617716  0.05624469  0.05647018
   0.54983042  0.01551798  0.25359269
   0.09516526  0.18175063  0.12156099
   0.42109582  0.95181029  0.38107745
   0.34047062  0.60391201  0.02782883
   0.92434681  0.68523651  0.03696881
   0.34363348  0.06399961  0.02783421
   0.88838126  0.05560908  0.02665597
   0.61157037  0.41356508  0.38725040
   0.68226176  0.22053549  0.33673915
   0.87210915  0.59956238  0.33798492
   0.25178774  0.22921579  0.33943635
   0.45463642  0.85647439  0.40279222
Direct configuration=    16
   0.22067121  0.89240241  0.08901558
   0.68004214  0.16853681  0.21802075
   0.94927612  0.02809995  0.15233499
   0.39580891  0.32174183  0.28272582
   0.44927612  0.52809995  0.15233499
   0.89767718  0.31824129  0.28459827
   0.44927612  0.02809995  0.15233499
   0.90766896  0.81549184  0.28523879
   0.90282244  0.55132680  0.10484543
   0.35758435  0.83257927  0.23368391
   0.99795139  0.50735273  0.20348494
   0.39481848  0.76852050  0.34220412
   0.53851998  0.23347802  0.07318573
   0.77203630  0.64519368  0.31719439
   0.87926422  0.06310591  0.05527763
   0.34181402  0.33103272  0.18311974
   0.58246139  0.21150732  0.12452493
   0.05292083  0.49257408  0.25707222
   0.53837592  0.42997913  0.36461480
   0.09516526  0.72856013  0.12156099
   0.56908652  0.45905145  0.25078640
   0.73093386  0.14894343  0.31199250
   0.85888103  0.57329750  0.05350623
   0.31299806  0.84683521  0.18063927
   0.56207820  0.72169891  0.12275353
   0.01134055 -0.00371554  0.25396848
   0.80600082  0.32607181  0.18387328
   0.25183935  0.62829643  0.31018322
   0.34617716  0.60305419  0.05647018
   0.24978282  0.12746706  0.31916200
   0.80002494  0.87920544  0.18460775
   0.34617716  0.05624469  0.05647018
   0.54949692  0.01567696  0.25355611
   0.09516526  0.18175063  0.12156099
   0.42122078  0.95160202  0.38106106
   0.34047062  0.60391201  0.02782883
   0.92434681  0.68523651  0.03696881
   0.34363348  0.06399961  0.02783421
   0.88838126  0.05560908  0.02665597
   0.61151713  0.41375760  0.38722700
   0.68215093  0.22041733  0.33675362
   0.87212693  0.59978999  0.33799231
   0.25194482  0.22908654  0.33943650
   0.45456429  0.85634012  0.40277232
Direct configuration=    17
   0.22067121  0.89240241  0.08901558
   0.68002459  0.16834463  0.21806571
   0.94927612  0.02809995  0.15233499
   0.39597049  0.32107230  0.28263382
   0.44927612  0.52809995  0.15233499
   0.89798621  0.31783983  0.28461880
   0.44927612  0.02809995  0.15233499
   0.90742605  0.81570389  0.28522946
   0.90282244  0.55132680  0.10484543
   0.35757770  0.83265049  0.23368802
   0.99807923  0.50732495  0.20344442
   0.39459073  0.76822435  0.34218808
   0.53851998  0.23347802  0.07318573
   0.77205527  0.64545032  0.31715697
   0.87926422  0.06310591  0.05527763
   0.34174223  0.33095544  0.18311460
   0.58246139  0.21150732  0.12452493
   0.05189302  0.49350514  0.25700381
   0.53823375  0.43029523  0.36459213
   0.09516526  0.72856013  0.12156099
   0.56884454  0.45905226  0.25071956
   0.73160642  0.14817524  0.31200650
   0.85888103  0.57329750  0.05350623
   0.31342328  0.84645095  0.18066588
   0.56207820  0.72169891  0.12275353
   0.01125937 -0.00368873  0.25397670
   0.80654791  0.32590834  0.18388328
   0.25269989  0.62789765  0.31018997
   0.34617716  0.60305419  0.05647018
   0.24957687  0.12772104  0.31918472
   0.80044212  0.87881956  0.18460070
   0.34617716  0.05624469  0.05647018
   0.54883456  0.01599272  0.25348347
   0.09516526  0.18175063  0.12156099
   0.42146896  0.95118837  0.38102851
   0.34047062  0.60391201  0.02782883
   0.92434681  0.68523651  0.03696881
   0.34363348  0.06399961  0.02783421
   0.88838126  0.05560908  0.02665597
   0.61141140  0.41413995  0.38718055
   0.68193080  0.22018264  0.33678235
   0.87216224  0.60024205  0.33800699
   0.25225679  0.22882982  0.33943680
   0.45442104  0.85607346  0.40273281
Direct configuration=    18
   0.22067121  0.89240241  0.08901558
   0.68012618  0.16824830  0.21806129
   0.94927612  0.02809995  0.15233499
   0.39595975  0.32085834  0.28260181
   0.44927612  0.52809995  0.15233499
   0.89817551  0.31765140  0.28461999
   0.44927612  0.02809995  0.15233499
   0.90748505  0.81565549  0.28521784
   0.90282244  0.55132680  0.10484543
   0.35746663  0.83269108  0.23369048
   0.99815817  0.50728426  0.20342633
   0.39451952  0.76821309  0.34218755
   0.53851998  0.23347802  0.07318573
   0.77217498  0.64538799  0.31718670
   0.87926422  0.06310591  0.05527763
   0.34178457  0.33090766  0.18311082
   0.58246139  0.21150732  0.12452493
   0.05129474  0.49394247  0.25698033
   0.53820304  0.43025747  0.36457034
   0.09516526  0.72856013  0.12156099
   0.56873093  0.45897947  0.25069445
   0.73191048  0.14791455  0.31203425
   0.85888103  0.57329750  0.05350623
   0.31364270  0.84626777  0.18067664
   0.56207820  0.72169891  0.12275353
   0.01122490 -0.00353607  0.25397486
   0.80674956  0.32579415  0.18390002
   0.25299949  0.62773431  0.31017023
   0.34617716  0.60305419  0.05647018
   0.24948179  0.12772172  0.31915206
   0.80058707  0.87870923  0.18459867
   0.34617716  0.05624469  0.05647018
   0.54849784  0.01605577  0.25343291
   0.09516526  0.18175063  0.12156099
   0.42161614  0.95096007  0.38101066
   0.34047062  0.60391201  0.02782883
   0.92434681  0.68523651  0.03696881
   0.34363348  0.06399961  0.02783421
   0.88838126  0.05560908  0.02665597
   0.61138596  0.41438398  0.38716319
   0.68184017  0.21998232  0.33678472
   0.87199021  0.60061696  0.33797759
   0.25245281  0.22883187  0.33946663
   0.45432806  0.85591076  0.40270655
Direct configuration=    19
   0.22067121  0.89240241  0.08901558
   0.68017176  0.16820509  0.21805931
   0.94927612  0.02809995  0.15233499
   0.39595493  0.32076234  0.28258745
   0.44927612  0.52809995  0.15233499
   0.89826044  0.31756686  0.28462053
   0.44927612  0.02809995  0.15233499
   0.90751151  0.81563378  0.28521262
   0.90282244  0.55132680  0.10484543
   0.35741680  0.83270929  0.23369158
   0.99819359  0.50726600  0.20341821
   0.39448757  0.76820804  0.34218731
   0.53851998  0.23347802  0.07318573
   0.77222869  0.64536003  0.31720004
   0.87926422  0.06310591  0.05527763
   0.34180356  0.33088622  0.18310912
   0.58246139  0.21150732  0.12452493
   0.05102633  0.49413867  0.25696980
   0.53818926  0.43024053  0.36456056
   0.09516526  0.72856013  0.12156099
   0.56867996  0.45894681  0.25068319
   0.73204690  0.14779759  0.31204670
   0.85888103  0.57329750  0.05350623
   0.31374113  0.84618558  0.18068146
   0.56207820  0.72169891  0.12275353
   0.01120943 -0.00346757  0.25397403
   0.80684003  0.32574292  0.18390754
   0.25313390  0.62766103  0.31016138
   0.34617716  0.60305419  0.05647018
   0.24943914  0.12772203  0.31913741
   0.80065209  0.87865973  0.18459776
   0.34617716  0.05624469  0.05647018
   0.54834678  0.01608406  0.25341022
   0.09516526  0.18175063  0.12156099
   0.42168217  0.95085765  0.38100265
   0.34047062  0.60391201  0.02782883
   0.92434681  0.68523651  0.03696881
   0.34363348  0.06399961  0.02783421
   0.88838126  0.05560908  0.02665597
   0.61137455  0.41449346  0.38715541
   0.68179951  0.21989244  0.33678579
   0.87191303  0.60078516  0.33796440
   0.25254075  0.22883279  0.33948002
   0.45428634  0.85583777  0.40269477
Direct configuration=    20
   0.22067121  0.89240241  0.08901558
   0.68026291  0.16811867  0.21805536
   0.94927612  0.02809995  0.15233499
   0.39594529  0.32057035  0.28255872
   0.44927612  0.52809995  0.15233499
   0.89843029  0.31739778  0.28462161
   0.44927612  0.02809995  0.15233499
   0.90756444  0.81559036  0.28520220
   0.90282244  0.55132680  0.10484543
   0.35731714  0.83274572  0.23369379
   0.99826442  0.50722949  0.20340198
   0.39442368  0.76819793  0.34218684
   0.53851998  0.23347802  0.07318573
   0.77233611  0.64530411  0.31722671
   0.87926422  0.06310591  0.05527763
   0.34184156  0.33084335  0.18310572
   0.58246139  0.21150732  0.12452493
   0.05048951  0.49453108  0.25694874
   0.53816171  0.43020665  0.36454100
   0.09516526  0.72856013  0.12156099
   0.56857802  0.45888150  0.25066065
   0.73231973  0.14756368  0.31207160
   0.85888103  0.57329750  0.05350623
   0.31393801  0.84602121  0.18069111
   0.56207820  0.72169891  0.12275353
   0.01117849 -0.00333059  0.25397238
   0.80702097  0.32564046  0.18392256
   0.25340272  0.62751447  0.31014366
   0.34617716  0.60305419  0.05647018
   0.24935382  0.12772265  0.31910811
   0.80078215  0.87856074  0.18459594
   0.34617716  0.05624469  0.05647018
   0.54804465  0.01614064  0.25336486
   0.09516526  0.18175063  0.12156099
   0.42181423  0.95065280  0.38098662
   0.34047062  0.60391201  0.02782883
   0.92434681  0.68523651  0.03696881
   0.34363348  0.06399961  0.02783421
   0.88838126  0.05560908  0.02665597
   0.61135173  0.41471243  0.38713984
   0.68171819  0.21971269  0.33678792
   0.87175867  0.60112156  0.33793802
   0.25271664  0.22883463  0.33950679
   0.45420291  0.85569179  0.40267122
Direct configuration=    21
   0.22067121  0.89240241  0.08901558
   0.68019502  0.16818304  0.21805830
   0.94927612  0.02809995  0.15233499
   0.39595247  0.32071335  0.28258012
   0.44927612  0.52809995  0.15233499
   0.89830378  0.31752371  0.28462081
   0.44927612  0.02809995  0.15233499
   0.90752502  0.81562270  0.28520996
   0.90282244  0.55132680  0.10484543
   0.35739137  0.83271859  0.23369215
   0.99821166  0.50725668  0.20341407
   0.39447127  0.76820546  0.34218719
   0.53851998  0.23347802  0.07318573
   0.77225610  0.64534576  0.31720684
   0.87926422  0.06310591  0.05527763
   0.34181326  0.33087528  0.18310825
   0.58246139  0.21150732  0.12452493
   0.05088935  0.49423880  0.25696443
   0.53818223  0.43023189  0.36455557
   0.09516526  0.72856013  0.12156099
   0.56865395  0.45893015  0.25067744
   0.73211652  0.14773790  0.31205305
   0.85888103  0.57329750  0.05350623
   0.31379137  0.84614364  0.18068393
   0.56207820  0.72169891  0.12275353
   0.01120153 -0.00343262  0.25397361
   0.80688620  0.32571678  0.18391137
   0.25320249  0.62762363  0.31015686
   0.34617716  0.60305419  0.05647018
   0.24941737  0.12772219  0.31912994
   0.80068528  0.87863447  0.18459730
   0.34617716  0.05624469  0.05647018
   0.54826969  0.01609850  0.25339865
   0.09516526  0.18175063  0.12156099
   0.42171586  0.95080538  0.38099856
   0.34047062  0.60391201  0.02782883
   0.92434681  0.68523651  0.03696881
   0.34363348  0.06399961  0.02783421
   0.88838126  0.05560908  0.02665597
   0.61136873  0.41454934  0.38715144
   0.68177876  0.21984657  0.33678634
   0.87187364  0.60087100  0.33795767
   0.25258563  0.22883326  0.33948685
   0.45426505  0.85580052  0.40268876
Direct configuration=    22
   0.22067121  0.89240241  0.08901558
   0.68038295  0.16807279  0.21802738
   0.94927612  0.02809995  0.15233499
   0.39587928  0.32065480  0.28256114
   0.44927612  0.52809995  0.15233499
   0.89845384  0.31741216  0.28462534
   0.44927612  0.02809995  0.15233499
   0.90769450  0.81545857  0.28520312
   0.90282244  0.55132680  0.10484543
   0.35718878  0.83272539  0.23369218
   0.99830876  0.50719396  0.20339616
   0.39444761  0.76825005  0.34218007
   0.53851998  0.23347802  0.07318573
   0.77215044  0.64526704  0.31719846
   0.87926422  0.06310591  0.05527763
   0.34193241  0.33081410  0.18310303
   0.58246139  0.21150732  0.12452493
   0.05023223  0.49464581  0.25695034
   0.53819568  0.43003916  0.36454033
   0.09516526  0.72856013  0.12156099
   0.56851043  0.45876379  0.25066673
   0.73243433  0.14751296  0.31207866
   0.85888103  0.57329750  0.05350623
   0.31400577  0.84598286  0.18069051
   0.56207820  0.72169891  0.12275353
   0.01116159 -0.00317678  0.25396524
   0.80702224  0.32555967  0.18393537
   0.25339193  0.62746693  0.31011177
   0.34617716  0.60305419  0.05647018
   0.24937185  0.12790447  0.31911790
   0.80077622  0.87861275  0.18459439
   0.34617716  0.05624469  0.05647018
   0.54795574  0.01609225  0.25333824
   0.09516526  0.18175063  0.12156099
   0.42187415  0.95062122  0.38097287
   0.34047062  0.60391201  0.02782883
   0.92434681  0.68523651  0.03696881
   0.34363348  0.06399961  0.02783421
   0.88838126  0.05560908  0.02665597
   0.61133653  0.41484756  0.38712685
   0.68170721  0.21958552  0.33678756
   0.87187607  0.60123253  0.33796840
   0.25281016  0.22867019  0.33948337
   0.45416139  0.85556405  0.40266689
Direct configuration=    23
   0.22067121  0.89240241  0.08901558
   0.68079009  0.16783395  0.21796039
   0.94927612  0.02809995  0.15233499
   0.39572072  0.32052796  0.28252002
   0.44927612  0.52809995  0.15233499
   0.89877892  0.31717050  0.28463516
   0.44927612  0.02809995  0.15233499
   0.90806166  0.81510298  0.28518829
   0.90282244  0.55132680  0.10484543
   0.35674989  0.83274013  0.23369226
   0.99851913  0.50705808  0.20335734
   0.39439636  0.76834665  0.34216463
   0.53851998  0.23347802  0.07318573
   0.77192154  0.64509651  0.31718029
   0.87926422  0.06310591  0.05527763
   0.34219053  0.33068155  0.18309174
   0.58246139  0.21150732  0.12452493
   0.04880861  0.49552757  0.25691980
   0.53822480  0.42962164  0.36450732
   0.09516526  0.72856013  0.12156099
   0.56819951  0.45840339  0.25064352
   0.73312285  0.14702563  0.31213415
   0.85888103  0.57329750  0.05350623
   0.31447024  0.84563454  0.18070477
   0.56207820  0.72169891  0.12275353
   0.01107506 -0.00262253  0.25394711
   0.80731695  0.32521933  0.18398736
   0.25380234  0.62712746  0.31001410
   0.34617716  0.60305419  0.05647018
   0.24927326  0.12829937  0.31909182
   0.80097324  0.87856568  0.18458810
   0.34617716  0.05624469  0.05647018
   0.54727561  0.01607873  0.25320739
   0.09516526  0.18175063  0.12156099
   0.42221706  0.95022225  0.38091722
   0.34047062  0.60391201  0.02782883
   0.92434681  0.68523651  0.03696881
   0.34363348  0.06399961  0.02783421
   0.88838126  0.05560908  0.02665597
   0.61126678  0.41549364  0.38707358
   0.68155220  0.21901997  0.33679021
   0.87188133  0.60201577  0.33799166
   0.25329659  0.22831690  0.33947584
   0.45393682  0.85505176  0.40261950
Direct configuration=    24
   0.22067121  0.89240241  0.08901558
   0.68093821  0.16762958  0.21793505
   0.94927612  0.02809995  0.15233499
   0.39580333  0.32037520  0.28247204
   0.44927612  0.52809995  0.15233499
   0.89872670  0.31716967  0.28466016
   0.44927612  0.02809995  0.15233499
   0.90815050  0.81507669  0.28518584
   0.90282244  0.55132680  0.10484543
   0.35644434  0.83258101  0.23368717
   0.99867282  0.50696563  0.20333323
   0.39445334  0.76812596  0.34210133
   0.53851998  0.23347802  0.07318573
   0.77189092  0.64492994  0.31719887
   0.87926422  0.06310591  0.05527763
   0.34240015  0.33061239  0.18308481
   0.58246139  0.21150732  0.12452493
   0.04802752  0.49607668  0.25689817
   0.53810956  0.42943070  0.36449212
   0.09516526  0.72856013  0.12156099
   0.56788473  0.45804981  0.25066145
   0.73363524  0.14650476  0.31212370
   0.85888103  0.57329750  0.05350623
   0.31468477  0.84550349  0.18070411
   0.56207820  0.72169891  0.12275353
   0.01098024 -0.00235821  0.25393169
   0.80747939  0.32503074  0.18400610
   0.25390652  0.62714834  0.30995267
   0.34617716  0.60305419  0.05647018
   0.24938309  0.12858475  0.31907657
   0.80108458  0.87855747  0.18456959
   0.34617716  0.05624469  0.05647018
   0.54695971  0.01613890  0.25312907
   0.09516526  0.18175063  0.12156099
   0.42251864  0.94994627  0.38091674
   0.34047062  0.60391201  0.02782883
   0.92434681  0.68523651  0.03696881
   0.34363348  0.06399961  0.02783421
   0.88838126  0.05560908  0.02665597
   0.61126986  0.41591736  0.38703755
   0.68152422  0.21859822  0.33680946
   0.87172386  0.60264327  0.33798354
   0.25361374  0.22807968  0.33945186
   0.45372745  0.85476039  0.40256853
Direct configuration=    25
   0.22067121  0.89240241  0.08901558
   0.68107151  0.16744567  0.21791226
   0.94927612  0.02809995  0.15233499
   0.39587766  0.32023774  0.28242887
   0.44927612  0.52809995  0.15233499
   0.89867971  0.31716892  0.28468265
   0.44927612  0.02809995  0.15233499
   0.90823043  0.81505303  0.28518364
   0.90282244  0.55132680  0.10484543
   0.35616939  0.83243783  0.23368258
   0.99881112  0.50688243  0.20331154
   0.39450461  0.76792738  0.34204438
   0.53851998  0.23347802  0.07318573
   0.77186337  0.64478006  0.31721558
   0.87926422  0.06310591  0.05527763
   0.34258878  0.33055016  0.18307857
   0.58246139  0.21150732  0.12452493
   0.04732465  0.49657080  0.25687871
   0.53800586  0.42925889  0.36447844
   0.09516526  0.72856013  0.12156099
   0.56760148  0.45773165  0.25067758
   0.73409631  0.14603606  0.31211429
   0.85888103  0.57329750  0.05350623
   0.31487782  0.84538556  0.18070352
   0.56207820  0.72169891  0.12275353
   0.01089492 -0.00212037  0.25391782
   0.80762556  0.32486105  0.18402297
   0.25400028  0.62716713  0.30989739
   0.34617716  0.60305419  0.05647018
   0.24948193  0.12884154  0.31906285
   0.80118477  0.87855008  0.18455294
   0.34617716  0.05624469  0.05647018
   0.54667544  0.01619304  0.25305860
   0.09516526  0.18175063  0.12156099
   0.42279002  0.94969793  0.38091632
   0.34047062  0.60391201  0.02782883
   0.92434681  0.68523651  0.03696881
   0.34363348  0.06399961  0.02783421
   0.88838126  0.05560908  0.02665597
   0.61127264  0.41629864  0.38700513
   0.68149904  0.21821872  0.33682678
   0.87158216  0.60320792  0.33797623
   0.25389913  0.22786623  0.33943028
   0.45353906  0.85449821  0.40252266
Direct configuration=    26
   0.22067121  0.89240241  0.08901558
   0.68108338  0.16725611  0.21791053
   0.94927612  0.02809995  0.15233499
   0.39600091  0.32005402  0.28238101
   0.44927612  0.52809995  0.15233499
   0.89851331  0.31726546  0.28470855
   0.44927612  0.02809995  0.15233499
   0.90817104  0.81512662  0.28518243
   0.90282244  0.55132680  0.10484543
   0.35596553  0.83219791  0.23367686
   0.99893180  0.50681727  0.20329307
   0.39462652  0.76769185  0.34198716
   0.53851998  0.23347802  0.07318573
   0.77179364  0.64470255  0.31721578
   0.87926422  0.06310591  0.05527763
   0.34273754  0.33052138  0.18307680
   0.58246139  0.21150732  0.12452493
   0.04680435  0.49694624  0.25686217
   0.53782580  0.42915987  0.36446354
   0.09516526  0.72856013  0.12156099
   0.56727490  0.45745128  0.25070794
   0.73446989  0.14560843  0.31211269
   0.85888103  0.57329750  0.05350623
   0.31496896  0.84534756  0.18069914
   0.56207820  0.72169891  0.12275353
   0.01077271 -0.00194206  0.25390681
   0.80774296  0.32477019  0.18402648
   0.25401557  0.62729860  0.30985177
   0.34617716  0.60305419  0.05647018
   0.24970241  0.12886010  0.31900813
   0.80128142  0.87850162  0.18452938
   0.34617716  0.05624469  0.05647018
   0.54650141  0.01624571  0.25300386
   0.09516526  0.18175063  0.12156099
   0.42300587  0.94956036  0.38087614
   0.34047062  0.60391201  0.02782883
   0.92434681  0.68523651  0.03696881
   0.34363348  0.06399961  0.02783421
   0.88838126  0.05560908  0.02665597
   0.61130850  0.41661802  0.38697346
   0.68157476  0.21780851  0.33682970
   0.87149112  0.60369633  0.33798573
   0.25415171  0.22787271  0.33943921
   0.45338996  0.85411875  0.40251222
Direct configuration=    27
   0.22067121  0.89240241  0.08901558
   0.68109842  0.16701606  0.21790835
   0.94927612  0.02809995  0.15233499
   0.39615700  0.31982136  0.28232041
   0.44927612  0.52809995  0.15233499
   0.89830260  0.31738771  0.28474134
   0.44927612  0.02809995  0.15233499
   0.90809582  0.81521982  0.28518089
   0.90282244  0.55132680  0.10484543
   0.35570738  0.83189408  0.23366961
   0.99908464  0.50673476  0.20326968
   0.39478091  0.76739358  0.34191470
   0.53851998  0.23347802  0.07318573
   0.77170533  0.64460439  0.31721602
   0.87926422  0.06310591  0.05527763
   0.34292594  0.33048492  0.18307455
   0.58246139  0.21150732  0.12452493
   0.04614544  0.49742170  0.25684122
   0.53759776  0.42903447  0.36444468
   0.09516526  0.72856013  0.12156099
   0.56686133  0.45709623  0.25074637
   0.73494298  0.14506687  0.31211067
   0.85888103  0.57329750  0.05350623
   0.31508437  0.84529943  0.18069359
   0.56207820  0.72169891  0.12275353
   0.01061794 -0.00171627  0.25389286
   0.80789162  0.32465513  0.18403094
   0.25403493  0.62746510  0.30979400
   0.34617716  0.60305419  0.05647018
   0.24998163  0.12888359  0.31893883
   0.80140383  0.87844025  0.18449954
   0.34617716  0.05624469  0.05647018
   0.54628102  0.01631242  0.25293452
   0.09516526  0.18175063  0.12156099
   0.42327923  0.94938614  0.38082526
   0.34047062  0.60391201  0.02782883
   0.92434681  0.68523651  0.03696881
   0.34363348  0.06399961  0.02783421
   0.88838126  0.05560908  0.02665597
   0.61135392  0.41702248  0.38693336
   0.68167066  0.21728902  0.33683340
   0.87137582  0.60431485  0.33799776
   0.25447156  0.22788093  0.33945051
   0.45320115  0.85363822  0.40249899
Direct configuration=    28
   0.22067121  0.89240241  0.08901558
   0.68102765  0.16683122  0.21791640
   0.94927612  0.02809995  0.15233499
   0.39615938  0.31968099  0.28228727
   0.44927612  0.52809995  0.15233499
   0.89809099  0.31755426  0.28476143
   0.44927612  0.02809995  0.15233499
   0.90793054  0.81528891  0.28517455
   0.90282244  0.55132680  0.10484543
   0.35558773  0.83156218  0.23366547
   0.99917579  0.50668880  0.20325479
   0.39496933  0.76722735  0.34186936
   0.53851998  0.23347802  0.07318573
   0.77165831  0.64458491  0.31721009
   0.87926422  0.06310591  0.05527763
   0.34301900  0.33049077  0.18307937
   0.58246139  0.21150732  0.12452493
   0.04574595  0.49764706  0.25682945
   0.53736984  0.42898808  0.36443704
   0.09516526  0.72856013  0.12156099
   0.56647478  0.45691915  0.25078621
   0.73521584  0.14475786  0.31213729
   0.85888103  0.57329750  0.05350623
   0.31505710  0.84534379  0.18068868
   0.56207820  0.72169891  0.12275353
   0.01042179 -0.00150492  0.25388622
   0.80794537  0.32465101  0.18402654
   0.25401213  0.62760542  0.30974846
   0.34617716  0.60305419  0.05647018
   0.25038455  0.12899016  0.31889957
   0.80149313  0.87832250  0.18447224
   0.34617716  0.05624469  0.05647018
   0.54620909  0.01623599  0.25289264
   0.09516526  0.18175063  0.12156099
   0.42355813  0.94897869  0.38080293
   0.34047062  0.60391201  0.02782883
   0.92434681  0.68523651  0.03696881
   0.34363348  0.06399961  0.02783421
   0.88838126  0.05560908  0.02665597
   0.61139065  0.41728622  0.38688638
   0.68188010  0.21680770  0.33681272
   0.87126757  0.60475886  0.33801377
   0.25470171  0.22778923  0.33942414
   0.45297204  0.85343900  0.40245377
Direct configuration=    29
   0.22067121  0.89240241  0.08901558
   0.68087301  0.16642730  0.21793399
   0.94927612  0.02809995  0.15233499
   0.39616459  0.31937424  0.28221485
   0.44927612  0.52809995  0.15233499
   0.89762855  0.31791821  0.28480534
   0.44927612  0.02809995  0.15233499
   0.90756935  0.81543987  0.28516068
   0.90282244  0.55132680  0.10484543
   0.35532627  0.83083688  0.23365642
   0.99937499  0.50658836  0.20322225
   0.39538108  0.76686411  0.34177030
   0.53851998  0.23347802  0.07318573
   0.77155556  0.64454233  0.31719714
   0.87926422  0.06310591  0.05527763
   0.34322236  0.33050355  0.18308990
   0.58246139  0.21150732  0.12452493
   0.04487295  0.49813954  0.25680373
   0.53687178  0.42888668  0.36442035
   0.09516526  0.72856013  0.12156099
   0.56563007  0.45653219  0.25087328
   0.73581212  0.14408259  0.31219547
   0.85888103  0.57329750  0.05350623
   0.31499750  0.84544074  0.18067797
   0.56207820  0.72169891  0.12275353
   0.00999314 -0.00104307  0.25387171
   0.80806282  0.32464199  0.18401694
   0.25396230  0.62791204  0.30964894
   0.34617716  0.60305419  0.05647018
   0.25126506  0.12922305  0.31881375
   0.80168828  0.87806519  0.18441259
   0.34617716  0.05624469  0.05647018
   0.54605189  0.01606896  0.25280112
   0.09516526  0.18175063  0.12156099
   0.42416759  0.94808829  0.38075413
   0.34047062  0.60391201  0.02782883
   0.92434681  0.68523651  0.03696881
   0.34363348  0.06399961  0.02783421
   0.88838126  0.05560908  0.02665597
   0.61147094  0.41786256  0.38678370
   0.68233780  0.21575586  0.33676752
   0.87103100  0.60572913  0.33804876
   0.25520466  0.22758885  0.33936652
   0.45247138  0.85300365  0.40235493
Direct configuration=    30
   0.22067121  0.89240241  0.08901558
   0.68083670  0.16629672  0.21792986
   0.94927612  0.02809995  0.15233499
   0.39602234  0.31932279  0.28220717
   0.44927612  0.52809995  0.15233499
   0.89748271  0.31803040  0.28481371
   0.44927612  0.02809995  0.15233499
   0.90743986  0.81546312  0.28514651
   0.90282244  0.55132680  0.10484543
   0.35523141  0.83056490  0.23365492
   0.99942851  0.50655014  0.20321210
   0.39555636  0.76675266  0.34174078
   0.53851998  0.23347802  0.07318573
   0.77160513  0.64455610  0.31721584
   0.87926422  0.06310591  0.05527763
   0.34327945  0.33051494  0.18309751
   0.58246139  0.21150732  0.12452493
   0.04456170  0.49830815  0.25679102
   0.53659031  0.42891260  0.36440402
   0.09516526  0.72856013  0.12156099
   0.56530270  0.45642475  0.25090761
   0.73605846  0.14379847  0.31220826
   0.85888103  0.57329750  0.05350623
   0.31492418  0.84550340  0.18067607
   0.56207820  0.72169891  0.12275353
   0.00979090 -0.00087520  0.25386659
   0.80803804  0.32465856  0.18401834
   0.25394321  0.62799804  0.30960726
   0.34617716  0.60305419  0.05647018
   0.25169342  0.12929063  0.31876886
   0.80173588  0.87795816  0.18439323
   0.34617716  0.05624469  0.05647018
   0.54601732  0.01587177  0.25277347
   0.09516526  0.18175063  0.12156099
   0.42440428  0.94775099  0.38070664
   0.34047062  0.60391201  0.02782883
   0.92434681  0.68523651  0.03696881
   0.34363348  0.06399961  0.02783421
   0.88838126  0.05560908  0.02665597
   0.61154007  0.41806429  0.38674771
   0.68253138  0.21534920  0.33676282
   0.87083470  0.60613226  0.33804657
   0.25541008  0.22753706  0.33934070
   0.45227135  0.85276785  0.40233190
Direct configuration=    31
   0.22067121  0.89240241  0.08901558
   0.68074741  0.16597560  0.21791972
   0.94927612  0.02809995  0.15233499
   0.39567254  0.31919626  0.28218830
   0.44927612  0.52809995  0.15233499
   0.89712406  0.31830627  0.28483431
   0.44927612  0.02809995  0.15233499
   0.90712145  0.81552029  0.28511165
   0.90282244  0.55132680  0.10484543
   0.35499812  0.82989608  0.23365121
   0.99956010  0.50645616  0.20318714
   0.39598738  0.76647859  0.34166821
   0.53851998  0.23347802  0.07318573
   0.77172702  0.64458999  0.31726182
   0.87926422  0.06310591  0.05527763
   0.34341982  0.33054295  0.18311623
   0.58246139  0.21150732  0.12452493
   0.04379631  0.49872277  0.25675974
   0.53589815  0.42897632  0.36436388
   0.09516526  0.72856013  0.12156099
   0.56449766  0.45616053  0.25099205
   0.73666426  0.14309977  0.31223974
   0.85888103  0.57329750  0.05350623
   0.31474389  0.84565748  0.18067140
   0.56207820  0.72169891  0.12275353
   0.00929357 -0.00046238  0.25385400
   0.80797711  0.32469929  0.18402179
   0.25389628  0.62820952  0.30950478
   0.34617716  0.60305419  0.05647018
   0.25274682  0.12945682  0.31865846
   0.80185294  0.87769495  0.18434563
   0.34617716  0.05624469  0.05647018
   0.54593232  0.01538688  0.25270547
   0.09516526  0.18175063  0.12156099
   0.42498630  0.94692156  0.38058984
   0.34047062  0.60391201  0.02782883
   0.92434681  0.68523651  0.03696881
   0.34363348  0.06399961  0.02783421
   0.88838126  0.05560908  0.02665597
   0.61171008  0.41856035  0.38665920
   0.68300742  0.21434920  0.33675126
   0.87035196  0.60712360  0.33804117
   0.25591524  0.22740972  0.33927722
   0.45177947  0.85218799  0.40227528
Direct configuration=    32
   0.22067121  0.89240241  0.08901558
   0.68072978  0.16586851  0.21790133
   0.94927612  0.02809995  0.15233499
   0.39533741  0.31913293  0.28220573
   0.44927612  0.52809995  0.15233499
   0.89699590  0.31835938  0.28483054
   0.44927612  0.02809995  0.15233499
   0.90698125  0.81549981  0.28508296
   0.90282244  0.55132680  0.10484543
   0.35485027  0.82963487  0.23365498
   0.99957788  0.50639651  0.20317867
   0.39615681  0.76632278  0.34161869
   0.53851998  0.23347802  0.07318573
   0.77163575  0.64470544  0.31725625
   0.87926422  0.06310591  0.05527763
   0.34346713  0.33054986  0.18312789
   0.58246139  0.21150732  0.12452493
   0.04338436  0.49886943  0.25673802
   0.53549168  0.42907472  0.36435503
   0.09516526  0.72856013  0.12156099
   0.56412853  0.45603381  0.25102921
   0.73707561  0.14272814  0.31222515
   0.85888103  0.57329750  0.05350623
   0.31459544  0.84574836  0.18067128
   0.56207820  0.72169891  0.12275353
   0.00900243 -0.00021619  0.25384561
   0.80782628  0.32473062  0.18403408
   0.25389367  0.62830341  0.30945787
   0.34617716  0.60305419  0.05647018
   0.25338983  0.12947039  0.31857710
   0.80185539  0.87758294  0.18432843
   0.34617716  0.05624469  0.05647018
   0.54589417  0.01496161  0.25268522
   0.09516526  0.18175063  0.12156099
   0.42535951  0.94641209  0.38054080
   0.34047062  0.60391201  0.02782883
   0.92434681  0.68523651  0.03696881
   0.34363348  0.06399961  0.02783421
   0.88838126  0.05560908  0.02665597
   0.61177607  0.41879865  0.38659688
   0.68323871  0.21387247  0.33677581
   0.87024901  0.60755928  0.33807562
   0.25620470  0.22743017  0.33924633
   0.45145711  0.85195434  0.40223001
Direct configuration=    33
   0.22067121  0.89240241  0.08901558
   0.68070263  0.16570356  0.21787301
   0.94927612  0.02809995  0.15233499
   0.39482125  0.31903539  0.28223258
   0.44927612  0.52809995  0.15233499
   0.89679851  0.31844116  0.28482473
   0.44927612  0.02809995  0.15233499
   0.90676531  0.81546825  0.28503877
   0.90282244  0.55132680  0.10484543
   0.35462254  0.82923256  0.23366079
   0.99960525  0.50630464  0.20316563
   0.39641775  0.76608279  0.34154244
   0.53851998  0.23347802  0.07318573
   0.77149517  0.64488325  0.31724766
   0.87926422  0.06310591  0.05527763
   0.34354000  0.33056050  0.18314584
   0.58246139  0.21150732  0.12452493
   0.04274987  0.49909532  0.25670456
   0.53486565  0.42922627  0.36434140
   0.09516526  0.72856013  0.12156099
   0.56356000  0.45583863  0.25108646
   0.73770917  0.14215575  0.31220267
   0.85888103  0.57329750  0.05350623
   0.31436680  0.84588834  0.18067111
   0.56207820  0.72169891  0.12275353
   0.00855401  0.00016301  0.25383268
   0.80759397  0.32477886  0.18405301
   0.25388966  0.62844803  0.30938562
   0.34617716  0.60305419  0.05647018
   0.25438021  0.12949130  0.31845178
   0.80185918  0.87741042  0.18430195
   0.34617716  0.05624469  0.05647018
   0.54583542  0.01430660  0.25265403
   0.09516526  0.18175063  0.12156099
   0.42593432  0.94562740  0.38046526
   0.34047062  0.60391201  0.02782883
   0.92434681  0.68523651  0.03696881
   0.34363348  0.06399961  0.02783421
   0.88838126  0.05560908  0.02665597
   0.61187771  0.41916568  0.38650088
   0.68359494  0.21313820  0.33681362
   0.87009045  0.60823033  0.33812868
   0.25665053  0.22746167  0.33919876
   0.45096062  0.85159447  0.40216029
Direct configuration=    34
   0.22067121  0.89240241  0.08901558
   0.68061671  0.16565809  0.21786864
   0.94927612  0.02809995  0.15233499
   0.39461281  0.31874083  0.28224471
   0.44927612  0.52809995  0.15233499
   0.89672170  0.31838204  0.28479925
   0.44927612  0.02809995  0.15233499
   0.90663525  0.81543168  0.28499588
   0.90282244  0.55132680  0.10484543
   0.35443183  0.82916818  0.23367161
   0.99954090  0.50623248  0.20316225
   0.39645660  0.76592575  0.34146848
   0.53851998  0.23347802  0.07318573
   0.77150964  0.64492226  0.31726960
   0.87926422  0.06310591  0.05527763
   0.34354244  0.33054300  0.18315272
   0.58246139  0.21150732  0.12452493
   0.04238005  0.49913156  0.25667699
   0.53444916  0.42929174  0.36432703
   0.09516526  0.72856013  0.12156099
   0.56331192  0.45564769  0.25110689
   0.73805998  0.14204531  0.31222054
   0.85888103  0.57329750  0.05350623
   0.31419823  0.84595062  0.18067081
   0.56207820  0.72169891  0.12275353
   0.00833137  0.00036233  0.25381322
   0.80735103  0.32482533  0.18407024
   0.25388421  0.62856555  0.30936774
   0.34617716  0.60305419  0.05647018
   0.25499420  0.12960955  0.31840179
   0.80179278  0.87736899  0.18429415
   0.34617716  0.05624469  0.05647018
   0.54577593  0.01390441  0.25266171
   0.09516526  0.18175063  0.12156099
   0.42634142  0.94520867  0.38043470
   0.34047062  0.60391201  0.02782883
   0.92434681  0.68523651  0.03696881
   0.34363348  0.06399961  0.02783421
   0.88838126  0.05560908  0.02665597
   0.61196141  0.41934392  0.38644490
   0.68383981  0.21269122  0.33682038
   0.86991633  0.60861344  0.33814482
   0.25694663  0.22739803  0.33913589
   0.45059762  0.85143495  0.40211115
Direct configuration=    35
   0.22067121  0.89240241  0.08901558
   0.68049947  0.16559604  0.21786267
   0.94927612  0.02809995  0.15233499
   0.39432842  0.31833891  0.28226126
   0.44927612  0.52809995  0.15233499
   0.89661690  0.31830136  0.28476449
   0.44927612  0.02809995  0.15233499
   0.90645779  0.81538178  0.28493736
   0.90282244  0.55132680  0.10484543
   0.35417162  0.82908035  0.23368637
   0.99945311  0.50613402  0.20315763
   0.39650959  0.76571147  0.34136758
   0.53851998  0.23347802  0.07318573
   0.77152938  0.64497548  0.31729954
   0.87926422  0.06310591  0.05527763
   0.34354576  0.33051914  0.18316211
   0.58246139  0.21150732  0.12452493
   0.04187546  0.49918102  0.25663938
   0.53388088  0.42938106  0.36430741
   0.09516526  0.72856013  0.12156099
   0.56297344  0.45538717  0.25113477
   0.73853865  0.14189463  0.31224492
   0.85888103  0.57329750  0.05350623
   0.31396821  0.84603559  0.18067042
   0.56207820  0.72169891  0.12275353
   0.00802761  0.00063430  0.25378666
   0.80701956  0.32488873  0.18409374
   0.25387677  0.62872591  0.30934334
   0.34617716  0.60305419  0.05647018
   0.25583196  0.12977089  0.31833357
   0.80170219  0.87731247  0.18428350
   0.34617716  0.05624469  0.05647018
   0.54569476  0.01335564  0.25267220
   0.09516526  0.18175063  0.12156099
   0.42689689  0.94463733  0.38039300
   0.34047062  0.60391201  0.02782883
   0.92434681  0.68523651  0.03696881
   0.34363348  0.06399961  0.02783421
   0.88838126  0.05560908  0.02665597
   0.61207562  0.41958711  0.38636852
   0.68417393  0.21208134  0.33682961
   0.86967875  0.60913618  0.33816684
   0.25735064  0.22731120  0.33905010
   0.45010232  0.85121731  0.40204411
Direct configuration=    36
   0.22067121  0.89240241  0.08901558
   0.68028648  0.16552202  0.21787689
   0.94927612  0.02809995  0.15233499
   0.39430796  0.31788072  0.28226567
   0.44927612  0.52809995  0.15233499
   0.89649615  0.31825273  0.28473573
   0.44927612  0.02809995  0.15233499
   0.90627384  0.81536519  0.28489807
   0.90282244  0.55132680  0.10484543
   0.35393637  0.82911576  0.23369985
   0.99930805  0.50604897  0.20315039
   0.39655848  0.76561851  0.34130650
   0.53851998  0.23347802  0.07318573
   0.77156260  0.64495533  0.31730926
   0.87926422  0.06310591  0.05527763
   0.34349167  0.33048511  0.18316432
   0.58246139  0.21150732  0.12452493
   0.04151345  0.49916403  0.25660294
   0.53341570  0.42940488  0.36428793
   0.09516526  0.72856013  0.12156099
   0.56272988  0.45510013  0.25114839
   0.73897419  0.14183938  0.31227171
   0.85888103  0.57329750  0.05350623
   0.31378821  0.84607511  0.18066908
   0.56207820  0.72169891  0.12275353
   0.00786217  0.00072977  0.25374904
   0.80670493  0.32496118  0.18411020
   0.25378424  0.62877362  0.30932026
   0.34617716  0.60305419  0.05647018
   0.25644607  0.12974734  0.31824262
   0.80158163  0.87733253  0.18428213
   0.34617716  0.05624469  0.05647018
   0.54563318  0.01300754  0.25270270
   0.09516526  0.18175063  0.12156099
   0.42733616  0.94435277  0.38031945
   0.34047062  0.60391201  0.02782883
   0.92434681  0.68523651  0.03696881
   0.34363348  0.06399961  0.02783421
   0.88838126  0.05560908  0.02665597
   0.61215086  0.41977242  0.38630456
   0.68441871  0.21165852  0.33683219
   0.86953604  0.60949569  0.33819394
   0.25771407  0.22741819  0.33901033
   0.44968091  0.85093397  0.40201979
Direct configuration=    37
   0.22067121  0.89240241  0.08901558
   0.68018227  0.16548580  0.21788385
   0.94927612  0.02809995  0.15233499
   0.39429795  0.31765654  0.28226783
   0.44927612  0.52809995  0.15233499
   0.89643707  0.31822894  0.28472166
   0.44927612  0.02809995  0.15233499
   0.90618384  0.81535707  0.28487885
   0.90282244  0.55132680  0.10484543
   0.35382127  0.82913309  0.23370645
   0.99923707  0.50600735  0.20314685
   0.39658241  0.76557303  0.34127661
   0.53851998  0.23347802  0.07318573
   0.77157886  0.64494548  0.31731402
   0.87926422  0.06310591  0.05527763
   0.34346520  0.33046846  0.18316541
   0.58246139  0.21150732  0.12452493
   0.04133633  0.49915571  0.25658511
   0.53318809  0.42941653  0.36427841
   0.09516526  0.72856013  0.12156099
   0.56261071  0.45495969  0.25115505
   0.73918729  0.14181235  0.31228482
   0.85888103  0.57329750  0.05350623
   0.31370015  0.84609445  0.18066842
   0.56207820  0.72169891  0.12275353
   0.00778123  0.00077649  0.25373064
   0.80655099  0.32499663  0.18411825
   0.25373897  0.62879696  0.30930896
   0.34617716  0.60305419  0.05647018
   0.25674654  0.12973581  0.31819813
   0.80152265  0.87734234  0.18428146
   0.34617716  0.05624469  0.05647018
   0.54560304  0.01283722  0.25271763
   0.09516526  0.18175063  0.12156099
   0.42755108  0.94421354  0.38028347
   0.34047062  0.60391201  0.02782883
   0.92434681  0.68523651  0.03696881
   0.34363348  0.06399961  0.02783421
   0.88838126  0.05560908  0.02665597
   0.61218767  0.41986309  0.38627326
   0.68453847  0.21145165  0.33683346
   0.86946622  0.60967159  0.33820720
   0.25789189  0.22747053  0.33899087
   0.44947472  0.85079534  0.40200789
Direct configuration=    38
   0.22067121  0.89240241  0.08901558
   0.67997384  0.16541337  0.21789777
   0.94927612  0.02809995  0.15233499
   0.39427793  0.31720819  0.28227214
   0.44927612  0.52809995  0.15233499
   0.89631891  0.31818136  0.28469352
   0.44927612  0.02809995  0.15233499
   0.90600384  0.81534083  0.28484040
   0.90282244  0.55132680  0.10484543
   0.35359107  0.82916774  0.23371964
   0.99909512  0.50592412  0.20313977
   0.39663025  0.76548207  0.34121684
   0.53851998  0.23347802  0.07318573
   0.77161136  0.64492576  0.31732353
   0.87926422  0.06310591  0.05527763
   0.34341227  0.33043515  0.18316758
   0.58246139  0.21150732  0.12452493
   0.04098208  0.49913909  0.25654944
   0.53273289  0.42943984  0.36425935
   0.09516526  0.72856013  0.12156099
   0.56237237  0.45467881  0.25116837
   0.73961348  0.14175829  0.31231103
   0.85888103  0.57329750  0.05350623
   0.31352401  0.84613312  0.18066712
   0.56207820  0.72169891  0.12275353
   0.00761934  0.00086992  0.25369382
   0.80624312  0.32506753  0.18413436
   0.25364844  0.62884364  0.30928638
   0.34617716  0.60305419  0.05647018
   0.25734747  0.12971276  0.31810913
   0.80140468  0.87736197  0.18428013
   0.34617716  0.05624469  0.05647018
   0.54554278  0.01249659  0.25274748
   0.09516526  0.18175063  0.12156099
   0.42798092  0.94393508  0.38021150
   0.34047062  0.60391201  0.02782883
   0.92434681  0.68523651  0.03696881
   0.34363348  0.06399961  0.02783421
   0.88838126  0.05560908  0.02665597
   0.61226129  0.42004443  0.38621067
   0.68477800  0.21103791  0.33683598
   0.86932657  0.61002339  0.33823372
   0.25824752  0.22757522  0.33895196
   0.44906234  0.85051808  0.40198410
Direct configuration=    39
   0.22067121  0.89240241  0.08901558
   0.68011374  0.16546199  0.21788843
   0.94927612  0.02809995  0.15233499
   0.39429137  0.31750913  0.28226924
   0.44927612  0.52809995  0.15233499
   0.89639822  0.31821330  0.28471241
   0.44927612  0.02809995  0.15233499
   0.90612466  0.81535173  0.28486621
   0.90282244  0.55132680  0.10484543
   0.35374559  0.82914448  0.23371079
   0.99919040  0.50597998  0.20314452
   0.39659814  0.76554312  0.34125696
   0.53851998  0.23347802  0.07318573
   0.77158954  0.64493899  0.31731714
   0.87926422  0.06310591  0.05527763
   0.34344780  0.33045751  0.18316612
   0.58246139  0.21150732  0.12452493
   0.04121986  0.49915025  0.25657338
   0.53303843  0.42942420  0.36427214
   0.09516526  0.72856013  0.12156099
   0.56253235  0.45486734  0.25115943
   0.73932741  0.14179458  0.31229344
   0.85888103  0.57329750  0.05350623
   0.31364224  0.84610717  0.18066799
   0.56207820  0.72169891  0.12275353
   0.00772800  0.00080721  0.25371853
   0.80644977  0.32501994  0.18412355
   0.25370921  0.62881231  0.30930154
   0.34617716  0.60305419  0.05647018
   0.25694412  0.12972824  0.31816887
   0.80148386  0.87734880  0.18428103
   0.34617716  0.05624469  0.05647018
   0.54558323  0.01272523  0.25272745
   0.09516526  0.18175063  0.12156099
   0.42769240  0.94412199  0.38025981
   0.34047062  0.60391201  0.02782883
   0.92434681  0.68523651  0.03696881
   0.34363348  0.06399961  0.02783421
   0.88838126  0.05560908  0.02665597
   0.61221187  0.41992271  0.38625268
   0.68461722  0.21131562  0.33683429
   0.86942030  0.60978726  0.33821592
   0.25800882  0.22750495  0.33897808
   0.44933913  0.85070418  0.40200007
Direct configuration=    40
   0.22067121  0.89240241  0.08901558
   0.67977370  0.16530457  0.21791256
   0.94927612  0.02809995  0.15233499
   0.39445531  0.31707717  0.28227318
   0.44927612  0.52809995  0.15233499
   0.89620918  0.31825215  0.28469004
   0.44927612  0.02809995  0.15233499
   0.90591991  0.81534263  0.28484576
   0.90282244  0.55132680  0.10484543
   0.35351381  0.82920251  0.23372196
   0.99895216  0.50589592  0.20312522
   0.39668660  0.76548144  0.34121664
   0.53851998  0.23347802  0.07318573
   0.77168028  0.64480191  0.31730504
   0.87926422  0.06310591  0.05527763
   0.34331017  0.33041843  0.18316243
   0.58246139  0.21150732  0.12452493
   0.04085125  0.49909015  0.25653158
   0.53254792  0.42942088  0.36425797
   0.09516526  0.72856013  0.12156099
   0.56222464  0.45452405  0.25116878
   0.73996922  0.14162657  0.31229679
   0.85888103  0.57329750  0.05350623
   0.31348077  0.84611950  0.18066608
   0.56207820  0.72169891  0.12275353
   0.00759097  0.00077244  0.25366646
   0.80608684  0.32509811  0.18413371
   0.25350396  0.62870296  0.30925879
   0.34617716  0.60305419  0.05647018
   0.25750398  0.12978848  0.31808681
   0.80131322  0.87742990  0.18428685
   0.34617716  0.05624469  0.05647018
   0.54557254  0.01240982  0.25277578
   0.09516526  0.18175063  0.12156099
   0.42825219  0.94366586  0.38022181
   0.34047062  0.60391201  0.02782883
   0.92434681  0.68523651  0.03696881
   0.34363348  0.06399961  0.02783421
   0.88838126  0.05560908  0.02665597
   0.61223645  0.42012491  0.38617339
   0.68479763  0.21102458  0.33685115
   0.86931195  0.61011404  0.33824944
   0.25845200  0.22756682  0.33891662
   0.44875930  0.85064144  0.40192243
Direct configuration=    41
   0.22067121  0.89240241  0.08901558
   0.67949446  0.16517531  0.21793237
   0.94927612  0.02809995  0.15233499
   0.39458993  0.31672244  0.28227641
   0.44927612  0.52809995  0.15233499
   0.89605394  0.31828406  0.28467167
   0.44927612  0.02809995  0.15233499
   0.90575177  0.81533515  0.28482898
   0.90282244  0.55132680  0.10484543
   0.35332348  0.82925016  0.23373113
   0.99875651  0.50582689  0.20310936
   0.39675924  0.76543079  0.34118353
   0.53851998  0.23347802  0.07318573
   0.77175479  0.64468935  0.31729511
   0.87926422  0.06310591  0.05527763
   0.34319715  0.33038634  0.18315940
   0.58246139  0.21150732  0.12452493
   0.04054856  0.49904079  0.25649726
   0.53214512  0.42941815  0.36424633
   0.09516526  0.72856013  0.12156099
   0.56197196  0.45424216  0.25117646
   0.74049626  0.14148860  0.31229953
   0.85888103  0.57329750  0.05350623
   0.31334818  0.84612964  0.18066452
   0.56207820  0.72169891  0.12275353
   0.00747844  0.00074388  0.25362370
   0.80578881  0.32516229  0.18414204
   0.25333542  0.62861315  0.30922369
   0.34617716  0.60305419  0.05647018
   0.25796373  0.12983795  0.31801943
   0.80117309  0.87749650  0.18429164
   0.34617716  0.05624469  0.05647018
   0.54556376  0.01215082  0.25281547
   0.09516526  0.18175063  0.12156099
   0.42871188  0.94329129  0.38019062
   0.34047062  0.60391201  0.02782883
   0.92434681  0.68523651  0.03696881
   0.34363348  0.06399961  0.02783421
   0.88838126  0.05560908  0.02665597
   0.61225664  0.42029096  0.38610827
   0.68494577  0.21078558  0.33686500
   0.86922298  0.61038240  0.33827697
   0.25881594  0.22761763  0.33886614
   0.44828316  0.85058991  0.40185867
Direct configuration=    42
   0.22067121  0.89240241  0.08901558
   0.67921338  0.16496573  0.21793339
   0.94927612  0.02809995  0.15233499
   0.39475782  0.31666549  0.28228204
   0.44927612  0.52809995  0.15233499
   0.89594254  0.31840089  0.28464984
   0.44927612  0.02809995  0.15233499
   0.90575311  0.81522484  0.28481849
   0.90282244  0.55132680  0.10484543
   0.35322635  0.82921185  0.23372991
   0.99849309  0.50579117  0.20307739
   0.39678790  0.76533178  0.34115412
   0.53851998  0.23347802  0.07318573
   0.77200593  0.64444644  0.31731285
   0.87926422  0.06310591  0.05527763
   0.34299033  0.33037432  0.18315119
   0.58246139  0.21150732  0.12452493
   0.04028519  0.49902923  0.25647186
   0.53172277  0.42940300  0.36421886
   0.09516526  0.72856013  0.12156099
   0.56162592  0.45407279  0.25118418
   0.74106823  0.14124194  0.31231865
   0.85888103  0.57329750  0.05350623
   0.31329298  0.84611514  0.18066490
   0.56207820  0.72169891  0.12275353
   0.00733328  0.00056506  0.25358832
   0.80549013  0.32516402  0.18414127
   0.25315717  0.62845003  0.30919290
   0.34617716  0.60305419  0.05647018
   0.25828238  0.12999007  0.31800324
   0.80100994  0.87757857  0.18430246
   0.34617716  0.05624469  0.05647018
   0.54566725  0.01183995  0.25285523
   0.09516526  0.18175063  0.12156099
   0.42917577  0.94307804  0.38013892
   0.34047062  0.60391201  0.02782883
   0.92434681  0.68523651  0.03696881
   0.34363348  0.06399961  0.02783421
   0.88838126  0.05560908  0.02665597
   0.61228953  0.42042807  0.38605873
   0.68502496  0.21071969  0.33686421
   0.86901538  0.61062413  0.33826162
   0.25920483  0.22753734  0.33878161
   0.44775782  0.85052833  0.40181269
Direct configuration=    43
   0.22067121  0.89240241  0.08901558
   0.67914801  0.16491699  0.21793362
   0.94927612  0.02809995  0.15233499
   0.39479686  0.31665224  0.28228335
   0.44927612  0.52809995  0.15233499
   0.89591663  0.31842807  0.28464477
   0.44927612  0.02809995  0.15233499
   0.90575343  0.81519919  0.28481605
   0.90282244  0.55132680  0.10484543
   0.35320376  0.82920294  0.23372962
   0.99843183  0.50578287  0.20306995
   0.39679457  0.76530876  0.34114728
   0.53851998  0.23347802  0.07318573
   0.77206433  0.64438994  0.31731697
   0.87926422  0.06310591  0.05527763
   0.34294224  0.33037153  0.18314927
   0.58246139  0.21150732  0.12452493
   0.04022394  0.49902654  0.25646595
   0.53162455  0.42939948  0.36421247
   0.09516526  0.72856013  0.12156099
   0.56154544  0.45403340  0.25118598
   0.74120125  0.14118458  0.31232310
   0.85888103  0.57329750  0.05350623
   0.31328014  0.84611176  0.18066498
   0.56207820  0.72169891  0.12275353
   0.00729952  0.00052347  0.25358009
   0.80542066  0.32516442  0.18414110
   0.25311571  0.62841209  0.30918573
   0.34617716  0.60305419  0.05647018
   0.25835649  0.13002545  0.31799948
   0.80097199  0.87759765  0.18430497
   0.34617716  0.05624469  0.05647018
   0.54569131  0.01176765  0.25286448
   0.09516526  0.18175063  0.12156099
   0.42928366  0.94302844  0.38012690
   0.34047062  0.60391201  0.02782883
   0.92434681  0.68523651  0.03696881
   0.34363348  0.06399961  0.02783421
   0.88838126  0.05560908  0.02665597
   0.61229718  0.42045996  0.38604721
   0.68504337  0.21070436  0.33686403
   0.86896710  0.61068035  0.33825805
   0.25929527  0.22751867  0.33876195
   0.44763564  0.85051401  0.40180200
Direct configuration=    44
   0.22067121  0.89240241  0.08901558
   0.67888001  0.16468377  0.21791834
   0.94927612  0.02809995  0.15233499
   0.39494958  0.31676875  0.28228950
   0.44927612  0.52809995  0.15233499
   0.89588672  0.31853642  0.28461645
   0.44927612  0.02809995  0.15233499
   0.90591054  0.81498140  0.28480834
   0.90282244  0.55132680  0.10484543
   0.35319099  0.82908597  0.23371975
   0.99811366  0.50577580  0.20302648
   0.39674003  0.76518784  0.34110815
   0.53851998  0.23347802  0.07318573
   0.77213983  0.64416770  0.31729634
   0.87926422  0.06310591  0.05527763
   0.34264898  0.33038847  0.18313601
   0.58246139  0.21150732  0.12452493
   0.03999695  0.49905670  0.25644462
   0.53126212  0.42936846  0.36419559
   0.09516526  0.72856013  0.12156099
   0.56113869  0.45399116  0.25119063
   0.74180700  0.14084446  0.31236199
   0.85888103  0.57329750  0.05350623
   0.31329488  0.84608094  0.18066671
   0.56207820  0.72169891  0.12275353
   0.00710457  0.00026207  0.25355527
   0.80511444  0.32509443  0.18413370
   0.25297704  0.62828321  0.30917222
   0.34617716  0.60305419  0.05647018
   0.25856400  0.12990067  0.31795250
   0.80079849  0.87764779  0.18431438
   0.34617716  0.05624469  0.05647018
   0.54588862  0.01138487  0.25289969
   0.09516526  0.18175063  0.12156099
   0.42978976  0.94285136  0.38007439
   0.34047062  0.60391201  0.02782883
   0.92434681  0.68523651  0.03696881
   0.34363348  0.06399961  0.02783421
   0.88838126  0.05560908  0.02665597
   0.61225855  0.42057568  0.38598722
   0.68507190  0.21078565  0.33684696
   0.86895734  0.61078591  0.33826754
   0.25970566  0.22766278  0.33871947
   0.44703370  0.85052174  0.40175571
