 vasp.5.4.4.18Apr17-6-g9f103f2a35 (build Sep 24 2019 09:38:50) complex          
  
 executed on     KEELxe18.1gRLX-z date 2026.07.25  16:43:44
 running on   64 total cores
 distrk:  each k-point on   64 cores,    1 groups
 distr:  one band on NCORES_PER_BAND=  32 cores,    2 groups


--------------------------------------------------------------------------------------------------------


 INCAR:
 POTCAR:    PAW_PBE Mn_pv 02Aug2007               
 POTCAR:    PAW_PBE O 08Apr2002                   
 POTCAR:    PAW_PBE H 15Jun2001                   

 ----------------------------------------------------------------------------- 
|                                                                             |
|           W    W    AA    RRRRR   N    N  II  N    N   GGGG   !!!           |
|           W    W   A  A   R    R  NN   N  II  NN   N  G    G  !!!           |
|           W    W  A    A  R    R  N N  N  II  N N  N  G       !!!           |
|           W WW W  AAAAAA  RRRRR   N  N N  II  N  N N  G  GGG   !            |
|           WW  WW  A    A  R   R   N   NN  II  N   NN  G    G                |
|           W    W  A    A  R    R  N    N  II  N    N   GGGG   !!!           |
|                                                                             |
|      For optimal performance we recommend to set                            |
|        NCORE= 4 - approx SQRT( number of cores)                             |
|      NCORE specifies how many cores store one orbital (NPAR=cpu/NCORE).     |
|      This setting can  greatly improve the performance of VASP for DFT.     |
|      The default,   NCORE=1            might be grossly inefficient         |
|      on modern multi-core architectures or massively parallel machines.     |
|      Do your own testing !!!!                                               |
|      Unfortunately you need to use the default for GW and RPA calculations. |
|      (for HF NCORE is supported but not extensively tested yet)             |
|                                                                             |
 ----------------------------------------------------------------------------- 

 POTCAR:    PAW_PBE Mn_pv 02Aug2007               
  local pseudopotential read in
  partial core-charges read in
  partial kinetic energy density read in
  atomic valenz-charges read in
  non local Contribution for L=           1  read in
    real space projection operators read in
  non local Contribution for L=           1  read in
    real space projection operators read in
  non local Contribution for L=           2  read in
    real space projection operators read in
  non local Contribution for L=           2  read in
    real space projection operators read in
  non local Contribution for L=           0  read in
    real space projection operators read in
  non local Contribution for L=           0  read in
    real space projection operators read in
    PAW grid and wavefunctions read in
 
   number of l-projection  operators is LMAX  =           6
   number of lm-projection operators is LMMAX =          18
 
 POTCAR:    PAW_PBE O 08Apr2002                   
  local pseudopotential read in
  partial core-charges read in
  partial kinetic energy density read in
  kinetic energy density of atom read in
  atomic valenz-charges read in
  non local Contribution for L=           0  read in
    real space projection operators read in
  non local Contribution for L=           0  read in
    real space projection operators read in
  non local Contribution for L=           1  read in
    real space projection operators read in
  non local Contribution for L=           1  read in
    real space projection operators read in
    PAW grid and wavefunctions read in
 
   number of l-projection  operators is LMAX  =           4
   number of lm-projection operators is LMMAX =           8
 
 POTCAR:    PAW_PBE H 15Jun2001                   
  local pseudopotential read in
  atomic valenz-charges read in
  non local Contribution for L=           0  read in
    real space projection operators read in
  non local Contribution for L=           0  read in
    real space projection operators read in
  non local Contribution for L=           1  read in
    real space projection operators read in
    PAW grid and wavefunctions read in
 
   number of l-projection  operators is LMAX  =           3
   number of lm-projection operators is LMMAX =           5
 
 Optimization of the real space projectors (new method)

 maximal supplied QI-value         = 16.25
 optimisation between [QCUT,QGAM] = [ 11.54, 23.24] = [ 37.28,151.24] Ry 
 Optimized for a Real-space Cutoff    1.45 Angstroem

   l    n(q)    QCUT    max X(q) W(low)/X(q) W(high)/X(q)  e(spline) 
   1     10    11.539     3.658    0.56E-04    0.12E-03    0.13E-06
   1     10    11.539     5.612    0.11E-03    0.23E-03    0.24E-06
   2      9    11.539    55.373    0.45E-04    0.92E-04    0.22E-06
   2      9    11.539    50.863    0.47E-04    0.95E-04    0.22E-06
   0     10    11.539    79.536    0.46E-04    0.27E-04    0.11E-06
   0     10    11.539    38.668    0.38E-04    0.25E-04    0.10E-06
 Optimization of the real space projectors (new method)

 maximal supplied QI-value         = 24.76
 optimisation between [QCUT,QGAM] = [ 11.64, 23.27] = [ 37.91,151.63] Ry 
 Optimized for a Real-space Cutoff    1.14 Angstroem

   l    n(q)    QCUT    max X(q) W(low)/X(q) W(high)/X(q)  e(spline) 
   0      8    11.635    20.381    0.10E-03    0.33E-03    0.24E-06
   0      8    11.635    15.268    0.11E-03    0.35E-03    0.26E-06
   1      7    11.635     5.964    0.24E-03    0.31E-03    0.30E-06
   1      7    11.635     5.382    0.22E-03    0.25E-03    0.26E-06
 Optimization of the real space projectors (new method)

 maximal supplied QI-value         = 34.20
 optimisation between [QCUT,QGAM] = [ 11.63, 23.26] = [ 37.87,151.49] Ry 
 Optimized for a Real-space Cutoff    1.21 Angstroem

   l    n(q)    QCUT    max X(q) W(low)/X(q) W(high)/X(q)  e(spline) 
   0      8    11.629    19.460    0.17E-03    0.34E-03    0.21E-06
   0      8    11.629    12.209    0.16E-03    0.33E-03    0.21E-06
   1      8    11.629     4.655    0.18E-03    0.16E-03    0.26E-06
  PAW_PBE Mn_pv 02Aug2007               :
 energy of atom  1       EATOM=-2025.2664
 kinetic energy error for atom=    0.0058 (will be added to EATOM!!)
  PAW_PBE O 08Apr2002                   :
 energy of atom  2       EATOM= -432.3788
 kinetic energy error for atom=    0.0208 (will be added to EATOM!!)
  PAW_PBE H 15Jun2001                   :
 energy of atom  3       EATOM=  -12.4884
 kinetic energy error for atom=    0.0014 (will be added to EATOM!!)
 
 
 POSCAR: Mn  O  H                                
  positions in direct lattice
  velocities in cartesian coordinates
 exchange correlation table for  LEXCH =        8
   RHO(1)=    0.500       N(1)  =     2000
   RHO(2)=  100.500       N(2)  =     4000

 VTST: version 3.1, (03/28/14)

 CHAIN: initializing optimizer
 
 OPT: Using VASP Conjugate-Gradient optimizer
 CHAIN: Read ICHAIN            0
 
 POSCAR: Mn  O  H                                
  positions in direct lattice
  velocities in cartesian coordinates
 


--------------------------------------------------------------------------------------------------------


 ion  position               nearest neighbor table
   1  0.221  0.892  0.089-  27 1.94  32 1.94  30 1.94  18 1.94  23 2.29  14 2.29   3 2.87   7 3.11
                             5 3.11
   2  0.678  0.165  0.219-  19 1.95  29 1.97  25 1.98  31 2.01  24 2.24  15 2.31   3 2.97   4 3.02
                             8 3.13   6 3.16
   3  0.949  0.028  0.152-  18 1.94  32 1.94  25 1.96  29 1.97  16 2.29  22 2.32   1 2.87   2 2.97
                             7 3.11   5 3.11   5 3.11   7 3.11
   4  0.391  0.318  0.285-  26 1.90  28 1.96  19 1.99  31 2.05  20 2.24  17 2.32   8 2.99   2 3.02
                             6 3.06   6 3.16
   5  0.449  0.528  0.152-  16 1.94  23 1.94  15 1.96  22 1.97  25 2.27  18 2.29   7 2.87   7 2.87
                             3 3.11   3 3.11   1 3.11
   6  0.903  0.310  0.283-  17 1.92  24 1.95  13 1.97  20 1.98  28 2.17  19 2.30   8 2.85   8 2.90
                             4 3.06   2 3.16   4 3.16
   7  0.449  0.028  0.152-  16 1.94  23 1.94  15 1.96  22 1.96  32 2.29  29 2.30   5 2.87   5 2.87
                             1 3.11   3 3.11   3 3.11
   8  0.911  0.801  0.282-  26 1.85  24 1.97  17 2.00  13 2.01  20 2.09  31 2.09   6 2.85   6 2.90
                             4 2.99   2 3.13
   9  0.903  0.551  0.105-  21 2.00  23 2.00  18 2.00  32 2.00
  10  0.364  0.831  0.235-  19 2.04  24 2.06  31 2.10  22 2.11
  11  0.994  0.504  0.201-  17 2.03  25 2.03  29 2.03  15 2.04
  12  0.539  0.233  0.073-  30 2.00  27 2.00  14 2.00  16 2.00
  13  0.781  0.618  0.314-  38 0.98   6 1.97   8 2.01
  14  0.879  0.063  0.055-  36 1.11  12 2.00   1 2.29
  15  0.341  0.331  0.183-   7 1.96   5 1.96  11 2.04   2 2.31
  16  0.582  0.212  0.125-   5 1.94   7 1.94  12 2.00   3 2.29
  17  0.034  0.478  0.253-   6 1.92   8 2.00  11 2.03   4 2.32
  18  0.095  0.729  0.122-   3 1.94   1 1.94   9 2.00   5 2.29
  19  0.552  0.452  0.252-   2 1.95   4 1.99  10 2.04   6 2.30
  20  0.748  0.143  0.312-  37 0.97   6 1.98   8 2.09   4 2.24
  21  0.859  0.573  0.054-  34 1.11   9 2.00
  22  0.317  0.845  0.181-   7 1.96   5 1.97  10 2.11   3 2.32
  23  0.562  0.722  0.123-   7 1.94   5 1.94   9 2.00   1 2.29
  24  0.009  0.011  0.252-   6 1.95   8 1.97  10 2.06   2 2.24
  25  0.797  0.330  0.183-   3 1.96   2 1.98  11 2.03   5 2.27
  26  0.205  0.651  0.305-   8 1.85   4 1.90
  27  0.346  0.603  0.056-  33 1.11   1 1.94  12 2.00
  28  0.234  0.159  0.313-  39 0.98   4 1.96   6 2.17
  29  0.800  0.880  0.184-   3 1.97   2 1.97  11 2.03   7 2.30
  30  0.346  0.056  0.056-  35 1.11   1 1.94  12 2.00
  31  0.582  0.987  0.256-   2 2.01   4 2.05   8 2.09  10 2.10
  32  0.095  0.182  0.122-   3 1.94   1 1.94   9 2.00   7 2.29
  33  0.340  0.604  0.028-  27 1.11
  34  0.924  0.685  0.037-  21 1.11
  35  0.344  0.064  0.028-  30 1.11
  36  0.888  0.056  0.027-  14 1.11
  37  0.783  0.131  0.337-  20 0.97
  38  0.900  0.561  0.333-  13 0.98
  39  0.316  0.966  0.315-  28 0.98
 
  LATTYP: Found a base centered orthorhombic cell.
 ALAT       =     5.7471469900
 B/A-ratio  =     1.9195481432
 C/A-ratio  =     6.7403003707
  
  Lattice vectors:
  
 A1 = (  -2.8735734950,  -2.8735734950,   4.7083351100)
 A2 = (  -2.8735734950,   2.8735734950,  -4.7083351100)
 A3 = (   0.0000000000, -33.0656910066, -20.1805290088)


Analysis of symmetry for initial positions (statically):
=====================================================================
 Subroutine PRICEL returns:
 Original cell was already a primitive cell.
 

 Routine SETGRP: Setting up the symmetry group for a 
 base centered orthorhombic supercell.


 Subroutine GETGRP returns: Found  1 space group operations
 (whereof  1 operations were pure point group operations)
 out of a pool of  8 trial point group operations.


The static configuration has the point symmetry C_1 .


Analysis of symmetry for dynamics (positions and initial velocities):
=====================================================================
 Subroutine PRICEL returns:
 Original cell was already a primitive cell.
 

 Routine SETGRP: Setting up the symmetry group for a 
 base centered orthorhombic supercell.


 Subroutine GETGRP returns: Found  1 space group operations
 (whereof  1 operations were pure point group operations)
 out of a pool of  8 trial point group operations.


The dynamic configuration has the point symmetry C_1 .


Analysis of constrained symmetry for selective dynamics:
=====================================================================
 Subroutine PRICEL returns:
 Original cell was already a primitive cell.
 

 Routine SETGRP: Setting up the symmetry group for a 
 base centered orthorhombic supercell.


 Subroutine GETGRP returns: Found  1 space group operations
 (whereof  1 operations were pure point group operations)
 out of a pool of  8 trial point group operations.


The constrained configuration has the point symmetry C_1 .


Analysis of structural, dynamic, and magnetic symmetry:
=====================================================================
 Subroutine PRICEL returns:
 Original cell was already a primitive cell.
 

 Routine SETGRP: Setting up the symmetry group for a 
 base centered orthorhombic supercell.


 Subroutine GETGRP returns: Found  1 space group operations
 (whereof  1 operations were pure point group operations)
 out of a pool of  8 trial point group operations.


The magnetic configuration has the point symmetry C_1 .


 Subroutine INISYM returns: Found  1 space group operations
 (whereof  1 operations are pure point group operations),
 and found     1 'primitive' translations

 
 
 KPOINTS: KPOINTS created by Atomic Simulation Env

Automatic generation of k-mesh.
Space group operators:
 irot       det(A)        alpha          n_x          n_y          n_z        tau_x        tau_y        tau_z
    1     1.000000     0.000000     1.000000     0.000000     0.000000     0.000000     0.000000     0.000000
 
 Subroutine IBZKPT returns following result:
 ===========================================
 
 Found     10 irreducible k-points:
 
 Following reciprocal coordinates:
            Coordinates               Weight
  0.000000  0.000000  0.000000      1.000000
  0.250000  0.000000 -0.000000      2.000000
  0.500000  0.000000 -0.000000      1.000000
  0.000000  0.250000 -0.000000      2.000000
  0.250000  0.250000 -0.000000      2.000000
  0.500000  0.250000  0.000000      2.000000
 -0.250000  0.250000 -0.000000      2.000000
  0.000000  0.500000 -0.000000      1.000000
  0.250000  0.500000 -0.000000      2.000000
  0.500000  0.500000 -0.000000      1.000000
 
 Following cartesian coordinates:
            Coordinates               Weight
  0.000000  0.000000  0.000000      1.000000
  0.000000 -0.023611  0.038687      2.000000
  0.000000 -0.047223  0.077374      1.000000
  0.043500  0.011806 -0.019343      2.000000
  0.043500 -0.011806  0.019343      2.000000
  0.043500 -0.035417  0.058030      2.000000
  0.043500  0.035417 -0.058030      2.000000
  0.087000  0.023611 -0.038687      1.000000
  0.087000  0.000000  0.000000      2.000000
  0.087000 -0.023611  0.038687      1.000000
 


--------------------------------------------------------------------------------------------------------




 Dimension of arrays:
   k-points           NKPTS =     10   k-points in BZ     NKDIM =     10   number of bands    NBANDS=    178
   number of dos      NEDOS =    301   number of ions     NIONS =     39
   non local maximal  LDIM  =      6   non local SUM 2l+1 LMDIM =     18
   total plane-waves  NPLWV = 663552
   max r-space proj   IRMAX =   6889   max aug-charges    IRDMAX=  16593
   dimension x,y,z NGX =    48 NGY =   48 NGZ =  288
   dimension x,y,z NGXF=    96 NGYF=   96 NGZF=  576
   support grid    NGXF=    96 NGYF=   96 NGZF=  576
   ions per type =              12  20   7
   NGX,Y,Z   is equivalent  to a cutoff of  12.83, 13.88, 12.36 a.u.
   NGXF,Y,Z  is equivalent  to a cutoff of  25.66, 27.77, 24.72 a.u.

 SYSTEM =  unknown system                          
 POSCAR =  Mn  O  H                                

 Startparameter for this run:
   NWRITE =      1    write-flag & timer
   PREC   = accura    normal or accurate (medium, high low for compatibility)
   ISTART =      0    job   : 0-new  1-cont  2-samecut
   ICHARG =      2    charge: 1-file 2-atom 10-const
   ISPIN  =      2    spin polarized calculation?
   LNONCOLLINEAR =      F non collinear calculations
   LSORBIT =      F    spin-orbit coupling
   INIWAV =      1    electr: 0-lowe 1-rand  2-diag
   LASPH  =      F    aspherical Exc in radial PAW
   METAGGA=      F    non-selfconsistent MetaGGA calc.

 Electronic Relaxation 1
   ENCUT  =  520.0 eV  38.22 Ry    6.18 a.u.  11.56 10.69 72.03*2*pi/ulx,y,z
   ENINI  =  520.0     initial cutoff
   ENAUG  =  605.4 eV  augmentation charge cutoff
   NELM   =     60;   NELMIN=  2; NELMDL= -5     # of ELM steps 
   EDIFF  = 0.1E-04   stopping-criterion for ELM
   LREAL  =      T    real-space projection
   NLSPLINE    = F    spline interpolate recip. space projectors
   LCOMPAT=      F    compatible to vasp.4.4
   GGA_COMPAT  = T    GGA compatible to vasp.4.4-vasp.4.6
   LMAXPAW     = -100 max onsite density
   LMAXMIX     =    2 max onsite mixed and CHGCAR
   VOSKOWN=      0    Vosko Wilk Nusair interpolation
   ROPT   =   -0.00025  -0.00025  -0.00025
 Ionic relaxation
   EDIFFG = -.5E-01   stopping-criterion for IOM
   NSW    =    500    number of steps for IOM
   NBLOCK =      1;   KBLOCK =    500    inner block; outer block 
   IBRION =      2    ionic relax: 0-MD 1-quasi-New 2-CG
   NFREE  =      1    steps in history (QN), initial steepest desc. (CG)
   ISIF   =      0    stress and relaxation
   IWAVPR =     11    prediction:  0-non 1-charg 2-wave 3-comb
   ISYM   =      2    0-nonsym 1-usesym 2-fastsym
   LCORR  =      T    Harris-Foulkes like correction to forces

   POTIM  = 0.5000    time-step for ionic-motion
   TEIN   =    0.0    initial temperature
   TEBEG  =    0.0;   TEEND  =   0.0 temperature during run
   SMASS  =  -3.00    Nose mass-parameter (am)
   estimated Nose-frequenzy (Omega)   =  0.10E-29 period in steps =****** mass=  -0.884E-27a.u.
   SCALEE = 1.0000    scale energy and forces
   NPACO  =    256;   APACO  = 16.0  distance and # of slots for P.C.
   PSTRESS=    0.0 pullay stress

  Mass of Ions in am
   POMASS =  54.94 16.00  1.00
  Ionic Valenz
   ZVAL   =  13.00  6.00  1.00
  Atomic Wigner-Seitz radii
   RWIGS  =  -1.00 -1.00 -1.00
  virtual crystal weights 
   VCA    =   1.00  1.00  1.00
   NELECT =     283.0000    total number of electrons
   NUPDOWN=      -1.0000    fix difference up-down

 DOS related values:
   EMIN   =  10.00;   EMAX   =-10.00  energy-range for DOS
   EFERMI =   0.00
   ISMEAR =     1;   SIGMA  =   0.20  broadening in eV -4-tet -1-fermi 0-gaus

 Electronic relaxation 2 (details)
   IALGO  =     68    algorithm
   LDIAG  =      T    sub-space diagonalisation (order eigenvalues)
   LSUBROT=      F    optimize rotation matrix (better conditioning)
   TURBO    =      0    0=normal 1=particle mesh
   IRESTART =      0    0=no restart 2=restart with 2 vectors
   NREBOOT  =      0    no. of reboots
   NMIN     =      0    reboot dimension
   EREF     =   0.00    reference energy to select bands
   IMIX   =      4    mixing-type and parameters
     AMIX     =   0.40;   BMIX     =  1.00
     AMIX_MAG =   1.60;   BMIX_MAG =  1.00
     AMIN     =   0.10
     WC   =   100.;   INIMIX=   1;  MIXPRE=   1;  MAXMIX= -45

 Intra band minimization:
   WEIMIN = 0.0010     energy-eigenvalue tresh-hold
   EBREAK =  0.14E-07  absolut break condition
   DEPER  =   0.30     relativ break condition  

   TIME   =   0.40     timestep for ELM

  volume/ion in A,a.u.               =      31.49       212.49
  Fermi-wavevector in a.u.,A,eV,Ry     =   1.003695  1.896709 13.706569  1.007404
  Thomas-Fermi vector in A             =   2.136264
 
 Write flags
   LWAVE        =      F    write WAVECAR
   LDOWNSAMPLE  =      F    k-point downsampling of WAVECAR
   LCHARG       =      F    write CHGCAR
   LVTOT        =      F    write LOCPOT, total local potential
   LVHAR        =      F    write LOCPOT, Hartree potential only
   LELF         =      F    write electronic localiz. function (ELF)
   LORBIT       =     11    0 simple, 1 ext, 2 COOP (PROOUT), +10 PAW based schemes


 Dipole corrections
   LMONO  =      F    monopole corrections only (constant potential shift)
   LDIPOL =      F    correct potential (dipole corrections)
   IDIPOL =      0    1-x, 2-y, 3-z, 4-all directions 
   EPSILON=  1.0000000 bulk dielectric constant

 LDA+U is selected, type is set to LDAUTYPE =  2
   angular momentum for each species LDAUL =     2   -1   -1
   U (eV)           for each species LDAUU =   3.9  0.0  0.0
   J (eV)           for each species LDAUJ =   0.0  0.0  0.0
 Exchange correlation treatment:
   GGA     =    PE    GGA type
   LEXCH   =     8    internal setting for exchange type
   VOSKOWN=      0    Vosko Wilk Nusair interpolation
   LHFCALC =     F    Hartree Fock is set to
   LHFONE  =     F    Hartree Fock one center treatment
   AEXX    =    0.0000 exact exchange contribution

 Linear response parameters
   LEPSILON=     F    determine dielectric tensor
   LRPA    =     F    only Hartree local field effects (RPA)
   LNABLA  =     F    use nabla operator in PAW spheres
   LVEL    =     F    velocity operator in full k-point grid
   LINTERFAST=   F  fast interpolation
   KINTER  =     0    interpolate to denser k-point grid
   CSHIFT  =0.1000    complex shift for real part using Kramers Kronig
   OMEGAMAX=  -1.0    maximum frequency
   DEG_THRESHOLD= 0.2000000E-02 threshold for treating states as degnerate
   RTIME   =   -0.100 relaxation time in fs
  (WPLASMAI=    0.000 imaginary part of plasma frequency in eV, 0.658/RTIME)
   DFIELD  = 0.0000000 0.0000000 0.0000000 field for delta impulse in time
 
 Orbital magnetization related:
   ORBITALMAG=     F  switch on orbital magnetization
   LCHIMAG   =     F  perturbation theory with respect to B field
   DQ        =  0.001000  dq finite difference perturbation B field
   LLRAUG    =     F  two centre corrections for induced B field



--------------------------------------------------------------------------------------------------------


 conjugate gradient relaxation of ions
   using selective dynamics as specified on POSCAR
 charge density and potential will be updated during run
 spin polarized calculation
 RMM-DIIS sequential band-by-band and
  variant of blocked Davidson during initial phase
 perform sub-space diagonalisation
    before iterative eigenvector-optimisation
 modified Broyden-mixing scheme, WC =      100.0
 initial mixing is a Kerker type mixing with AMIX =  0.4000 and BMIX =      1.0000
 Hartree-type preconditioning will be used
 using additional bands           36
 real space projection scheme for non local part
 use partial core corrections
 calculate Harris-corrections to forces 
   (improved forces if not selfconsistent)
 use gradient corrections 
 use of overlap-Matrix (Vanderbilt PP)
 Methfessel and Paxton  Order N= 1 SIGMA  =   0.20


--------------------------------------------------------------------------------------------------------


  energy-cutoff  :      520.00
  volume of cell :     1228.02
      direct lattice vectors                 reciprocal lattice vectors
     2.873573495 -2.873573495  4.708335110     0.000000000 -0.094445153  0.154747888
     5.747146990  0.000000000  0.000000000     0.173999378  0.047222576 -0.077373944
     0.000000000 33.065691007 20.180529009     0.000000000  0.022035073  0.013448363

  length of vectors
     6.219587508  5.747146990 38.737496987     0.181292017  0.196195011  0.025814781


 
 k-points in units of 2pi/SCALE and weight: KPOINTS created by Atomic Simulation Env
   0.00000000  0.00000000  0.00000000       0.062
   0.00000000 -0.02361129  0.03868697       0.125
   0.00000000 -0.04722258  0.07737394       0.062
   0.04349984  0.01180564 -0.01934349       0.125
   0.04349984 -0.01180564  0.01934349       0.125
   0.04349984 -0.03541693  0.05803046       0.125
   0.04349984  0.03541693 -0.05803046       0.125
   0.08699969  0.02361129 -0.03868697       0.062
   0.08699969 -0.00000000 -0.00000000       0.125
   0.08699969 -0.02361129  0.03868697       0.062
 
 k-points in reciprocal lattice and weights: KPOINTS created by Atomic Simulation Env
   0.00000000  0.00000000  0.00000000       0.062
   0.25000000  0.00000000 -0.00000000       0.125
   0.50000000  0.00000000 -0.00000000       0.062
   0.00000000  0.25000000 -0.00000000       0.125
   0.25000000  0.25000000 -0.00000000       0.125
   0.50000000  0.25000000  0.00000000       0.125
  -0.25000000  0.25000000 -0.00000000       0.125
   0.00000000  0.50000000 -0.00000000       0.062
   0.25000000  0.50000000 -0.00000000       0.125
   0.50000000  0.50000000 -0.00000000       0.062
 
 position of ions in fractional coordinates (direct lattice) 
   0.22067121  0.89240241  0.08901558
   0.67832162  0.16546081  0.21851703
   0.94927612  0.02809995  0.15233499
   0.39059421  0.31783541  0.28482356
   0.44927612  0.52809995  0.15233499
   0.90269916  0.30964228  0.28331419
   0.44927612  0.02809995  0.15233499
   0.91115102  0.80147189  0.28240023
   0.90282244  0.55132680  0.10484543
   0.36351501  0.83061206  0.23525910
   0.99420497  0.50441741  0.20118246
   0.53851998  0.23347802  0.07318573
   0.78113181  0.61828606  0.31400449
   0.87926422  0.06310591  0.05527763
   0.34133388  0.33109373  0.18311723
   0.58246139  0.21150732  0.12452493
   0.03417290  0.47785038  0.25317139
   0.09516526  0.72856013  0.12156099
   0.55174398  0.45248284  0.25170756
   0.74813573  0.14344955  0.31209872
   0.85888103  0.57329750  0.05350623
   0.31664995  0.84549975  0.18132753
   0.56207820  0.72169891  0.12275353
   0.00923420  0.01106495  0.25214393
   0.79694282  0.32976337  0.18346114
   0.20462624  0.65089141  0.30545324
   0.34617716  0.60305419  0.05647018
   0.23448902  0.15874300  0.31340823
   0.79956308  0.87955203  0.18432206
   0.34617716  0.05624469  0.05647018
   0.58200513  0.98732189  0.25561980
   0.09516526  0.18175063  0.12156099
   0.34047062  0.60391201  0.02782883
   0.92434681  0.68523651  0.03696881
   0.34363348  0.06399961  0.02783421
   0.88838126  0.05560908  0.02665597
   0.78261286  0.13074033  0.33671057
   0.89996691  0.56073039  0.33283104
   0.31565836  0.96613584  0.31450099
 
 position of ions in cartesian coordinates  (Angst):
   5.76288277  2.30924686  2.83537559
   2.90013461  5.27620967  7.60355481
   2.88930927  2.30924686  7.54371070
   2.94904799  8.29548676  7.58693862
   4.32609602  3.74603361  5.18954314
   4.37353207  6.77400701  9.96764031
   1.45252253  3.74603361  5.18954314
   7.22443618  6.71949931  9.98899037
   5.76288277  0.87246011  6.36662692
   5.81823670  6.73441774  6.45920368
   5.75588203  3.79531602  8.74101865
   2.88930927  0.87246011  4.01245936
   5.79802056  8.13813593 10.01460716
   2.88930927 -0.69883718  5.25540249
   2.88369230  5.07404960  5.30251679
   2.88930927  2.44375740  5.25540249
   2.84447470  8.27308862  5.27003004
   4.46060656  3.74603361  2.90123493
   4.18596227  6.73740736  7.67738718
   2.97424867  8.16993683  9.82079101
   5.76288277 -0.69883718  5.12368380
   5.76912828  5.08580318  5.15017958
   5.76288277  2.44375740  5.12368380
   0.09012705  8.31077822  5.13187564
   4.18527230  3.77619558  7.45461668
   4.32877718  9.51201400  7.12765695
   4.46060656  0.87246011  2.76951624
   1.58614080  9.68923842  7.42879684
   7.35251805  3.79713316  7.48432767
   1.31801199  0.87246011  2.76951624
   7.34671856  6.77981069  7.89881789
   1.31801199  3.74603361  2.90123493
   4.44913845 -0.05818785  2.16465027
   6.59433342 -1.43377909  5.09818478
   1.35527122 -0.06709860  2.17965068
   2.87242244 -1.67143072  4.72072832
   3.00027946  8.88467216 10.47980106
   5.80872103  8.41916722 10.95405226
   6.45959218  9.49212491  7.83302162
 


--------------------------------------------------------------------------------------------------------


 k-point  1 :   0.0000 0.0000 0.0000  plane waves:   33139
 k-point  2 :   0.2500 0.0000-0.0000  plane waves:   33075
 k-point  3 :   0.5000 0.0000-0.0000  plane waves:   33034
 k-point  4 :   0.0000 0.2500-0.0000  plane waves:   33096
 k-point  5 :   0.2500 0.2500-0.0000  plane waves:   33096
 k-point  6 :   0.5000 0.2500 0.0000  plane waves:   33037
 k-point  7 :  -0.2500 0.2500-0.0000  plane waves:   33037
 k-point  8 :   0.0000 0.5000-0.0000  plane waves:   33016
 k-point  9 :   0.2500 0.5000-0.0000  plane waves:   33093
 k-point 10 :   0.5000 0.5000-0.0000  plane waves:   33016

 maximum and minimum number of plane-waves per node :      1061     1010

 maximum number of plane-waves:     33139
 maximum index in each direction: 
   IXMAX=   11   IYMAX=   10   IZMAX=   72
   IXMIN=  -12   IYMIN=  -11   IZMIN=  -72


 real space projection operators:
  total allocation   :      16346.02 KBytes
  max/ min on nodes  :        754.52        247.73


 parallel 3D FFT for wavefunctions:
    minimum data exchange during FFTs selected (reduces bandwidth)
 parallel 3D FFT for charge:
    minimum data exchange during FFTs selected (reduces bandwidth)


 total amount of memory used by VASP MPI-rank0    82024. kBytes
=======================================================================

   base      :      30000. kBytes
   nonlr-proj:       5343. kBytes
   fftplans  :       4286. kBytes
   grid      :      11974. kBytes
   one-center:         62. kBytes
   wavefun   :      30359. kBytes
 
     INWAV:  cpu time    0.0001: real time    0.0001
 Broyden mixing: mesh for mixing (old mesh)
   NGX = 23   NGY = 21   NGZ =145
  (NGX  = 96   NGY  = 96   NGZ  =576)
  gives a total of  70035 points

 initial charge density was supplied:
 charge density of overlapping atoms calculated
 number of electron     283.0000000 magnetization      17.6000000
 keeping initial charge density in first step


--------------------------------------------------------------------------------------------------------


 Maximum index for non-local projection operator          412
 Maximum index for augmentation-charges          716 (set IRDMAX)


--------------------------------------------------------------------------------------------------------


 First call to EWALD:  gamma=   0.166
 Maximum number of real-space cells 5x 5x 1
 Maximum number of reciprocal cells 2x 2x 9

    FEWALD:  cpu time    0.0073: real time    0.0073


--------------------------------------- Iteration      1(   1)  ---------------------------------------


    POTLOK:  cpu time    0.7335: real time    0.7562
    SETDIJ:  cpu time    0.0569: real time    0.0572
     EDDAV:  cpu time   40.5842: real time   40.7911
       DOS:  cpu time    0.0272: real time    0.0272
    --------------------------------------------
      LOOP:  cpu time   41.4020: real time   41.6318

 eigenvalue-minimisations  :  8568
 total energy-change (2. order) : 0.3069983E+04  (-0.1521039E+05)
 number of electron     283.0000000 magnetization      17.6000000
 augmentation part      283.0000000 magnetization      17.6000000

 Free energy of the ion-electron system (eV)
  ---------------------------------------------------
  alpha Z        PSCENC =       367.19046233
  Ewald energy   TEWEN  =    349534.35230288
  -Hartree energ DENC   =   -378384.35909738
  -exchange      EXHF   =         0.00000000
  -V(xc)+E(xc)   XCENC  =      1403.36422886
  PAW double counting   =     26684.04616855   -27256.18289806
  entropy T*S    EENTRO =        -0.00429473
  eigenvalues    EBANDS =     -2316.11947377
  atomic energy  EATOM  =     33037.69599157
  Solvation  Ediel_sol  =         0.00000000
  ---------------------------------------------------
  free energy    TOTEN  =      3069.98339024 eV

  energy without entropy =     3069.98768498  energy(sigma->0) =     3069.98482182


--------------------------------------------------------------------------------------------------------




--------------------------------------- Iteration      1(   2)  ---------------------------------------


     EDDAV:  cpu time   38.3586: real time   38.7172
       DOS:  cpu time    0.0269: real time    0.0269
    --------------------------------------------
      LOOP:  cpu time   38.3854: real time   38.7440

 eigenvalue-minimisations  :  8030
 total energy-change (2. order) :-0.2853975E+04  (-0.2686149E+04)
 number of electron     283.0000000 magnetization      17.6000000
 augmentation part      283.0000000 magnetization      17.6000000

 Free energy of the ion-electron system (eV)
  ---------------------------------------------------
  alpha Z        PSCENC =       367.19046233
  Ewald energy   TEWEN  =    349534.35230288
  -Hartree energ DENC   =   -378384.35909738
  -exchange      EXHF   =         0.00000000
  -V(xc)+E(xc)   XCENC  =      1403.36422886
  PAW double counting   =     26684.04616855   -27256.18289806
  entropy T*S    EENTRO =        -0.00129188
  eigenvalues    EBANDS =     -5170.09698377
  atomic energy  EATOM  =     33037.69599157
  Solvation  Ediel_sol  =         0.00000000
  ---------------------------------------------------
  free energy    TOTEN  =       216.00888309 eV

  energy without entropy =      216.01017497  energy(sigma->0) =      216.00931372


--------------------------------------------------------------------------------------------------------




--------------------------------------- Iteration      1(   3)  ---------------------------------------


     EDDAV:  cpu time   40.9550: real time   41.4390
       DOS:  cpu time    0.0285: real time    0.0292
    --------------------------------------------
      LOOP:  cpu time   40.9835: real time   41.4682

 eigenvalue-minimisations  :  8640
 total energy-change (2. order) :-0.4986610E+03  (-0.4909751E+03)
 number of electron     283.0000000 magnetization      17.6000000
 augmentation part      283.0000000 magnetization      17.6000000

 Free energy of the ion-electron system (eV)
  ---------------------------------------------------
  alpha Z        PSCENC =       367.19046233
  Ewald energy   TEWEN  =    349534.35230288
  -Hartree energ DENC   =   -378384.35909738
  -exchange      EXHF   =         0.00000000
  -V(xc)+E(xc)   XCENC  =      1403.36422886
  PAW double counting   =     26684.04616855   -27256.18289806
  entropy T*S    EENTRO =         0.03911624
  eigenvalues    EBANDS =     -5668.79843061
  atomic energy  EATOM  =     33037.69599157
  Solvation  Ediel_sol  =         0.00000000
  ---------------------------------------------------
  free energy    TOTEN  =      -282.65215563 eV

  energy without entropy =     -282.69127187  energy(sigma->0) =     -282.66519437


--------------------------------------------------------------------------------------------------------




--------------------------------------- Iteration      1(   4)  ---------------------------------------


     EDDAV:  cpu time   40.2697: real time   40.3667
       DOS:  cpu time    0.0287: real time    0.0287
    --------------------------------------------
      LOOP:  cpu time   40.2984: real time   40.3954

 eigenvalue-minimisations  :  8592
 total energy-change (2. order) :-0.2167519E+02  (-0.2151049E+02)
 number of electron     283.0000000 magnetization      17.6000000
 augmentation part      283.0000000 magnetization      17.6000000

 Free energy of the ion-electron system (eV)
  ---------------------------------------------------
  alpha Z        PSCENC =       367.19046233
  Ewald energy   TEWEN  =    349534.35230288
  -Hartree energ DENC   =   -378384.35909738
  -exchange      EXHF   =         0.00000000
  -V(xc)+E(xc)   XCENC  =      1403.36422886
  PAW double counting   =     26684.04616855   -27256.18289806
  entropy T*S    EENTRO =         0.03918561
  eigenvalues    EBANDS =     -5690.47369460
  atomic energy  EATOM  =     33037.69599157
  Solvation  Ediel_sol  =         0.00000000
  ---------------------------------------------------
  free energy    TOTEN  =      -304.32735025 eV

  energy without entropy =     -304.36653586  energy(sigma->0) =     -304.34041212


--------------------------------------------------------------------------------------------------------




--------------------------------------- Iteration      1(   5)  ---------------------------------------


     EDDAV:  cpu time   40.3100: real time   40.8149
       DOS:  cpu time    0.0265: real time    0.0265
    CHARGE:  cpu time    3.0308: real time    3.0345
    MIXING:  cpu time    0.0169: real time    0.0190
    --------------------------------------------
      LOOP:  cpu time   43.3843: real time   43.8949

 eigenvalue-minimisations  :  8520
 total energy-change (2. order) :-0.5011633E+00  (-0.5001730E+00)
 number of electron     283.0000008 magnetization      17.7363856
 augmentation part       97.0570612 magnetization       9.5925352

 Broyden mixing:
  rms(total) = 0.70348E+01    rms(broyden)= 0.70326E+01
  rms(prec ) = 0.71338E+01
  weight for this iteration     100.00

 Free energy of the ion-electron system (eV)
  ---------------------------------------------------
  alpha Z        PSCENC =       367.19046233
  Ewald energy   TEWEN  =    349534.35230288
  -Hartree energ DENC   =   -378384.35909738
  -exchange      EXHF   =         0.00000000
  -V(xc)+E(xc)   XCENC  =      1403.36422886
  PAW double counting   =     26684.04616855   -27256.18289806
  entropy T*S    EENTRO =         0.03975760
  eigenvalues    EBANDS =     -5690.97542990
  atomic energy  EATOM  =     33037.69599157
  Solvation  Ediel_sol  =         0.00000000
  ---------------------------------------------------
  free energy    TOTEN  =      -304.82851355 eV

  energy without entropy =     -304.86827115  energy(sigma->0) =     -304.84176609


--------------------------------------------------------------------------------------------------------




--------------------------------------- Iteration      1(   6)  ---------------------------------------


    POTLOK:  cpu time    0.5237: real time    0.5247
    SETDIJ:  cpu time    0.0425: real time    0.0425
    EDDIAG:  cpu time    7.5932: real time    7.6017
  RMM-DIIS:  cpu time   26.0405: real time   26.4232
    ORTHCH:  cpu time    0.3941: real time    0.4048
       DOS:  cpu time    0.0252: real time    0.0252
    CHARGE:  cpu time    2.9417: real time    2.9444
    MIXING:  cpu time    0.0141: real time    0.0250
    --------------------------------------------
      LOOP:  cpu time   37.5750: real time   37.9915

 eigenvalue-minimisations  :  8601
 total energy-change (2. order) : 0.1865641E+02  (-0.6202359E+02)
 number of electron     283.0000010 magnetization      17.7788455
 augmentation part      104.1673377 magnetization      11.4355212

 Broyden mixing:
  rms(total) = 0.89708E+01    rms(broyden)= 0.89699E+01
  rms(prec ) = 0.91600E+01
  weight for this iteration     100.00

 eigenvalues of (default mixing * dielectric matrix)
  average eigenvalue GAMMA=   0.2445
  0.2445

 Free energy of the ion-electron system (eV)
  ---------------------------------------------------
  alpha Z        PSCENC =       367.19046233
  Ewald energy   TEWEN  =    349534.35230288
  -Hartree energ DENC   =   -378245.37962557
  -exchange      EXHF   =         0.00000000
  -V(xc)+E(xc)   XCENC  =      1412.61952762
  PAW double counting   =     28347.65283829   -28863.35449616
  entropy T*S    EENTRO =        -0.00526262
  eigenvalues    EBANDS =     -5876.94384224
  atomic energy  EATOM  =     33037.69599157
  Solvation  Ediel_sol  =         0.00000000
  ---------------------------------------------------
  free energy    TOTEN  =      -286.17210390 eV

  energy without entropy =     -286.16684128  energy(sigma->0) =     -286.17034969


--------------------------------------------------------------------------------------------------------




--------------------------------------- Iteration      1(   7)  ---------------------------------------


    POTLOK:  cpu time    0.4672: real time    0.5007
    SETDIJ:  cpu time    0.0410: real time    0.0410
    EDDIAG:  cpu time    7.5779: real time    7.5856
  RMM-DIIS:  cpu time   24.2310: real time   24.2572
    ORTHCH:  cpu time    0.3868: real time    0.3878
       DOS:  cpu time    0.0269: real time    0.0269
    CHARGE:  cpu time    3.0090: real time    3.0119
    MIXING:  cpu time    0.0101: real time    0.0118
    --------------------------------------------
      LOOP:  cpu time   35.7499: real time   35.8229

 eigenvalue-minimisations  :  8149
 total energy-change (2. order) : 0.9231730E+01  (-0.4552633E+01)
 number of electron     283.0000013 magnetization      17.8456311
 augmentation part      100.9674055 magnetization      11.0254116

 Broyden mixing:
  rms(total) = 0.68171E+01    rms(broyden)= 0.68162E+01
  rms(prec ) = 0.70359E+01
  weight for this iteration     100.00

 eigenvalues of (default mixing * dielectric matrix)
  average eigenvalue GAMMA=   0.3303
  0.3303  0.3303

 Free energy of the ion-electron system (eV)
  ---------------------------------------------------
  alpha Z        PSCENC =       367.19046233
  Ewald energy   TEWEN  =    349534.35230288
  -Hartree energ DENC   =   -378426.39998717
  -exchange      EXHF   =         0.00000000
  -V(xc)+E(xc)   XCENC  =      1413.80581531
  PAW double counting   =     29334.15042491   -29883.90832889
  entropy T*S    EENTRO =        -0.00676615
  eigenvalues    EBANDS =     -5653.82028887
  atomic energy  EATOM  =     33037.69599157
  Solvation  Ediel_sol  =         0.00000000
  ---------------------------------------------------
  free energy    TOTEN  =      -276.94037408 eV

  energy without entropy =     -276.93360793  energy(sigma->0) =     -276.93811870


--------------------------------------------------------------------------------------------------------




--------------------------------------- Iteration      1(   8)  ---------------------------------------


    POTLOK:  cpu time    0.4654: real time    0.5004
    SETDIJ:  cpu time    0.0407: real time    0.0407
    EDDIAG:  cpu time    7.6606: real time    7.7153
  RMM-DIIS:  cpu time   23.3462: real time   23.7272
    ORTHCH:  cpu time    0.3877: real time    0.3877
       DOS:  cpu time    0.0268: real time    0.0268
    CHARGE:  cpu time    2.9389: real time    2.9420
    MIXING:  cpu time    0.0095: real time    0.0095
    --------------------------------------------
      LOOP:  cpu time   34.8758: real time   35.3497

 eigenvalue-minimisations  :  7622
 total energy-change (2. order) : 0.4629390E+00  (-0.5599276E+01)
 number of electron     283.0000009 magnetization      17.9203035
 augmentation part      101.3563722 magnetization      12.2438400

 Broyden mixing:
  rms(total) = 0.62705E+01    rms(broyden)= 0.62699E+01
  rms(prec ) = 0.64941E+01
  weight for this iteration     100.00

 eigenvalues of (default mixing * dielectric matrix)
  average eigenvalue GAMMA=   0.4767
  0.6254  0.6254  0.1794

 Free energy of the ion-electron system (eV)
  ---------------------------------------------------
  alpha Z        PSCENC =       367.19046233
  Ewald energy   TEWEN  =    349534.35230288
  -Hartree energ DENC   =   -378499.24057963
  -exchange      EXHF   =         0.00000000
  -V(xc)+E(xc)   XCENC  =      1414.55607542
  PAW double counting   =     30112.35855393   -30681.51907710
  entropy T*S    EENTRO =        -0.02227549
  eigenvalues    EBANDS =     -5561.84888894
  atomic energy  EATOM  =     33037.69599157
  Solvation  Ediel_sol  =         0.00000000
  ---------------------------------------------------
  free energy    TOTEN  =      -276.47743504 eV

  energy without entropy =     -276.45515954  energy(sigma->0) =     -276.47000987


--------------------------------------------------------------------------------------------------------




--------------------------------------- Iteration      1(   9)  ---------------------------------------


    POTLOK:  cpu time    0.4649: real time    0.4968
    SETDIJ:  cpu time    0.0413: real time    0.0413
    EDDIAG:  cpu time    7.5952: real time    7.6094
  RMM-DIIS:  cpu time   24.4089: real time   24.5091
    ORTHCH:  cpu time    0.3864: real time    0.3981
       DOS:  cpu time    0.0257: real time    0.0257
    CHARGE:  cpu time    3.0305: real time    3.0335
    MIXING:  cpu time    0.0100: real time    0.0100
    --------------------------------------------
      LOOP:  cpu time   35.9630: real time   36.1239

 eigenvalue-minimisations  :  8172
 total energy-change (2. order) : 0.1294506E+02  (-0.3127798E+01)
 number of electron     283.0000007 magnetization      18.0932453
 augmentation part      101.5769569 magnetization       9.8486216

 Broyden mixing:
  rms(total) = 0.39886E+01    rms(broyden)= 0.39876E+01
  rms(prec ) = 0.41889E+01
  weight for this iteration     100.00

 eigenvalues of (default mixing * dielectric matrix)
  average eigenvalue GAMMA=   0.5455
  1.0192  0.5362  0.4486  0.1778

 Free energy of the ion-electron system (eV)
  ---------------------------------------------------
  alpha Z        PSCENC =       367.19046233
  Ewald energy   TEWEN  =    349534.35230288
  -Hartree energ DENC   =   -378422.01010980
  -exchange      EXHF   =         0.00000000
  -V(xc)+E(xc)   XCENC  =      1413.96964784
  PAW double counting   =     31284.85112288   -31874.40616660
  entropy T*S    EENTRO =         0.00287388
  eigenvalues    EBANDS =     -5605.17850410
  atomic energy  EATOM  =     33037.69599157
  Solvation  Ediel_sol  =         0.00000000
  ---------------------------------------------------
  free energy    TOTEN  =      -263.53237913 eV

  energy without entropy =     -263.53525300  energy(sigma->0) =     -263.53333708


--------------------------------------------------------------------------------------------------------




--------------------------------------- Iteration      1(  10)  ---------------------------------------


    POTLOK:  cpu time    0.4647: real time    0.4971
    SETDIJ:  cpu time    0.0410: real time    0.0410
    EDDIAG:  cpu time    7.9059: real time    8.3029
  RMM-DIIS:  cpu time   24.0125: real time   24.0448
    ORTHCH:  cpu time    0.3873: real time    0.3873
       DOS:  cpu time    0.0265: real time    0.0265
    CHARGE:  cpu time    3.0090: real time    3.0130
    MIXING:  cpu time    0.0114: real time    0.0138
    --------------------------------------------
      LOOP:  cpu time   35.8584: real time   36.3264

 eigenvalue-minimisations  :  8035
 total energy-change (2. order) :-0.8216775E+01  (-0.2889017E+01)
 number of electron     283.0000010 magnetization      18.2684378
 augmentation part       99.2950500 magnetization      10.7766151

 Broyden mixing:
  rms(total) = 0.43922E+01    rms(broyden)= 0.43910E+01
  rms(prec ) = 0.46126E+01
  weight for this iteration     100.00

 eigenvalues of (default mixing * dielectric matrix)
  average eigenvalue GAMMA=   0.6400
  1.6749  0.5319  0.5319  0.2000  0.2615

 Free energy of the ion-electron system (eV)
  ---------------------------------------------------
  alpha Z        PSCENC =       367.19046233
  Ewald energy   TEWEN  =    349534.35230288
  -Hartree energ DENC   =   -378561.99898278
  -exchange      EXHF   =         0.00000000
  -V(xc)+E(xc)   XCENC  =      1416.15930630
  PAW double counting   =     32132.39494629   -32728.55017490
  entropy T*S    EENTRO =        -0.02119348
  eigenvalues    EBANDS =     -5468.97181233
  atomic energy  EATOM  =     33037.69599157
  Solvation  Ediel_sol  =         0.00000000
  ---------------------------------------------------
  free energy    TOTEN  =      -271.74915411 eV

  energy without entropy =     -271.72796064  energy(sigma->0) =     -271.74208962


--------------------------------------------------------------------------------------------------------




--------------------------------------- Iteration      1(  11)  ---------------------------------------


    POTLOK:  cpu time    0.4677: real time    0.4996
    SETDIJ:  cpu time    0.0411: real time    0.0411
    EDDIAG:  cpu time    7.5967: real time    7.6053
  RMM-DIIS:  cpu time   25.9367: real time   26.3392
    ORTHCH:  cpu time    0.3876: real time    0.3884
       DOS:  cpu time    0.0258: real time    0.0259
    CHARGE:  cpu time    3.0353: real time    3.0385
    MIXING:  cpu time    0.0103: real time    0.0103
    --------------------------------------------
      LOOP:  cpu time   37.5010: real time   37.9482

 eigenvalue-minimisations  :  8484
 total energy-change (2. order) : 0.1191943E+02  (-0.1623039E+01)
 number of electron     283.0000010 magnetization      18.3436618
 augmentation part      100.8525945 magnetization      10.6155637

 Broyden mixing:
  rms(total) = 0.23617E+01    rms(broyden)= 0.23609E+01
  rms(prec ) = 0.24717E+01
  weight for this iteration     100.00

 eigenvalues of (default mixing * dielectric matrix)
  average eigenvalue GAMMA=   0.6131
  1.6543  0.5531  0.5531  0.4516  0.1981  0.2686

 Free energy of the ion-electron system (eV)
  ---------------------------------------------------
  alpha Z        PSCENC =       367.19046233
  Ewald energy   TEWEN  =    349534.35230288
  -Hartree energ DENC   =   -378568.45706864
  -exchange      EXHF   =         0.00000000
  -V(xc)+E(xc)   XCENC  =      1417.39600110
  PAW double counting   =     32990.52345447   -33599.77832610
  entropy T*S    EENTRO =         0.00792841
  eigenvalues    EBANDS =     -5438.76047265
  atomic energy  EATOM  =     33037.69599157
  Solvation  Ediel_sol  =         0.00000000
  ---------------------------------------------------
  free energy    TOTEN  =      -259.82972663 eV

  energy without entropy =     -259.83765504  energy(sigma->0) =     -259.83236943


--------------------------------------------------------------------------------------------------------




--------------------------------------- Iteration      1(  12)  ---------------------------------------


    POTLOK:  cpu time    0.4644: real time    0.4967
    SETDIJ:  cpu time    0.0401: real time    0.0410
    EDDIAG:  cpu time    7.6002: real time    7.6089
  RMM-DIIS:  cpu time   23.9529: real time   23.9856
    ORTHCH:  cpu time    0.3870: real time    0.3870
       DOS:  cpu time    0.0269: real time    0.0269
    CHARGE:  cpu time    3.0482: real time    3.0515
    MIXING:  cpu time    0.0104: real time    0.0104
    --------------------------------------------
      LOOP:  cpu time   35.5302: real time   35.6079

 eigenvalue-minimisations  :  8067
 total energy-change (2. order) : 0.2187810E+01  (-0.5549024E+00)
 number of electron     283.0000007 magnetization      18.4218577
 augmentation part       99.9347621 magnetization      10.3888340

 Broyden mixing:
  rms(total) = 0.20904E+01    rms(broyden)= 0.20899E+01
  rms(prec ) = 0.21614E+01
  weight for this iteration     100.00

 eigenvalues of (default mixing * dielectric matrix)
  average eigenvalue GAMMA=   0.6119
  1.8595  0.6710  0.6710  0.3607  0.1975  0.2617  0.2617

 Free energy of the ion-electron system (eV)
  ---------------------------------------------------
  alpha Z        PSCENC =       367.19046233
  Ewald energy   TEWEN  =    349534.35230288
  -Hartree energ DENC   =   -378597.45374215
  -exchange      EXHF   =         0.00000000
  -V(xc)+E(xc)   XCENC  =      1417.58105124
  PAW double counting   =     33065.11069200   -33673.33038945
  entropy T*S    EENTRO =         0.00287636
  eigenvalues    EBANDS =     -5408.79116139
  atomic energy  EATOM  =     33037.69599157
  Solvation  Ediel_sol  =         0.00000000
  ---------------------------------------------------
  free energy    TOTEN  =      -257.64191661 eV

  energy without entropy =     -257.64479297  energy(sigma->0) =     -257.64287540


--------------------------------------------------------------------------------------------------------




--------------------------------------- Iteration      1(  13)  ---------------------------------------


    POTLOK:  cpu time    0.4655: real time    0.4972
    SETDIJ:  cpu time    0.0411: real time    0.0412
    EDDIAG:  cpu time    7.6611: real time    7.7238
  RMM-DIIS:  cpu time   24.7714: real time   25.0797
    ORTHCH:  cpu time    0.3880: real time    0.3880
       DOS:  cpu time    0.0251: real time    0.0251
    CHARGE:  cpu time    3.0339: real time    3.0433
    MIXING:  cpu time    0.0105: real time    0.0105
    --------------------------------------------
      LOOP:  cpu time   36.3965: real time   36.8090

 eigenvalue-minimisations  :  8133
 total energy-change (2. order) : 0.9047883E+00  (-0.1780818E+00)
 number of electron     283.0000007 magnetization      18.4623610
 augmentation part      100.2281007 magnetization      10.8710714

 Broyden mixing:
  rms(total) = 0.14101E+01    rms(broyden)= 0.14094E+01
  rms(prec ) = 0.14221E+01
  weight for this iteration     100.00

 eigenvalues of (default mixing * dielectric matrix)
  average eigenvalue GAMMA=   0.5700
  1.8433  0.6802  0.6802  0.2917  0.2917  0.3196  0.2058  0.2472

 Free energy of the ion-electron system (eV)
  ---------------------------------------------------
  alpha Z        PSCENC =       367.19046233
  Ewald energy   TEWEN  =    349534.35230288
  -Hartree energ DENC   =   -378582.50456682
  -exchange      EXHF   =         0.00000000
  -V(xc)+E(xc)   XCENC  =      1417.63182330
  PAW double counting   =     33149.62010909   -33758.94709442
  entropy T*S    EENTRO =         0.03586558
  eigenvalues    EBANDS =     -5421.81202183
  atomic energy  EATOM  =     33037.69599157
  Solvation  Ediel_sol  =         0.00000000
  ---------------------------------------------------
  free energy    TOTEN  =      -256.73712832 eV

  energy without entropy =     -256.77299390  energy(sigma->0) =     -256.74908351


--------------------------------------------------------------------------------------------------------




--------------------------------------- Iteration      1(  14)  ---------------------------------------


    POTLOK:  cpu time    0.4649: real time    0.4973
    SETDIJ:  cpu time    0.0410: real time    0.0410
    EDDIAG:  cpu time    7.6105: real time    7.6183
  RMM-DIIS:  cpu time   23.5245: real time   23.6848
    ORTHCH:  cpu time    0.3881: real time    0.3884
       DOS:  cpu time    0.0253: real time    0.0253
    CHARGE:  cpu time    3.0426: real time    3.0597
    MIXING:  cpu time    0.0107: real time    0.0107
    --------------------------------------------
      LOOP:  cpu time   35.1076: real time   35.3255

 eigenvalue-minimisations  :  7902
 total energy-change (2. order) :-0.1071612E+01  (-0.4017003E-01)
 number of electron     283.0000007 magnetization      18.5835782
 augmentation part      100.1597634 magnetization      10.9248151

 Broyden mixing:
  rms(total) = 0.11152E+01    rms(broyden)= 0.11149E+01
  rms(prec ) = 0.11312E+01
  weight for this iteration     100.00

 eigenvalues of (default mixing * dielectric matrix)
  average eigenvalue GAMMA=   0.6209
  1.8854  0.7460  0.7460  0.5447  0.5447  0.3428  0.3428  0.2067  0.2291

 Free energy of the ion-electron system (eV)
  ---------------------------------------------------
  alpha Z        PSCENC =       367.19046233
  Ewald energy   TEWEN  =    349534.35230288
  -Hartree energ DENC   =   -378587.78089989
  -exchange      EXHF   =         0.00000000
  -V(xc)+E(xc)   XCENC  =      1417.52278027
  PAW double counting   =     33126.29479625   -33734.48321412
  entropy T*S    EENTRO =         0.01787168
  eigenvalues    EBANDS =     -5418.61883152
  atomic energy  EATOM  =     33037.69599157
  Solvation  Ediel_sol  =         0.00000000
  ---------------------------------------------------
  free energy    TOTEN  =      -257.80874055 eV

  energy without entropy =     -257.82661223  energy(sigma->0) =     -257.81469778


--------------------------------------------------------------------------------------------------------




--------------------------------------- Iteration      1(  15)  ---------------------------------------


    POTLOK:  cpu time    0.4649: real time    0.4963
    SETDIJ:  cpu time    0.0411: real time    0.0411
    EDDIAG:  cpu time    7.9849: real time    8.1370
  RMM-DIIS:  cpu time   22.1933: real time   22.3237
    ORTHCH:  cpu time    0.3885: real time    0.3885
       DOS:  cpu time    0.0242: real time    0.0242
    CHARGE:  cpu time    3.0343: real time    3.0381
    MIXING:  cpu time    0.0122: real time    0.0122
    --------------------------------------------
      LOOP:  cpu time   34.1434: real time   34.4611

 eigenvalue-minimisations  :  7361
 total energy-change (2. order) :-0.3739265E+00  (-0.8500060E-01)
 number of electron     283.0000008 magnetization      18.7881968
 augmentation part      100.2581868 magnetization      11.1021145

 Broyden mixing:
  rms(total) = 0.79082E+00    rms(broyden)= 0.79039E+00
  rms(prec ) = 0.80971E+00
  weight for this iteration     100.00

 eigenvalues of (default mixing * dielectric matrix)
  average eigenvalue GAMMA=   0.6769
  1.4526  1.4526  0.7809  0.7809  0.5690  0.5690  0.3640  0.3640  0.2069  0.2285

 Free energy of the ion-electron system (eV)
  ---------------------------------------------------
  alpha Z        PSCENC =       367.19046233
  Ewald energy   TEWEN  =    349534.35230288
  -Hartree energ DENC   =   -378597.99961829
  -exchange      EXHF   =         0.00000000
  -V(xc)+E(xc)   XCENC  =      1417.35277532
  PAW double counting   =     33157.04091004   -33765.40315034
  entropy T*S    EENTRO =         0.01303406
  eigenvalues    EBANDS =     -5408.42537466
  atomic energy  EATOM  =     33037.69599157
  Solvation  Ediel_sol  =         0.00000000
  ---------------------------------------------------
  free energy    TOTEN  =      -258.18266708 eV

  energy without entropy =     -258.19570114  energy(sigma->0) =     -258.18701177


--------------------------------------------------------------------------------------------------------




--------------------------------------- Iteration      1(  16)  ---------------------------------------


    POTLOK:  cpu time    0.4644: real time    0.4961
    SETDIJ:  cpu time    0.0410: real time    0.0410
    EDDIAG:  cpu time    7.6011: real time    7.6102
  RMM-DIIS:  cpu time   22.5579: real time   22.6920
    ORTHCH:  cpu time    0.4041: real time    0.4334
       DOS:  cpu time    0.0268: real time    0.0268
    CHARGE:  cpu time    3.2371: real time    3.2958
    MIXING:  cpu time    0.0118: real time    0.0125
    --------------------------------------------
      LOOP:  cpu time   34.3442: real time   34.6077

 eigenvalue-minimisations  :  7488
 total energy-change (2. order) :-0.5514245E-01  (-0.1056412E+00)
 number of electron     283.0000008 magnetization      18.8311780
 augmentation part      100.5602094 magnetization      11.5971563

 Broyden mixing:
  rms(total) = 0.88812E+00    rms(broyden)= 0.88773E+00
  rms(prec ) = 0.89822E+00
  weight for this iteration     100.00

 eigenvalues of (default mixing * dielectric matrix)
  average eigenvalue GAMMA=   0.6387
  1.4772  1.4772  0.8024  0.8024  0.5436  0.5436  0.3598  0.3598  0.2054  0.2275
  0.2275

 Free energy of the ion-electron system (eV)
  ---------------------------------------------------
  alpha Z        PSCENC =       367.19046233
  Ewald energy   TEWEN  =    349534.35230288
  -Hartree energ DENC   =   -378597.03966219
  -exchange      EXHF   =         0.00000000
  -V(xc)+E(xc)   XCENC  =      1417.06300458
  PAW double counting   =     33145.44453994   -33752.87534195
  entropy T*S    EENTRO =        -0.01983112
  eigenvalues    EBANDS =     -5410.04927557
  atomic energy  EATOM  =     33037.69599157
  Solvation  Ediel_sol  =         0.00000000
  ---------------------------------------------------
  free energy    TOTEN  =      -258.23780953 eV

  energy without entropy =     -258.21797841  energy(sigma->0) =     -258.23119916


--------------------------------------------------------------------------------------------------------




--------------------------------------- Iteration      1(  17)  ---------------------------------------


    POTLOK:  cpu time    0.4664: real time    0.5527
    SETDIJ:  cpu time    0.0416: real time    0.0416
    EDDIAG:  cpu time    7.5484: real time    7.6236
  RMM-DIIS:  cpu time   22.5182: real time   22.5482
    ORTHCH:  cpu time    0.3824: real time    0.3834
       DOS:  cpu time    0.0263: real time    0.0263
    CHARGE:  cpu time    2.9971: real time    3.0002
    MIXING:  cpu time    0.0114: real time    0.0114
    --------------------------------------------
      LOOP:  cpu time   33.9920: real time   34.1874

 eigenvalue-minimisations  :  7607
 total energy-change (2. order) :-0.2701794E+00  (-0.1815832E-01)
 number of electron     283.0000006 magnetization      18.8311626
 augmentation part      100.7191326 magnetization      12.2205586

 Broyden mixing:
  rms(total) = 0.11533E+01    rms(broyden)= 0.11522E+01
  rms(prec ) = 0.11866E+01
  weight for this iteration     100.00

 eigenvalues of (default mixing * dielectric matrix)
  average eigenvalue GAMMA=   0.6014
  1.4700  1.4700  0.8313  0.8313  0.5329  0.5329  0.3739  0.3739  0.2065  0.2317
  0.2694  0.0930

 Free energy of the ion-electron system (eV)
  ---------------------------------------------------
  alpha Z        PSCENC =       367.19046233
  Ewald energy   TEWEN  =    349534.35230288
  -Hartree energ DENC   =   -378609.42358844
  -exchange      EXHF   =         0.00000000
  -V(xc)+E(xc)   XCENC  =      1417.18802200
  PAW double counting   =     33173.94032810   -33782.23260566
  entropy T*S    EENTRO =         0.01745816
  eigenvalues    EBANDS =     -5397.23635984
  atomic energy  EATOM  =     33037.69599157
  Solvation  Ediel_sol  =         0.00000000
  ---------------------------------------------------
  free energy    TOTEN  =      -258.50798890 eV

  energy without entropy =     -258.52544706  energy(sigma->0) =     -258.51380829


--------------------------------------------------------------------------------------------------------




--------------------------------------- Iteration      1(  18)  ---------------------------------------


    POTLOK:  cpu time    0.4633: real time    0.4949
    SETDIJ:  cpu time    0.0411: real time    0.0411
    EDDIAG:  cpu time    7.6266: real time    7.6795
  RMM-DIIS:  cpu time   23.0457: real time   23.3753
    ORTHCH:  cpu time    0.3875: real time    0.3885
       DOS:  cpu time    0.0257: real time    0.0258
    CHARGE:  cpu time    3.0455: real time    3.0485
    MIXING:  cpu time    0.0118: real time    0.0118
    --------------------------------------------
      LOOP:  cpu time   34.6472: real time   35.0653

 eigenvalue-minimisations  :  7475
 total energy-change (2. order) :-0.3778705E+00  (-0.1187571E-01)
 number of electron     283.0000006 magnetization      18.8375368
 augmentation part      100.6742567 magnetization      12.2011704

 Broyden mixing:
  rms(total) = 0.11135E+01    rms(broyden)= 0.11134E+01
  rms(prec ) = 0.11436E+01
  weight for this iteration     100.00

 eigenvalues of (default mixing * dielectric matrix)
  average eigenvalue GAMMA=   0.5657
  1.4371  1.4371  0.8342  0.8342  0.5438  0.5438  0.3786  0.3786  0.2065  0.2310
  0.2762  0.1656  0.0873

 Free energy of the ion-electron system (eV)
  ---------------------------------------------------
  alpha Z        PSCENC =       367.19046233
  Ewald energy   TEWEN  =    349534.35230288
  -Hartree energ DENC   =   -378608.94646036
  -exchange      EXHF   =         0.00000000
  -V(xc)+E(xc)   XCENC  =      1417.20153221
  PAW double counting   =     33175.66576839   -33783.84668025
  entropy T*S    EENTRO =         0.01003851
  eigenvalues    EBANDS =     -5398.20881467
  atomic energy  EATOM  =     33037.69599157
  Solvation  Ediel_sol  =         0.00000000
  ---------------------------------------------------
  free energy    TOTEN  =      -258.88585939 eV

  energy without entropy =     -258.89589790  energy(sigma->0) =     -258.88920556


--------------------------------------------------------------------------------------------------------




--------------------------------------- Iteration      1(  19)  ---------------------------------------


    POTLOK:  cpu time    0.4629: real time    0.4959
    SETDIJ:  cpu time    0.0413: real time    0.0412
    EDDIAG:  cpu time    7.5968: real time    7.6112
  RMM-DIIS:  cpu time   22.9784: real time   23.0064
    ORTHCH:  cpu time    0.4046: real time    0.4065
       DOS:  cpu time    0.0262: real time    0.0262
    CHARGE:  cpu time    3.0795: real time    3.1137
    MIXING:  cpu time    0.0120: real time    0.0120
    --------------------------------------------
      LOOP:  cpu time   34.6018: real time   34.7132

 eigenvalue-minimisations  :  7699
 total energy-change (2. order) :-0.4311067E-01  (-0.1985587E-02)
 number of electron     283.0000006 magnetization      18.8425957
 augmentation part      100.6841368 magnetization      12.2303294

 Broyden mixing:
  rms(total) = 0.11283E+01    rms(broyden)= 0.11283E+01
  rms(prec ) = 0.11606E+01
  weight for this iteration     100.00

 eigenvalues of (default mixing * dielectric matrix)
  average eigenvalue GAMMA=   0.5907
  1.4973  1.4973  0.8255  0.8255  0.3589  0.3589  0.5448  0.5448  0.4351  0.4351
  0.3177  0.2280  0.2072  0.1932

 Free energy of the ion-electron system (eV)
  ---------------------------------------------------
  alpha Z        PSCENC =       367.19046233
  Ewald energy   TEWEN  =    349534.35230288
  -Hartree energ DENC   =   -378608.14596134
  -exchange      EXHF   =         0.00000000
  -V(xc)+E(xc)   XCENC  =      1417.17216313
  PAW double counting   =     33178.23152731   -33786.35333159
  entropy T*S    EENTRO =         0.01184395
  eigenvalues    EBANDS =     -5399.08396831
  atomic energy  EATOM  =     33037.69599157
  Solvation  Ediel_sol  =         0.00000000
  ---------------------------------------------------
  free energy    TOTEN  =      -258.92897006 eV

  energy without entropy =     -258.94081402  energy(sigma->0) =     -258.93291805


--------------------------------------------------------------------------------------------------------




--------------------------------------- Iteration      1(  20)  ---------------------------------------


    POTLOK:  cpu time    0.4682: real time    0.5095
    SETDIJ:  cpu time    0.0411: real time    0.0411
    EDDIAG:  cpu time    7.6294: real time    7.6545
  RMM-DIIS:  cpu time   23.0877: real time   23.3972
    ORTHCH:  cpu time    0.3880: real time    0.3880
       DOS:  cpu time    0.0245: real time    0.0245
    CHARGE:  cpu time    3.0388: real time    3.0424
    MIXING:  cpu time    0.0131: real time    0.0131
    --------------------------------------------
      LOOP:  cpu time   34.6908: real time   35.0703

 eigenvalue-minimisations  :  7598
 total energy-change (2. order) : 0.2294982E-01  (-0.3445406E-02)
 number of electron     283.0000006 magnetization      18.8453632
 augmentation part      100.6616548 magnetization      12.1952188

 Broyden mixing:
  rms(total) = 0.11142E+01    rms(broyden)= 0.11142E+01
  rms(prec ) = 0.11427E+01
  weight for this iteration     100.00

 eigenvalues of (default mixing * dielectric matrix)
  average eigenvalue GAMMA=   0.5904
  1.5070  1.5070  0.8103  0.8103  0.4974  0.4974  0.5621  0.5621  0.4134  0.4134
  0.3011  0.3011  0.2063  0.2332  0.2332

 Free energy of the ion-electron system (eV)
  ---------------------------------------------------
  alpha Z        PSCENC =       367.19046233
  Ewald energy   TEWEN  =    349534.35230288
  -Hartree energ DENC   =   -378609.27881230
  -exchange      EXHF   =         0.00000000
  -V(xc)+E(xc)   XCENC  =      1417.24160264
  PAW double counting   =     33171.49746011   -33779.55339107
  entropy T*S    EENTRO =         0.01461992
  eigenvalues    EBANDS =     -5398.06625632
  atomic energy  EATOM  =     33037.69599157
  Solvation  Ediel_sol  =         0.00000000
  ---------------------------------------------------
  free energy    TOTEN  =      -258.90602024 eV

  energy without entropy =     -258.92064016  energy(sigma->0) =     -258.91089355


--------------------------------------------------------------------------------------------------------




--------------------------------------- Iteration      1(  21)  ---------------------------------------


    POTLOK:  cpu time    0.4640: real time    0.4947
    SETDIJ:  cpu time    0.0412: real time    0.0412
    EDDIAG:  cpu time    7.5899: real time    7.5985
  RMM-DIIS:  cpu time   22.6430: real time   22.7318
    ORTHCH:  cpu time    0.3879: real time    0.3879
       DOS:  cpu time    0.0256: real time    0.0257
    CHARGE:  cpu time    3.0372: real time    3.0411
    MIXING:  cpu time    0.0129: real time    0.0129
    --------------------------------------------
      LOOP:  cpu time   34.2017: real time   34.3338

 eigenvalue-minimisations  :  7524
 total energy-change (2. order) :-0.5788651E-02  (-0.5611434E-02)
 number of electron     283.0000006 magnetization      18.8263226
 augmentation part      100.6303362 magnetization      12.1405654

 Broyden mixing:
  rms(total) = 0.10942E+01    rms(broyden)= 0.10942E+01
  rms(prec ) = 0.11196E+01
  weight for this iteration     100.00

 eigenvalues of (default mixing * dielectric matrix)
  average eigenvalue GAMMA=   0.5590
  1.5073  1.5073  0.8097  0.8097  0.4803  0.4803  0.5635  0.5635  0.4190  0.4190
  0.3196  0.3196  0.2062  0.2277  0.2277  0.0833

 Free energy of the ion-electron system (eV)
  ---------------------------------------------------
  alpha Z        PSCENC =       367.19046233
  Ewald energy   TEWEN  =    349534.35230288
  -Hartree energ DENC   =   -378611.98522135
  -exchange      EXHF   =         0.00000000
  -V(xc)+E(xc)   XCENC  =      1417.32931414
  PAW double counting   =     33165.09233213   -33772.98448495
  entropy T*S    EENTRO =         0.01412947
  eigenvalues    EBANDS =     -5395.61663511
  atomic energy  EATOM  =     33037.69599157
  Solvation  Ediel_sol  =         0.00000000
  ---------------------------------------------------
  free energy    TOTEN  =      -258.91180890 eV

  energy without entropy =     -258.92593837  energy(sigma->0) =     -258.91651872


--------------------------------------------------------------------------------------------------------




--------------------------------------- Iteration      1(  22)  ---------------------------------------


    POTLOK:  cpu time    0.4888: real time    0.5320
    SETDIJ:  cpu time    0.0410: real time    0.0410
    EDDIAG:  cpu time    7.9063: real time    8.2618
  RMM-DIIS:  cpu time   22.3818: real time   22.4146
    ORTHCH:  cpu time    0.3880: real time    0.3880
       DOS:  cpu time    0.0256: real time    0.0256
    CHARGE:  cpu time    3.0422: real time    3.0452
    MIXING:  cpu time    0.0132: real time    0.0132
    --------------------------------------------
      LOOP:  cpu time   34.2869: real time   34.7215

 eigenvalue-minimisations  :  7477
 total energy-change (2. order) : 0.1765347E+00  (-0.3208408E-01)
 number of electron     283.0000006 magnetization      18.7976966
 augmentation part      100.5638164 magnetization      12.0446270

 Broyden mixing:
  rms(total) = 0.10475E+01    rms(broyden)= 0.10475E+01
  rms(prec ) = 0.10690E+01
  weight for this iteration     100.00

 eigenvalues of (default mixing * dielectric matrix)
  average eigenvalue GAMMA=   0.6292
  1.4921  1.4921  0.7266  0.7266  0.8220  0.8220  0.5813  0.5813  0.5479  0.5479
  0.4923  0.4923  0.3618  0.3618  0.2057  0.2211  0.2211

 Free energy of the ion-electron system (eV)
  ---------------------------------------------------
  alpha Z        PSCENC =       367.19046233
  Ewald energy   TEWEN  =    349534.35230288
  -Hartree energ DENC   =   -378624.07137065
  -exchange      EXHF   =         0.00000000
  -V(xc)+E(xc)   XCENC  =      1417.54307174
  PAW double counting   =     33158.98171146   -33766.40643419
  entropy T*S    EENTRO =        -0.00199479
  eigenvalues    EBANDS =     -5384.01901454
  atomic energy  EATOM  =     33037.69599157
  Solvation  Ediel_sol  =         0.00000000
  ---------------------------------------------------
  free energy    TOTEN  =      -258.73527418 eV

  energy without entropy =     -258.73327940  energy(sigma->0) =     -258.73460926


--------------------------------------------------------------------------------------------------------




--------------------------------------- Iteration      1(  23)  ---------------------------------------


    POTLOK:  cpu time    0.4628: real time    0.4956
    SETDIJ:  cpu time    0.0411: real time    0.0411
    EDDIAG:  cpu time    7.5852: real time    7.5939
  RMM-DIIS:  cpu time   23.0757: real time   23.5932
    ORTHCH:  cpu time    0.3853: real time    0.3853
       DOS:  cpu time    0.0263: real time    0.0263
    CHARGE:  cpu time    2.9967: real time    2.9994
    MIXING:  cpu time    0.0137: real time    0.0137
    --------------------------------------------
      LOOP:  cpu time   34.5866: real time   35.1484

 eigenvalue-minimisations  :  7454
 total energy-change (2. order) : 0.2556392E+00  (-0.3348003E-01)
 number of electron     283.0000006 magnetization      18.7942594
 augmentation part      100.4400011 magnetization      11.9390052

 Broyden mixing:
  rms(total) = 0.98967E+00    rms(broyden)= 0.98958E+00
  rms(prec ) = 0.99649E+00
  weight for this iteration     100.00

 eigenvalues of (default mixing * dielectric matrix)
  average eigenvalue GAMMA=   0.6367
  1.4707  1.4707  0.8188  0.8188  0.6853  0.6853  0.8045  0.8045  0.5887  0.5887
  0.4636  0.4636  0.4064  0.4064  0.3384  0.2056  0.2227  0.2186

 Free energy of the ion-electron system (eV)
  ---------------------------------------------------
  alpha Z        PSCENC =       367.19046233
  Ewald energy   TEWEN  =    349534.35230288
  -Hartree energ DENC   =   -378638.91852581
  -exchange      EXHF   =         0.00000000
  -V(xc)+E(xc)   XCENC  =      1417.75249562
  PAW double counting   =     33160.07232566   -33766.91308225
  entropy T*S    EENTRO =        -0.00819499
  eigenvalues    EBANDS =     -5369.70341001
  atomic energy  EATOM  =     33037.69599157
  Solvation  Ediel_sol  =         0.00000000
  ---------------------------------------------------
  free energy    TOTEN  =      -258.47963501 eV

  energy without entropy =     -258.47144002  energy(sigma->0) =     -258.47690334


--------------------------------------------------------------------------------------------------------




--------------------------------------- Iteration      1(  24)  ---------------------------------------


    POTLOK:  cpu time    0.4631: real time    0.4955
    SETDIJ:  cpu time    0.0409: real time    0.0409
    EDDIAG:  cpu time    7.5365: real time    7.5442
  RMM-DIIS:  cpu time   22.2212: real time   22.2514
    ORTHCH:  cpu time    0.3858: real time    0.3869
       DOS:  cpu time    0.0246: real time    0.0246
    CHARGE:  cpu time    2.9997: real time    3.0027
    MIXING:  cpu time    0.0140: real time    0.0140
    --------------------------------------------
      LOOP:  cpu time   33.6859: real time   33.7602

 eigenvalue-minimisations  :  7493
 total energy-change (2. order) :-0.2829990E+00  (-0.1125412E-01)
 number of electron     283.0000008 magnetization      18.7920886
 augmentation part      100.2472133 magnetization      11.7232258

 Broyden mixing:
  rms(total) = 0.11274E+01    rms(broyden)= 0.11268E+01
  rms(prec ) = 0.11381E+01
  weight for this iteration     100.00

 eigenvalues of (default mixing * dielectric matrix)
  average eigenvalue GAMMA=   0.6185
  1.4704  1.4704  0.8257  0.8257  0.7341  0.7341  0.7922  0.7922  0.6104  0.6104
  0.4859  0.4859  0.4090  0.4090  0.3428  0.2056  0.2223  0.2192  0.1068

 Free energy of the ion-electron system (eV)
  ---------------------------------------------------
  alpha Z        PSCENC =       367.19046233
  Ewald energy   TEWEN  =    349534.35230288
  -Hartree energ DENC   =   -378645.21245342
  -exchange      EXHF   =         0.00000000
  -V(xc)+E(xc)   XCENC  =      1417.84279967
  PAW double counting   =     33161.06600903   -33767.65337841
  entropy T*S    EENTRO =         0.00609758
  eigenvalues    EBANDS =     -5364.05046519
  atomic energy  EATOM  =     33037.69599157
  Solvation  Ediel_sol  =         0.00000000
  ---------------------------------------------------
  free energy    TOTEN  =      -258.76263396 eV

  energy without entropy =     -258.76873154  energy(sigma->0) =     -258.76466648


--------------------------------------------------------------------------------------------------------




--------------------------------------- Iteration      1(  25)  ---------------------------------------


    POTLOK:  cpu time    0.4639: real time    0.4949
    SETDIJ:  cpu time    0.0404: real time    0.0413
    EDDIAG:  cpu time    7.6048: real time    7.6726
  RMM-DIIS:  cpu time   22.3861: real time   22.9253
    ORTHCH:  cpu time    0.3872: real time    0.3872
       DOS:  cpu time    0.0227: real time    0.0227
    CHARGE:  cpu time    3.0257: real time    3.0286
    MIXING:  cpu time    0.0149: real time    0.0149
    --------------------------------------------
      LOOP:  cpu time   33.9456: real time   34.5875

 eigenvalue-minimisations  :  7267
 total energy-change (2. order) :-0.2013522E+00  (-0.4061664E-02)
 number of electron     283.0000008 magnetization      18.8580129
 augmentation part      100.1787276 magnetization      11.7269398

 Broyden mixing:
  rms(total) = 0.13023E+01    rms(broyden)= 0.13021E+01
  rms(prec ) = 0.13203E+01
  weight for this iteration     100.00

 eigenvalues of (default mixing * dielectric matrix)
  average eigenvalue GAMMA=   0.6583
  1.6948  1.6948  0.8436  0.8436  0.7577  0.7577  0.7208  0.7208  0.7501  0.7501
  0.5197  0.5197  0.5410  0.5410  0.3930  0.3534  0.2057  0.2214  0.2202  0.1165

 Free energy of the ion-electron system (eV)
  ---------------------------------------------------
  alpha Z        PSCENC =       367.19046233
  Ewald energy   TEWEN  =    349534.35230288
  -Hartree energ DENC   =   -378644.97362048
  -exchange      EXHF   =         0.00000000
  -V(xc)+E(xc)   XCENC  =      1417.88074427
  PAW double counting   =     33162.68899619   -33769.71513557
  entropy T*S    EENTRO =         0.01247208
  eigenvalues    EBANDS =     -5364.09619946
  atomic energy  EATOM  =     33037.69599157
  Solvation  Ediel_sol  =         0.00000000
  ---------------------------------------------------
  free energy    TOTEN  =      -258.96398620 eV

  energy without entropy =     -258.97645828  energy(sigma->0) =     -258.96814356


--------------------------------------------------------------------------------------------------------




--------------------------------------- Iteration      1(  26)  ---------------------------------------


    POTLOK:  cpu time    0.4629: real time    0.4947
    SETDIJ:  cpu time    0.0410: real time    0.0410
    EDDIAG:  cpu time    7.6016: real time    7.6174
  RMM-DIIS:  cpu time   22.5240: real time   22.6107
    ORTHCH:  cpu time    0.3877: real time    0.3877
       DOS:  cpu time    0.0261: real time    0.0261
    CHARGE:  cpu time    3.0369: real time    3.0549
    MIXING:  cpu time    0.0147: real time    0.0172
    --------------------------------------------
      LOOP:  cpu time   34.0950: real time   34.2498

 eigenvalue-minimisations  :  7483
 total energy-change (2. order) : 0.3789877E+00  (-0.5217951E-01)
 number of electron     283.0000008 magnetization      18.8667028
 augmentation part      100.3419833 magnetization      11.8346030

 Broyden mixing:
  rms(total) = 0.11572E+01    rms(broyden)= 0.11571E+01
  rms(prec ) = 0.11627E+01
  weight for this iteration     100.00

 eigenvalues of (default mixing * dielectric matrix)
  average eigenvalue GAMMA=   0.6397
  1.7033  1.7033  0.8631  0.8631  0.7994  0.7994  0.7318  0.7318  0.7435  0.7435
  0.5222  0.5222  0.5327  0.5327  0.3893  0.3547  0.2056  0.2212  0.2203  0.1668
  0.0828

 Free energy of the ion-electron system (eV)
  ---------------------------------------------------
  alpha Z        PSCENC =       367.19046233
  Ewald energy   TEWEN  =    349534.35230288
  -Hartree energ DENC   =   -378628.12593166
  -exchange      EXHF   =         0.00000000
  -V(xc)+E(xc)   XCENC  =      1417.87094654
  PAW double counting   =     33144.16554437   -33751.28042098
  entropy T*S    EENTRO =         0.00254254
  eigenvalues    EBANDS =     -5380.45643613
  atomic energy  EATOM  =     33037.69599157
  Solvation  Ediel_sol  =         0.00000000
  ---------------------------------------------------
  free energy    TOTEN  =      -258.58499853 eV

  energy without entropy =     -258.58754107  energy(sigma->0) =     -258.58584605


--------------------------------------------------------------------------------------------------------




--------------------------------------- Iteration      1(  27)  ---------------------------------------


    POTLOK:  cpu time    0.4633: real time    0.4950
    SETDIJ:  cpu time    0.0411: real time    0.0412
    EDDIAG:  cpu time    7.6906: real time    7.7238
  RMM-DIIS:  cpu time   24.6498: real time   24.9541
    ORTHCH:  cpu time    0.3875: real time    0.3886
       DOS:  cpu time    0.0261: real time    0.0261
    CHARGE:  cpu time    3.0361: real time    3.0390
    MIXING:  cpu time    0.0152: real time    0.0152
    --------------------------------------------
      LOOP:  cpu time   36.3096: real time   36.6828

 eigenvalue-minimisations  :  8083
 total energy-change (2. order) :-0.2568119E+00  (-0.9688675E-02)
 number of electron     283.0000007 magnetization      18.8535819
 augmentation part      100.5120965 magnetization      11.9849474

 Broyden mixing:
  rms(total) = 0.11875E+01    rms(broyden)= 0.11871E+01
  rms(prec ) = 0.12049E+01
  weight for this iteration     100.00

 eigenvalues of (default mixing * dielectric matrix)
  average eigenvalue GAMMA=   0.6302
  1.6771  1.6771  0.8950  0.8950  0.8567  0.8567  0.6886  0.6886  0.7258  0.7258
  0.5222  0.5222  0.5120  0.5120  0.3892  0.3541  0.2057  0.2215  0.2200  0.3084
  0.3084  0.1017

 Free energy of the ion-electron system (eV)
  ---------------------------------------------------
  alpha Z        PSCENC =       367.19046233
  Ewald energy   TEWEN  =    349534.35230288
  -Hartree energ DENC   =   -378625.38664883
  -exchange      EXHF   =         0.00000000
  -V(xc)+E(xc)   XCENC  =      1417.86089126
  PAW double counting   =     33141.84578330   -33748.99033877
  entropy T*S    EENTRO =         0.01195378
  eigenvalues    EBANDS =     -5383.42220791
  atomic energy  EATOM  =     33037.69599157
  Solvation  Ediel_sol  =         0.00000000
  ---------------------------------------------------
  free energy    TOTEN  =      -258.84181039 eV

  energy without entropy =     -258.85376417  energy(sigma->0) =     -258.84579499


--------------------------------------------------------------------------------------------------------




--------------------------------------- Iteration      1(  28)  ---------------------------------------


    POTLOK:  cpu time    0.4631: real time    0.4947
    SETDIJ:  cpu time    0.0412: real time    0.0412
    EDDIAG:  cpu time    7.6023: real time    7.6099
  RMM-DIIS:  cpu time   22.0803: real time   22.2142
    ORTHCH:  cpu time    0.3867: real time    0.3868
       DOS:  cpu time    0.0257: real time    0.0257
    CHARGE:  cpu time    3.0774: real time    3.1186
    MIXING:  cpu time    0.0161: real time    0.0161
    --------------------------------------------
      LOOP:  cpu time   33.6929: real time   33.9074

 eigenvalue-minimisations  :  7332
 total energy-change (2. order) :-0.1071203E+00  (-0.9971110E-02)
 number of electron     283.0000006 magnetization      18.8503645
 augmentation part      100.4988924 magnetization      12.0087937

 Broyden mixing:
  rms(total) = 0.10519E+01    rms(broyden)= 0.10517E+01
  rms(prec ) = 0.10695E+01
  weight for this iteration     100.00

 eigenvalues of (default mixing * dielectric matrix)
  average eigenvalue GAMMA=   0.6537
  1.7453  0.9148  0.9148  0.9320  0.9320  1.1443  0.8866  0.8866  0.7988  0.7988
  0.4500  0.4500  0.6266  0.6266  0.5131  0.5131  0.4018  0.4018  0.3506  0.2056
  0.2217  0.2199  0.1006

 Free energy of the ion-electron system (eV)
  ---------------------------------------------------
  alpha Z        PSCENC =       367.19046233
  Ewald energy   TEWEN  =    349534.35230288
  -Hartree energ DENC   =   -378633.51629435
  -exchange      EXHF   =         0.00000000
  -V(xc)+E(xc)   XCENC  =      1417.86197996
  PAW double counting   =     33155.78400777   -33762.72331049
  entropy T*S    EENTRO =        -0.00691480
  eigenvalues    EBANDS =     -5375.58715551
  atomic energy  EATOM  =     33037.69599157
  Solvation  Ediel_sol  =         0.00000000
  ---------------------------------------------------
  free energy    TOTEN  =      -258.94893065 eV

  energy without entropy =     -258.94201585  energy(sigma->0) =     -258.94662572


--------------------------------------------------------------------------------------------------------




--------------------------------------- Iteration      1(  29)  ---------------------------------------


    POTLOK:  cpu time    0.4819: real time    0.5633
    SETDIJ:  cpu time    0.0411: real time    0.0411
    EDDIAG:  cpu time    8.0719: real time    8.2682
  RMM-DIIS:  cpu time   22.0396: real time   22.0687
    ORTHCH:  cpu time    0.3880: real time    0.3887
       DOS:  cpu time    0.0239: real time    0.0239
    CHARGE:  cpu time    3.0458: real time    3.0493
    MIXING:  cpu time    0.0164: real time    0.0165
    --------------------------------------------
      LOOP:  cpu time   34.1085: real time   34.4196

 eigenvalue-minimisations  :  7355
 total energy-change (2. order) :-0.5846149E+00  (-0.6353341E-01)
 number of electron     283.0000008 magnetization      18.8803737
 augmentation part      100.1265759 magnetization      11.6955120

 Broyden mixing:
  rms(total) = 0.11847E+01    rms(broyden)= 0.11837E+01
  rms(prec ) = 0.12056E+01
  weight for this iteration     100.00

 eigenvalues of (default mixing * dielectric matrix)
  average eigenvalue GAMMA=   0.6604
  2.0234  0.9034  0.9034  1.0433  1.0433  0.9260  0.9260  0.9142  0.7592  0.7592
  0.4591  0.4591  0.6427  0.6427  0.5092  0.5092  0.4948  0.4456  0.3861  0.3525
  0.2057  0.2216  0.2199  0.1007

 Free energy of the ion-electron system (eV)
  ---------------------------------------------------
  alpha Z        PSCENC =       367.19046233
  Ewald energy   TEWEN  =    349534.35230288
  -Hartree energ DENC   =   -378662.99092007
  -exchange      EXHF   =         0.00000000
  -V(xc)+E(xc)   XCENC  =      1418.02840298
  PAW double counting   =     33204.89812807   -33810.90888016
  entropy T*S    EENTRO =         0.01318397
  eigenvalues    EBANDS =     -5347.81221716
  atomic energy  EATOM  =     33037.69599157
  Solvation  Ediel_sol  =         0.00000000
  ---------------------------------------------------
  free energy    TOTEN  =      -259.53354558 eV

  energy without entropy =     -259.54672956  energy(sigma->0) =     -259.53794024


--------------------------------------------------------------------------------------------------------




--------------------------------------- Iteration      1(  30)  ---------------------------------------


    POTLOK:  cpu time    0.4638: real time    0.4962
    SETDIJ:  cpu time    0.0408: real time    0.0408
    EDDIAG:  cpu time    7.6049: real time    7.6128
  RMM-DIIS:  cpu time   23.1020: real time   23.6443
    ORTHCH:  cpu time    0.3870: real time    0.3880
       DOS:  cpu time    0.0247: real time    0.0247
    CHARGE:  cpu time    3.0452: real time    3.0482
    MIXING:  cpu time    0.0182: real time    0.0182
    --------------------------------------------
      LOOP:  cpu time   34.6865: real time   35.2733

 eigenvalue-minimisations  :  7450
 total energy-change (2. order) :-0.1038385E+01  (-0.4280281E-01)
 number of electron     283.0000009 magnetization      18.8970792
 augmentation part      100.0599248 magnetization      11.6571044

 Broyden mixing:
  rms(total) = 0.12357E+01    rms(broyden)= 0.12356E+01
  rms(prec ) = 0.12614E+01
  weight for this iteration     100.00

 eigenvalues of (default mixing * dielectric matrix)
  average eigenvalue GAMMA=   0.6513
  2.0808  0.9022  0.9022  1.1057  1.1057  0.9525  0.9525  0.7389  0.7389  0.4530
  0.4530  0.5368  0.5368  0.6296  0.6296  0.6306  0.5178  0.5178  0.3999  0.3999
  0.3508  0.2057  0.2216  0.2199  0.1006

 Free energy of the ion-electron system (eV)
  ---------------------------------------------------
  alpha Z        PSCENC =       367.19046233
  Ewald energy   TEWEN  =    349534.35230288
  -Hartree energ DENC   =   -378687.38591847
  -exchange      EXHF   =         0.00000000
  -V(xc)+E(xc)   XCENC  =      1418.31486365
  PAW double counting   =     33246.88946450   -33852.63660557
  entropy T*S    EENTRO =         0.02195698
  eigenvalues    EBANDS =     -5325.01444827
  atomic energy  EATOM  =     33037.69599157
  Solvation  Ediel_sol  =         0.00000000
  ---------------------------------------------------
  free energy    TOTEN  =      -260.57193040 eV

  energy without entropy =     -260.59388737  energy(sigma->0) =     -260.57924939


--------------------------------------------------------------------------------------------------------




--------------------------------------- Iteration      1(  31)  ---------------------------------------


    POTLOK:  cpu time    0.4685: real time    0.5004
    SETDIJ:  cpu time    0.0414: real time    0.0414
    EDDIAG:  cpu time    7.5920: real time    7.5999
  RMM-DIIS:  cpu time   23.7422: real time   23.7682
    ORTHCH:  cpu time    0.3947: real time    0.3981
       DOS:  cpu time    0.0249: real time    0.0249
    CHARGE:  cpu time    3.0308: real time    3.0345
    MIXING:  cpu time    0.0176: real time    0.0176
    --------------------------------------------
      LOOP:  cpu time   35.3123: real time   35.3851

 eigenvalue-minimisations  :  7930
 total energy-change (2. order) :-0.1810549E+00  (-0.6765555E-02)
 number of electron     283.0000009 magnetization      18.9430505
 augmentation part      100.0506416 magnetization      11.6804786

 Broyden mixing:
  rms(total) = 0.11998E+01    rms(broyden)= 0.11998E+01
  rms(prec ) = 0.12266E+01
  weight for this iteration     100.00

 eigenvalues of (default mixing * dielectric matrix)
  average eigenvalue GAMMA=   0.6927
  2.1643  1.2295  1.2295  0.9034  0.9034  1.0857  1.0857  0.8408  0.8408  0.6549
  0.6549  0.7324  0.7324  0.4551  0.4551  0.5114  0.5114  0.5526  0.5526  0.4211
  0.3925  0.3516  0.2057  0.2216  0.2199  0.1007

 Free energy of the ion-electron system (eV)
  ---------------------------------------------------
  alpha Z        PSCENC =       367.19046233
  Ewald energy   TEWEN  =    349534.35230288
  -Hartree energ DENC   =   -378695.16944893
  -exchange      EXHF   =         0.00000000
  -V(xc)+E(xc)   XCENC  =      1418.36591121
  PAW double counting   =     33259.67512679   -33865.45961450
  entropy T*S    EENTRO =         0.02133583
  eigenvalues    EBANDS =     -5317.42505252
  atomic energy  EATOM  =     33037.69599157
  Solvation  Ediel_sol  =         0.00000000
  ---------------------------------------------------
  free energy    TOTEN  =      -260.75298534 eV

  energy without entropy =     -260.77432117  energy(sigma->0) =     -260.76009728


--------------------------------------------------------------------------------------------------------




--------------------------------------- Iteration      1(  32)  ---------------------------------------


    POTLOK:  cpu time    0.4646: real time    0.4958
    SETDIJ:  cpu time    0.0409: real time    0.0409
    EDDIAG:  cpu time    7.6648: real time    7.7666
  RMM-DIIS:  cpu time   22.1974: real time   22.6266
    ORTHCH:  cpu time    0.3874: real time    0.3874
       DOS:  cpu time    0.0242: real time    0.0243
    CHARGE:  cpu time    3.0532: real time    3.0637
    MIXING:  cpu time    0.0183: real time    0.0183
    --------------------------------------------
      LOOP:  cpu time   33.8508: real time   34.4235

 eigenvalue-minimisations  :  7196
 total energy-change (2. order) :-0.2031973E+00  (-0.7229773E-02)
 number of electron     283.0000009 magnetization      19.0282094
 augmentation part      100.0640802 magnetization      11.7358053

 Broyden mixing:
  rms(total) = 0.10925E+01    rms(broyden)= 0.10925E+01
  rms(prec ) = 0.11194E+01
  weight for this iteration     100.00

 eigenvalues of (default mixing * dielectric matrix)
  average eigenvalue GAMMA=   0.7285
  2.1994  1.3829  1.3829  0.9063  0.9063  1.2888  1.2888  0.8355  0.8355  0.6968
  0.6968  0.8053  0.8053  0.4568  0.4568  0.5123  0.5123  0.5989  0.5989  0.5920
  0.4188  0.3933  0.3515  0.2057  0.2216  0.2199  0.1007

 Free energy of the ion-electron system (eV)
  ---------------------------------------------------
  alpha Z        PSCENC =       367.19046233
  Ewald energy   TEWEN  =    349534.35230288
  -Hartree energ DENC   =   -378708.28777105
  -exchange      EXHF   =         0.00000000
  -V(xc)+E(xc)   XCENC  =      1418.36576027
  PAW double counting   =     33275.72016580   -33881.79905788
  entropy T*S    EENTRO =         0.02176088
  eigenvalues    EBANDS =     -5304.21579747
  atomic energy  EATOM  =     33037.69599157
  Solvation  Ediel_sol  =         0.00000000
  ---------------------------------------------------
  free energy    TOTEN  =      -260.95618268 eV

  energy without entropy =     -260.97794356  energy(sigma->0) =     -260.96343631


--------------------------------------------------------------------------------------------------------




--------------------------------------- Iteration      1(  33)  ---------------------------------------


    POTLOK:  cpu time    0.4639: real time    0.4952
    SETDIJ:  cpu time    0.0410: real time    0.0410
    EDDIAG:  cpu time    7.5888: real time    7.5971
  RMM-DIIS:  cpu time   21.5793: real time   21.6473
    ORTHCH:  cpu time    0.3903: real time    0.3987
       DOS:  cpu time    0.0239: real time    0.0239
    CHARGE:  cpu time    3.0075: real time    3.0113
    MIXING:  cpu time    0.0191: real time    0.0191
    --------------------------------------------
      LOOP:  cpu time   33.1139: real time   33.2337

 eigenvalue-minimisations  :  7171
 total energy-change (2. order) :-0.9512889E-01  (-0.1161435E-01)
 number of electron     283.0000009 magnetization      19.1186066
 augmentation part      100.0926496 magnetization      11.7881950

 Broyden mixing:
  rms(total) = 0.98186E+00    rms(broyden)= 0.98185E+00
  rms(prec ) = 0.10071E+01
  weight for this iteration     100.00

 eigenvalues of (default mixing * dielectric matrix)
  average eigenvalue GAMMA=   0.7588
  2.2065  1.5913  1.5913  1.4659  1.4659  0.9076  0.9076  0.8571  0.8571  0.6898
  0.6898  0.8460  0.8460  0.4564  0.4564  0.5122  0.5122  0.6435  0.6435  0.5953
  0.5953  0.4180  0.3925  0.3516  0.2057  0.2216  0.2199  0.1007

 Free energy of the ion-electron system (eV)
  ---------------------------------------------------
  alpha Z        PSCENC =       367.19046233
  Ewald energy   TEWEN  =    349534.35230288
  -Hartree energ DENC   =   -378726.21070640
  -exchange      EXHF   =         0.00000000
  -V(xc)+E(xc)   XCENC  =      1418.36704485
  PAW double counting   =     33284.90961997   -33891.21963975
  entropy T*S    EENTRO =         0.02185294
  eigenvalues    EBANDS =     -5286.15823995
  atomic energy  EATOM  =     33037.69599157
  Solvation  Ediel_sol  =         0.00000000
  ---------------------------------------------------
  free energy    TOTEN  =      -261.05131157 eV

  energy without entropy =     -261.07316451  energy(sigma->0) =     -261.05859588


--------------------------------------------------------------------------------------------------------




--------------------------------------- Iteration      1(  34)  ---------------------------------------


    POTLOK:  cpu time    0.4642: real time    0.4963
    SETDIJ:  cpu time    0.0411: real time    0.0411
    EDDIAG:  cpu time    7.8911: real time    8.1301
  RMM-DIIS:  cpu time   22.5310: real time   22.5818
    ORTHCH:  cpu time    0.3878: real time    0.3887
       DOS:  cpu time    0.0248: real time    0.0248
    CHARGE:  cpu time    3.0352: real time    3.0382
    MIXING:  cpu time    0.0199: real time    0.0199
    --------------------------------------------
      LOOP:  cpu time   34.3952: real time   34.7210

 eigenvalue-minimisations  :  7537
 total energy-change (2. order) : 0.5678490E-01  (-0.1168148E-01)
 number of electron     283.0000009 magnetization      19.1891180
 augmentation part      100.1265672 magnetization      11.8392943

 Broyden mixing:
  rms(total) = 0.84301E+00    rms(broyden)= 0.84300E+00
  rms(prec ) = 0.86834E+00
  weight for this iteration     100.00

 eigenvalues of (default mixing * dielectric matrix)
  average eigenvalue GAMMA=   0.7714
  2.2741  1.7461  1.7461  1.5074  1.5074  0.9079  0.9079  0.8761  0.8761  0.6950
  0.6950  0.8365  0.8365  0.4563  0.4563  0.7123  0.7123  0.5120  0.5120  0.5669
  0.5669  0.5540  0.4185  0.3927  0.3516  0.2057  0.2216  0.2199  0.1007

 Free energy of the ion-electron system (eV)
  ---------------------------------------------------
  alpha Z        PSCENC =       367.19046233
  Ewald energy   TEWEN  =    349534.35230288
  -Hartree energ DENC   =   -378734.02312156
  -exchange      EXHF   =         0.00000000
  -V(xc)+E(xc)   XCENC  =      1418.20613071
  PAW double counting   =     33285.63225506   -33892.68023352
  entropy T*S    EENTRO =         0.01130650
  eigenvalues    EBANDS =     -5277.37962064
  atomic energy  EATOM  =     33037.69599157
  Solvation  Ediel_sol  =         0.00000000
  ---------------------------------------------------
  free energy    TOTEN  =      -260.99452667 eV

  energy without entropy =     -261.00583317  energy(sigma->0) =     -260.99829551


--------------------------------------------------------------------------------------------------------




--------------------------------------- Iteration      1(  35)  ---------------------------------------


    POTLOK:  cpu time    0.4640: real time    0.4959
    SETDIJ:  cpu time    0.0411: real time    0.0411
    EDDIAG:  cpu time    7.5974: real time    7.6052
  RMM-DIIS:  cpu time   23.2410: real time   23.6740
    ORTHCH:  cpu time    0.4214: real time    0.4907
       DOS:  cpu time    0.0239: real time    0.0239
    CHARGE:  cpu time    3.1126: real time    3.1959
    MIXING:  cpu time    0.0211: real time    0.0211
    --------------------------------------------
      LOOP:  cpu time   34.9226: real time   35.5479

 eigenvalue-minimisations  :  7734
 total energy-change (2. order) : 0.1755914E+00  (-0.8461098E-02)
 number of electron     283.0000009 magnetization      19.2280516
 augmentation part      100.1576689 magnetization      11.8677687

 Broyden mixing:
  rms(total) = 0.73845E+00    rms(broyden)= 0.73844E+00
  rms(prec ) = 0.76285E+00
  weight for this iteration     100.00

 eigenvalues of (default mixing * dielectric matrix)
  average eigenvalue GAMMA=   0.7749
  2.2331  1.8673  1.8673  1.4364  1.4364  0.9080  0.9080  0.9440  0.9440  0.6969
  0.6969  0.8402  0.8402  0.4562  0.4562  0.7403  0.7403  0.5121  0.5121  0.5931
  0.5931  0.5578  0.5578  0.4180  0.3926  0.3516  0.2057  0.2216  0.2199  0.1007

 Free energy of the ion-electron system (eV)
  ---------------------------------------------------
  alpha Z        PSCENC =       367.19046233
  Ewald energy   TEWEN  =    349534.35230288
  -Hartree energ DENC   =   -378733.69666097
  -exchange      EXHF   =         0.00000000
  -V(xc)+E(xc)   XCENC  =      1418.04628571
  PAW double counting   =     33283.11246423   -33890.75801146
  entropy T*S    EENTRO =         0.01411259
  eigenvalues    EBANDS =     -5276.77588213
  atomic energy  EATOM  =     33037.69599157
  Solvation  Ediel_sol  =         0.00000000
  ---------------------------------------------------
  free energy    TOTEN  =      -260.81893526 eV

  energy without entropy =     -260.83304785  energy(sigma->0) =     -260.82363945


--------------------------------------------------------------------------------------------------------




--------------------------------------- Iteration      1(  36)  ---------------------------------------


    POTLOK:  cpu time    0.4946: real time    0.4953
    SETDIJ:  cpu time    0.0411: real time    0.0411
    EDDIAG:  cpu time    7.6044: real time    7.6132
  RMM-DIIS:  cpu time   24.5491: real time   24.5997
    ORTHCH:  cpu time    0.3867: real time    0.3877
       DOS:  cpu time    0.0247: real time    0.0247
    CHARGE:  cpu time    3.0434: real time    3.0462
    MIXING:  cpu time    0.0211: real time    0.0211
    --------------------------------------------
      LOOP:  cpu time   36.1650: real time   36.2290

 eigenvalue-minimisations  :  8248
 total energy-change (2. order) : 0.7672275E-01  (-0.2872638E-02)
 number of electron     283.0000009 magnetization      19.2516618
 augmentation part      100.1762891 magnetization      11.9298687

 Broyden mixing:
  rms(total) = 0.68632E+00    rms(broyden)= 0.68631E+00
  rms(prec ) = 0.70811E+00
  weight for this iteration     100.00

 eigenvalues of (default mixing * dielectric matrix)
  average eigenvalue GAMMA=   0.7612
  1.9237  1.9237  2.0660  0.9080  0.9080  1.4708  1.0448  1.0448  0.6965  0.6965
  0.8377  0.8377  0.9453  0.9453  0.4562  0.4562  0.7327  0.7327  0.5119  0.5119
  0.5519  0.5519  0.2057  0.2216  0.2199  0.4928  0.3515  0.4482  0.3936  0.4080
  0.1007

 Free energy of the ion-electron system (eV)
  ---------------------------------------------------
  alpha Z        PSCENC =       367.19046233
  Ewald energy   TEWEN  =    349534.35230288
  -Hartree energ DENC   =   -378732.32867796
  -exchange      EXHF   =         0.00000000
  -V(xc)+E(xc)   XCENC  =      1417.93841039
  PAW double counting   =     33279.69202918   -33887.58841678
  entropy T*S    EENTRO =         0.01508973
  eigenvalues    EBANDS =     -5277.70940384
  atomic energy  EATOM  =     33037.69599157
  Solvation  Ediel_sol  =         0.00000000
  ---------------------------------------------------
  free energy    TOTEN  =      -260.74221251 eV

  energy without entropy =     -260.75730223  energy(sigma->0) =     -260.74724242


--------------------------------------------------------------------------------------------------------




--------------------------------------- Iteration      1(  37)  ---------------------------------------


    POTLOK:  cpu time    0.4636: real time    0.4967
    SETDIJ:  cpu time    0.0412: real time    0.0412
    EDDIAG:  cpu time    7.6508: real time    7.6971
  RMM-DIIS:  cpu time   23.7597: real time   24.1560
    ORTHCH:  cpu time    0.3881: real time    0.3881
       DOS:  cpu time    0.0254: real time    0.0254
    CHARGE:  cpu time    3.0374: real time    3.0415
    MIXING:  cpu time    0.0220: real time    0.0220
    --------------------------------------------
      LOOP:  cpu time   35.3882: real time   35.8680

 eigenvalue-minimisations  :  7816
 total energy-change (2. order) :-0.4051099E-02  (-0.4041377E-03)
 number of electron     283.0000009 magnetization      19.3004470
 augmentation part      100.1819217 magnetization      11.9947425

 Broyden mixing:
  rms(total) = 0.67701E+00    rms(broyden)= 0.67701E+00
  rms(prec ) = 0.69768E+00
  weight for this iteration     100.00

 eigenvalues of (default mixing * dielectric matrix)
  average eigenvalue GAMMA=   0.7920
  2.0619  2.0619  2.0890  0.9080  0.9080  1.3770  1.3770  1.1688  1.1688  0.6947
  0.6947  0.8527  0.8527  0.4563  0.4563  0.7478  0.7478  0.7926  0.6422  0.6422
  0.5122  0.5122  0.5908  0.5587  0.5587  0.4179  0.3926  0.3516  0.2057  0.2216
  0.2199  0.1007

 Free energy of the ion-electron system (eV)
  ---------------------------------------------------
  alpha Z        PSCENC =       367.19046233
  Ewald energy   TEWEN  =    349534.35230288
  -Hartree energ DENC   =   -378733.02665096
  -exchange      EXHF   =         0.00000000
  -V(xc)+E(xc)   XCENC  =      1417.90680294
  PAW double counting   =     33273.89409719   -33881.75907843
  entropy T*S    EENTRO =         0.01410257
  eigenvalues    EBANDS =     -5277.01429370
  atomic energy  EATOM  =     33037.69599157
  Solvation  Ediel_sol  =         0.00000000
  ---------------------------------------------------
  free energy    TOTEN  =      -260.74626361 eV

  energy without entropy =     -260.76036617  energy(sigma->0) =     -260.75096446


--------------------------------------------------------------------------------------------------------




--------------------------------------- Iteration      1(  38)  ---------------------------------------


    POTLOK:  cpu time    0.4642: real time    0.4952
    SETDIJ:  cpu time    0.0409: real time    0.0409
    EDDIAG:  cpu time    7.6141: real time    7.6290
  RMM-DIIS:  cpu time   21.3588: real time   21.3929
    ORTHCH:  cpu time    0.3887: real time    0.3887
       DOS:  cpu time    0.0235: real time    0.0235
    CHARGE:  cpu time    3.0680: real time    3.1548
    MIXING:  cpu time    0.0224: real time    0.0224
    --------------------------------------------
      LOOP:  cpu time   32.9806: real time   33.1474

 eigenvalue-minimisations  :  7086
 total energy-change (2. order) :-0.4553210E-01  (-0.5581283E-03)
 number of electron     283.0000009 magnetization      19.4594090
 augmentation part      100.1872117 magnetization      12.1663041

 Broyden mixing:
  rms(total) = 0.65243E+00    rms(broyden)= 0.65243E+00
  rms(prec ) = 0.67294E+00
  weight for this iteration     100.00

 eigenvalues of (default mixing * dielectric matrix)
  average eigenvalue GAMMA=   0.8524
  2.2890  2.2890  2.4371  1.8177  1.8177  1.3830  1.3830  0.9080  0.9080  0.8757
  0.8757  0.6949  0.6949  0.4563  0.4563  0.7634  0.7634  0.7128  0.7128  0.5122
  0.5122  0.6359  0.6359  0.6034  0.5405  0.5405  0.4175  0.3926  0.3516  0.2057
  0.2216  0.2199  0.1007

 Free energy of the ion-electron system (eV)
  ---------------------------------------------------
  alpha Z        PSCENC =       367.19046233
  Ewald energy   TEWEN  =    349534.35230288
  -Hartree energ DENC   =   -378736.10215037
  -exchange      EXHF   =         0.00000000
  -V(xc)+E(xc)   XCENC  =      1417.84834935
  PAW double counting   =     33270.52963090   -33878.51181079
  entropy T*S    EENTRO =         0.01338576
  eigenvalues    EBANDS =     -5273.80795733
  atomic energy  EATOM  =     33037.69599157
  Solvation  Ediel_sol  =         0.00000000
  ---------------------------------------------------
  free energy    TOTEN  =      -260.79179571 eV

  energy without entropy =     -260.80518147  energy(sigma->0) =     -260.79625763


--------------------------------------------------------------------------------------------------------




--------------------------------------- Iteration      1(  39)  ---------------------------------------


    POTLOK:  cpu time    0.4946: real time    0.4953
    SETDIJ:  cpu time    0.0410: real time    0.0410
    EDDIAG:  cpu time    7.6457: real time    7.6771
  RMM-DIIS:  cpu time   23.5742: real time   23.9454
    ORTHCH:  cpu time    0.3874: real time    0.3884
       DOS:  cpu time    0.0247: real time    0.0247
    CHARGE:  cpu time    3.0309: real time    3.0339
    MIXING:  cpu time    0.0231: real time    0.0231
    --------------------------------------------
      LOOP:  cpu time   35.2216: real time   35.6289

 eigenvalue-minimisations  :  7767
 total energy-change (2. order) :-0.1897981E-01  (-0.6489690E-02)
 number of electron     283.0000009 magnetization      19.4587224
 augmentation part      100.2590072 magnetization      12.4073695

 Broyden mixing:
  rms(total) = 0.55645E+00    rms(broyden)= 0.55634E+00
  rms(prec ) = 0.56305E+00
  weight for this iteration     100.00

 eigenvalues of (default mixing * dielectric matrix)
  average eigenvalue GAMMA=   0.8294
  2.2868  2.2868  2.4405  1.8319  1.8319  1.3797  1.3797  0.9080  0.9080  0.8783
  0.8783  0.6948  0.6948  0.4563  0.4563  0.7715  0.7715  0.7157  0.7157  0.5122
  0.5122  0.6287  0.6287  0.6081  0.5363  0.5363  0.4175  0.3926  0.3516  0.2057
  0.2216  0.2199  0.0411  0.1007

 Free energy of the ion-electron system (eV)
  ---------------------------------------------------
  alpha Z        PSCENC =       367.19046233
  Ewald energy   TEWEN  =    349534.35230288
  -Hartree energ DENC   =   -378743.99463143
  -exchange      EXHF   =         0.00000000
  -V(xc)+E(xc)   XCENC  =      1417.63117756
  PAW double counting   =     33267.58217968   -33876.11473319
  entropy T*S    EENTRO =         0.00873006
  eigenvalues    EBANDS =     -5265.16225499
  atomic energy  EATOM  =     33037.69599157
  Solvation  Ediel_sol  =         0.00000000
  ---------------------------------------------------
  free energy    TOTEN  =      -260.81077552 eV

  energy without entropy =     -260.81950558  energy(sigma->0) =     -260.81368554


--------------------------------------------------------------------------------------------------------




--------------------------------------- Iteration      1(  40)  ---------------------------------------


    POTLOK:  cpu time    0.4640: real time    0.4972
    SETDIJ:  cpu time    0.0412: real time    0.0412
    EDDIAG:  cpu time    7.6040: real time    7.6125
  RMM-DIIS:  cpu time   23.8146: real time   23.8887
    ORTHCH:  cpu time    0.3853: real time    0.3854
       DOS:  cpu time    0.0259: real time    0.0259
    CHARGE:  cpu time    3.0645: real time    3.0883
    MIXING:  cpu time    0.0249: real time    0.0249
    --------------------------------------------
      LOOP:  cpu time   35.4244: real time   35.5642

 eigenvalue-minimisations  :  7927
 total energy-change (2. order) :-0.7700412E-01  (-0.8385041E-03)
 number of electron     283.0000009 magnetization      19.4984522
 augmentation part      100.2975119 magnetization      12.6256216

 Broyden mixing:
  rms(total) = 0.67971E+00    rms(broyden)= 0.67963E+00
  rms(prec ) = 0.68171E+00
  weight for this iteration     100.00

 eigenvalues of (default mixing * dielectric matrix)
  average eigenvalue GAMMA=   0.8208
  2.3066  2.3066  2.4534  1.7485  1.7485  0.9080  0.9080  1.4221  1.4221  0.8826
  0.8826  0.6949  0.6949  0.4563  0.4563  0.7919  0.7919  0.7265  0.7265  0.5122
  0.5122  0.6019  0.6019  0.5785  0.5785  0.5157  0.5157  0.4180  0.3927  0.3516
  0.2057  0.2216  0.2199  0.0730  0.1007

 Free energy of the ion-electron system (eV)
  ---------------------------------------------------
  alpha Z        PSCENC =       367.19046233
  Ewald energy   TEWEN  =    349534.35230288
  -Hartree energ DENC   =   -378744.63788748
  -exchange      EXHF   =         0.00000000
  -V(xc)+E(xc)   XCENC  =      1417.60352570
  PAW double counting   =     33268.49883648   -33877.15590218
  entropy T*S    EENTRO =        -0.00248282
  eigenvalues    EBANDS =     -5264.43262612
  atomic energy  EATOM  =     33037.69599157
  Solvation  Ediel_sol  =         0.00000000
  ---------------------------------------------------
  free energy    TOTEN  =      -260.88777964 eV

  energy without entropy =     -260.88529681  energy(sigma->0) =     -260.88695203


--------------------------------------------------------------------------------------------------------




--------------------------------------- Iteration      1(  41)  ---------------------------------------


    POTLOK:  cpu time    0.4800: real time    0.5127
    SETDIJ:  cpu time    0.0412: real time    0.0412
    EDDIAG:  cpu time    7.9101: real time    8.2449
  RMM-DIIS:  cpu time   23.4959: real time   23.5209
    ORTHCH:  cpu time    0.3877: real time    0.3877
       DOS:  cpu time    0.0258: real time    0.0258
    CHARGE:  cpu time    3.0427: real time    3.0457
    MIXING:  cpu time    0.0242: real time    0.0252
    --------------------------------------------
      LOOP:  cpu time   35.4076: real time   35.8041

 eigenvalue-minimisations  :  7924
 total energy-change (2. order) :-0.4993007E-01  (-0.1179348E-02)
 number of electron     283.0000009 magnetization      19.4985043
 augmentation part      100.3759658 magnetization      12.9886313

 Broyden mixing:
  rms(total) = 0.10494E+01    rms(broyden)= 0.10493E+01
  rms(prec ) = 0.10554E+01
  weight for this iteration     100.00

 eigenvalues of (default mixing * dielectric matrix)
  average eigenvalue GAMMA=   0.7953
  2.3315  2.3315  2.4404  1.5965  1.5965  1.4576  1.4576  0.9080  0.9080  0.8707
  0.8707  0.6950  0.6950  0.4563  0.4563  0.7606  0.7606  0.7194  0.7194  0.5123
  0.5123  0.6205  0.6205  0.5621  0.5621  0.5109  0.5109  0.4181  0.3927  0.3516
  0.2057  0.2216  0.2199  0.1182  0.1007  0.1597

 Free energy of the ion-electron system (eV)
  ---------------------------------------------------
  alpha Z        PSCENC =       367.19046233
  Ewald energy   TEWEN  =    349534.35230288
  -Hartree energ DENC   =   -378745.21372151
  -exchange      EXHF   =         0.00000000
  -V(xc)+E(xc)   XCENC  =      1417.55398417
  PAW double counting   =     33266.90861921   -33875.76653606
  entropy T*S    EENTRO =        -0.00501284
  eigenvalues    EBANDS =     -5263.65379946
  atomic energy  EATOM  =     33037.69599157
  Solvation  Ediel_sol  =         0.00000000
  ---------------------------------------------------
  free energy    TOTEN  =      -260.93770971 eV

  energy without entropy =     -260.93269687  energy(sigma->0) =     -260.93603876


--------------------------------------------------------------------------------------------------------




--------------------------------------- Iteration      1(  42)  ---------------------------------------


    POTLOK:  cpu time    0.4640: real time    0.4957
    SETDIJ:  cpu time    0.0407: real time    0.0407
    EDDIAG:  cpu time    7.6063: real time    7.6241
  RMM-DIIS:  cpu time   21.3183: real time   21.7330
    ORTHCH:  cpu time    0.3876: real time    0.3877
       DOS:  cpu time    0.0257: real time    0.0257
    CHARGE:  cpu time    3.0375: real time    3.0413
    MIXING:  cpu time    0.0258: real time    0.0258
    --------------------------------------------
      LOOP:  cpu time   32.9059: real time   33.3739

 eigenvalue-minimisations  :  6740
 total energy-change (2. order) :-0.2435282E-01  (-0.1175375E-02)
 number of electron     283.0000009 magnetization      19.5002433
 augmentation part      100.4085467 magnetization      13.1881699

 Broyden mixing:
  rms(total) = 0.13136E+01    rms(broyden)= 0.13136E+01
  rms(prec ) = 0.13247E+01
  weight for this iteration     100.00

 eigenvalues of (default mixing * dielectric matrix)
  average eigenvalue GAMMA=   0.7789
  2.3248  2.3248  2.4169  1.6070  1.6070  1.4370  1.4370  0.9080  0.9080  0.8700
  0.8700  0.6950  0.6950  0.4563  0.4563  0.7597  0.7597  0.6863  0.6863  0.5089
  0.5089  0.6212  0.6212  0.5120  0.5120  0.5703  0.5703  0.4581  0.4167  0.3926
  0.3516  0.2057  0.2199  0.2216  0.1192  0.0018  0.1007

 Free energy of the ion-electron system (eV)
  ---------------------------------------------------
  alpha Z        PSCENC =       367.19046233
  Ewald energy   TEWEN  =    349534.35230288
  -Hartree energ DENC   =   -378745.23864030
  -exchange      EXHF   =         0.00000000
  -V(xc)+E(xc)   XCENC  =      1417.58841133
  PAW double counting   =     33266.94161813   -33875.89694334
  entropy T*S    EENTRO =        -0.00486327
  eigenvalues    EBANDS =     -5263.59040186
  atomic energy  EATOM  =     33037.69599157
  Solvation  Ediel_sol  =         0.00000000
  ---------------------------------------------------
  free energy    TOTEN  =      -260.96206252 eV

  energy without entropy =     -260.95719926  energy(sigma->0) =     -260.96044143


--------------------------------------------------------------------------------------------------------




--------------------------------------- Iteration      1(  43)  ---------------------------------------


    POTLOK:  cpu time    0.4646: real time    0.4962
    SETDIJ:  cpu time    0.0414: real time    0.0414
    EDDIAG:  cpu time    7.5974: real time    7.6063
  RMM-DIIS:  cpu time   20.2202: real time   20.2414
    ORTHCH:  cpu time    0.3872: real time    0.3883
       DOS:  cpu time    0.0258: real time    0.0258
    CHARGE:  cpu time    3.0466: real time    3.0496
    MIXING:  cpu time    0.0267: real time    0.0267
    --------------------------------------------
      LOOP:  cpu time   31.8100: real time   31.8759

 eigenvalue-minimisations  :  6638
 total energy-change (2. order) : 0.1320627E-02  (-0.5586095E-03)
 number of electron     283.0000009 magnetization      19.5144238
 augmentation part      100.4157937 magnetization      13.2480197

 Broyden mixing:
  rms(total) = 0.13922E+01    rms(broyden)= 0.13922E+01
  rms(prec ) = 0.14045E+01
  weight for this iteration     100.00

 eigenvalues of (default mixing * dielectric matrix)
  average eigenvalue GAMMA=   0.7784
  2.3275  2.3275  2.4421  1.6166  1.6166  1.4256  1.4256  0.9080  0.9080  0.8795
  0.8795  0.6960  0.6960  0.6827  0.6827  0.7781  0.7781  0.4563  0.4563  0.6605
  0.6605  0.5121  0.5121  0.6214  0.6214  0.5530  0.5357  0.5357  0.4171  0.3925
  0.2057  0.2216  0.2199  0.3516  0.3535  0.1182  0.0029  0.1007

 Free energy of the ion-electron system (eV)
  ---------------------------------------------------
  alpha Z        PSCENC =       367.19046233
  Ewald energy   TEWEN  =    349534.35230288
  -Hartree energ DENC   =   -378745.26674440
  -exchange      EXHF   =         0.00000000
  -V(xc)+E(xc)   XCENC  =      1417.60769110
  PAW double counting   =     33266.86474535   -33875.84043880
  entropy T*S    EENTRO =        -0.00199296
  eigenvalues    EBANDS =     -5263.56275897
  atomic energy  EATOM  =     33037.69599157
  Solvation  Ediel_sol  =         0.00000000
  ---------------------------------------------------
  free energy    TOTEN  =      -260.96074190 eV

  energy without entropy =     -260.95874894  energy(sigma->0) =     -260.96007758


--------------------------------------------------------------------------------------------------------




--------------------------------------- Iteration      1(  44)  ---------------------------------------


    POTLOK:  cpu time    0.4637: real time    0.4961
    SETDIJ:  cpu time    0.0389: real time    0.0409
    EDDIAG:  cpu time    7.6193: real time    7.6980
  RMM-DIIS:  cpu time   22.3156: real time   22.7388
    ORTHCH:  cpu time    0.3856: real time    0.3865
       DOS:  cpu time    0.0257: real time    0.0256
    CHARGE:  cpu time    3.0030: real time    3.0061
    MIXING:  cpu time    0.0274: real time    0.0274
    --------------------------------------------
      LOOP:  cpu time   33.8793: real time   34.4195

 eigenvalue-minimisations  :  7158
 total energy-change (2. order) :-0.1742080E-01  (-0.2034259E-03)
 number of electron     283.0000009 magnetization      19.5530586
 augmentation part      100.4208758 magnetization      13.2820644

 Broyden mixing:
  rms(total) = 0.14009E+01    rms(broyden)= 0.14009E+01
  rms(prec ) = 0.14133E+01
  weight for this iteration     100.00

 eigenvalues of (default mixing * dielectric matrix)
  average eigenvalue GAMMA=   0.7867
  2.3330  2.3330  2.5053  1.6049  1.6049  1.4248  1.4248  0.9079  0.9079  0.8167
  0.8167  0.8712  0.8712  0.6951  0.6951  0.4563  0.4563  0.7576  0.7576  0.7320
  0.7320  0.6603  0.6603  0.5122  0.5122  0.5616  0.5616  0.5245  0.5245  0.2057
  0.2216  0.2199  0.3516  0.3926  0.4163  0.4314  0.1177  0.0029  0.1007

 Free energy of the ion-electron system (eV)
  ---------------------------------------------------
  alpha Z        PSCENC =       367.19046233
  Ewald energy   TEWEN  =    349534.35230288
  -Hartree energ DENC   =   -378745.61901351
  -exchange      EXHF   =         0.00000000
  -V(xc)+E(xc)   XCENC  =      1417.60348917
  PAW double counting   =     33266.71847163   -33875.71415713
  entropy T*S    EENTRO =         0.00128222
  eigenvalues    EBANDS =     -5263.20699185
  atomic energy  EATOM  =     33037.69599157
  Solvation  Ediel_sol  =         0.00000000
  ---------------------------------------------------
  free energy    TOTEN  =      -260.97816269 eV

  energy without entropy =     -260.97944491  energy(sigma->0) =     -260.97859010


--------------------------------------------------------------------------------------------------------




--------------------------------------- Iteration      1(  45)  ---------------------------------------


    POTLOK:  cpu time    0.4631: real time    0.4947
    SETDIJ:  cpu time    0.0414: real time    0.0414
    EDDIAG:  cpu time    7.5341: real time    7.5416
  RMM-DIIS:  cpu time   22.0357: real time   22.0652
    ORTHCH:  cpu time    0.5289: real time    0.5599
       DOS:  cpu time    0.0248: real time    0.0248
    CHARGE:  cpu time    2.9907: real time    2.9979
    MIXING:  cpu time    0.0292: real time    0.0292
    --------------------------------------------
      LOOP:  cpu time   33.6478: real time   33.7546

 eigenvalue-minimisations  :  7370
 total energy-change (2. order) :-0.5023944E-01  (-0.2774458E-03)
 number of electron     283.0000009 magnetization      19.5850017
 augmentation part      100.4248415 magnetization      13.2952525

 Broyden mixing:
  rms(total) = 0.13993E+01    rms(broyden)= 0.13993E+01
  rms(prec ) = 0.14119E+01
  weight for this iteration     100.00

 eigenvalues of (default mixing * dielectric matrix)
  average eigenvalue GAMMA=   0.7864
  2.4964  2.3003  2.3003  1.4786  1.4786  1.5265  1.5265  0.9079  0.9079  0.9780
  0.9780  0.8826  0.8826  0.6953  0.6953  0.8222  0.8222  0.4563  0.4563  0.7473
  0.7473  0.6247  0.6247  0.5122  0.5122  0.6080  0.6080  0.5533  0.5533  0.2057
  0.2216  0.2199  0.3516  0.3926  0.4210  0.4124  0.1177  0.3270  0.0029  0.1007

 Free energy of the ion-electron system (eV)
  ---------------------------------------------------
  alpha Z        PSCENC =       367.19046233
  Ewald energy   TEWEN  =    349534.35230288
  -Hartree energ DENC   =   -378747.35908292
  -exchange      EXHF   =         0.00000000
  -V(xc)+E(xc)   XCENC  =      1417.60059449
  PAW double counting   =     33265.30549725   -33874.29093751
  entropy T*S    EENTRO =         0.00470972
  eigenvalues    EBANDS =     -5261.52793995
  atomic energy  EATOM  =     33037.69599157
  Solvation  Ediel_sol  =         0.00000000
  ---------------------------------------------------
  free energy    TOTEN  =      -261.02840213 eV

  energy without entropy =     -261.03311185  energy(sigma->0) =     -261.02997204


--------------------------------------------------------------------------------------------------------




--------------------------------------- Iteration      1(  46)  ---------------------------------------


    POTLOK:  cpu time    0.4831: real time    0.5147
    SETDIJ:  cpu time    0.0407: real time    0.0408
    EDDIAG:  cpu time    7.6652: real time    7.6975
  RMM-DIIS:  cpu time   23.0369: real time   23.2187
    ORTHCH:  cpu time    0.3870: real time    0.3870
       DOS:  cpu time    0.0258: real time    0.0259
    CHARGE:  cpu time    3.0393: real time    3.0431
    MIXING:  cpu time    0.0288: real time    0.0288
    --------------------------------------------
      LOOP:  cpu time   34.7070: real time   34.9567

 eigenvalue-minimisations  :  7602
 total energy-change (2. order) :-0.7277536E-01  (-0.4182100E-03)
 number of electron     283.0000009 magnetization      19.6075874
 augmentation part      100.4421300 magnetization      13.3306730

 Broyden mixing:
  rms(total) = 0.14081E+01    rms(broyden)= 0.14081E+01
  rms(prec ) = 0.14226E+01
  weight for this iteration     100.00

 eigenvalues of (default mixing * dielectric matrix)
  average eigenvalue GAMMA=   0.7865
  2.4918  2.2886  2.2886  1.5199  1.5199  1.4666  1.4666  0.9079  0.9079  1.1222
  1.1222  0.9034  0.9034  0.6955  0.6955  0.8714  0.8714  0.4563  0.4563  0.7333
  0.7333  0.6035  0.6035  0.5780  0.5780  0.5127  0.5127  0.5499  0.5499  0.4761
  0.4761  0.4179  0.3927  0.2057  0.2216  0.2199  0.1177  0.3515  0.3518  0.0029
  0.1007

 Free energy of the ion-electron system (eV)
  ---------------------------------------------------
  alpha Z        PSCENC =       367.19046233
  Ewald energy   TEWEN  =    349534.35230288
  -Hartree energ DENC   =   -378748.52724967
  -exchange      EXHF   =         0.00000000
  -V(xc)+E(xc)   XCENC  =      1417.57510152
  PAW double counting   =     33264.84471393   -33873.89851384
  entropy T*S    EENTRO =         0.00090811
  eigenvalues    EBANDS =     -5260.33489433
  atomic energy  EATOM  =     33037.69599157
  Solvation  Ediel_sol  =         0.00000000
  ---------------------------------------------------
  free energy    TOTEN  =      -261.10117749 eV

  energy without entropy =     -261.10208561  energy(sigma->0) =     -261.10148020


--------------------------------------------------------------------------------------------------------




--------------------------------------- Iteration      1(  47)  ---------------------------------------


    POTLOK:  cpu time    0.4643: real time    0.4956
    SETDIJ:  cpu time    0.0412: real time    0.0411
    EDDIAG:  cpu time    7.5982: real time    7.6067
  RMM-DIIS:  cpu time   21.9831: real time   22.0722
    ORTHCH:  cpu time    0.3875: real time    0.3885
       DOS:  cpu time    0.0254: real time    0.0254
    CHARGE:  cpu time    3.0716: real time    3.0855
    MIXING:  cpu time    0.0299: real time    0.0299
    --------------------------------------------
      LOOP:  cpu time   33.6009: real time   33.7447

 eigenvalue-minimisations  :  7317
 total energy-change (2. order) :-0.5228573E-01  (-0.3637268E-03)
 number of electron     283.0000009 magnetization      19.6616418
 augmentation part      100.4540689 magnetization      13.4160416

 Broyden mixing:
  rms(total) = 0.14277E+01    rms(broyden)= 0.14277E+01
  rms(prec ) = 0.14445E+01
  weight for this iteration     100.00

 eigenvalues of (default mixing * dielectric matrix)
  average eigenvalue GAMMA=   0.7947
  2.5991  2.2052  2.2052  1.6035  1.6035  1.4594  1.4594  0.9079  0.9079  1.1830
  1.1830  0.8921  0.8921  0.8300  0.8300  0.6962  0.6962  0.8531  0.4563  0.4563
  0.7361  0.7361  0.5924  0.5924  0.6363  0.6363  0.5122  0.5122  0.5592  0.5592
  0.5392  0.2057  0.2216  0.2199  0.3516  0.4373  0.4170  0.3927  0.3799  0.1177
  0.0029  0.1007

 Free energy of the ion-electron system (eV)
  ---------------------------------------------------
  alpha Z        PSCENC =       367.19046233
  Ewald energy   TEWEN  =    349534.35230288
  -Hartree energ DENC   =   -378749.77444379
  -exchange      EXHF   =         0.00000000
  -V(xc)+E(xc)   XCENC  =      1417.55046899
  PAW double counting   =     33266.16777014   -33875.29155201
  entropy T*S    EENTRO =        -0.00445729
  eigenvalues    EBANDS =     -5259.04000605
  atomic energy  EATOM  =     33037.69599157
  Solvation  Ediel_sol  =         0.00000000
  ---------------------------------------------------
  free energy    TOTEN  =      -261.15346323 eV

  energy without entropy =     -261.14900594  energy(sigma->0) =     -261.15197746


--------------------------------------------------------------------------------------------------------




--------------------------------------- Iteration      1(  48)  ---------------------------------------


    POTLOK:  cpu time    0.4643: real time    0.4968
    SETDIJ:  cpu time    0.0410: real time    0.0410
    EDDIAG:  cpu time    8.1266: real time    8.4968
  RMM-DIIS:  cpu time   21.4287: real time   21.4518
    ORTHCH:  cpu time    0.3876: real time    0.3876
       DOS:  cpu time    0.0250: real time    0.0250
    CHARGE:  cpu time    3.0536: real time    3.0574
    MIXING:  cpu time    0.0309: real time    0.0309
    --------------------------------------------
      LOOP:  cpu time   33.5577: real time   33.9873

 eigenvalue-minimisations  :  7114
 total energy-change (2. order) :-0.5293496E-01  (-0.4138781E-03)
 number of electron     283.0000009 magnetization      19.6677002
 augmentation part      100.4718210 magnetization      13.4854896

 Broyden mixing:
  rms(total) = 0.14641E+01    rms(broyden)= 0.14641E+01
  rms(prec ) = 0.14842E+01
  weight for this iteration     100.00

 eigenvalues of (default mixing * dielectric matrix)
  average eigenvalue GAMMA=   0.7812
  2.6556  2.1841  2.1841  1.5526  1.5526  1.5244  1.5244  0.9079  0.9079  1.1658
  1.1658  0.8935  0.8935  0.6957  0.6957  0.8211  0.8211  0.4563  0.4563  0.6041
  0.6041  0.7602  0.7602  0.7805  0.6411  0.6411  0.5122  0.5122  0.5561  0.5561
  0.5557  0.4180  0.3926  0.3516  0.2057  0.2199  0.2216  0.3926  0.3926  0.1177
  0.0029  0.1007  0.2328

 Free energy of the ion-electron system (eV)
  ---------------------------------------------------
  alpha Z        PSCENC =       367.19046233
  Ewald energy   TEWEN  =    349534.35230288
  -Hartree energ DENC   =   -378752.86306559
  -exchange      EXHF   =         0.00000000
  -V(xc)+E(xc)   XCENC  =      1417.51003856
  PAW double counting   =     33266.46828068   -33875.65311250
  entropy T*S    EENTRO =        -0.01344435
  eigenvalues    EBANDS =     -5255.89385177
  atomic energy  EATOM  =     33037.69599157
  Solvation  Ediel_sol  =         0.00000000
  ---------------------------------------------------
  free energy    TOTEN  =      -261.20639818 eV

  energy without entropy =     -261.19295383  energy(sigma->0) =     -261.20191673


--------------------------------------------------------------------------------------------------------




--------------------------------------- Iteration      1(  49)  ---------------------------------------


    POTLOK:  cpu time    0.4643: real time    0.4963
    SETDIJ:  cpu time    0.0411: real time    0.0411
    EDDIAG:  cpu time    7.5934: real time    7.6017
  RMM-DIIS:  cpu time   22.9537: real time   23.4897
    ORTHCH:  cpu time    0.3855: real time    0.3855
       DOS:  cpu time    0.0264: real time    0.0264
    CHARGE:  cpu time    2.9980: real time    3.0016
    MIXING:  cpu time    0.0318: real time    0.0318
    --------------------------------------------
      LOOP:  cpu time   34.4943: real time   35.0742

 eigenvalue-minimisations  :  7404
 total energy-change (2. order) :-0.1966231E-01  (-0.1035100E-03)
 number of electron     283.0000009 magnetization      19.7331402
 augmentation part      100.4868703 magnetization      13.6039420

 Broyden mixing:
  rms(total) = 0.15022E+01    rms(broyden)= 0.15022E+01
  rms(prec ) = 0.15255E+01
  weight for this iteration     100.00

 eigenvalues of (default mixing * dielectric matrix)
  average eigenvalue GAMMA=   0.8050
  2.6799  2.0774  2.0774  1.9164  1.9164  1.5646  1.5646  1.3037  1.3037  0.9079
  0.9079  0.8576  0.8576  0.6957  0.6957  0.7680  0.7680  0.8421  0.8421  0.4563
  0.4563  0.7579  0.7579  0.2982  0.6484  0.6484  0.5121  0.5121  0.6319  0.6319
  0.5645  0.5645  0.5236  0.5236  0.2057  0.2216  0.2199  0.4178  0.3927  0.3516
  0.1177  0.3548  0.0029  0.1007

 Free energy of the ion-electron system (eV)
  ---------------------------------------------------
  alpha Z        PSCENC =       367.19046233
  Ewald energy   TEWEN  =    349534.35230288
  -Hartree energ DENC   =   -378753.21101878
  -exchange      EXHF   =         0.00000000
  -V(xc)+E(xc)   XCENC  =      1417.50192329
  PAW double counting   =     33266.76973274   -33876.01841699
  entropy T*S    EENTRO =        -0.01983052
  eigenvalues    EBANDS =     -5255.48720701
  atomic energy  EATOM  =     33037.69599157
  Solvation  Ediel_sol  =         0.00000000
  ---------------------------------------------------
  free energy    TOTEN  =      -261.22606049 eV

  energy without entropy =     -261.20622997  energy(sigma->0) =     -261.21945032


--------------------------------------------------------------------------------------------------------




--------------------------------------- Iteration      1(  50)  ---------------------------------------


    POTLOK:  cpu time    0.4635: real time    0.4950
    SETDIJ:  cpu time    0.0411: real time    0.0411
    EDDIAG:  cpu time    7.5376: real time    7.5456
  RMM-DIIS:  cpu time   21.9731: real time   21.9959
    ORTHCH:  cpu time    0.3857: real time    0.3865
       DOS:  cpu time    0.0256: real time    0.0257
    CHARGE:  cpu time    3.0053: real time    3.0080
    MIXING:  cpu time    0.0306: real time    0.0307
    --------------------------------------------
      LOOP:  cpu time   33.4626: real time   33.5284

 eigenvalue-minimisations  :  7361
 total energy-change (2. order) :-0.1217348E+00  (-0.1149882E-02)
 number of electron     283.0000009 magnetization      19.7703166
 augmentation part      100.5307242 magnetization      13.8542943

 Broyden mixing:
  rms(total) = 0.16818E+01    rms(broyden)= 0.16818E+01
  rms(prec ) = 0.17149E+01
  weight for this iteration     100.00

 eigenvalues of (default mixing * dielectric matrix)
  average eigenvalue GAMMA=   0.7802
  2.2093  2.2093  1.9826  1.9826  2.0470  1.1251  1.1251  1.3421  1.3421  1.0394
  1.0394  0.7513  0.7513  0.6109  0.6109  0.8619  0.8619  0.1792  0.4051  0.4051
  0.0659  0.6409  0.6409  0.0004  0.4648  0.4648  0.0637  0.0889  0.6596  0.6596
  0.1964  0.2467  0.5791  0.5791  0.5889  0.5889  0.5150  0.5150  0.4087  0.3586

 Free energy of the ion-electron system (eV)
  ---------------------------------------------------
  alpha Z        PSCENC =       367.19046233
  Ewald energy   TEWEN  =    349534.35230288
  -Hartree energ DENC   =   -378755.66849247
  -exchange      EXHF   =         0.00000000
  -V(xc)+E(xc)   XCENC  =      1417.46157216
  PAW double counting   =     33269.14877003   -33878.54107206
  entropy T*S    EENTRO =        -0.03493174
  eigenvalues    EBANDS =     -5252.95239799
  atomic energy  EATOM  =     33037.69599157
  Solvation  Ediel_sol  =         0.00000000
  ---------------------------------------------------
  free energy    TOTEN  =      -261.34779530 eV

  energy without entropy =     -261.31286356  energy(sigma->0) =     -261.33615138


--------------------------------------------------------------------------------------------------------




--------------------------------------- Iteration      1(  51)  ---------------------------------------


    POTLOK:  cpu time    0.4699: real time    0.5026
    SETDIJ:  cpu time    0.0412: real time    0.0411
    EDDIAG:  cpu time    7.6949: real time    7.7586
  RMM-DIIS:  cpu time   24.0936: real time   24.4215
    ORTHCH:  cpu time    0.3874: real time    0.3882
       DOS:  cpu time    0.0267: real time    0.0268
    CHARGE:  cpu time    3.0295: real time    3.0325
    MIXING:  cpu time    0.0295: real time    0.0295
    --------------------------------------------
      LOOP:  cpu time   35.7727: real time   36.2010

 eigenvalue-minimisations  :  7841
 total energy-change (2. order) :-0.2217486E+00  (-0.1491544E-02)
 number of electron     283.0000010 magnetization      19.7938846
 augmentation part      100.6406385 magnetization      14.4188651

 Broyden mixing:
  rms(total) = 0.22438E+01    rms(broyden)= 0.22437E+01
  rms(prec ) = 0.23050E+01
  weight for this iteration     100.00

 eigenvalues of (default mixing * dielectric matrix)
  average eigenvalue GAMMA=   0.7621
  2.2035  2.2035  2.0377  2.0377  1.9302  1.1128  1.1128  1.3138  1.3138  1.1023
  1.1023  0.7496  0.7496  0.6106  0.6106  0.8576  0.8576  0.1816  0.3907  0.3907
  0.6447  0.6447  0.0341  0.0341  0.0027  0.1002  0.1002  0.4624  0.4624  0.1939
  0.6577  0.6577  0.2492  0.5722  0.5722  0.6104  0.5791  0.5163  0.5163  0.3590
  0.4089

 Free energy of the ion-electron system (eV)
  ---------------------------------------------------
  alpha Z        PSCENC =       367.19046233
  Ewald energy   TEWEN  =    349534.35230288
  -Hartree energ DENC   =   -378754.07220603
  -exchange      EXHF   =         0.00000000
  -V(xc)+E(xc)   XCENC  =      1417.43851508
  PAW double counting   =     33264.38581341   -33873.92018666
  entropy T*S    EENTRO =        -0.03365962
  eigenvalues    EBANDS =     -5254.60657691
  atomic energy  EATOM  =     33037.69599157
  Solvation  Ediel_sol  =         0.00000000
  ---------------------------------------------------
  free energy    TOTEN  =      -261.56954394 eV

  energy without entropy =     -261.53588433  energy(sigma->0) =     -261.55832407


--------------------------------------------------------------------------------------------------------




--------------------------------------- Iteration      1(  52)  ---------------------------------------


    POTLOK:  cpu time    0.4637: real time    0.4965
    SETDIJ:  cpu time    0.0411: real time    0.0411
    EDDIAG:  cpu time    7.6010: real time    7.6148
  RMM-DIIS:  cpu time   21.0150: real time   21.0744
    ORTHCH:  cpu time    0.3877: real time    0.3877
       DOS:  cpu time    0.0251: real time    0.0251
    CHARGE:  cpu time    3.0485: real time    3.0526
    MIXING:  cpu time    0.0299: real time    0.0298
    --------------------------------------------
      LOOP:  cpu time   32.6119: real time   32.7219

 eigenvalue-minimisations  :  6930
 total energy-change (2. order) :-0.1664150E+00  (-0.1528103E-02)
 number of electron     283.0000010 magnetization      19.7872615
 augmentation part      100.6854587 magnetization      14.7131599

 Broyden mixing:
  rms(total) = 0.26515E+01    rms(broyden)= 0.26515E+01
  rms(prec ) = 0.27279E+01
  weight for this iteration     100.00

 eigenvalues of (default mixing * dielectric matrix)
  average eigenvalue GAMMA=   0.7498
  2.2313  2.2313  2.0332  2.0332  1.9008  1.0526  1.0526  1.3238  1.3238  1.1417
  1.1417  0.7527  0.7527  0.5973  0.5973  0.8459  0.8459  0.1875  0.2186  0.2186
  0.6420  0.6420  0.3956  0.3956  0.0102  0.0002  0.4314  0.4314  0.6505  0.6505
  0.5794  0.5794  0.5707  0.5707  0.5175  0.5175  0.0667  0.1256  0.1962  0.2688
  0.3980  0.3678

 Free energy of the ion-electron system (eV)
  ---------------------------------------------------
  alpha Z        PSCENC =       367.19046233
  Ewald energy   TEWEN  =    349534.35230288
  -Hartree energ DENC   =   -378755.32926780
  -exchange      EXHF   =         0.00000000
  -V(xc)+E(xc)   XCENC  =      1417.41769801
  PAW double counting   =     33264.60322552   -33874.26625431
  entropy T*S    EENTRO =        -0.00328998
  eigenvalues    EBANDS =     -5253.39682720
  atomic energy  EATOM  =     33037.69599157
  Solvation  Ediel_sol  =         0.00000000
  ---------------------------------------------------
  free energy    TOTEN  =      -261.73595899 eV

  energy without entropy =     -261.73266901  energy(sigma->0) =     -261.73486233


--------------------------------------------------------------------------------------------------------




--------------------------------------- Iteration      1(  53)  ---------------------------------------


    POTLOK:  cpu time    0.4636: real time    0.5094
    SETDIJ:  cpu time    0.0410: real time    0.0410
    EDDIAG:  cpu time    7.6616: real time    7.6981
  RMM-DIIS:  cpu time   20.8225: real time   21.0575
    ORTHCH:  cpu time    0.3875: real time    0.3884
       DOS:  cpu time    0.0260: real time    0.0260
    CHARGE:  cpu time    3.0380: real time    3.0412
    MIXING:  cpu time    0.0310: real time    0.0310
    --------------------------------------------
      LOOP:  cpu time   32.4711: real time   32.7925

 eigenvalue-minimisations  :  6765
 total energy-change (2. order) :-0.1897908E-01  (-0.9402982E-03)
 number of electron     283.0000010 magnetization      19.7815400
 augmentation part      100.6975481 magnetization      14.7550966

 Broyden mixing:
  rms(total) = 0.27820E+01    rms(broyden)= 0.27820E+01
  rms(prec ) = 0.28647E+01
  weight for this iteration     100.00

 eigenvalues of (default mixing * dielectric matrix)
  average eigenvalue GAMMA=   0.7386
  2.0208  2.0208  2.2247  2.0772  2.0772  1.0660  1.0660  1.3022  1.3022  1.1533
  1.1533  0.6337  0.6337  0.7329  0.7329  0.8367  0.8367  0.1790  0.2577  0.2577
  0.6425  0.6425  0.3960  0.3960  0.4399  0.4399  0.0246  0.0010  0.0187  0.0712
  0.1417  0.6437  0.6437  0.2212  0.5666  0.5666  0.5840  0.5840  0.5065  0.5065
  0.3597  0.3982  0.3982

 Free energy of the ion-electron system (eV)
  ---------------------------------------------------
  alpha Z        PSCENC =       367.19046233
  Ewald energy   TEWEN  =    349534.35230288
  -Hartree energ DENC   =   -378755.26447538
  -exchange      EXHF   =         0.00000000
  -V(xc)+E(xc)   XCENC  =      1417.41253380
  PAW double counting   =     33264.82132197   -33874.50270366
  entropy T*S    EENTRO =         0.00679120
  eigenvalues    EBANDS =     -5253.46716278
  atomic energy  EATOM  =     33037.69599157
  Solvation  Ediel_sol  =         0.00000000
  ---------------------------------------------------
  free energy    TOTEN  =      -261.75493807 eV

  energy without entropy =     -261.76172927  energy(sigma->0) =     -261.75720181


--------------------------------------------------------------------------------------------------------




--------------------------------------- Iteration      1(  54)  ---------------------------------------


    POTLOK:  cpu time    0.4962: real time    0.4977
    SETDIJ:  cpu time    0.0408: real time    0.0408
    EDDIAG:  cpu time    7.5961: real time    7.6038
  RMM-DIIS:  cpu time   20.6811: real time   20.8195
    ORTHCH:  cpu time    0.3854: real time    0.3865
       DOS:  cpu time    0.0263: real time    0.0263
    CHARGE:  cpu time    3.0094: real time    3.0253
    MIXING:  cpu time    0.0319: real time    0.0319
    --------------------------------------------
      LOOP:  cpu time   32.2672: real time   32.4319

 eigenvalue-minimisations  :  6814
 total energy-change (2. order) : 0.8219447E-02  (-0.3297729E-03)
 number of electron     283.0000010 magnetization      19.7874427
 augmentation part      100.7089179 magnetization      14.7744312

 Broyden mixing:
  rms(total) = 0.28451E+01    rms(broyden)= 0.28451E+01
  rms(prec ) = 0.29324E+01
  weight for this iteration     100.00

 eigenvalues of (default mixing * dielectric matrix)
  average eigenvalue GAMMA=   0.7395
  2.4622  2.0839  2.0839  2.0810  2.0810  1.0481  1.0481  1.3030  1.3030  1.1569
  1.1569  0.7771  0.7771  0.6028  0.6028  0.8366  0.8366  0.2516  0.2470  0.2470
  0.1257  0.4953  0.4953  0.6474  0.6474  0.4491  0.4491  0.0055  0.0055  0.0885
  0.0885  0.1140  0.2073  0.6421  0.6421  0.5755  0.5755  0.5778  0.5778  0.4914
  0.4914  0.3596  0.3997  0.3997

 Free energy of the ion-electron system (eV)
  ---------------------------------------------------
  alpha Z        PSCENC =       367.19046233
  Ewald energy   TEWEN  =    349534.35230288
  -Hartree energ DENC   =   -378755.06840497
  -exchange      EXHF   =         0.00000000
  -V(xc)+E(xc)   XCENC  =      1417.40684424
  PAW double counting   =     33265.39886417   -33875.09991470
  entropy T*S    EENTRO =         0.01197462
  eigenvalues    EBANDS =     -5253.63483877
  atomic energy  EATOM  =     33037.69599157
  Solvation  Ediel_sol  =         0.00000000
  ---------------------------------------------------
  free energy    TOTEN  =      -261.74671863 eV

  energy without entropy =     -261.75869325  energy(sigma->0) =     -261.75071017


--------------------------------------------------------------------------------------------------------




--------------------------------------- Iteration      1(  55)  ---------------------------------------


    POTLOK:  cpu time    0.4645: real time    0.4975
    SETDIJ:  cpu time    0.0410: real time    0.0410
    EDDIAG:  cpu time    7.8684: real time    8.2284
  RMM-DIIS:  cpu time   20.9525: real time   20.9884
    ORTHCH:  cpu time    0.3876: real time    0.3877
       DOS:  cpu time    0.0254: real time    0.0254
    CHARGE:  cpu time    3.0115: real time    3.0155
    MIXING:  cpu time    0.0307: real time    0.0307
    --------------------------------------------
      LOOP:  cpu time   32.7818: real time   33.2146

 eigenvalue-minimisations  :  6848
 total energy-change (2. order) :-0.3439689E-01  (-0.2344397E-03)
 number of electron     283.0000010 magnetization      19.8313922
 augmentation part      100.7231599 magnetization      14.8325671

 Broyden mixing:
  rms(total) = 0.28978E+01    rms(broyden)= 0.28978E+01
  rms(prec ) = 0.29892E+01
  weight for this iteration     100.00

 eigenvalues of (default mixing * dielectric matrix)
  average eigenvalue GAMMA=   0.7327
  2.1934  2.1934  2.3214  2.1995  2.1995  1.1570  1.1570  0.9306  0.9306  0.7230
  0.7230  0.2844  0.6521  0.6521  0.3465  0.3465  0.7129  0.7129  0.1098  0.7151
  0.7151  0.6399  0.6399  0.0050  0.0050  0.0878  0.0878  0.0793  0.1730  0.5727
  0.5727  0.6222  0.6222  0.5757  0.5757  0.4560  0.4560  0.4156  0.4156  0.3314

 Free energy of the ion-electron system (eV)
  ---------------------------------------------------
  alpha Z        PSCENC =       367.19046233
  Ewald energy   TEWEN  =    349534.35230288
  -Hartree energ DENC   =   -378754.76997811
  -exchange      EXHF   =         0.00000000
  -V(xc)+E(xc)   XCENC  =      1417.39903610
  PAW double counting   =     33266.86136684   -33876.60176506
  entropy T*S    EENTRO =         0.01741040
  eigenvalues    EBANDS =     -5253.92594246
  atomic energy  EATOM  =     33037.69599157
  Solvation  Ediel_sol  =         0.00000000
  ---------------------------------------------------
  free energy    TOTEN  =      -261.78111551 eV

  energy without entropy =     -261.79852591  energy(sigma->0) =     -261.78691898


--------------------------------------------------------------------------------------------------------




--------------------------------------- Iteration      1(  56)  ---------------------------------------


    POTLOK:  cpu time    0.4647: real time    0.4964
    SETDIJ:  cpu time    0.0409: real time    0.0409
    EDDIAG:  cpu time    7.6023: real time    7.6110
  RMM-DIIS:  cpu time   21.4534: real time   21.5287
    ORTHCH:  cpu time    0.3994: real time    0.4030
       DOS:  cpu time    0.0255: real time    0.0255
    CHARGE:  cpu time    3.2615: real time    3.6511
    MIXING:  cpu time    0.0291: real time    0.0291
    --------------------------------------------
      LOOP:  cpu time   33.2768: real time   33.7856

 eigenvalue-minimisations  :  7091
 total energy-change (2. order) :-0.1754090E+00  (-0.6011855E-03)
 number of electron     283.0000010 magnetization      19.8373047
 augmentation part      100.7346428 magnetization      14.8465116

 Broyden mixing:
  rms(total) = 0.29798E+01    rms(broyden)= 0.29798E+01
  rms(prec ) = 0.30759E+01
  weight for this iteration     100.00

 eigenvalues of (default mixing * dielectric matrix)
  average eigenvalue GAMMA=   0.7214
  2.1364  2.1364  2.3264  2.2043  2.2043  1.0040  1.0040  1.0949  1.0949  0.5238
  0.5238  0.6436  0.6436  0.2980  0.4496  0.4496  0.7356  0.7356  0.0627  0.0820
  0.0820  0.0058  0.0058  0.1157  0.6984  0.6984  0.5958  0.5958  0.6258  0.6258
  0.4980  0.4980  0.6235  0.6235  0.5757  0.5757  0.2259  0.2834  0.4200  0.4200
  0.4303

 Free energy of the ion-electron system (eV)
  ---------------------------------------------------
  alpha Z        PSCENC =       367.19046233
  Ewald energy   TEWEN  =    349534.35230288
  -Hartree energ DENC   =   -378756.96067580
  -exchange      EXHF   =         0.00000000
  -V(xc)+E(xc)   XCENC  =      1417.39080592
  PAW double counting   =     33268.96431590   -33878.72993961
  entropy T*S    EENTRO =         0.02194404
  eigenvalues    EBANDS =     -5251.88173175
  atomic energy  EATOM  =     33037.69599157
  Solvation  Ediel_sol  =         0.00000000
  ---------------------------------------------------
  free energy    TOTEN  =      -261.95652452 eV

  energy without entropy =     -261.97846856  energy(sigma->0) =     -261.96383920


--------------------------------------------------------------------------------------------------------




--------------------------------------- Iteration      1(  57)  ---------------------------------------


    POTLOK:  cpu time    0.4645: real time    0.4971
    SETDIJ:  cpu time    0.0410: real time    0.0410
    EDDIAG:  cpu time    7.5951: real time    7.6027
  RMM-DIIS:  cpu time   21.7454: real time   21.7754
    ORTHCH:  cpu time    0.3881: real time    0.3882
       DOS:  cpu time    0.0260: real time    0.0259
    CHARGE:  cpu time    3.0290: real time    3.0318
    MIXING:  cpu time    0.0307: real time    0.0307
    --------------------------------------------
      LOOP:  cpu time   33.3198: real time   33.3928

 eigenvalue-minimisations  :  7163
 total energy-change (2. order) :-0.4959900E-01  (-0.2378359E-03)
 number of electron     283.0000010 magnetization      19.8376501
 augmentation part      100.7445988 magnetization      14.8577566

 Broyden mixing:
  rms(total) = 0.30271E+01    rms(broyden)= 0.30271E+01
  rms(prec ) = 0.31263E+01
  weight for this iteration     100.00

 eigenvalues of (default mixing * dielectric matrix)
  average eigenvalue GAMMA=   0.7196
  2.1845  2.1845  2.3032  2.1986  2.1986  0.9334  0.9334  1.0880  1.0880  0.6004
  0.7234  0.7234  0.3663  0.7980  0.7980  0.5778  0.5778  0.1665  0.2199  0.2199
  0.6668  0.6668  0.6744  0.6744  0.6136  0.6136  0.6291  0.6291  0.5319  0.5319
  0.5457  0.4916  0.4414  0.4414  0.3668  0.3668  0.1190  0.1190  0.1505  0.0536
  0.0125  0.0019

 Free energy of the ion-electron system (eV)
  ---------------------------------------------------
  alpha Z        PSCENC =       367.19046233
  Ewald energy   TEWEN  =    349534.35230288
  -Hartree energ DENC   =   -378756.32717820
  -exchange      EXHF   =         0.00000000
  -V(xc)+E(xc)   XCENC  =      1417.36995421
  PAW double counting   =     33270.82642927   -33880.64495204
  entropy T*S    EENTRO =         0.02485946
  eigenvalues    EBANDS =     -5252.49399300
  atomic energy  EATOM  =     33037.69599157
  Solvation  Ediel_sol  =         0.00000000
  ---------------------------------------------------
  free energy    TOTEN  =      -262.00612352 eV

  energy without entropy =     -262.03098298  energy(sigma->0) =     -262.01441001


--------------------------------------------------------------------------------------------------------




--------------------------------------- Iteration      1(  58)  ---------------------------------------


    POTLOK:  cpu time    0.4959: real time    0.4974
    SETDIJ:  cpu time    0.0414: real time    0.0414
    EDDIAG:  cpu time    7.6056: real time    7.6144
  RMM-DIIS:  cpu time   22.0081: real time   22.5053
    ORTHCH:  cpu time    0.3864: real time    0.3865
       DOS:  cpu time    0.0260: real time    0.0260
    CHARGE:  cpu time    2.9935: real time    2.9965
    MIXING:  cpu time    0.0309: real time    0.0309
    --------------------------------------------
      LOOP:  cpu time   33.5877: real time   34.0983

 eigenvalue-minimisations  :  7072
 total energy-change (2. order) : 0.2549786E-02  (-0.6177277E-04)
 number of electron     283.0000010 magnetization      19.8929044
 augmentation part      100.7460181 magnetization      14.9158414

 Broyden mixing:
  rms(total) = 0.30532E+01    rms(broyden)= 0.30532E+01
  rms(prec ) = 0.31537E+01
  weight for this iteration     100.00

 eigenvalues of (default mixing * dielectric matrix)
  average eigenvalue GAMMA=   0.7161
  2.1517  2.1517  2.2902  2.2902  2.0881  0.7235  0.7235  0.9469  0.9469  0.9851
  0.9851  0.6832  0.6832  0.8458  0.8458  0.2450  0.4703  0.4703  0.8361  0.7178
  0.7178  0.6264  0.6264  0.1108  0.1108  0.0588  0.0588  0.0060  0.0060  0.6692
  0.6692  0.6615  0.1247  0.1527  0.5655  0.5655  0.5441  0.3561  0.3561  0.4353
  0.4353  0.3972  0.4585

 Free energy of the ion-electron system (eV)
  ---------------------------------------------------
  alpha Z        PSCENC =       367.19046233
  Ewald energy   TEWEN  =    349534.35230288
  -Hartree energ DENC   =   -378756.32994234
  -exchange      EXHF   =         0.00000000
  -V(xc)+E(xc)   XCENC  =      1417.37186380
  PAW double counting   =     33270.84783235   -33880.65723590
  entropy T*S    EENTRO =         0.02578996
  eigenvalues    EBANDS =     -5252.50063838
  atomic energy  EATOM  =     33037.69599157
  Solvation  Ediel_sol  =         0.00000000
  ---------------------------------------------------
  free energy    TOTEN  =      -262.00357374 eV

  energy without entropy =     -262.02936370  energy(sigma->0) =     -262.01217039


--------------------------------------------------------------------------------------------------------




--------------------------------------- Iteration      1(  59)  ---------------------------------------


    POTLOK:  cpu time    0.4649: real time    0.4974
    SETDIJ:  cpu time    0.0411: real time    0.0411
    EDDIAG:  cpu time    7.6034: real time    7.6111
  RMM-DIIS:  cpu time   22.5977: real time   22.6303
    ORTHCH:  cpu time    0.3879: real time    0.3879
       DOS:  cpu time    0.0256: real time    0.0256
    CHARGE:  cpu time    3.0384: real time    3.0583
    MIXING:  cpu time    0.0314: real time    0.0316
    --------------------------------------------
      LOOP:  cpu time   34.1905: real time   34.2833

 eigenvalue-minimisations  :  7544
 total energy-change (2. order) :-0.1881375E+00  (-0.6631733E-03)
 number of electron     283.0000010 magnetization      19.9697703
 augmentation part      100.7645483 magnetization      15.0014775

 Broyden mixing:
  rms(total) = 0.30772E+01    rms(broyden)= 0.30772E+01
  rms(prec ) = 0.31808E+01
  weight for this iteration     100.00

 eigenvalues of (default mixing * dielectric matrix)
  average eigenvalue GAMMA=   0.7274
  2.5192  2.5192  2.1346  2.1346  1.5688  0.9548  0.9548  1.0517  1.0517  1.0137
  1.0137  0.6829  0.6829  0.8563  0.8563  1.0000  0.2590  0.3089  0.3089  0.6446
  0.6446  0.7282  0.7282  0.6846  0.6846  0.0672  0.0672  0.1379  0.1379  0.0027
  0.0132  0.6727  0.0850  0.1521  0.5646  0.5646  0.4600  0.4600  0.5446  0.5044
  0.4224  0.4224  0.3710  0.3710

 Free energy of the ion-electron system (eV)
  ---------------------------------------------------
  alpha Z        PSCENC =       367.19046233
  Ewald energy   TEWEN  =    349534.35230288
  -Hartree energ DENC   =   -378756.30877940
  -exchange      EXHF   =         0.00000000
  -V(xc)+E(xc)   XCENC  =      1417.29754294
  PAW double counting   =     33274.89681717   -33884.86031710
  entropy T*S    EENTRO =         0.02651676
  eigenvalues    EBANDS =     -5252.48224838
  atomic energy  EATOM  =     33037.69599157
  Solvation  Ediel_sol  =         0.00000000
  ---------------------------------------------------
  free energy    TOTEN  =      -262.19171123 eV

  energy without entropy =     -262.21822799  energy(sigma->0) =     -262.20055015


--------------------------------------------------------------------------------------------------------




--------------------------------------- Iteration      1(  60)  ---------------------------------------


    POTLOK:  cpu time    0.4648: real time    0.4976
    SETDIJ:  cpu time    0.0411: real time    0.0411
    EDDIAG:  cpu time    7.6023: real time    7.6640
  RMM-DIIS:  cpu time   22.3886: real time   22.7428
    ORTHCH:  cpu time    0.3872: real time    0.3872
       DOS:  cpu time    0.0250: real time    0.0250
    --------------------------------------------
      LOOP:  cpu time   30.9089: real time   31.3578

 eigenvalue-minimisations  :  7357
 total energy-change (2. order) :-0.1798814E+00  (-0.7192943E-03)
 number of electron     283.0000010 magnetization      19.9697703
 augmentation part      100.7645483 magnetization      15.0014775

 Free energy of the ion-electron system (eV)
  ---------------------------------------------------
  alpha Z        PSCENC =       367.19046233
  Ewald energy   TEWEN  =    349534.35230288
  -Hartree energ DENC   =   -378757.50573510
  -exchange      EXHF   =         0.00000000
  -V(xc)+E(xc)   XCENC  =      1417.22228973
  PAW double counting   =     33278.66801389   -33888.73813111
  entropy T*S    EENTRO =         0.02554064
  eigenvalues    EBANDS =     -5251.28232750
  atomic energy  EATOM  =     33037.69599157
  Solvation  Ediel_sol  =         0.00000000
  ---------------------------------------------------
  free energy    TOTEN  =      -262.37159266 eV

  energy without entropy =     -262.39713330  energy(sigma->0) =     -262.38010621


--------------------------------------------------------------------------------------------------------




 average (electrostatic) potential at core
  the test charge radii are     0.9577  0.7215  0.5201
  (the norm of the test charge is              1.0000)
       1 -76.0452       2 -76.8155       3 -76.5213       4 -77.2418       5 -76.3533
       6 -77.1931       7 -76.4982       8 -78.5143       9 -74.3006      10 -75.4972
      11 -75.2104      12 -74.1418      13 -77.9391      14 -75.3949      15 -76.3627
      16 -76.2977      17 -77.4197      18 -76.1668      19 -76.7224      20 -78.5297
      21 -74.7378      22 -76.2673      23 -76.2497      24 -77.1549      25 -76.4371
      26 -76.6005      27 -76.1948      28 -76.9329      29 -76.4668      30 -76.1083
      31 -77.0823      32 -76.2315      33 -39.7955      34 -38.1159      35 -39.7001
      36 -39.0541      37 -42.6375      38 -41.9671      39 -40.9292
 
 
 
 E-fermi :  -1.1855     XC(G=0):  -3.0571     alpha+bet : -3.3905


 spin component 1

 k-point     1 :       0.0000    0.0000    0.0000
  band No.  band energies     occupation 
      1     -52.6979      1.00000
      2     -52.6278      1.00000
      3     -52.2963      1.00000
      4     -52.2559      1.00000
      5     -52.2088      1.00000
      6     -51.9542      1.00000
      7     -51.7800      1.00000
      8     -51.7554      1.00000
      9     -51.5252      1.00000
     10     -51.4727      1.00000
     11     -51.4520      1.00000
     12     -51.2295      1.00000
     13     -51.1930      1.00000
     14     -51.1724      1.00000
     15     -51.1325      1.00000
     16     -50.9173      1.00000
     17     -50.8809      1.00000
     18     -50.8410      1.00000
     19     -50.2355      1.00000
     20     -49.9875      1.00000
     21     -49.9706      1.00000
     22     -49.9553      1.00000
     23     -49.9110      1.00000
     24     -49.8897      1.00000
     25     -49.8745      1.00000
     26     -49.8083      1.00000
     27     -49.7550      1.00000
     28     -48.5832      1.00000
     29     -48.5226      1.00000
     30     -47.9678      1.00000
     31     -47.9401      1.00000
     32     -47.9241      1.00000
     33     -47.9029      1.00000
     34     -47.7313      1.00000
     35     -46.9827      1.00000
     36     -46.9492      1.00000
     37     -22.5236      1.00000
     38     -21.9083      1.00000
     39     -20.9045      1.00000
     40     -20.5618      1.00000
     41     -20.2161      1.00000
     42     -20.0991      1.00000
     43     -19.9453      1.00000
     44     -19.7540      1.00000
     45     -19.5992      1.00000
     46     -19.4712      1.00000
     47     -19.3513      1.00000
     48     -19.2559      1.00000
     49     -19.2267      1.00000
     50     -19.1625      1.00000
     51     -19.1362      1.00000
     52     -19.1134      1.00000
     53     -19.0054      1.00000
     54     -19.0024      1.00000
     55     -18.6207      1.00000
     56     -17.5237      1.00000
     57     -10.5493      1.00000
     58      -9.5892      1.00000
     59      -8.8127      1.00000
     60      -8.5142      1.00000
     61      -8.4413      1.00000
     62      -8.2964      1.00000
     63      -8.2033      1.00000
     64      -8.0274      1.00000
     65      -7.9657      1.00000
     66      -7.8599      1.00000
     67      -7.6617      1.00000
     68      -7.5865      1.00000
     69      -7.4844      1.00000
     70      -7.4422      1.00000
     71      -7.4172      1.00000
     72      -7.3294      1.00000
     73      -7.3216      1.00000
     74      -7.1470      1.00000
     75      -7.1150      1.00000
     76      -7.0402      1.00000
     77      -6.9667      1.00000
     78      -6.9327      1.00000
     79      -6.9112      1.00000
     80      -6.7609      1.00000
     81      -6.7169      1.00000
     82      -6.5468      1.00000
     83      -6.4437      1.00000
     84      -6.3975      1.00000
     85      -6.3591      1.00000
     86      -6.3115      1.00000
     87      -6.2365      1.00000
     88      -6.1910      1.00000
     89      -6.1396      1.00000
     90      -6.0858      1.00000
     91      -6.0563      1.00000
     92      -5.9667      1.00000
     93      -5.8972      1.00000
     94      -5.8333      1.00000
     95      -5.8148      1.00000
     96      -5.6892      1.00000
     97      -5.6391      1.00000
     98      -5.5566      1.00000
     99      -5.5451      1.00000
    100      -5.4325      1.00000
    101      -5.3803      1.00000
    102      -5.3078      1.00000
    103      -5.1380      1.00000
    104      -5.1159      1.00000
    105      -5.0451      1.00000
    106      -5.0376      1.00000
    107      -4.9339      1.00000
    108      -4.8826      1.00000
    109      -4.8415      1.00000
    110      -4.7935      1.00000
    111      -4.7477      1.00000
    112      -4.6705      1.00000
    113      -4.6050      1.00000
    114      -4.5820      1.00000
    115      -4.4958      1.00000
    116      -4.4184      1.00000
    117      -4.3862      1.00000
    118      -4.3296      1.00000
    119      -4.2613      1.00000
    120      -4.1910      1.00000
    121      -4.1795      1.00000
    122      -4.1546      1.00000
    123      -4.1052      1.00000
    124      -4.0352      1.00000
    125      -4.0032      1.00000
    126      -3.9033      1.00000
    127      -3.8160      1.00000
    128      -3.7086      1.00000
    129      -3.5841      1.00000
    130      -3.5260      1.00000
    131      -3.4111      1.00000
    132      -3.3351      1.00000
    133      -3.2689      1.00000
    134      -3.2405      1.00000
    135      -3.1171      1.00000
    136      -2.9350      1.00000
    137      -2.9320      1.00000
    138      -2.7196      1.00000
    139      -2.5493      1.00000
    140      -2.3891      1.00000
    141      -2.3776      1.00000
    142      -2.2647      1.00000
    143      -2.2255      1.00000
    144      -2.1288      1.00000
    145      -2.0055      1.00000
    146      -1.9532      1.00000
    147      -1.6120      1.00509
    148      -1.5425      1.01500
    149      -1.2836      0.86489
    150      -1.2374      0.71162
    151      -0.8127     -0.01211
    152      -0.6609     -0.00066
    153      -0.5171     -0.00001
    154      -0.4834     -0.00000
    155      -0.3586     -0.00000
    156      -0.1522     -0.00000
    157       0.1486     -0.00000
    158       0.3958     -0.00000
    159       0.5151     -0.00000
    160       0.6386     -0.00000
    161       0.8648     -0.00000
    162       1.1665     -0.00000
    163       1.3572     -0.00000
    164       1.4796     -0.00000
    165       1.5460     -0.00000
    166       1.6327     -0.00000
    167       1.8097     -0.00000
    168       1.8769     -0.00000
    169       2.0182     -0.00000
    170       2.1033     -0.00000
    171       2.2215     -0.00000
    172       2.3675     -0.00000
    173       2.4615     -0.00000
    174       2.5655     -0.00000
    175       2.8292     -0.00000
    176       2.9489     -0.00000
    177       3.0328     -0.00000
    178       3.3423     -0.00000

 k-point     2 :       0.2500    0.0000   -0.0000
  band No.  band energies     occupation 
      1     -52.6978      1.00000
      2     -52.6278      1.00000
      3     -52.2963      1.00000
      4     -52.2559      1.00000
      5     -52.2088      1.00000
      6     -51.9542      1.00000
      7     -51.7800      1.00000
      8     -51.7554      1.00000
      9     -51.5252      1.00000
     10     -51.4726      1.00000
     11     -51.4520      1.00000
     12     -51.2295      1.00000
     13     -51.1930      1.00000
     14     -51.1724      1.00000
     15     -51.1325      1.00000
     16     -50.9173      1.00000
     17     -50.8809      1.00000
     18     -50.8410      1.00000
     19     -50.2354      1.00000
     20     -49.9875      1.00000
     21     -49.9706      1.00000
     22     -49.9553      1.00000
     23     -49.9110      1.00000
     24     -49.8896      1.00000
     25     -49.8745      1.00000
     26     -49.8083      1.00000
     27     -49.7550      1.00000
     28     -48.5834      1.00000
     29     -48.5226      1.00000
     30     -47.9678      1.00000
     31     -47.9399      1.00000
     32     -47.9226      1.00000
     33     -47.9044      1.00000
     34     -47.7314      1.00000
     35     -46.9808      1.00000
     36     -46.9513      1.00000
     37     -22.5140      1.00000
     38     -21.9062      1.00000
     39     -20.9025      1.00000
     40     -20.5261      1.00000
     41     -20.1923      1.00000
     42     -20.0858      1.00000
     43     -19.9600      1.00000
     44     -19.7557      1.00000
     45     -19.6134      1.00000
     46     -19.5454      1.00000
     47     -19.3387      1.00000
     48     -19.2566      1.00000
     49     -19.2255      1.00000
     50     -19.1670      1.00000
     51     -19.1497      1.00000
     52     -19.1184      1.00000
     53     -19.0054      1.00000
     54     -18.9959      1.00000
     55     -18.6340      1.00000
     56     -17.5273      1.00000
     57     -10.5314      1.00000
     58      -9.5209      1.00000
     59      -8.8083      1.00000
     60      -8.4476      1.00000
     61      -8.3705      1.00000
     62      -8.2742      1.00000
     63      -8.1537      1.00000
     64      -8.0328      1.00000
     65      -7.9522      1.00000
     66      -7.8495      1.00000
     67      -7.6161      1.00000
     68      -7.5787      1.00000
     69      -7.4872      1.00000
     70      -7.4427      1.00000
     71      -7.3640      1.00000
     72      -7.3375      1.00000
     73      -7.2364      1.00000
     74      -7.1764      1.00000
     75      -7.1310      1.00000
     76      -7.0757      1.00000
     77      -6.9677      1.00000
     78      -6.9091      1.00000
     79      -6.8153      1.00000
     80      -6.7760      1.00000
     81      -6.6307      1.00000
     82      -6.4979      1.00000
     83      -6.4496      1.00000
     84      -6.4076      1.00000
     85      -6.3287      1.00000
     86      -6.2853      1.00000
     87      -6.2714      1.00000
     88      -6.1608      1.00000
     89      -6.0923      1.00000
     90      -6.0594      1.00000
     91      -6.0194      1.00000
     92      -5.9701      1.00000
     93      -5.9091      1.00000
     94      -5.8294      1.00000
     95      -5.8029      1.00000
     96      -5.7527      1.00000
     97      -5.6817      1.00000
     98      -5.6238      1.00000
     99      -5.5651      1.00000
    100      -5.4185      1.00000
    101      -5.3829      1.00000
    102      -5.2980      1.00000
    103      -5.2607      1.00000
    104      -5.1463      1.00000
    105      -5.1268      1.00000
    106      -5.0826      1.00000
    107      -4.9783      1.00000
    108      -4.9258      1.00000
    109      -4.8804      1.00000
    110      -4.7937      1.00000
    111      -4.7676      1.00000
    112      -4.7228      1.00000
    113      -4.6495      1.00000
    114      -4.5645      1.00000
    115      -4.5169      1.00000
    116      -4.4756      1.00000
    117      -4.4092      1.00000
    118      -4.3719      1.00000
    119      -4.3185      1.00000
    120      -4.2360      1.00000
    121      -4.2110      1.00000
    122      -4.1009      1.00000
    123      -4.0224      1.00000
    124      -3.9909      1.00000
    125      -3.9356      1.00000
    126      -3.8466      1.00000
    127      -3.7825      1.00000
    128      -3.7364      1.00000
    129      -3.6064      1.00000
    130      -3.4956      1.00000
    131      -3.4487      1.00000
    132      -3.3449      1.00000
    133      -3.2512      1.00000
    134      -3.2018      1.00000
    135      -3.1005      1.00000
    136      -3.0338      1.00000
    137      -2.8289      1.00000
    138      -2.7553      1.00000
    139      -2.6593      1.00000
    140      -2.4693      1.00000
    141      -2.4400      1.00000
    142      -2.3851      1.00000
    143      -2.2894      1.00000
    144      -2.2413      1.00000
    145      -2.1497      1.00000
    146      -1.9123      1.00000
    147      -1.7620      1.00018
    148      -1.7215      1.00050
    149      -1.2591      0.78925
    150      -1.2221      0.65205
    151      -1.0079     -0.00919
    152      -0.9227     -0.03438
    153      -0.5767     -0.00007
    154      -0.4688     -0.00000
    155      -0.3314     -0.00000
    156      -0.0742     -0.00000
    157       0.1472     -0.00000
    158       0.4171     -0.00000
    159       0.5322     -0.00000
    160       0.5893     -0.00000
    161       0.9042     -0.00000
    162       1.3160     -0.00000
    163       1.5262     -0.00000
    164       1.5918     -0.00000
    165       1.6731     -0.00000
    166       1.8264     -0.00000
    167       1.8657     -0.00000
    168       1.9136     -0.00000
    169       2.0608     -0.00000
    170       2.0914     -0.00000
    171       2.1599     -0.00000
    172       2.3319     -0.00000
    173       2.4526     -0.00000
    174       2.6229     -0.00000
    175       2.7564     -0.00000
    176       2.8887     -0.00000
    177       3.0825     -0.00000
    178       3.5732     -0.00000

 k-point     3 :       0.5000    0.0000   -0.0000
  band No.  band energies     occupation 
      1     -52.6978      1.00000
      2     -52.6278      1.00000
      3     -52.2963      1.00000
      4     -52.2559      1.00000
      5     -52.2088      1.00000
      6     -51.9542      1.00000
      7     -51.7800      1.00000
      8     -51.7554      1.00000
      9     -51.5252      1.00000
     10     -51.4726      1.00000
     11     -51.4520      1.00000
     12     -51.2295      1.00000
     13     -51.1930      1.00000
     14     -51.1724      1.00000
     15     -51.1325      1.00000
     16     -50.9173      1.00000
     17     -50.8809      1.00000
     18     -50.8410      1.00000
     19     -50.2354      1.00000
     20     -49.9875      1.00000
     21     -49.9706      1.00000
     22     -49.9553      1.00000
     23     -49.9110      1.00000
     24     -49.8895      1.00000
     25     -49.8745      1.00000
     26     -49.8083      1.00000
     27     -49.7550      1.00000
     28     -48.5836      1.00000
     29     -48.5227      1.00000
     30     -47.9678      1.00000
     31     -47.9397      1.00000
     32     -47.9209      1.00000
     33     -47.9062      1.00000
     34     -47.7315      1.00000
     35     -46.9787      1.00000
     36     -46.9537      1.00000
     37     -22.5042      1.00000
     38     -21.9040      1.00000
     39     -20.9021      1.00000
     40     -20.4734      1.00000
     41     -20.2281      1.00000
     42     -20.0015      1.00000
     43     -19.9433      1.00000
     44     -19.8275      1.00000
     45     -19.6331      1.00000
     46     -19.6030      1.00000
     47     -19.3144      1.00000
     48     -19.2573      1.00000
     49     -19.2270      1.00000
     50     -19.1844      1.00000
     51     -19.1625      1.00000
     52     -19.1163      1.00000
     53     -19.0054      1.00000
     54     -18.9926      1.00000
     55     -18.6476      1.00000
     56     -17.5309      1.00000
     57     -10.5136      1.00000
     58      -9.4448      1.00000
     59      -8.8123      1.00000
     60      -8.3967      1.00000
     61      -8.2704      1.00000
     62      -8.2375      1.00000
     63      -8.1593      1.00000
     64      -8.0114      1.00000
     65      -7.9416      1.00000
     66      -7.8353      1.00000
     67      -7.5899      1.00000
     68      -7.5343      1.00000
     69      -7.5027      1.00000
     70      -7.4113      1.00000
     71      -7.3788      1.00000
     72      -7.3185      1.00000
     73      -7.1988      1.00000
     74      -7.1677      1.00000
     75      -7.0947      1.00000
     76      -7.0655      1.00000
     77      -6.9624      1.00000
     78      -6.8851      1.00000
     79      -6.7832      1.00000
     80      -6.7032      1.00000
     81      -6.5271      1.00000
     82      -6.5082      1.00000
     83      -6.4460      1.00000
     84      -6.3919      1.00000
     85      -6.3487      1.00000
     86      -6.3007      1.00000
     87      -6.2115      1.00000
     88      -6.1832      1.00000
     89      -6.1466      1.00000
     90      -6.0482      1.00000
     91      -6.0144      1.00000
     92      -5.9722      1.00000
     93      -5.8981      1.00000
     94      -5.8535      1.00000
     95      -5.8014      1.00000
     96      -5.7508      1.00000
     97      -5.6731      1.00000
     98      -5.6273      1.00000
     99      -5.5143      1.00000
    100      -5.4845      1.00000
    101      -5.3729      1.00000
    102      -5.3270      1.00000
    103      -5.2674      1.00000
    104      -5.2389      1.00000
    105      -5.1618      1.00000
    106      -5.1382      1.00000
    107      -5.1186      1.00000
    108      -4.9903      1.00000
    109      -4.9544      1.00000
    110      -4.8965      1.00000
    111      -4.8430      1.00000
    112      -4.7240      1.00000
    113      -4.6598      1.00000
    114      -4.5557      1.00000
    115      -4.4772      1.00000
    116      -4.4712      1.00000
    117      -4.4122      1.00000
    118      -4.3937      1.00000
    119      -4.3469      1.00000
    120      -4.2839      1.00000
    121      -4.2101      1.00000
    122      -4.1330      1.00000
    123      -4.0093      1.00000
    124      -3.9282      1.00000
    125      -3.8869      1.00000
    126      -3.8486      1.00000
    127      -3.7666      1.00000
    128      -3.7161      1.00000
    129      -3.6331      1.00000
    130      -3.4566      1.00000
    131      -3.3785      1.00000
    132      -3.3141      1.00000
    133      -3.2529      1.00000
    134      -3.2113      1.00000
    135      -3.1177      1.00000
    136      -3.0230      1.00000
    137      -2.9172      1.00000
    138      -2.8150      1.00000
    139      -2.6457      1.00000
    140      -2.5847      1.00000
    141      -2.5029      1.00000
    142      -2.4394      1.00000
    143      -2.3730      1.00000
    144      -2.2468      1.00000
    145      -2.1984      1.00000
    146      -2.0080      1.00000
    147      -1.9375      1.00000
    148      -1.8270      1.00003
    149      -1.3403      0.98321
    150      -1.2452      0.74056
    151      -1.1966      0.54697
    152      -1.0438      0.03728
    153      -0.6526     -0.00054
    154      -0.4485     -0.00000
    155      -0.3068     -0.00000
    156       0.0018     -0.00000
    157       0.1355     -0.00000
    158       0.4343     -0.00000
    159       0.5449     -0.00000
    160       0.5541     -0.00000
    161       0.9610     -0.00000
    162       1.2851     -0.00000
    163       1.5229     -0.00000
    164       1.5601     -0.00000
    165       1.8267     -0.00000
    166       1.9414     -0.00000
    167       1.9982     -0.00000
    168       2.1502     -0.00000
    169       2.1739     -0.00000
    170       2.1991     -0.00000
    171       2.2410     -0.00000
    172       2.2862     -0.00000
    173       2.3842     -0.00000
    174       2.5611     -0.00000
    175       2.6290     -0.00000
    176       2.9006     -0.00000
    177       2.9606     -0.00000
    178       3.1789     -0.00000

 k-point     4 :       0.0000    0.2500   -0.0000
  band No.  band energies     occupation 
      1     -52.6975      1.00000
      2     -52.6278      1.00000
      3     -52.2963      1.00000
      4     -52.2559      1.00000
      5     -52.2088      1.00000
      6     -51.9542      1.00000
      7     -51.7797      1.00000
      8     -51.7553      1.00000
      9     -51.5252      1.00000
     10     -51.4726      1.00000
     11     -51.4520      1.00000
     12     -51.2295      1.00000
     13     -51.1930      1.00000
     14     -51.1725      1.00000
     15     -51.1325      1.00000
     16     -50.9173      1.00000
     17     -50.8809      1.00000
     18     -50.8410      1.00000
     19     -50.2358      1.00000
     20     -49.9875      1.00000
     21     -49.9707      1.00000
     22     -49.9553      1.00000
     23     -49.9111      1.00000
     24     -49.8897      1.00000
     25     -49.8745      1.00000
     26     -49.8083      1.00000
     27     -49.7550      1.00000
     28     -48.5834      1.00000
     29     -48.5226      1.00000
     30     -47.9679      1.00000
     31     -47.9405      1.00000
     32     -47.9241      1.00000
     33     -47.9030      1.00000
     34     -47.7314      1.00000
     35     -46.9827      1.00000
     36     -46.9492      1.00000
     37     -22.4915      1.00000
     38     -21.9269      1.00000
     39     -20.8917      1.00000
     40     -20.5031      1.00000
     41     -20.1953      1.00000
     42     -20.0810      1.00000
     43     -19.9479      1.00000
     44     -19.7201      1.00000
     45     -19.6295      1.00000
     46     -19.4708      1.00000
     47     -19.3611      1.00000
     48     -19.2907      1.00000
     49     -19.2417      1.00000
     50     -19.2267      1.00000
     51     -19.1489      1.00000
     52     -19.1272      1.00000
     53     -19.0536      1.00000
     54     -18.9923      1.00000
     55     -18.6125      1.00000
     56     -17.5463      1.00000
     57     -10.5194      1.00000
     58      -9.5143      1.00000
     59      -8.7639      1.00000
     60      -8.3794      1.00000
     61      -8.2746      1.00000
     62      -8.2031      1.00000
     63      -8.0993      1.00000
     64      -7.9967      1.00000
     65      -7.9096      1.00000
     66      -7.8467      1.00000
     67      -7.7092      1.00000
     68      -7.5443      1.00000
     69      -7.5050      1.00000
     70      -7.4244      1.00000
     71      -7.3385      1.00000
     72      -7.2775      1.00000
     73      -7.2189      1.00000
     74      -7.1312      1.00000
     75      -7.1027      1.00000
     76      -7.0789      1.00000
     77      -6.9593      1.00000
     78      -6.9043      1.00000
     79      -6.8630      1.00000
     80      -6.7796      1.00000
     81      -6.6329      1.00000
     82      -6.5738      1.00000
     83      -6.4481      1.00000
     84      -6.4252      1.00000
     85      -6.4072      1.00000
     86      -6.3611      1.00000
     87      -6.2964      1.00000
     88      -6.2082      1.00000
     89      -6.1408      1.00000
     90      -6.0724      1.00000
     91      -6.0447      1.00000
     92      -5.9900      1.00000
     93      -5.9178      1.00000
     94      -5.7936      1.00000
     95      -5.7562      1.00000
     96      -5.7180      1.00000
     97      -5.6530      1.00000
     98      -5.6304      1.00000
     99      -5.5525      1.00000
    100      -5.4657      1.00000
    101      -5.3966      1.00000
    102      -5.3093      1.00000
    103      -5.2615      1.00000
    104      -5.2351      1.00000
    105      -5.1130      1.00000
    106      -5.0774      1.00000
    107      -4.9956      1.00000
    108      -4.9696      1.00000
    109      -4.8816      1.00000
    110      -4.7740      1.00000
    111      -4.7312      1.00000
    112      -4.7077      1.00000
    113      -4.5760      1.00000
    114      -4.5595      1.00000
    115      -4.5108      1.00000
    116      -4.4968      1.00000
    117      -4.4195      1.00000
    118      -4.3872      1.00000
    119      -4.3375      1.00000
    120      -4.2294      1.00000
    121      -4.1944      1.00000
    122      -4.1685      1.00000
    123      -4.1089      1.00000
    124      -4.0658      1.00000
    125      -3.9256      1.00000
    126      -3.8203      1.00000
    127      -3.7758      1.00000
    128      -3.6666      1.00000
    129      -3.5591      1.00000
    130      -3.4908      1.00000
    131      -3.4442      1.00000
    132      -3.4207      1.00000
    133      -3.2727      1.00000
    134      -3.1489      1.00000
    135      -3.0868      1.00000
    136      -2.9579      1.00000
    137      -2.8640      1.00000
    138      -2.7462      1.00000
    139      -2.6110      1.00000
    140      -2.5455      1.00000
    141      -2.4868      1.00000
    142      -2.2982      1.00000
    143      -2.2280      1.00000
    144      -2.1823      1.00000
    145      -2.0247      1.00000
    146      -2.0151      1.00000
    147      -1.8269      1.00003
    148      -1.5555      1.01258
    149      -1.4643      1.03199
    150      -1.3475      0.99261
    151      -0.8859     -0.02775
    152      -0.7970     -0.00959
    153      -0.7152     -0.00219
    154      -0.5578     -0.00004
    155      -0.3893     -0.00000
    156      -0.1168     -0.00000
    157       0.0705     -0.00000
    158       0.1576     -0.00000
    159       0.2567     -0.00000
    160       0.4919     -0.00000
    161       0.9485     -0.00000
    162       1.3822     -0.00000
    163       1.5436     -0.00000
    164       1.5976     -0.00000
    165       1.6255     -0.00000
    166       1.7390     -0.00000
    167       1.8691     -0.00000
    168       1.9578     -0.00000
    169       2.0413     -0.00000
    170       2.1664     -0.00000
    171       2.2494     -0.00000
    172       2.3556     -0.00000
    173       2.5138     -0.00000
    174       2.6783     -0.00000
    175       2.7171     -0.00000
    176       2.9096     -0.00000
    177       3.0343     -0.00000
    178       3.8078     -0.00000

 k-point     5 :       0.2500    0.2500   -0.0000
  band No.  band energies     occupation 
      1     -52.6974      1.00000
      2     -52.6278      1.00000
      3     -52.2963      1.00000
      4     -52.2559      1.00000
      5     -52.2088      1.00000
      6     -51.9542      1.00000
      7     -51.7798      1.00000
      8     -51.7553      1.00000
      9     -51.5252      1.00000
     10     -51.4727      1.00000
     11     -51.4520      1.00000
     12     -51.2295      1.00000
     13     -51.1930      1.00000
     14     -51.1725      1.00000
     15     -51.1325      1.00000
     16     -50.9173      1.00000
     17     -50.8809      1.00000
     18     -50.8410      1.00000
     19     -50.2359      1.00000
     20     -49.9875      1.00000
     21     -49.9707      1.00000
     22     -49.9553      1.00000
     23     -49.9111      1.00000
     24     -49.8898      1.00000
     25     -49.8745      1.00000
     26     -49.8083      1.00000
     27     -49.7550      1.00000
     28     -48.5832      1.00000
     29     -48.5226      1.00000
     30     -47.9678      1.00000
     31     -47.9403      1.00000
     32     -47.9227      1.00000
     33     -47.9045      1.00000
     34     -47.7314      1.00000
     35     -46.9808      1.00000
     36     -46.9513      1.00000
     37     -22.4898      1.00000
     38     -21.9310      1.00000
     39     -20.8835      1.00000
     40     -20.5166      1.00000
     41     -20.2014      1.00000
     42     -20.0827      1.00000
     43     -19.9339      1.00000
     44     -19.7186      1.00000
     45     -19.6267      1.00000
     46     -19.4727      1.00000
     47     -19.3586      1.00000
     48     -19.2975      1.00000
     49     -19.2426      1.00000
     50     -19.2274      1.00000
     51     -19.1548      1.00000
     52     -19.1175      1.00000
     53     -19.0422      1.00000
     54     -19.0000      1.00000
     55     -18.6130      1.00000
     56     -17.5466      1.00000
     57     -10.5138      1.00000
     58      -9.5523      1.00000
     59      -8.7500      1.00000
     60      -8.3890      1.00000
     61      -8.2602      1.00000
     62      -8.2097      1.00000
     63      -8.1164      1.00000
     64      -7.9773      1.00000
     65      -7.9194      1.00000
     66      -7.8803      1.00000
     67      -7.6897      1.00000
     68      -7.5500      1.00000
     69      -7.4766      1.00000
     70      -7.4329      1.00000
     71      -7.3800      1.00000
     72      -7.2551      1.00000
     73      -7.1859      1.00000
     74      -7.1172      1.00000
     75      -7.0857      1.00000
     76      -7.0705      1.00000
     77      -7.0012      1.00000
     78      -6.9349      1.00000
     79      -6.8552      1.00000
     80      -6.8086      1.00000
     81      -6.6121      1.00000
     82      -6.5488      1.00000
     83      -6.4851      1.00000
     84      -6.4243      1.00000
     85      -6.3576      1.00000
     86      -6.3078      1.00000
     87      -6.2463      1.00000
     88      -6.1652      1.00000
     89      -6.1449      1.00000
     90      -6.1023      1.00000
     91      -6.0589      1.00000
     92      -5.9841      1.00000
     93      -5.9346      1.00000
     94      -5.8485      1.00000
     95      -5.7773      1.00000
     96      -5.7270      1.00000
     97      -5.6382      1.00000
     98      -5.5835      1.00000
     99      -5.5093      1.00000
    100      -5.4693      1.00000
    101      -5.3863      1.00000
    102      -5.3715      1.00000
    103      -5.2845      1.00000
    104      -5.1407      1.00000
    105      -5.1105      1.00000
    106      -5.0293      1.00000
    107      -5.0136      1.00000
    108      -4.9585      1.00000
    109      -4.9441      1.00000
    110      -4.8251      1.00000
    111      -4.7894      1.00000
    112      -4.7043      1.00000
    113      -4.6321      1.00000
    114      -4.5560      1.00000
    115      -4.4908      1.00000
    116      -4.4794      1.00000
    117      -4.4112      1.00000
    118      -4.3696      1.00000
    119      -4.3102      1.00000
    120      -4.2264      1.00000
    121      -4.1974      1.00000
    122      -4.1387      1.00000
    123      -4.0874      1.00000
    124      -3.9979      1.00000
    125      -3.8925      1.00000
    126      -3.8186      1.00000
    127      -3.7900      1.00000
    128      -3.7019      1.00000
    129      -3.6403      1.00000
    130      -3.5699      1.00000
    131      -3.4760      1.00000
    132      -3.3814      1.00000
    133      -3.2779      1.00000
    134      -3.1634      1.00000
    135      -3.1162      1.00000
    136      -2.9573      1.00000
    137      -2.8095      1.00000
    138      -2.7901      1.00000
    139      -2.5931      1.00000
    140      -2.5126      1.00000
    141      -2.4187      1.00000
    142      -2.3195      1.00000
    143      -2.2294      1.00000
    144      -2.1954      1.00000
    145      -2.0880      1.00000
    146      -1.9991      1.00000
    147      -1.8116      1.00004
    148      -1.6286      1.00374
    149      -1.4547      1.03355
    150      -1.3327      0.97184
    151      -0.8835     -0.02722
    152      -0.8274     -0.01480
    153      -0.6477     -0.00048
    154      -0.5924     -0.00011
    155      -0.3967     -0.00000
    156      -0.1542     -0.00000
    157       0.1000     -0.00000
    158       0.1759     -0.00000
    159       0.2802     -0.00000
    160       0.5364     -0.00000
    161       0.7836     -0.00000
    162       1.4082     -0.00000
    163       1.5430     -0.00000
    164       1.6635     -0.00000
    165       1.7484     -0.00000
    166       1.8140     -0.00000
    167       1.8535     -0.00000
    168       1.9578     -0.00000
    169       2.0625     -0.00000
    170       2.1506     -0.00000
    171       2.2358     -0.00000
    172       2.3033     -0.00000
    173       2.4499     -0.00000
    174       2.6631     -0.00000
    175       2.7212     -0.00000
    176       2.8635     -0.00000
    177       3.0198     -0.00000
    178       3.3363     -0.00000

 k-point     6 :       0.5000    0.2500    0.0000
  band No.  band energies     occupation 
      1     -52.6974      1.00000
      2     -52.6278      1.00000
      3     -52.2963      1.00000
      4     -52.2559      1.00000
      5     -52.2088      1.00000
      6     -51.9542      1.00000
      7     -51.7797      1.00000
      8     -51.7553      1.00000
      9     -51.5252      1.00000
     10     -51.4726      1.00000
     11     -51.4520      1.00000
     12     -51.2295      1.00000
     13     -51.1930      1.00000
     14     -51.1724      1.00000
     15     -51.1325      1.00000
     16     -50.9173      1.00000
     17     -50.8809      1.00000
     18     -50.8410      1.00000
     19     -50.2358      1.00000
     20     -49.9875      1.00000
     21     -49.9707      1.00000
     22     -49.9553      1.00000
     23     -49.9111      1.00000
     24     -49.8897      1.00000
     25     -49.8745      1.00000
     26     -49.8083      1.00000
     27     -49.7550      1.00000
     28     -48.5834      1.00000
     29     -48.5226      1.00000
     30     -47.9678      1.00000
     31     -47.9401      1.00000
     32     -47.9209      1.00000
     33     -47.9064      1.00000
     34     -47.7314      1.00000
     35     -46.9786      1.00000
     36     -46.9537      1.00000
     37     -22.4798      1.00000
     38     -21.9291      1.00000
     39     -20.8827      1.00000
     40     -20.4600      1.00000
     41     -20.2459      1.00000
     42     -20.0044      1.00000
     43     -19.9226      1.00000
     44     -19.7579      1.00000
     45     -19.6328      1.00000
     46     -19.5679      1.00000
     47     -19.3359      1.00000
     48     -19.3023      1.00000
     49     -19.2669      1.00000
     50     -19.2276      1.00000
     51     -19.1607      1.00000
     52     -19.1235      1.00000
     53     -19.0169      1.00000
     54     -19.0020      1.00000
     55     -18.6267      1.00000
     56     -17.5500      1.00000
     57     -10.4973      1.00000
     58      -9.4868      1.00000
     59      -8.7328      1.00000
     60      -8.3149      1.00000
     61      -8.2164      1.00000
     62      -8.1382      1.00000
     63      -8.0817      1.00000
     64      -7.9684      1.00000
     65      -7.9090      1.00000
     66      -7.8637      1.00000
     67      -7.6378      1.00000
     68      -7.5287      1.00000
     69      -7.4618      1.00000
     70      -7.4287      1.00000
     71      -7.3841      1.00000
     72      -7.2731      1.00000
     73      -7.1502      1.00000
     74      -7.1259      1.00000
     75      -7.0996      1.00000
     76      -7.0368      1.00000
     77      -6.9417      1.00000
     78      -6.9325      1.00000
     79      -6.8515      1.00000
     80      -6.7121      1.00000
     81      -6.6150      1.00000
     82      -6.5551      1.00000
     83      -6.4894      1.00000
     84      -6.4134      1.00000
     85      -6.3383      1.00000
     86      -6.2900      1.00000
     87      -6.2475      1.00000
     88      -6.1777      1.00000
     89      -6.1386      1.00000
     90      -6.0504      1.00000
     91      -6.0239      1.00000
     92      -5.9827      1.00000
     93      -5.9229      1.00000
     94      -5.8659      1.00000
     95      -5.8216      1.00000
     96      -5.7614      1.00000
     97      -5.6668      1.00000
     98      -5.5771      1.00000
     99      -5.5277      1.00000
    100      -5.4551      1.00000
    101      -5.3953      1.00000
    102      -5.3376      1.00000
    103      -5.2961      1.00000
    104      -5.1976      1.00000
    105      -5.1701      1.00000
    106      -5.1316      1.00000
    107      -5.0448      1.00000
    108      -5.0184      1.00000
    109      -4.9893      1.00000
    110      -4.8862      1.00000
    111      -4.8010      1.00000
    112      -4.7116      1.00000
    113      -4.6637      1.00000
    114      -4.6257      1.00000
    115      -4.5304      1.00000
    116      -4.4745      1.00000
    117      -4.4398      1.00000
    118      -4.3994      1.00000
    119      -4.3541      1.00000
    120      -4.2373      1.00000
    121      -4.2210      1.00000
    122      -4.1328      1.00000
    123      -4.0307      1.00000
    124      -3.9625      1.00000
    125      -3.8958      1.00000
    126      -3.8308      1.00000
    127      -3.7894      1.00000
    128      -3.7298      1.00000
    129      -3.6286      1.00000
    130      -3.5299      1.00000
    131      -3.4651      1.00000
    132      -3.3461      1.00000
    133      -3.3150      1.00000
    134      -3.1218      1.00000
    135      -3.0953      1.00000
    136      -2.9996      1.00000
    137      -2.8670      1.00000
    138      -2.7106      1.00000
    139      -2.6460      1.00000
    140      -2.5889      1.00000
    141      -2.5059      1.00000
    142      -2.4738      1.00000
    143      -2.3424      1.00000
    144      -2.1918      1.00000
    145      -2.1062      1.00000
    146      -2.0408      1.00000
    147      -1.9219      1.00000
    148      -1.8025      1.00006
    149      -1.4429      1.03491
    150      -1.3813      1.02285
    151      -1.1209      0.24193
    152      -0.9414     -0.03545
    153      -0.7342     -0.00321
    154      -0.5545     -0.00004
    155      -0.3812     -0.00000
    156      -0.0726     -0.00000
    157       0.1286     -0.00000
    158       0.1686     -0.00000
    159       0.3033     -0.00000
    160       0.5193     -0.00000
    161       0.8029     -0.00000
    162       1.3860     -0.00000
    163       1.5423     -0.00000
    164       1.6514     -0.00000
    165       1.8714     -0.00000
    166       2.0039     -0.00000
    167       2.0398     -0.00000
    168       2.0903     -0.00000
    169       2.1584     -0.00000
    170       2.1789     -0.00000
    171       2.2006     -0.00000
    172       2.2296     -0.00000
    173       2.3031     -0.00000
    174       2.5780     -0.00000
    175       2.6491     -0.00000
    176       2.6972     -0.00000
    177       2.8810     -0.00000
    178       3.2602     -0.00000

 k-point     7 :      -0.2500    0.2500   -0.0000
  band No.  band energies     occupation 
      1     -52.6974      1.00000
      2     -52.6278      1.00000
      3     -52.2963      1.00000
      4     -52.2559      1.00000
      5     -52.2088      1.00000
      6     -51.9542      1.00000
      7     -51.7797      1.00000
      8     -51.7553      1.00000
      9     -51.5252      1.00000
     10     -51.4726      1.00000
     11     -51.4520      1.00000
     12     -51.2295      1.00000
     13     -51.1930      1.00000
     14     -51.1724      1.00000
     15     -51.1325      1.00000
     16     -50.9173      1.00000
     17     -50.8809      1.00000
     18     -50.8410      1.00000
     19     -50.2358      1.00000
     20     -49.9875      1.00000
     21     -49.9706      1.00000
     22     -49.9553      1.00000
     23     -49.9111      1.00000
     24     -49.8897      1.00000
     25     -49.8745      1.00000
     26     -49.8083      1.00000
     27     -49.7550      1.00000
     28     -48.5836      1.00000
     29     -48.5226      1.00000
     30     -47.9679      1.00000
     31     -47.9403      1.00000
     32     -47.9227      1.00000
     33     -47.9045      1.00000
     34     -47.7315      1.00000
     35     -46.9809      1.00000
     36     -46.9513      1.00000
     37     -22.4816      1.00000
     38     -21.9249      1.00000
     39     -20.8913      1.00000
     40     -20.4403      1.00000
     41     -20.2446      1.00000
     42     -20.0175      1.00000
     43     -19.9195      1.00000
     44     -19.7655      1.00000
     45     -19.6344      1.00000
     46     -19.5634      1.00000
     47     -19.3441      1.00000
     48     -19.3013      1.00000
     49     -19.2463      1.00000
     50     -19.2309      1.00000
     51     -19.1588      1.00000
     52     -19.1377      1.00000
     53     -19.0276      1.00000
     54     -18.9916      1.00000
     55     -18.6261      1.00000
     56     -17.5498      1.00000
     57     -10.5029      1.00000
     58      -9.4446      1.00000
     59      -8.7583      1.00000
     60      -8.2681      1.00000
     61      -8.2189      1.00000
     62      -8.1589      1.00000
     63      -8.0832      1.00000
     64      -7.9625      1.00000
     65      -7.9050      1.00000
     66      -7.8369      1.00000
     67      -7.6867      1.00000
     68      -7.5377      1.00000
     69      -7.4718      1.00000
     70      -7.4233      1.00000
     71      -7.3669      1.00000
     72      -7.2522      1.00000
     73      -7.2044      1.00000
     74      -7.1494      1.00000
     75      -7.0995      1.00000
     76      -7.0653      1.00000
     77      -6.9332      1.00000
     78      -6.8677      1.00000
     79      -6.7991      1.00000
     80      -6.7057      1.00000
     81      -6.5988      1.00000
     82      -6.5290      1.00000
     83      -6.4922      1.00000
     84      -6.4522      1.00000
     85      -6.3514      1.00000
     86      -6.3334      1.00000
     87      -6.2612      1.00000
     88      -6.1905      1.00000
     89      -6.1522      1.00000
     90      -6.0945      1.00000
     91      -6.0190      1.00000
     92      -5.9913      1.00000
     93      -5.8950      1.00000
     94      -5.8540      1.00000
     95      -5.7953      1.00000
     96      -5.7606      1.00000
     97      -5.6880      1.00000
     98      -5.6305      1.00000
     99      -5.6002      1.00000
    100      -5.4246      1.00000
    101      -5.3961      1.00000
    102      -5.3286      1.00000
    103      -5.3045      1.00000
    104      -5.2291      1.00000
    105      -5.1716      1.00000
    106      -5.1222      1.00000
    107      -5.0662      1.00000
    108      -5.0452      1.00000
    109      -4.9356      1.00000
    110      -4.8315      1.00000
    111      -4.7476      1.00000
    112      -4.7217      1.00000
    113      -4.6823      1.00000
    114      -4.5976      1.00000
    115      -4.5184      1.00000
    116      -4.4795      1.00000
    117      -4.4415      1.00000
    118      -4.3921      1.00000
    119      -4.3396      1.00000
    120      -4.2954      1.00000
    121      -4.2484      1.00000
    122      -4.1406      1.00000
    123      -4.0307      1.00000
    124      -3.9862      1.00000
    125      -3.8973      1.00000
    126      -3.8330      1.00000
    127      -3.7335      1.00000
    128      -3.6746      1.00000
    129      -3.6230      1.00000
    130      -3.5110      1.00000
    131      -3.4080      1.00000
    132      -3.2967      1.00000
    133      -3.2813      1.00000
    134      -3.1916      1.00000
    135      -3.0814      1.00000
    136      -3.0322      1.00000
    137      -2.8538      1.00000
    138      -2.7706      1.00000
    139      -2.6847      1.00000
    140      -2.5953      1.00000
    141      -2.5195      1.00000
    142      -2.4873      1.00000
    143      -2.2958      1.00000
    144      -2.1880      1.00000
    145      -2.1256      1.00000
    146      -2.0558      1.00000
    147      -1.8894      1.00000
    148      -1.7098      1.00066
    149      -1.4617      1.03244
    150      -1.3761      1.01957
    151      -1.1279      0.26736
    152      -0.9341     -0.03530
    153      -0.7885     -0.00839
    154      -0.5159     -0.00001
    155      -0.3828     -0.00000
    156      -0.0555     -0.00000
    157       0.0885     -0.00000
    158       0.1759     -0.00000
    159       0.2778     -0.00000
    160       0.4722     -0.00000
    161       1.0029     -0.00000
    162       1.3608     -0.00000
    163       1.5350     -0.00000
    164       1.5629     -0.00000
    165       1.8211     -0.00000
    166       1.8588     -0.00000
    167       1.9857     -0.00000
    168       2.0648     -0.00000
    169       2.0849     -0.00000
    170       2.1207     -0.00000
    171       2.2172     -0.00000
    172       2.3339     -0.00000
    173       2.4644     -0.00000
    174       2.4842     -0.00000
    175       2.7794     -0.00000
    176       2.8110     -0.00000
    177       2.9332     -0.00000
    178       3.2714     -0.00000

 k-point     8 :       0.0000    0.5000   -0.0000
  band No.  band energies     occupation 
      1     -52.6970      1.00000
      2     -52.6277      1.00000
      3     -52.2963      1.00000
      4     -52.2559      1.00000
      5     -52.2088      1.00000
      6     -51.9542      1.00000
      7     -51.7795      1.00000
      8     -51.7553      1.00000
      9     -51.5252      1.00000
     10     -51.4726      1.00000
     11     -51.4520      1.00000
     12     -51.2295      1.00000
     13     -51.1930      1.00000
     14     -51.1724      1.00000
     15     -51.1325      1.00000
     16     -50.9173      1.00000
     17     -50.8809      1.00000
     18     -50.8410      1.00000
     19     -50.2362      1.00000
     20     -49.9875      1.00000
     21     -49.9707      1.00000
     22     -49.9553      1.00000
     23     -49.9111      1.00000
     24     -49.8898      1.00000
     25     -49.8745      1.00000
     26     -49.8083      1.00000
     27     -49.7550      1.00000
     28     -48.5836      1.00000
     29     -48.5226      1.00000
     30     -47.9679      1.00000
     31     -47.9409      1.00000
     32     -47.9241      1.00000
     33     -47.9032      1.00000
     34     -47.7314      1.00000
     35     -46.9827      1.00000
     36     -46.9492      1.00000
     37     -22.4567      1.00000
     38     -21.9481      1.00000
     39     -20.8797      1.00000
     40     -20.3587      1.00000
     41     -20.3346      1.00000
     42     -19.9938      1.00000
     43     -19.8612      1.00000
     44     -19.7345      1.00000
     45     -19.6523      1.00000
     46     -19.5356      1.00000
     47     -19.3810      1.00000
     48     -19.3473      1.00000
     49     -19.2406      1.00000
     50     -19.2279      1.00000
     51     -19.2037      1.00000
     52     -19.1243      1.00000
     53     -19.0839      1.00000
     54     -18.9981      1.00000
     55     -18.6040      1.00000
     56     -17.5693      1.00000
     57     -10.4907      1.00000
     58      -9.4391      1.00000
     59      -8.6983      1.00000
     60      -8.3046      1.00000
     61      -8.1609      1.00000
     62      -8.0623      1.00000
     63      -8.0075      1.00000
     64      -7.9613      1.00000
     65      -7.8068      1.00000
     66      -7.7471      1.00000
     67      -7.6690      1.00000
     68      -7.5268      1.00000
     69      -7.4593      1.00000
     70      -7.4152      1.00000
     71      -7.3031      1.00000
     72      -7.2455      1.00000
     73      -7.1997      1.00000
     74      -7.1640      1.00000
     75      -7.0500      1.00000
     76      -6.9642      1.00000
     77      -6.9139      1.00000
     78      -6.8562      1.00000
     79      -6.7902      1.00000
     80      -6.7169      1.00000
     81      -6.6513      1.00000
     82      -6.6001      1.00000
     83      -6.5274      1.00000
     84      -6.4585      1.00000
     85      -6.4488      1.00000
     86      -6.4127      1.00000
     87      -6.3860      1.00000
     88      -6.2726      1.00000
     89      -6.2539      1.00000
     90      -6.1257      1.00000
     91      -6.0381      1.00000
     92      -5.9673      1.00000
     93      -5.9218      1.00000
     94      -5.8617      1.00000
     95      -5.8250      1.00000
     96      -5.7395      1.00000
     97      -5.7024      1.00000
     98      -5.6801      1.00000
     99      -5.5821      1.00000
    100      -5.4784      1.00000
    101      -5.4015      1.00000
    102      -5.3185      1.00000
    103      -5.2994      1.00000
    104      -5.2018      1.00000
    105      -5.1413      1.00000
    106      -5.0751      1.00000
    107      -5.0055      1.00000
    108      -4.9633      1.00000
    109      -4.9477      1.00000
    110      -4.9103      1.00000
    111      -4.7941      1.00000
    112      -4.7130      1.00000
    113      -4.6930      1.00000
    114      -4.5730      1.00000
    115      -4.5337      1.00000
    116      -4.5183      1.00000
    117      -4.4559      1.00000
    118      -4.3708      1.00000
    119      -4.3319      1.00000
    120      -4.2345      1.00000
    121      -4.1974      1.00000
    122      -4.1354      1.00000
    123      -4.0872      1.00000
    124      -4.0213      1.00000
    125      -3.9520      1.00000
    126      -3.9115      1.00000
    127      -3.6769      1.00000
    128      -3.6278      1.00000
    129      -3.5885      1.00000
    130      -3.5338      1.00000
    131      -3.4493      1.00000
    132      -3.2970      1.00000
    133      -3.1808      1.00000
    134      -3.0913      1.00000
    135      -3.0651      1.00000
    136      -2.9517      1.00000
    137      -2.9281      1.00000
    138      -2.8614      1.00000
    139      -2.7060      1.00000
    140      -2.5959      1.00000
    141      -2.4660      1.00000
    142      -2.4460      1.00000
    143      -2.3799      1.00000
    144      -2.1395      1.00000
    145      -2.0656      1.00000
    146      -2.0333      1.00000
    147      -1.8329      1.00002
    148      -1.6798      1.00131
    149      -1.6329      1.00345
    150      -1.4729      1.03034
    151      -1.0168     -0.00030
    152      -0.9896     -0.02281
    153      -0.7745     -0.00667
    154      -0.6511     -0.00052
    155      -0.3802     -0.00000
    156      -0.1729     -0.00000
    157      -0.0402     -0.00000
    158       0.0699     -0.00000
    159       0.0870     -0.00000
    160       0.3408     -0.00000
    161       1.1104     -0.00000
    162       1.4008     -0.00000
    163       1.5339     -0.00000
    164       1.5671     -0.00000
    165       1.6196     -0.00000
    166       1.7309     -0.00000
    167       1.9965     -0.00000
    168       2.0473     -0.00000
    169       2.0864     -0.00000
    170       2.1938     -0.00000
    171       2.2473     -0.00000
    172       2.3506     -0.00000
    173       2.4651     -0.00000
    174       2.5718     -0.00000
    175       2.7704     -0.00000
    176       2.8182     -0.00000
    177       3.0619     -0.00000
    178       3.0918     -0.00000

 k-point     9 :       0.2500    0.5000   -0.0000
  band No.  band energies     occupation 
      1     -52.6970      1.00000
      2     -52.6277      1.00000
      3     -52.2963      1.00000
      4     -52.2559      1.00000
      5     -52.2088      1.00000
      6     -51.9542      1.00000
      7     -51.7795      1.00000
      8     -51.7553      1.00000
      9     -51.5252      1.00000
     10     -51.4726      1.00000
     11     -51.4520      1.00000
     12     -51.2295      1.00000
     13     -51.1930      1.00000
     14     -51.1725      1.00000
     15     -51.1325      1.00000
     16     -50.9173      1.00000
     17     -50.8809      1.00000
     18     -50.8410      1.00000
     19     -50.2362      1.00000
     20     -49.9875      1.00000
     21     -49.9708      1.00000
     22     -49.9553      1.00000
     23     -49.9111      1.00000
     24     -49.8899      1.00000
     25     -49.8745      1.00000
     26     -49.8083      1.00000
     27     -49.7550      1.00000
     28     -48.5834      1.00000
     29     -48.5226      1.00000
     30     -47.9678      1.00000
     31     -47.9407      1.00000
     32     -47.9227      1.00000
     33     -47.9047      1.00000
     34     -47.7314      1.00000
     35     -46.9808      1.00000
     36     -46.9513      1.00000
     37     -22.4547      1.00000
     38     -21.9525      1.00000
     39     -20.8713      1.00000
     40     -20.4035      1.00000
     41     -20.3087      1.00000
     42     -19.9811      1.00000
     43     -19.8779      1.00000
     44     -19.7141      1.00000
     45     -19.6473      1.00000
     46     -19.5155      1.00000
     47     -19.4137      1.00000
     48     -19.3572      1.00000
     49     -19.2563      1.00000
     50     -19.2260      1.00000
     51     -19.1824      1.00000
     52     -19.1287      1.00000
     53     -19.0614      1.00000
     54     -19.0079      1.00000
     55     -18.6046      1.00000
     56     -17.5696      1.00000
     57     -10.4854      1.00000
     58      -9.4794      1.00000
     59      -8.6776      1.00000
     60      -8.3231      1.00000
     61      -8.1621      1.00000
     62      -8.0694      1.00000
     63      -7.9847      1.00000
     64      -7.9632      1.00000
     65      -7.7998      1.00000
     66      -7.7404      1.00000
     67      -7.6629      1.00000
     68      -7.5249      1.00000
     69      -7.4732      1.00000
     70      -7.4196      1.00000
     71      -7.3582      1.00000
     72      -7.2376      1.00000
     73      -7.1792      1.00000
     74      -7.1414      1.00000
     75      -7.0654      1.00000
     76      -7.0001      1.00000
     77      -6.9288      1.00000
     78      -6.8727      1.00000
     79      -6.8078      1.00000
     80      -6.7516      1.00000
     81      -6.6507      1.00000
     82      -6.6026      1.00000
     83      -6.5274      1.00000
     84      -6.4675      1.00000
     85      -6.3817      1.00000
     86      -6.3551      1.00000
     87      -6.2659      1.00000
     88      -6.2197      1.00000
     89      -6.1765      1.00000
     90      -6.1392      1.00000
     91      -6.0861      1.00000
     92      -6.0307      1.00000
     93      -5.9205      1.00000
     94      -5.8704      1.00000
     95      -5.8257      1.00000
     96      -5.7873      1.00000
     97      -5.6756      1.00000
     98      -5.6490      1.00000
     99      -5.5442      1.00000
    100      -5.4936      1.00000
    101      -5.3587      1.00000
    102      -5.3117      1.00000
    103      -5.2378      1.00000
    104      -5.2162      1.00000
    105      -5.1585      1.00000
    106      -5.1253      1.00000
    107      -5.0589      1.00000
    108      -5.0033      1.00000
    109      -4.9368      1.00000
    110      -4.8863      1.00000
    111      -4.8390      1.00000
    112      -4.7020      1.00000
    113      -4.6755      1.00000
    114      -4.6108      1.00000
    115      -4.5541      1.00000
    116      -4.4830      1.00000
    117      -4.4361      1.00000
    118      -4.3930      1.00000
    119      -4.3309      1.00000
    120      -4.2439      1.00000
    121      -4.2122      1.00000
    122      -4.1546      1.00000
    123      -4.0757      1.00000
    124      -3.9562      1.00000
    125      -3.9204      1.00000
    126      -3.8132      1.00000
    127      -3.7965      1.00000
    128      -3.6874      1.00000
    129      -3.6127      1.00000
    130      -3.5532      1.00000
    131      -3.4926      1.00000
    132      -3.3335      1.00000
    133      -3.1826      1.00000
    134      -3.1061      1.00000
    135      -3.0489      1.00000
    136      -3.0325      1.00000
    137      -2.8715      1.00000
    138      -2.8186      1.00000
    139      -2.6161      1.00000
    140      -2.5449      1.00000
    141      -2.4754      1.00000
    142      -2.4202      1.00000
    143      -2.2715      1.00000
    144      -2.2247      1.00000
    145      -2.1395      1.00000
    146      -2.0772      1.00000
    147      -1.9317      1.00000
    148      -1.6975      1.00088
    149      -1.6309      1.00358
    150      -1.3874      1.02610
    151      -0.9610     -0.03361
    152      -0.9228     -0.03439
    153      -0.8378     -0.01691
    154      -0.6944     -0.00141
    155      -0.3825     -0.00000
    156      -0.1528     -0.00000
    157      -0.0654     -0.00000
    158       0.0396     -0.00000
    159       0.1160     -0.00000
    160       0.3719     -0.00000
    161       0.8892     -0.00000
    162       1.4295     -0.00000
    163       1.5638     -0.00000
    164       1.6431     -0.00000
    165       1.8348     -0.00000
    166       1.9084     -0.00000
    167       1.9907     -0.00000
    168       2.0314     -0.00000
    169       2.0845     -0.00000
    170       2.1255     -0.00000
    171       2.2574     -0.00000
    172       2.3439     -0.00000
    173       2.4427     -0.00000
    174       2.4974     -0.00000
    175       2.6116     -0.00000
    176       2.6965     -0.00000
    177       3.0241     -0.00000
    178       3.3023     -0.00000

 k-point    10 :       0.5000    0.5000   -0.0000
  band No.  band energies     occupation 
      1     -52.6970      1.00000
      2     -52.6277      1.00000
      3     -52.2963      1.00000
      4     -52.2559      1.00000
      5     -52.2088      1.00000
      6     -51.9542      1.00000
      7     -51.7795      1.00000
      8     -51.7553      1.00000
      9     -51.5252      1.00000
     10     -51.4726      1.00000
     11     -51.4520      1.00000
     12     -51.2295      1.00000
     13     -51.1930      1.00000
     14     -51.1724      1.00000
     15     -51.1325      1.00000
     16     -50.9173      1.00000
     17     -50.8809      1.00000
     18     -50.8410      1.00000
     19     -50.2363      1.00000
     20     -49.9875      1.00000
     21     -49.9708      1.00000
     22     -49.9553      1.00000
     23     -49.9111      1.00000
     24     -49.8899      1.00000
     25     -49.8745      1.00000
     26     -49.8083      1.00000
     27     -49.7550      1.00000
     28     -48.5832      1.00000
     29     -48.5226      1.00000
     30     -47.9677      1.00000
     31     -47.9405      1.00000
     32     -47.9209      1.00000
     33     -47.9065      1.00000
     34     -47.7314      1.00000
     35     -46.9786      1.00000
     36     -46.9537      1.00000
     37     -22.4526      1.00000
     38     -21.9569      1.00000
     39     -20.8624      1.00000
     40     -20.4248      1.00000
     41     -20.3114      1.00000
     42     -19.9624      1.00000
     43     -19.8774      1.00000
     44     -19.7141      1.00000
     45     -19.6462      1.00000
     46     -19.5335      1.00000
     47     -19.3885      1.00000
     48     -19.3527      1.00000
     49     -19.2538      1.00000
     50     -19.2413      1.00000
     51     -19.2008      1.00000
     52     -19.1070      1.00000
     53     -19.0580      1.00000
     54     -19.0135      1.00000
     55     -18.6049      1.00000
     56     -17.5699      1.00000
     57     -10.4800      1.00000
     58      -9.5176      1.00000
     59      -8.6558      1.00000
     60      -8.3429      1.00000
     61      -8.1659      1.00000
     62      -8.0805      1.00000
     63      -7.9692      1.00000
     64      -7.9177      1.00000
     65      -7.8596      1.00000
     66      -7.7014      1.00000
     67      -7.6221      1.00000
     68      -7.5801      1.00000
     69      -7.4778      1.00000
     70      -7.4576      1.00000
     71      -7.4234      1.00000
     72      -7.2226      1.00000
     73      -7.1551      1.00000
     74      -7.1028      1.00000
     75      -7.0945      1.00000
     76      -7.0179      1.00000
     77      -6.9841      1.00000
     78      -6.8652      1.00000
     79      -6.7628      1.00000
     80      -6.7366      1.00000
     81      -6.6128      1.00000
     82      -6.5740      1.00000
     83      -6.4786      1.00000
     84      -6.4389      1.00000
     85      -6.3813      1.00000
     86      -6.3447      1.00000
     87      -6.2862      1.00000
     88      -6.1938      1.00000
     89      -6.1348      1.00000
     90      -6.1139      1.00000
     91      -6.0941      1.00000
     92      -5.9762      1.00000
     93      -5.9326      1.00000
     94      -5.9001      1.00000
     95      -5.8243      1.00000
     96      -5.7849      1.00000
     97      -5.6779      1.00000
     98      -5.6119      1.00000
     99      -5.5580      1.00000
    100      -5.4489      1.00000
    101      -5.3433      1.00000
    102      -5.3371      1.00000
    103      -5.2924      1.00000
    104      -5.2373      1.00000
    105      -5.1901      1.00000
    106      -5.1201      1.00000
    107      -5.0981      1.00000
    108      -5.0029      1.00000
    109      -4.9710      1.00000
    110      -4.8805      1.00000
    111      -4.8263      1.00000
    112      -4.7432      1.00000
    113      -4.6863      1.00000
    114      -4.6144      1.00000
    115      -4.5643      1.00000
    116      -4.4929      1.00000
    117      -4.4679      1.00000
    118      -4.4385      1.00000
    119      -4.3458      1.00000
    120      -4.2847      1.00000
    121      -4.2340      1.00000
    122      -4.1404      1.00000
    123      -4.0494      1.00000
    124      -3.9309      1.00000
    125      -3.8734      1.00000
    126      -3.7705      1.00000
    127      -3.6896      1.00000
    128      -3.6701      1.00000
    129      -3.5975      1.00000
    130      -3.5945      1.00000
    131      -3.4263      1.00000
    132      -3.3966      1.00000
    133      -3.2650      1.00000
    134      -3.1547      1.00000
    135      -3.0431      1.00000
    136      -2.9410      1.00000
    137      -2.9036      1.00000
    138      -2.7077      1.00000
    139      -2.6389      1.00000
    140      -2.5549      1.00000
    141      -2.4896      1.00000
    142      -2.3951      1.00000
    143      -2.3536      1.00000
    144      -2.2571      1.00000
    145      -2.2152      1.00000
    146      -2.0097      1.00000
    147      -1.9179      1.00000
    148      -1.6717      1.00157
    149      -1.6198      1.00442
    150      -1.4745      1.03000
    151      -1.0919      0.14804
    152      -0.8365     -0.01664
    153      -0.7888     -0.00844
    154      -0.6893     -0.00126
    155      -0.3975     -0.00000
    156      -0.1590     -0.00000
    157      -0.1032     -0.00000
    158       0.0744     -0.00000
    159       0.1761     -0.00000
    160       0.3847     -0.00000
    161       0.7679     -0.00000
    162       1.4476     -0.00000
    163       1.5748     -0.00000
    164       1.6329     -0.00000
    165       1.9131     -0.00000
    166       2.0539     -0.00000
    167       2.0755     -0.00000
    168       2.1421     -0.00000
    169       2.1616     -0.00000
    170       2.1918     -0.00000
    171       2.2161     -0.00000
    172       2.3353     -0.00000
    173       2.3697     -0.00000
    174       2.6010     -0.00000
    175       2.7812     -0.00000
    176       2.8195     -0.00000
    177       2.9253     -0.00000
    178       3.1478     -0.00000

 spin component 2

 k-point     1 :       0.0000    0.0000    0.0000
  band No.  band energies     occupation 
      1     -53.4020      1.00000
      2     -53.1481      1.00000
      3     -53.0504      1.00000
      4     -52.5954      1.00000
      5     -52.5647      1.00000
      6     -52.3662      1.00000
      7     -51.8644      1.00000
      8     -51.8386      1.00000
      9     -51.8339      1.00000
     10     -51.8164      1.00000
     11     -51.5425      1.00000
     12     -51.5136      1.00000
     13     -48.5260      1.00000
     14     -48.4705      1.00000
     15     -48.1514      1.00000
     16     -48.0329      1.00000
     17     -47.6871      1.00000
     18     -47.6512      1.00000
     19     -47.6163      1.00000
     20     -47.3629      1.00000
     21     -47.2848      1.00000
     22     -47.2706      1.00000
     23     -46.8109      1.00000
     24     -46.4689      1.00000
     25     -46.3297      1.00000
     26     -46.2922      1.00000
     27     -46.2422      1.00000
     28     -46.0753      1.00000
     29     -46.0289      1.00000
     30     -45.9945      1.00000
     31     -45.2125      1.00000
     32     -45.1186      1.00000
     33     -45.1037      1.00000
     34     -45.0408      1.00000
     35     -44.9761      1.00000
     36     -44.9311      1.00000
     37     -22.5116      1.00000
     38     -21.8792      1.00000
     39     -20.8300      1.00000
     40     -20.4747      1.00000
     41     -20.1704      1.00000
     42     -20.0403      1.00000
     43     -19.8247      1.00000
     44     -19.6953      1.00000
     45     -19.4766      1.00000
     46     -19.4226      1.00000
     47     -19.2958      1.00000
     48     -19.1918      1.00000
     49     -19.1750      1.00000
     50     -19.1084      1.00000
     51     -19.0941      1.00000
     52     -19.0080      1.00000
     53     -18.9792      1.00000
     54     -18.9023      1.00000
     55     -18.5666      1.00000
     56     -17.7719      1.00000
     57     -10.5592      1.00000
     58      -9.5705      1.00000
     59      -8.9354      1.00000
     60      -8.3461      1.00000
     61      -8.2989      1.00000
     62      -8.1232      1.00000
     63      -8.0501      1.00000
     64      -8.0172      1.00000
     65      -7.8333      1.00000
     66      -7.7311      1.00000
     67      -7.5747      1.00000
     68      -7.4592      1.00000
     69      -7.4133      1.00000
     70      -7.3413      1.00000
     71      -7.2256      1.00000
     72      -7.1357      1.00000
     73      -7.0347      1.00000
     74      -7.0112      1.00000
     75      -6.9808      1.00000
     76      -6.7932      1.00000
     77      -6.7033      1.00000
     78      -6.6433      1.00000
     79      -6.5478      1.00000
     80      -6.5150      1.00000
     81      -6.4480      1.00000
     82      -6.3066      1.00000
     83      -6.2360      1.00000
     84      -6.1763      1.00000
     85      -6.1552      1.00000
     86      -6.1205      1.00000
     87      -6.0800      1.00000
     88      -5.9886      1.00000
     89      -5.7777      1.00000
     90      -5.7321      1.00000
     91      -5.6636      1.00000
     92      -5.5871      1.00000
     93      -5.5169      1.00000
     94      -5.3004      1.00000
     95      -5.2782      1.00000
     96      -5.1559      1.00000
     97      -5.0785      1.00000
     98      -5.0414      1.00000
     99      -4.9305      1.00000
    100      -4.8624      1.00000
    101      -4.7851      1.00000
    102      -4.7398      1.00000
    103      -4.6447      1.00000
    104      -4.6157      1.00000
    105      -4.5519      1.00000
    106      -4.5312      1.00000
    107      -4.5176      1.00000
    108      -4.4189      1.00000
    109      -4.4070      1.00000
    110      -4.2346      1.00000
    111      -4.2169      1.00000
    112      -4.1708      1.00000
    113      -4.1039      1.00000
    114      -4.0656      1.00000
    115      -3.9943      1.00000
    116      -3.9555      1.00000
    117      -3.9050      1.00000
    118      -3.7520      1.00000
    119      -3.6919      1.00000
    120      -3.5682      1.00000
    121      -3.4595      1.00000
    122      -3.4377      1.00000
    123      -3.1143      1.00000
    124      -3.0585      1.00000
    125      -2.9556      1.00000
    126      -2.9001      1.00000
    127      -2.2935      1.00000
    128      -2.2401      1.00000
    129      -2.0079      1.00000
    130      -1.9685      1.00000
    131      -1.6591      1.00204
    132      -1.5515      1.01329
    133      -1.4513      1.03400
    134      -0.4955     -0.00001
    135       0.1832     -0.00000
    136       0.4203     -0.00000
    137       0.9764     -0.00000
    138       1.1495     -0.00000
    139       1.2251     -0.00000
    140       1.3286     -0.00000
    141       1.3920     -0.00000
    142       1.6500     -0.00000
    143       1.7066     -0.00000
    144       1.8763     -0.00000
    145       1.9783     -0.00000
    146       2.0859     -0.00000
    147       2.1216     -0.00000
    148       2.2264     -0.00000
    149       2.2475     -0.00000
    150       2.2939     -0.00000
    151       2.3226     -0.00000
    152       2.3699     -0.00000
    153       2.4718     -0.00000
    154       2.5459     -0.00000
    155       2.5675     -0.00000
    156       2.6100     -0.00000
    157       2.6853     -0.00000
    158       2.7593     -0.00000
    159       2.8176     -0.00000
    160       2.8532     -0.00000
    161       2.8868     -0.00000
    162       2.9600     -0.00000
    163       3.0759     -0.00000
    164       3.1007     -0.00000
    165       3.1528     -0.00000
    166       3.2430     -0.00000
    167       3.2563     -0.00000
    168       3.4718     -0.00000
    169       3.4754     -0.00000
    170       3.6118     -0.00000
    171       3.7262     -0.00000
    172       3.8885     -0.00000
    173       3.8837     -0.00000
    174       4.0545     -0.00000
    175       4.1382     -0.00000
    176       4.1806     -0.00000
    177       4.2115     -0.00000
    178       4.2830      0.00000

 k-point     2 :       0.2500    0.0000   -0.0000
  band No.  band energies     occupation 
      1     -53.4019      1.00000
      2     -53.1481      1.00000
      3     -53.0503      1.00000
      4     -52.5957      1.00000
      5     -52.5646      1.00000
      6     -52.3662      1.00000
      7     -51.8643      1.00000
      8     -51.8381      1.00000
      9     -51.8332      1.00000
     10     -51.8173      1.00000
     11     -51.5412      1.00000
     12     -51.5153      1.00000
     13     -48.5260      1.00000
     14     -48.4705      1.00000
     15     -48.1514      1.00000
     16     -48.0329      1.00000
     17     -47.6872      1.00000
     18     -47.6512      1.00000
     19     -47.6163      1.00000
     20     -47.3629      1.00000
     21     -47.2848      1.00000
     22     -47.2706      1.00000
     23     -46.8109      1.00000
     24     -46.4689      1.00000
     25     -46.3297      1.00000
     26     -46.2922      1.00000
     27     -46.2422      1.00000
     28     -46.0753      1.00000
     29     -46.0289      1.00000
     30     -45.9945      1.00000
     31     -45.2125      1.00000
     32     -45.1186      1.00000
     33     -45.1037      1.00000
     34     -45.0408      1.00000
     35     -44.9761      1.00000
     36     -44.9311      1.00000
     37     -22.5022      1.00000
     38     -21.8767      1.00000
     39     -20.8256      1.00000
     40     -20.4422      1.00000
     41     -20.1302      1.00000
     42     -20.0287      1.00000
     43     -19.8406      1.00000
     44     -19.6970      1.00000
     45     -19.5292      1.00000
     46     -19.4676      1.00000
     47     -19.2854      1.00000
     48     -19.1928      1.00000
     49     -19.1763      1.00000
     50     -19.1076      1.00000
     51     -19.0898      1.00000
     52     -19.0233      1.00000
     53     -18.9823      1.00000
     54     -18.9069      1.00000
     55     -18.5827      1.00000
     56     -17.7745      1.00000
     57     -10.5333      1.00000
     58      -9.4761      1.00000
     59      -8.9424      1.00000
     60      -8.2337      1.00000
     61      -8.2037      1.00000
     62      -8.0593      1.00000
     63      -7.9625      1.00000
     64      -7.9177      1.00000
     65      -7.7711      1.00000
     66      -7.7065      1.00000
     67      -7.6180      1.00000
     68      -7.4495      1.00000
     69      -7.4111      1.00000
     70      -7.3208      1.00000
     71      -7.2531      1.00000
     72      -7.1852      1.00000
     73      -7.0554      1.00000
     74      -6.9886      1.00000
     75      -6.9392      1.00000
     76      -6.8974      1.00000
     77      -6.7442      1.00000
     78      -6.6909      1.00000
     79      -6.5686      1.00000
     80      -6.5052      1.00000
     81      -6.3824      1.00000
     82      -6.2938      1.00000
     83      -6.2157      1.00000
     84      -6.1838      1.00000
     85      -6.0978      1.00000
     86      -6.0724      1.00000
     87      -5.8999      1.00000
     88      -5.8662      1.00000
     89      -5.8490      1.00000
     90      -5.8008      1.00000
     91      -5.7053      1.00000
     92      -5.5570      1.00000
     93      -5.4971      1.00000
     94      -5.3475      1.00000
     95      -5.2994      1.00000
     96      -5.2542      1.00000
     97      -5.1583      1.00000
     98      -5.0996      1.00000
     99      -5.0866      1.00000
    100      -4.9878      1.00000
    101      -4.8664      1.00000
    102      -4.8175      1.00000
    103      -4.7623      1.00000
    104      -4.6747      1.00000
    105      -4.6511      1.00000
    106      -4.5885      1.00000
    107      -4.5362      1.00000
    108      -4.4222      1.00000
    109      -4.3405      1.00000
    110      -4.2100      1.00000
    111      -4.1515      1.00000
    112      -4.1181      1.00000
    113      -4.0704      1.00000
    114      -3.9825      1.00000
    115      -3.9394      1.00000
    116      -3.8823      1.00000
    117      -3.8270      1.00000
    118      -3.8002      1.00000
    119      -3.6669      1.00000
    120      -3.5887      1.00000
    121      -3.4604      1.00000
    122      -3.4168      1.00000
    123      -3.2170      1.00000
    124      -3.1209      1.00000
    125      -3.0635      1.00000
    126      -2.9194      1.00000
    127      -2.4409      1.00000
    128      -2.3556      1.00000
    129      -2.2827      1.00000
    130      -2.0289      1.00000
    131      -1.8483      1.00001
    132      -1.6480      1.00256
    133      -1.4583      1.03300
    134      -0.5483     -0.00003
    135       0.1784     -0.00000
    136       0.4061     -0.00000
    137       1.1647     -0.00000
    138       1.2665     -0.00000
    139       1.3109     -0.00000
    140       1.4011     -0.00000
    141       1.5442     -0.00000
    142       1.6957     -0.00000
    143       1.7679     -0.00000
    144       1.8710     -0.00000
    145       2.0516     -0.00000
    146       2.1004     -0.00000
    147       2.1400     -0.00000
    148       2.2577     -0.00000
    149       2.3193     -0.00000
    150       2.3324     -0.00000
    151       2.4283     -0.00000
    152       2.5069     -0.00000
    153       2.5680     -0.00000
    154       2.6007     -0.00000
    155       2.6477     -0.00000
    156       2.7042     -0.00000
    157       2.7438     -0.00000
    158       2.7789     -0.00000
    159       2.8601     -0.00000
    160       2.8809     -0.00000
    161       2.9260     -0.00000
    162       2.9892     -0.00000
    163       3.0818     -0.00000
    164       3.0921     -0.00000
    165       3.1761     -0.00000
    166       3.2642     -0.00000
    167       3.3785     -0.00000
    168       3.4039     -0.00000
    169       3.5165     -0.00000
    170       3.5883     -0.00000
    171       3.8205     -0.00000
    172       3.9325     -0.00000
    173       3.9925     -0.00000
    174       4.1111     -0.00000
    175       4.1510     -0.00000
    176       4.1874     -0.00000
    177       4.3799      0.00000
    178       4.4626      0.00000

 k-point     3 :       0.5000    0.0000   -0.0000
  band No.  band energies     occupation 
      1     -53.4017      1.00000
      2     -53.1481      1.00000
      3     -53.0503      1.00000
      4     -52.5959      1.00000
      5     -52.5646      1.00000
      6     -52.3663      1.00000
      7     -51.8642      1.00000
      8     -51.8377      1.00000
      9     -51.8323      1.00000
     10     -51.8184      1.00000
     11     -51.5397      1.00000
     12     -51.5171      1.00000
     13     -48.5260      1.00000
     14     -48.4705      1.00000
     15     -48.1514      1.00000
     16     -48.0329      1.00000
     17     -47.6872      1.00000
     18     -47.6512      1.00000
     19     -47.6163      1.00000
     20     -47.3629      1.00000
     21     -47.2848      1.00000
     22     -47.2705      1.00000
     23     -46.8110      1.00000
     24     -46.4689      1.00000
     25     -46.3297      1.00000
     26     -46.2922      1.00000
     27     -46.2422      1.00000
     28     -46.0753      1.00000
     29     -46.0289      1.00000
     30     -45.9945      1.00000
     31     -45.2125      1.00000
     32     -45.1186      1.00000
     33     -45.1037      1.00000
     34     -45.0408      1.00000
     35     -44.9761      1.00000
     36     -44.9311      1.00000
     37     -22.4927      1.00000
     38     -21.8741      1.00000
     39     -20.8227      1.00000
     40     -20.3959      1.00000
     41     -20.1431      1.00000
     42     -19.9141      1.00000
     43     -19.8464      1.00000
     44     -19.7934      1.00000
     45     -19.5790      1.00000
     46     -19.4937      1.00000
     47     -19.2681      1.00000
     48     -19.1941      1.00000
     49     -19.1790      1.00000
     50     -19.1032      1.00000
     51     -19.0847      1.00000
     52     -19.0493      1.00000
     53     -18.9835      1.00000
     54     -18.9115      1.00000
     55     -18.5992      1.00000
     56     -17.7770      1.00000
     57     -10.5074      1.00000
     58      -9.3603      1.00000
     59      -8.9636      1.00000
     60      -8.1890      1.00000
     61      -8.1275      1.00000
     62      -7.9494      1.00000
     63      -7.8838      1.00000
     64      -7.7874      1.00000
     65      -7.7190      1.00000
     66      -7.6675      1.00000
     67      -7.5739      1.00000
     68      -7.4422      1.00000
     69      -7.4036      1.00000
     70      -7.2658      1.00000
     71      -7.2116      1.00000
     72      -7.1713      1.00000
     73      -7.1315      1.00000
     74      -7.0947      1.00000
     75      -6.9221      1.00000
     76      -6.8781      1.00000
     77      -6.7142      1.00000
     78      -6.6779      1.00000
     79      -6.6144      1.00000
     80      -6.5430      1.00000
     81      -6.5175      1.00000
     82      -6.3043      1.00000
     83      -6.2243      1.00000
     84      -6.1767      1.00000
     85      -6.0857      1.00000
     86      -6.0066      1.00000
     87      -5.9756      1.00000
     88      -5.8199      1.00000
     89      -5.7294      1.00000
     90      -5.7036      1.00000
     91      -5.6064      1.00000
     92      -5.5793      1.00000
     93      -5.5040      1.00000
     94      -5.4561      1.00000
     95      -5.3886      1.00000
     96      -5.3777      1.00000
     97      -5.2697      1.00000
     98      -5.1883      1.00000
     99      -5.1252      1.00000
    100      -4.9988      1.00000
    101      -4.9474      1.00000
    102      -4.8977      1.00000
    103      -4.8916      1.00000
    104      -4.8090      1.00000
    105      -4.7665      1.00000
    106      -4.6191      1.00000
    107      -4.4892      1.00000
    108      -4.3313      1.00000
    109      -4.2881      1.00000
    110      -4.1960      1.00000
    111      -4.1730      1.00000
    112      -4.0730      1.00000
    113      -4.0255      1.00000
    114      -3.9155      1.00000
    115      -3.8978      1.00000
    116      -3.8528      1.00000
    117      -3.7644      1.00000
    118      -3.6814      1.00000
    119      -3.6150      1.00000
    120      -3.5160      1.00000
    121      -3.4874      1.00000
    122      -3.4384      1.00000
    123      -3.3792      1.00000
    124      -3.2285      1.00000
    125      -3.0899      1.00000
    126      -2.9506      1.00000
    127      -2.6090      1.00000
    128      -2.5880      1.00000
    129      -2.4976      1.00000
    130      -2.1178      1.00000
    131      -2.0328      1.00000
    132      -1.7231      1.00048
    133      -1.4597      1.03277
    134      -0.5933     -0.00012
    135       0.1779     -0.00000
    136       0.3907     -0.00000
    137       1.1709     -0.00000
    138       1.3260     -0.00000
    139       1.4271     -0.00000
    140       1.6195     -0.00000
    141       1.6912     -0.00000
    142       1.7287     -0.00000
    143       1.8900     -0.00000
    144       1.9879     -0.00000
    145       2.0902     -0.00000
    146       2.1627     -0.00000
    147       2.1858     -0.00000
    148       2.2461     -0.00000
    149       2.2847     -0.00000
    150       2.3218     -0.00000
    151       2.3924     -0.00000
    152       2.4643     -0.00000
    153       2.5706     -0.00000
    154       2.5803     -0.00000
    155       2.6801     -0.00000
    156       2.7809     -0.00000
    157       2.8579     -0.00000
    158       2.9078     -0.00000
    159       2.9317     -0.00000
    160       2.9552     -0.00000
    161       3.0238     -0.00000
    162       3.1167     -0.00000
    163       3.1349     -0.00000
    164       3.1938     -0.00000
    165       3.2605     -0.00000
    166       3.2872     -0.00000
    167       3.3805     -0.00000
    168       3.4413     -0.00000
    169       3.5384     -0.00000
    170       3.7785     -0.00000
    171       3.9400     -0.00000
    172       3.9768     -0.00000
    173       4.0532     -0.00000
    174       4.0927     -0.00000
    175       4.1304     -0.00000
    176       4.1935     -0.00000
    177       4.2614     -0.00000
    178       4.4981      0.00000

 k-point     4 :       0.0000    0.2500   -0.0000
  band No.  band energies     occupation 
      1     -53.4018      1.00000
      2     -53.1480      1.00000
      3     -53.0503      1.00000
      4     -52.5957      1.00000
      5     -52.5647      1.00000
      6     -52.3662      1.00000
      7     -51.8644      1.00000
      8     -51.8384      1.00000
      9     -51.8338      1.00000
     10     -51.8163      1.00000
     11     -51.5424      1.00000
     12     -51.5136      1.00000
     13     -48.5263      1.00000
     14     -48.4705      1.00000
     15     -48.1514      1.00000
     16     -48.0329      1.00000
     17     -47.6875      1.00000
     18     -47.6514      1.00000
     19     -47.6163      1.00000
     20     -47.3629      1.00000
     21     -47.2848      1.00000
     22     -47.2706      1.00000
     23     -46.8109      1.00000
     24     -46.4689      1.00000
     25     -46.3297      1.00000
     26     -46.2922      1.00000
     27     -46.2422      1.00000
     28     -46.0753      1.00000
     29     -46.0289      1.00000
     30     -45.9945      1.00000
     31     -45.2125      1.00000
     32     -45.1186      1.00000
     33     -45.1037      1.00000
     34     -45.0408      1.00000
     35     -44.9761      1.00000
     36     -44.9311      1.00000
     37     -22.4814      1.00000
     38     -21.8968      1.00000
     39     -20.8140      1.00000
     40     -20.4171      1.00000
     41     -20.1316      1.00000
     42     -20.0211      1.00000
     43     -19.8351      1.00000
     44     -19.6532      1.00000
     45     -19.5095      1.00000
     46     -19.4171      1.00000
     47     -19.3069      1.00000
     48     -19.2287      1.00000
     49     -19.2022      1.00000
     50     -19.1829      1.00000
     51     -19.0969      1.00000
     52     -19.0548      1.00000
     53     -18.9870      1.00000
     54     -18.9133      1.00000
     55     -18.5534      1.00000
     56     -17.7999      1.00000
     57     -10.5258      1.00000
     58      -9.4697      1.00000
     59      -8.8814      1.00000
     60      -8.1518      1.00000
     61      -8.1132      1.00000
     62      -8.0020      1.00000
     63      -7.9676      1.00000
     64      -7.9073      1.00000
     65      -7.7501      1.00000
     66      -7.6918      1.00000
     67      -7.5818      1.00000
     68      -7.4564      1.00000
     69      -7.4131      1.00000
     70      -7.3690      1.00000
     71      -7.2802      1.00000
     72      -7.0821      1.00000
     73      -7.0316      1.00000
     74      -6.9830      1.00000
     75      -6.9429      1.00000
     76      -6.7930      1.00000
     77      -6.7491      1.00000
     78      -6.6505      1.00000
     79      -6.6144      1.00000
     80      -6.5215      1.00000
     81      -6.4726      1.00000
     82      -6.3110      1.00000
     83      -6.2968      1.00000
     84      -6.1410      1.00000
     85      -6.0994      1.00000
     86      -6.0270      1.00000
     87      -5.9859      1.00000
     88      -5.9005      1.00000
     89      -5.8527      1.00000
     90      -5.7518      1.00000
     91      -5.6927      1.00000
     92      -5.5991      1.00000
     93      -5.5126      1.00000
     94      -5.4301      1.00000
     95      -5.3815      1.00000
     96      -5.3167      1.00000
     97      -5.2053      1.00000
     98      -5.1119      1.00000
     99      -5.0150      1.00000
    100      -4.8996      1.00000
    101      -4.8058      1.00000
    102      -4.7322      1.00000
    103      -4.7042      1.00000
    104      -4.6372      1.00000
    105      -4.5827      1.00000
    106      -4.5459      1.00000
    107      -4.5024      1.00000
    108      -4.4038      1.00000
    109      -4.3615      1.00000
    110      -4.3019      1.00000
    111      -4.2374      1.00000
    112      -4.1651      1.00000
    113      -4.1242      1.00000
    114      -4.0327      1.00000
    115      -4.0106      1.00000
    116      -3.9026      1.00000
    117      -3.8834      1.00000
    118      -3.8362      1.00000
    119      -3.7150      1.00000
    120      -3.6473      1.00000
    121      -3.5192      1.00000
    122      -3.4105      1.00000
    123      -3.1067      1.00000
    124      -3.0981      1.00000
    125      -3.0106      1.00000
    126      -2.9409      1.00000
    127      -2.4248      1.00000
    128      -2.2947      1.00000
    129      -2.2417      1.00000
    130      -2.0332      1.00000
    131      -1.8076      1.00005
    132      -1.7121      1.00063
    133      -1.5096      1.02212
    134      -0.7190     -0.00237
    135       0.0275     -0.00000
    136       0.1551     -0.00000
    137       1.1637     -0.00000
    138       1.2825     -0.00000
    139       1.3058     -0.00000
    140       1.4134     -0.00000
    141       1.5376     -0.00000
    142       1.7361     -0.00000
    143       1.7565     -0.00000
    144       1.8823     -0.00000
    145       2.0206     -0.00000
    146       2.0922     -0.00000
    147       2.1493     -0.00000
    148       2.1796     -0.00000
    149       2.2550     -0.00000
    150       2.3032     -0.00000
    151       2.4321     -0.00000
    152       2.4955     -0.00000
    153       2.5558     -0.00000
    154       2.6025     -0.00000
    155       2.6507     -0.00000
    156       2.7166     -0.00000
    157       2.7652     -0.00000
    158       2.7969     -0.00000
    159       2.8404     -0.00000
    160       2.9046     -0.00000
    161       2.9365     -0.00000
    162       3.0183     -0.00000
    163       3.0607     -0.00000
    164       3.1449     -0.00000
    165       3.2136     -0.00000
    166       3.2855     -0.00000
    167       3.4493     -0.00000
    168       3.4787     -0.00000
    169       3.6744     -0.00000
    170       3.7807     -0.00000
    171       3.8952     -0.00000
    172       3.9808     -0.00000
    173       4.0622     -0.00000
    174       4.1151     -0.00000
    175       4.2039     -0.00000
    176       4.2954      0.00000
    177       4.3600      0.00000
    178       4.5296      0.00000

 k-point     5 :       0.2500    0.2500   -0.0000
  band No.  band energies     occupation 
      1     -53.4019      1.00000
      2     -53.1480      1.00000
      3     -53.0504      1.00000
      4     -52.5954      1.00000
      5     -52.5646      1.00000
      6     -52.3662      1.00000
      7     -51.8643      1.00000
      8     -51.8379      1.00000
      9     -51.8332      1.00000
     10     -51.8172      1.00000
     11     -51.5412      1.00000
     12     -51.5153      1.00000
     13     -48.5264      1.00000
     14     -48.4706      1.00000
     15     -48.1514      1.00000
     16     -48.0329      1.00000
     17     -47.6875      1.00000
     18     -47.6514      1.00000
     19     -47.6163      1.00000
     20     -47.3629      1.00000
     21     -47.2848      1.00000
     22     -47.2706      1.00000
     23     -46.8109      1.00000
     24     -46.4689      1.00000
     25     -46.3297      1.00000
     26     -46.2922      1.00000
     27     -46.2422      1.00000
     28     -46.0753      1.00000
     29     -46.0289      1.00000
     30     -45.9945      1.00000
     31     -45.2125      1.00000
     32     -45.1186      1.00000
     33     -45.1037      1.00000
     34     -45.0408      1.00000
     35     -44.9761      1.00000
     36     -44.9311      1.00000
     37     -22.4799      1.00000
     38     -21.9009      1.00000
     39     -20.8056      1.00000
     40     -20.4295      1.00000
     41     -20.1380      1.00000
     42     -20.0257      1.00000
     43     -19.8285      1.00000
     44     -19.6544      1.00000
     45     -19.4949      1.00000
     46     -19.4325      1.00000
     47     -19.3017      1.00000
     48     -19.2352      1.00000
     49     -19.1912      1.00000
     50     -19.1747      1.00000
     51     -19.0844      1.00000
     52     -19.0501      1.00000
     53     -18.9879      1.00000
     54     -18.9307      1.00000
     55     -18.5541      1.00000
     56     -17.8000      1.00000
     57     -10.5343      1.00000
     58      -9.5013      1.00000
     59      -8.8904      1.00000
     60      -8.1952      1.00000
     61      -8.0644      1.00000
     62      -8.0374      1.00000
     63      -7.9271      1.00000
     64      -7.9124      1.00000
     65      -7.8606      1.00000
     66      -7.7088      1.00000
     67      -7.5933      1.00000
     68      -7.4509      1.00000
     69      -7.4134      1.00000
     70      -7.3006      1.00000
     71      -7.1503      1.00000
     72      -7.0849      1.00000
     73      -6.9766      1.00000
     74      -6.9309      1.00000
     75      -6.8758      1.00000
     76      -6.8333      1.00000
     77      -6.7306      1.00000
     78      -6.6411      1.00000
     79      -6.5756      1.00000
     80      -6.5170      1.00000
     81      -6.4451      1.00000
     82      -6.4068      1.00000
     83      -6.3350      1.00000
     84      -6.2297      1.00000
     85      -6.1727      1.00000
     86      -6.0902      1.00000
     87      -5.9087      1.00000
     88      -5.8488      1.00000
     89      -5.7358      1.00000
     90      -5.6894      1.00000
     91      -5.6373      1.00000
     92      -5.6033      1.00000
     93      -5.5037      1.00000
     94      -5.4174      1.00000
     95      -5.3565      1.00000
     96      -5.2760      1.00000
     97      -5.2052      1.00000
     98      -5.1590      1.00000
     99      -5.1096      1.00000
    100      -5.0030      1.00000
    101      -4.8961      1.00000
    102      -4.8164      1.00000
    103      -4.7376      1.00000
    104      -4.6727      1.00000
    105      -4.6008      1.00000
    106      -4.5900      1.00000
    107      -4.4758      1.00000
    108      -4.4261      1.00000
    109      -4.3492      1.00000
    110      -4.2864      1.00000
    111      -4.2091      1.00000
    112      -4.1493      1.00000
    113      -4.1230      1.00000
    114      -4.0287      1.00000
    115      -3.9737      1.00000
    116      -3.9138      1.00000
    117      -3.8433      1.00000
    118      -3.7859      1.00000
    119      -3.6948      1.00000
    120      -3.6285      1.00000
    121      -3.5406      1.00000
    122      -3.3121      1.00000
    123      -3.1309      1.00000
    124      -3.1210      1.00000
    125      -3.0255      1.00000
    126      -2.9482      1.00000
    127      -2.4437      1.00000
    128      -2.2962      1.00000
    129      -2.2287      1.00000
    130      -2.1712      1.00000
    131      -1.8510      1.00001
    132      -1.6373      1.00317
    133      -1.5263      1.01836
    134      -0.6212     -0.00025
    135       0.0135     -0.00000
    136       0.1430     -0.00000
    137       1.1518     -0.00000
    138       1.2878     -0.00000
    139       1.3070     -0.00000
    140       1.4214     -0.00000
    141       1.5326     -0.00000
    142       1.7263     -0.00000
    143       1.7528     -0.00000
    144       1.8696     -0.00000
    145       2.0431     -0.00000
    146       2.0939     -0.00000
    147       2.1495     -0.00000
    148       2.1936     -0.00000
    149       2.2602     -0.00000
    150       2.3155     -0.00000
    151       2.4036     -0.00000
    152       2.4501     -0.00000
    153       2.5188     -0.00000
    154       2.6317     -0.00000
    155       2.6851     -0.00000
    156       2.7249     -0.00000
    157       2.7699     -0.00000
    158       2.8283     -0.00000
    159       2.8524     -0.00000
    160       2.8611     -0.00000
    161       2.9270     -0.00000
    162       3.0145     -0.00000
    163       3.0475     -0.00000
    164       3.1214     -0.00000
    165       3.2009     -0.00000
    166       3.2462     -0.00000
    167       3.3632     -0.00000
    168       3.4528     -0.00000
    169       3.6278     -0.00000
    170       3.7542     -0.00000
    171       3.8509     -0.00000
    172       3.9228     -0.00000
    173       4.0538     -0.00000
    174       4.0955     -0.00000
    175       4.1570     -0.00000
    176       4.2006     -0.00000
    177       4.3170      0.00000
    178       4.6986      0.00000

 k-point     6 :       0.5000    0.2500    0.0000
  band No.  band energies     occupation 
      1     -53.4018      1.00000
      2     -53.1480      1.00000
      3     -53.0503      1.00000
      4     -52.5957      1.00000
      5     -52.5646      1.00000
      6     -52.3662      1.00000
      7     -51.8642      1.00000
      8     -51.8375      1.00000
      9     -51.8323      1.00000
     10     -51.8183      1.00000
     11     -51.5397      1.00000
     12     -51.5171      1.00000
     13     -48.5264      1.00000
     14     -48.4706      1.00000
     15     -48.1514      1.00000
     16     -48.0329      1.00000
     17     -47.6875      1.00000
     18     -47.6514      1.00000
     19     -47.6164      1.00000
     20     -47.3629      1.00000
     21     -47.2848      1.00000
     22     -47.2706      1.00000
     23     -46.8109      1.00000
     24     -46.4689      1.00000
     25     -46.3297      1.00000
     26     -46.2922      1.00000
     27     -46.2422      1.00000
     28     -46.0753      1.00000
     29     -46.0289      1.00000
     30     -45.9945      1.00000
     31     -45.2125      1.00000
     32     -45.1186      1.00000
     33     -45.1037      1.00000
     34     -45.0408      1.00000
     35     -44.9761      1.00000
     36     -44.9311      1.00000
     37     -22.4702      1.00000
     38     -21.8986      1.00000
     39     -20.8027      1.00000
     40     -20.3767      1.00000
     41     -20.1690      1.00000
     42     -19.9102      1.00000
     43     -19.8450      1.00000
     44     -19.7085      1.00000
     45     -19.5333      1.00000
     46     -19.4970      1.00000
     47     -19.2960      1.00000
     48     -19.2345      1.00000
     49     -19.1929      1.00000
     50     -19.1703      1.00000
     51     -19.1042      1.00000
     52     -19.0521      1.00000
     53     -18.9866      1.00000
     54     -18.9220      1.00000
     55     -18.5709      1.00000
     56     -17.8020      1.00000
     57     -10.5090      1.00000
     58      -9.4065      1.00000
     59      -8.8870      1.00000
     60      -8.1764      1.00000
     61      -7.9996      1.00000
     62      -7.8832      1.00000
     63      -7.8457      1.00000
     64      -7.7487      1.00000
     65      -7.7080      1.00000
     66      -7.6392      1.00000
     67      -7.5679      1.00000
     68      -7.5245      1.00000
     69      -7.4346      1.00000
     70      -7.3032      1.00000
     71      -7.2004      1.00000
     72      -7.1082      1.00000
     73      -7.0418      1.00000
     74      -6.9879      1.00000
     75      -6.8939      1.00000
     76      -6.8481      1.00000
     77      -6.7434      1.00000
     78      -6.6629      1.00000
     79      -6.5744      1.00000
     80      -6.4998      1.00000
     81      -6.4481      1.00000
     82      -6.3186      1.00000
     83      -6.2679      1.00000
     84      -6.2262      1.00000
     85      -6.0724      1.00000
     86      -6.0066      1.00000
     87      -5.9241      1.00000
     88      -5.8475      1.00000
     89      -5.7797      1.00000
     90      -5.7419      1.00000
     91      -5.6798      1.00000
     92      -5.6110      1.00000
     93      -5.5312      1.00000
     94      -5.4966      1.00000
     95      -5.4379      1.00000
     96      -5.3544      1.00000
     97      -5.2811      1.00000
     98      -5.2006      1.00000
     99      -5.1437      1.00000
    100      -5.0514      1.00000
    101      -4.9838      1.00000
    102      -4.8763      1.00000
    103      -4.8198      1.00000
    104      -4.7674      1.00000
    105      -4.6940      1.00000
    106      -4.6082      1.00000
    107      -4.5489      1.00000
    108      -4.3873      1.00000
    109      -4.3463      1.00000
    110      -4.2461      1.00000
    111      -4.1883      1.00000
    112      -4.1318      1.00000
    113      -4.0402      1.00000
    114      -3.9844      1.00000
    115      -3.9219      1.00000
    116      -3.8801      1.00000
    117      -3.7825      1.00000
    118      -3.7108      1.00000
    119      -3.6943      1.00000
    120      -3.6396      1.00000
    121      -3.4907      1.00000
    122      -3.3542      1.00000
    123      -3.2318      1.00000
    124      -3.1402      1.00000
    125      -3.0425      1.00000
    126      -2.9691      1.00000
    127      -2.7266      1.00000
    128      -2.4802      1.00000
    129      -2.4103      1.00000
    130      -2.2514      1.00000
    131      -1.8882      1.00000
    132      -1.7088      1.00068
    133      -1.6256      1.00396
    134      -0.6977     -0.00152
    135       0.0581     -0.00000
    136       0.0978     -0.00000
    137       1.1570     -0.00000
    138       1.2982     -0.00000
    139       1.4455     -0.00000
    140       1.5918     -0.00000
    141       1.7103     -0.00000
    142       1.7335     -0.00000
    143       1.8430     -0.00000
    144       1.9903     -0.00000
    145       2.0658     -0.00000
    146       2.1455     -0.00000
    147       2.1934     -0.00000
    148       2.2353     -0.00000
    149       2.3017     -0.00000
    150       2.3286     -0.00000
    151       2.3745     -0.00000
    152       2.4360     -0.00000
    153       2.5639     -0.00000
    154       2.6459     -0.00000
    155       2.6826     -0.00000
    156       2.7895     -0.00000
    157       2.8627     -0.00000
    158       2.9079     -0.00000
    159       2.9265     -0.00000
    160       2.9468     -0.00000
    161       3.0387     -0.00000
    162       3.1024     -0.00000
    163       3.1536     -0.00000
    164       3.2060     -0.00000
    165       3.2907     -0.00000
    166       3.3260     -0.00000
    167       3.4570     -0.00000
    168       3.6081     -0.00000
    169       3.6714     -0.00000
    170       3.8018     -0.00000
    171       3.8937     -0.00000
    172       4.0047     -0.00000
    173       4.0869     -0.00000
    174       4.1083     -0.00000
    175       4.1928     -0.00000
    176       4.2717     -0.00000
    177       4.3320      0.00000
    178       4.5817      0.00000

 k-point     7 :      -0.2500    0.2500   -0.0000
  band No.  band energies     occupation 
      1     -53.4016      1.00000
      2     -53.1480      1.00000
      3     -53.0503      1.00000
      4     -52.5959      1.00000
      5     -52.5646      1.00000
      6     -52.3663      1.00000
      7     -51.8643      1.00000
      8     -51.8379      1.00000
      9     -51.8332      1.00000
     10     -51.8172      1.00000
     11     -51.5411      1.00000
     12     -51.5153      1.00000
     13     -48.5264      1.00000
     14     -48.4706      1.00000
     15     -48.1514      1.00000
     16     -48.0329      1.00000
     17     -47.6875      1.00000
     18     -47.6514      1.00000
     19     -47.6163      1.00000
     20     -47.3629      1.00000
     21     -47.2848      1.00000
     22     -47.2706      1.00000
     23     -46.8110      1.00000
     24     -46.4689      1.00000
     25     -46.3297      1.00000
     26     -46.2922      1.00000
     27     -46.2422      1.00000
     28     -46.0753      1.00000
     29     -46.0289      1.00000
     30     -45.9945      1.00000
     31     -45.2125      1.00000
     32     -45.1186      1.00000
     33     -45.1037      1.00000
     34     -45.0408      1.00000
     35     -44.9761      1.00000
     36     -44.9311      1.00000
     37     -22.4717      1.00000
     38     -21.8943      1.00000
     39     -20.8117      1.00000
     40     -20.3602      1.00000
     41     -20.1608      1.00000
     42     -19.9152      1.00000
     43     -19.8525      1.00000
     44     -19.7038      1.00000
     45     -19.5364      1.00000
     46     -19.4959      1.00000
     47     -19.2914      1.00000
     48     -19.2289      1.00000
     49     -19.2062      1.00000
     50     -19.1866      1.00000
     51     -19.1112      1.00000
     52     -19.0535      1.00000
     53     -18.9851      1.00000
     54     -18.9081      1.00000
     55     -18.5702      1.00000
     56     -17.8019      1.00000
     57     -10.5004      1.00000
     58      -9.3708      1.00000
     59      -8.8798      1.00000
     60      -8.1016      1.00000
     61      -7.9702      1.00000
     62      -7.9163      1.00000
     63      -7.8781      1.00000
     64      -7.8098      1.00000
     65      -7.7625      1.00000
     66      -7.6735      1.00000
     67      -7.5053      1.00000
     68      -7.3982      1.00000
     69      -7.3859      1.00000
     70      -7.3257      1.00000
     71      -7.2794      1.00000
     72      -7.1264      1.00000
     73      -7.0198      1.00000
     74      -6.9435      1.00000
     75      -6.9065      1.00000
     76      -6.8573      1.00000
     77      -6.7995      1.00000
     78      -6.6846      1.00000
     79      -6.6542      1.00000
     80      -6.5862      1.00000
     81      -6.5069      1.00000
     82      -6.3717      1.00000
     83      -6.2931      1.00000
     84      -6.2018      1.00000
     85      -6.1447      1.00000
     86      -6.0177      1.00000
     87      -5.9652      1.00000
     88      -5.8290      1.00000
     89      -5.7926      1.00000
     90      -5.6862      1.00000
     91      -5.6292      1.00000
     92      -5.5737      1.00000
     93      -5.5204      1.00000
     94      -5.4109      1.00000
     95      -5.3891      1.00000
     96      -5.3332      1.00000
     97      -5.2493      1.00000
     98      -5.2170      1.00000
     99      -5.1637      1.00000
    100      -5.0338      1.00000
    101      -4.9275      1.00000
    102      -4.8596      1.00000
    103      -4.8019      1.00000
    104      -4.6988      1.00000
    105      -4.6059      1.00000
    106      -4.5833      1.00000
    107      -4.5348      1.00000
    108      -4.4041      1.00000
    109      -4.3869      1.00000
    110      -4.3262      1.00000
    111      -4.1776      1.00000
    112      -4.1579      1.00000
    113      -4.0773      1.00000
    114      -3.9883      1.00000
    115      -3.9526      1.00000
    116      -3.8719      1.00000
    117      -3.8207      1.00000
    118      -3.7658      1.00000
    119      -3.6589      1.00000
    120      -3.6291      1.00000
    121      -3.4763      1.00000
    122      -3.4215      1.00000
    123      -3.2743      1.00000
    124      -3.1176      1.00000
    125      -2.9841      1.00000
    126      -2.9540      1.00000
    127      -2.7560      1.00000
    128      -2.4126      1.00000
    129      -2.3217      1.00000
    130      -2.2418      1.00000
    131      -1.8633      1.00001
    132      -1.7678      1.00015
    133      -1.6133      1.00497
    134      -0.7756     -0.00680
    135       0.0419     -0.00000
    136       0.1301     -0.00000
    137       1.1675     -0.00000
    138       1.2974     -0.00000
    139       1.4437     -0.00000
    140       1.6051     -0.00000
    141       1.6796     -0.00000
    142       1.7553     -0.00000
    143       1.8878     -0.00000
    144       1.9834     -0.00000
    145       2.0644     -0.00000
    146       2.1452     -0.00000
    147       2.1886     -0.00000
    148       2.2100     -0.00000
    149       2.2592     -0.00000
    150       2.3459     -0.00000
    151       2.3827     -0.00000
    152       2.4734     -0.00000
    153       2.4949     -0.00000
    154       2.5619     -0.00000
    155       2.7276     -0.00000
    156       2.7454     -0.00000
    157       2.8510     -0.00000
    158       2.8725     -0.00000
    159       2.9231     -0.00000
    160       2.9626     -0.00000
    161       3.0546     -0.00000
    162       3.0899     -0.00000
    163       3.1966     -0.00000
    164       3.2594     -0.00000
    165       3.3265     -0.00000
    166       3.3451     -0.00000
    167       3.4476     -0.00000
    168       3.5904     -0.00000
    169       3.6280     -0.00000
    170       3.7579     -0.00000
    171       3.9198     -0.00000
    172       4.0436     -0.00000
    173       4.0648     -0.00000
    174       4.1145     -0.00000
    175       4.2005     -0.00000
    176       4.2505     -0.00000
    177       4.3886      0.00000
    178       4.4929      0.00000

 k-point     8 :       0.0000    0.5000   -0.0000
  band No.  band energies     occupation 
      1     -53.4015      1.00000
      2     -53.1479      1.00000
      3     -53.0502      1.00000
      4     -52.5959      1.00000
      5     -52.5647      1.00000
      6     -52.3663      1.00000
      7     -51.8644      1.00000
      8     -51.8383      1.00000
      9     -51.8338      1.00000
     10     -51.8161      1.00000
     11     -51.5424      1.00000
     12     -51.5136      1.00000
     13     -48.5267      1.00000
     14     -48.4706      1.00000
     15     -48.1514      1.00000
     16     -48.0329      1.00000
     17     -47.6879      1.00000
     18     -47.6515      1.00000
     19     -47.6163      1.00000
     20     -47.3629      1.00000
     21     -47.2849      1.00000
     22     -47.2706      1.00000
     23     -46.8110      1.00000
     24     -46.4689      1.00000
     25     -46.3297      1.00000
     26     -46.2922      1.00000
     27     -46.2422      1.00000
     28     -46.0753      1.00000
     29     -46.0289      1.00000
     30     -45.9945      1.00000
     31     -45.2125      1.00000
     32     -45.1186      1.00000
     33     -45.1037      1.00000
     34     -45.0408      1.00000
     35     -44.9761      1.00000
     36     -44.9311      1.00000
     37     -22.4488      1.00000
     38     -21.9166      1.00000
     39     -20.7993      1.00000
     40     -20.2929      1.00000
     41     -20.2312      1.00000
     42     -19.8818      1.00000
     43     -19.8209      1.00000
     44     -19.6423      1.00000
     45     -19.5425      1.00000
     46     -19.4561      1.00000
     47     -19.3519      1.00000
     48     -19.2923      1.00000
     49     -19.2063      1.00000
     50     -19.1996      1.00000
     51     -19.1485      1.00000
     52     -19.0626      1.00000
     53     -19.0060      1.00000
     54     -18.9188      1.00000
     55     -18.5393      1.00000
     56     -17.8288      1.00000
     57     -10.4931      1.00000
     58      -9.3727      1.00000
     59      -8.7949      1.00000
     60      -8.0846      1.00000
     61      -7.9190      1.00000
     62      -7.8578      1.00000
     63      -7.8278      1.00000
     64      -7.7752      1.00000
     65      -7.6816      1.00000
     66      -7.5874      1.00000
     67      -7.5421      1.00000
     68      -7.4924      1.00000
     69      -7.3963      1.00000
     70      -7.3322      1.00000
     71      -7.2458      1.00000
     72      -7.2083      1.00000
     73      -6.9434      1.00000
     74      -6.9088      1.00000
     75      -6.8297      1.00000
     76      -6.7885      1.00000
     77      -6.6855      1.00000
     78      -6.6439      1.00000
     79      -6.5898      1.00000
     80      -6.5398      1.00000
     81      -6.5101      1.00000
     82      -6.3550      1.00000
     83      -6.3133      1.00000
     84      -6.2109      1.00000
     85      -6.1939      1.00000
     86      -6.1574      1.00000
     87      -6.0624      1.00000
     88      -5.9393      1.00000
     89      -5.8893      1.00000
     90      -5.7910      1.00000
     91      -5.6898      1.00000
     92      -5.6190      1.00000
     93      -5.6061      1.00000
     94      -5.5561      1.00000
     95      -5.4332      1.00000
     96      -5.3502      1.00000
     97      -5.2360      1.00000
     98      -5.0777      1.00000
     99      -5.0204      1.00000
    100      -4.9414      1.00000
    101      -4.9063      1.00000
    102      -4.8484      1.00000
    103      -4.7337      1.00000
    104      -4.6438      1.00000
    105      -4.5815      1.00000
    106      -4.5367      1.00000
    107      -4.5010      1.00000
    108      -4.4628      1.00000
    109      -4.4489      1.00000
    110      -4.3988      1.00000
    111      -4.2786      1.00000
    112      -4.1467      1.00000
    113      -4.1174      1.00000
    114      -4.0320      1.00000
    115      -3.9328      1.00000
    116      -3.8665      1.00000
    117      -3.7884      1.00000
    118      -3.7654      1.00000
    119      -3.7085      1.00000
    120      -3.6152      1.00000
    121      -3.5258      1.00000
    122      -3.3488      1.00000
    123      -3.2090      1.00000
    124      -3.1857      1.00000
    125      -3.0041      1.00000
    126      -2.9608      1.00000
    127      -2.6210      1.00000
    128      -2.4945      1.00000
    129      -2.3319      1.00000
    130      -2.2548      1.00000
    131      -2.0167      1.00000
    132      -1.7578      1.00020
    133      -1.4852      1.02770
    134      -0.9308     -0.03512
    135      -0.1866     -0.00000
    136      -0.0123     -0.00000
    137       1.1589     -0.00000
    138       1.2581     -0.00000
    139       1.4594     -0.00000
    140       1.5895     -0.00000
    141       1.7249     -0.00000
    142       1.7944     -0.00000
    143       1.8393     -0.00000
    144       1.9428     -0.00000
    145       1.9780     -0.00000
    146       2.1168     -0.00000
    147       2.1789     -0.00000
    148       2.2116     -0.00000
    149       2.2377     -0.00000
    150       2.3143     -0.00000
    151       2.4160     -0.00000
    152       2.5226     -0.00000
    153       2.5688     -0.00000
    154       2.6398     -0.00000
    155       2.7021     -0.00000
    156       2.7572     -0.00000
    157       2.8286     -0.00000
    158       2.8768     -0.00000
    159       2.8882     -0.00000
    160       2.9772     -0.00000
    161       3.0284     -0.00000
    162       3.1010     -0.00000
    163       3.1324     -0.00000
    164       3.1702     -0.00000
    165       3.2375     -0.00000
    166       3.3323     -0.00000
    167       3.4214     -0.00000
    168       3.5408     -0.00000
    169       3.6843     -0.00000
    170       3.8351     -0.00000
    171       3.8695     -0.00000
    172       3.9214     -0.00000
    173       4.0225     -0.00000
    174       4.0771     -0.00000
    175       4.1198     -0.00000
    176       4.2218     -0.00000
    177       4.4062      0.00000
    178       4.5131      0.00000

 k-point     9 :       0.2500    0.5000   -0.0000
  band No.  band energies     occupation 
      1     -53.4017      1.00000
      2     -53.1479      1.00000
      3     -53.0503      1.00000
      4     -52.5957      1.00000
      5     -52.5646      1.00000
      6     -52.3662      1.00000
      7     -51.8643      1.00000
      8     -51.8377      1.00000
      9     -51.8332      1.00000
     10     -51.8171      1.00000
     11     -51.5412      1.00000
     12     -51.5153      1.00000
     13     -48.5267      1.00000
     14     -48.4706      1.00000
     15     -48.1514      1.00000
     16     -48.0329      1.00000
     17     -47.6878      1.00000
     18     -47.6515      1.00000
     19     -47.6163      1.00000
     20     -47.3629      1.00000
     21     -47.2849      1.00000
     22     -47.2706      1.00000
     23     -46.8109      1.00000
     24     -46.4689      1.00000
     25     -46.3297      1.00000
     26     -46.2922      1.00000
     27     -46.2422      1.00000
     28     -46.0753      1.00000
     29     -46.0289      1.00000
     30     -45.9945      1.00000
     31     -45.2125      1.00000
     32     -45.1186      1.00000
     33     -45.1037      1.00000
     34     -45.0408      1.00000
     35     -44.9761      1.00000
     36     -44.9311      1.00000
     37     -22.4472      1.00000
     38     -21.9210      1.00000
     39     -20.7905      1.00000
     40     -20.3168      1.00000
     41     -20.2307      1.00000
     42     -19.8725      1.00000
     43     -19.8265      1.00000
     44     -19.6385      1.00000
     45     -19.5315      1.00000
     46     -19.4531      1.00000
     47     -19.3707      1.00000
     48     -19.2951      1.00000
     49     -19.2170      1.00000
     50     -19.1779      1.00000
     51     -19.1239      1.00000
     52     -19.0627      1.00000
     53     -19.0025      1.00000
     54     -18.9369      1.00000
     55     -18.5402      1.00000
     56     -17.8288      1.00000
     57     -10.5021      1.00000
     58      -9.4042      1.00000
     59      -8.8111      1.00000
     60      -8.1265      1.00000
     61      -7.9532      1.00000
     62      -7.8849      1.00000
     63      -7.8122      1.00000
     64      -7.7628      1.00000
     65      -7.7399      1.00000
     66      -7.5549      1.00000
     67      -7.5329      1.00000
     68      -7.4320      1.00000
     69      -7.3119      1.00000
     70      -7.2732      1.00000
     71      -7.2188      1.00000
     72      -7.0873      1.00000
     73      -6.9665      1.00000
     74      -6.9060      1.00000
     75      -6.8671      1.00000
     76      -6.8243      1.00000
     77      -6.7214      1.00000
     78      -6.6708      1.00000
     79      -6.5999      1.00000
     80      -6.5706      1.00000
     81      -6.5102      1.00000
     82      -6.4167      1.00000
     83      -6.3812      1.00000
     84      -6.2680      1.00000
     85      -6.2101      1.00000
     86      -6.0860      1.00000
     87      -5.9112      1.00000
     88      -5.8469      1.00000
     89      -5.8063      1.00000
     90      -5.7216      1.00000
     91      -5.6476      1.00000
     92      -5.6062      1.00000
     93      -5.5370      1.00000
     94      -5.5192      1.00000
     95      -5.3943      1.00000
     96      -5.3483      1.00000
     97      -5.2354      1.00000
     98      -5.1691      1.00000
     99      -5.0690      1.00000
    100      -5.0224      1.00000
    101      -5.0029      1.00000
    102      -4.9126      1.00000
    103      -4.8339      1.00000
    104      -4.8073      1.00000
    105      -4.6504      1.00000
    106      -4.6031      1.00000
    107      -4.5355      1.00000
    108      -4.4526      1.00000
    109      -4.3602      1.00000
    110      -4.3421      1.00000
    111      -4.2471      1.00000
    112      -4.1280      1.00000
    113      -4.0688      1.00000
    114      -4.0273      1.00000
    115      -3.9354      1.00000
    116      -3.8320      1.00000
    117      -3.8052      1.00000
    118      -3.7302      1.00000
    119      -3.7192      1.00000
    120      -3.6221      1.00000
    121      -3.4955      1.00000
    122      -3.3945      1.00000
    123      -3.1919      1.00000
    124      -3.1356      1.00000
    125      -3.0231      1.00000
    126      -2.9716      1.00000
    127      -2.5616      1.00000
    128      -2.5460      1.00000
    129      -2.2997      1.00000
    130      -2.2302      1.00000
    131      -2.1179      1.00000
    132      -1.7406      1.00031
    133      -1.5050      1.02317
    134      -0.8519     -0.01997
    135      -0.2177     -0.00000
    136      -0.0309     -0.00000
    137       1.1542     -0.00000
    138       1.2652     -0.00000
    139       1.4581     -0.00000
    140       1.5778     -0.00000
    141       1.7156     -0.00000
    142       1.7988     -0.00000
    143       1.8187     -0.00000
    144       1.9411     -0.00000
    145       2.0240     -0.00000
    146       2.1167     -0.00000
    147       2.1645     -0.00000
    148       2.2029     -0.00000
    149       2.2361     -0.00000
    150       2.2913     -0.00000
    151       2.3737     -0.00000
    152       2.4811     -0.00000
    153       2.6359     -0.00000
    154       2.6588     -0.00000
    155       2.7180     -0.00000
    156       2.7552     -0.00000
    157       2.8312     -0.00000
    158       2.8982     -0.00000
    159       2.9648     -0.00000
    160       3.0020     -0.00000
    161       3.0549     -0.00000
    162       3.0698     -0.00000
    163       3.1764     -0.00000
    164       3.2436     -0.00000
    165       3.2796     -0.00000
    166       3.3452     -0.00000
    167       3.4199     -0.00000
    168       3.5668     -0.00000
    169       3.6155     -0.00000
    170       3.6901     -0.00000
    171       3.9090     -0.00000
    172       3.9571     -0.00000
    173       4.0604     -0.00000
    174       4.1144     -0.00000
    175       4.1773     -0.00000
    176       4.2545     -0.00000
    177       4.3407      0.00000
    178       4.5298      0.00000

 k-point    10 :       0.5000    0.5000   -0.0000
  band No.  band energies     occupation 
      1     -53.4018      1.00000
      2     -53.1479      1.00000
      3     -53.0503      1.00000
      4     -52.5954      1.00000
      5     -52.5646      1.00000
      6     -52.3662      1.00000
      7     -51.8642      1.00000
      8     -51.8373      1.00000
      9     -51.8323      1.00000
     10     -51.8182      1.00000
     11     -51.5397      1.00000
     12     -51.5171      1.00000
     13     -48.5268      1.00000
     14     -48.4706      1.00000
     15     -48.1514      1.00000
     16     -48.0328      1.00000
     17     -47.6878      1.00000
     18     -47.6515      1.00000
     19     -47.6164      1.00000
     20     -47.3629      1.00000
     21     -47.2848      1.00000
     22     -47.2706      1.00000
     23     -46.8109      1.00000
     24     -46.4689      1.00000
     25     -46.3297      1.00000
     26     -46.2922      1.00000
     27     -46.2422      1.00000
     28     -46.0753      1.00000
     29     -46.0289      1.00000
     30     -45.9945      1.00000
     31     -45.2125      1.00000
     32     -45.1186      1.00000
     33     -45.1037      1.00000
     34     -45.0408      1.00000
     35     -44.9761      1.00000
     36     -44.9311      1.00000
     37     -22.4453      1.00000
     38     -21.9254      1.00000
     39     -20.7813      1.00000
     40     -20.3301      1.00000
     41     -20.2443      1.00000
     42     -19.8544      1.00000
     43     -19.8225      1.00000
     44     -19.6590      1.00000
     45     -19.5193      1.00000
     46     -19.4844      1.00000
     47     -19.3469      1.00000
     48     -19.2804      1.00000
     49     -19.1944      1.00000
     50     -19.1672      1.00000
     51     -19.1379      1.00000
     52     -19.0482      1.00000
     53     -19.0199      1.00000
     54     -18.9498      1.00000
     55     -18.5407      1.00000
     56     -17.8290      1.00000
     57     -10.5109      1.00000
     58      -9.4362      1.00000
     59      -8.8246      1.00000
     60      -8.1305      1.00000
     61      -8.0030      1.00000
     62      -7.9729      1.00000
     63      -7.8641      1.00000
     64      -7.7551      1.00000
     65      -7.6085      1.00000
     66      -7.5325      1.00000
     67      -7.5006      1.00000
     68      -7.4367      1.00000
     69      -7.3422      1.00000
     70      -7.1755      1.00000
     71      -7.1530      1.00000
     72      -7.0943      1.00000
     73      -6.9412      1.00000
     74      -6.8713      1.00000
     75      -6.8407      1.00000
     76      -6.7776      1.00000
     77      -6.7414      1.00000
     78      -6.6559      1.00000
     79      -6.5978      1.00000
     80      -6.5764      1.00000
     81      -6.5200      1.00000
     82      -6.4553      1.00000
     83      -6.3823      1.00000
     84      -6.3205      1.00000
     85      -6.1798      1.00000
     86      -6.0870      1.00000
     87      -5.9425      1.00000
     88      -5.8608      1.00000
     89      -5.7607      1.00000
     90      -5.6887      1.00000
     91      -5.6325      1.00000
     92      -5.6095      1.00000
     93      -5.5430      1.00000
     94      -5.4620      1.00000
     95      -5.3810      1.00000
     96      -5.3573      1.00000
     97      -5.2531      1.00000
     98      -5.1892      1.00000
     99      -5.1326      1.00000
    100      -5.0602      1.00000
    101      -5.0195      1.00000
    102      -4.9653      1.00000
    103      -4.8954      1.00000
    104      -4.8302      1.00000
    105      -4.7066      1.00000
    106      -4.6403      1.00000
    107      -4.5198      1.00000
    108      -4.4409      1.00000
    109      -4.3830      1.00000
    110      -4.3043      1.00000
    111      -4.2466      1.00000
    112      -4.1464      1.00000
    113      -4.0269      1.00000
    114      -3.9661      1.00000
    115      -3.9400      1.00000
    116      -3.8463      1.00000
    117      -3.8182      1.00000
    118      -3.7100      1.00000
    119      -3.6510      1.00000
    120      -3.6039      1.00000
    121      -3.4579      1.00000
    122      -3.2972      1.00000
    123      -3.2236      1.00000
    124      -3.1536      1.00000
    125      -3.0628      1.00000
    126      -2.9875      1.00000
    127      -2.5195      1.00000
    128      -2.4979      1.00000
    129      -2.3806      1.00000
    130      -2.3507      1.00000
    131      -2.2519      1.00000
    132      -1.6885      1.00108
    133      -1.5206      1.01961
    134      -0.7224     -0.00254
    135      -0.2067     -0.00000
    136      -0.0448     -0.00000
    137       1.1419     -0.00000
    138       1.2753     -0.00000
    139       1.4692     -0.00000
    140       1.5366     -0.00000
    141       1.7331     -0.00000
    142       1.7829     -0.00000
    143       1.8276     -0.00000
    144       1.9708     -0.00000
    145       2.0063     -0.00000
    146       2.0865     -0.00000
    147       2.1780     -0.00000
    148       2.2376     -0.00000
    149       2.2560     -0.00000
    150       2.2913     -0.00000
    151       2.3519     -0.00000
    152       2.5024     -0.00000
    153       2.6864     -0.00000
    154       2.7077     -0.00000
    155       2.7248     -0.00000
    156       2.8097     -0.00000
    157       2.8427     -0.00000
    158       2.8609     -0.00000
    159       2.9385     -0.00000
    160       3.0131     -0.00000
    161       3.0232     -0.00000
    162       3.0545     -0.00000
    163       3.1309     -0.00000
    164       3.1672     -0.00000
    165       3.2228     -0.00000
    166       3.2792     -0.00000
    167       3.3523     -0.00000
    168       3.5225     -0.00000
    169       3.6703     -0.00000
    170       3.8727     -0.00000
    171       3.9646     -0.00000
    172       4.0147     -0.00000
    173       4.0335     -0.00000
    174       4.1372     -0.00000
    175       4.1670     -0.00000
    176       4.2499     -0.00000
    177       4.3210      0.00000
    178       4.6524      0.00000


--------------------------------------------------------------------------------------------------------


 soft charge-density along one line, spin component           1
         0         1         2         3         4         5         6         7         8         9
 total charge-density along one line
 
 soft charge-density along one line, spin component           2
         0         1         2         3         4         5         6         7         8         9
 total charge-density along one line
 
 pseudopotential strength for first ion, spin component:           1
-49.072  -0.028  -0.007  10.946   0.013   0.003   0.001  -0.033
 -0.028 -48.873  -0.001   0.013  10.856   0.000   0.000  -0.032
 -0.007  -0.001 -49.132   0.003   0.000  10.967  -0.031   0.000
 10.946   0.013   0.003   4.290  -0.005  -0.001  -0.000   0.009
  0.013  10.856   0.000  -0.005   4.321   0.000  -0.000   0.009
  0.003   0.000  10.967  -0.001   0.000   4.284   0.010  -0.000
  0.001   0.000  -0.031  -0.000  -0.000   0.010  -8.778   0.004
 -0.033  -0.032   0.000   0.009   0.009  -0.000   0.004 -10.363
  0.018  -0.040  -0.001  -0.006   0.011   0.000  -0.010  -0.022
  0.000   0.001  -0.037  -0.000  -0.000   0.009   0.142  -0.001
  0.032  -0.002   0.001  -0.008   0.000  -0.000   0.006   0.006
  0.001   0.000  -0.030  -0.000  -0.000   0.010  -9.184   0.004
 -0.033  -0.032   0.000   0.009   0.009  -0.000   0.004 -10.816
  0.018  -0.040  -0.001  -0.005   0.011   0.000  -0.010  -0.022
  0.000   0.001  -0.037  -0.000  -0.000   0.009   0.147  -0.001
  0.032  -0.002   0.001  -0.009   0.000  -0.000   0.006   0.005
  0.012   0.013  -0.000   0.002   0.002  -0.000   0.001   0.007
  0.025   0.026  -0.001   0.004   0.005  -0.000   0.003   0.014
 pseudopotential strength for first ion, spin component:           2
-46.242  -0.056  -0.010   9.643   0.025   0.004   0.001  -0.047
 -0.056 -45.720   0.001   0.025   9.409  -0.000   0.000  -0.044
 -0.010   0.001 -46.321   0.004  -0.000   9.675  -0.035   0.000
  9.643   0.025   0.004   4.730  -0.007  -0.001  -0.000   0.015
  0.025   9.409  -0.000  -0.007   4.793   0.000  -0.000   0.014
  0.004  -0.000   9.675  -0.001   0.000   4.719   0.011  -0.000
  0.001   0.000  -0.035  -0.000  -0.000   0.011  -5.577   0.001
 -0.047  -0.044   0.000   0.015   0.014  -0.000   0.001  -4.314
  0.020  -0.049  -0.000  -0.006   0.015   0.000   0.006  -0.005
  0.000   0.001  -0.055  -0.000  -0.000   0.017  -0.100  -0.004
  0.043  -0.004   0.001  -0.013   0.001  -0.000  -0.001  -0.008
  0.001   0.000  -0.035  -0.000  -0.000   0.011  -5.983   0.001
 -0.046  -0.043   0.000   0.015   0.014  -0.000   0.001  -4.710
  0.020  -0.048  -0.000  -0.006   0.015   0.000   0.006  -0.005
  0.000   0.001  -0.054  -0.000  -0.000   0.017  -0.100  -0.004
  0.042  -0.004   0.001  -0.013   0.001  -0.000  -0.001  -0.009
  0.016   0.019  -0.000   0.001   0.001  -0.000   0.002   0.014
  0.033   0.038  -0.001   0.003   0.003  -0.000   0.005   0.027
 total augmentation occupancy for first ion, spin component:           1
  1.989  -0.000  -0.000  -0.044  -0.001  -0.000  -0.000   0.002   0.002   0.000   0.004   0.000   0.001  -0.002  -0.000  -0.006
 -0.000   1.991   0.000  -0.001  -0.038   0.000  -0.000  -0.004  -0.002   0.000  -0.002  -0.000   0.006   0.004  -0.000   0.002
 -0.000   0.000   1.990  -0.000   0.000  -0.044   0.001   0.000   0.000  -0.002   0.000   0.000  -0.000  -0.000   0.004  -0.000
 -0.044  -0.001  -0.000   0.231   0.012   0.000  -0.003   0.010   0.046   0.000  -0.012   0.001  -0.009  -0.046  -0.001   0.010
 -0.001  -0.038   0.000   0.012   0.099   0.000  -0.004  -0.011  -0.040  -0.004   0.014   0.003   0.016   0.041   0.002  -0.013
 -0.000   0.000  -0.044   0.000   0.000   0.201   0.012   0.002   0.000   0.037  -0.002   0.014  -0.002   0.000  -0.029   0.001
 -0.000  -0.000   0.001  -0.003  -0.004   0.012   5.547  -0.041   0.047  -0.279  -0.032  -6.144   0.030  -0.035   0.056   0.023
  0.002  -0.004   0.000   0.010  -0.011   0.002  -0.041   5.689   0.157   0.030   0.177   0.027  -3.696  -0.117  -0.025  -0.158
  0.002  -0.002   0.000   0.046  -0.040   0.000   0.047   0.157   8.993   0.055   0.339  -0.037  -0.117  -7.293  -0.046  -0.431
  0.000   0.000  -0.002   0.000  -0.004   0.037  -0.279   0.030   0.055   5.348  -0.012   0.061  -0.024  -0.046  -3.381   0.008
  0.004  -0.002   0.000  -0.012   0.014  -0.002  -0.032   0.177   0.339  -0.012   6.742   0.023  -0.155  -0.437   0.008  -4.734
  0.000  -0.000   0.000   0.001   0.003   0.014  -6.144   0.027  -0.037   0.061   0.023   7.446  -0.020   0.028   0.121  -0.016
  0.001   0.006  -0.000  -0.009   0.016  -0.002   0.030  -3.696  -0.117  -0.024  -0.155  -0.020   2.861   0.083   0.020   0.147
 -0.002   0.004  -0.000  -0.046   0.041   0.000  -0.035  -0.117  -7.293  -0.046  -0.437   0.028   0.083   6.738   0.038   0.517
 -0.000  -0.000   0.004  -0.001   0.002  -0.029   0.056  -0.025  -0.046  -3.381   0.008   0.121   0.020   0.038   2.566  -0.005
 -0.006   0.002  -0.000   0.010  -0.013   0.001   0.023  -0.158  -0.431   0.008  -4.734  -0.016   0.147   0.517  -0.005   3.898
 -0.046  -0.058   0.002   0.028   0.006  -0.002  -0.004  -0.315   1.632  -0.005   0.300  -0.001   0.312  -1.592   0.001  -0.357
  0.024   0.030  -0.001  -0.001  -0.003  -0.000  -0.002   0.024  -0.177   0.001   0.027   0.004  -0.028   0.173   0.000   0.009
 total augmentation occupancy for first ion, spin component:           2
 -0.003  -0.000   0.000  -0.010  -0.000   0.000  -0.000  -0.005   0.002  -0.000   0.005   0.000   0.003  -0.001   0.000  -0.004
 -0.000  -0.002   0.000  -0.000  -0.010   0.000  -0.000  -0.005  -0.005  -0.000  -0.001   0.000   0.004   0.004   0.000   0.001
  0.000   0.000  -0.003   0.000   0.000  -0.009  -0.001  -0.000   0.000  -0.007  -0.000   0.000   0.000  -0.000   0.006   0.000
 -0.010  -0.000   0.000   0.019   0.001  -0.000  -0.004   0.012   0.029  -0.001  -0.019   0.003  -0.004  -0.020   0.002   0.006
 -0.000  -0.010   0.000   0.001   0.012   0.000  -0.006   0.009  -0.021  -0.008   0.008   0.004  -0.003   0.019   0.007  -0.004
  0.000   0.000  -0.009  -0.000   0.000   0.017   0.036   0.000   0.000   0.033  -0.003  -0.029   0.001  -0.001  -0.016   0.002
 -0.000  -0.000  -0.001  -0.004  -0.006   0.036  -0.367  -0.041   0.054  -0.538  -0.031   1.000   0.029  -0.043   0.385   0.023
 -0.005  -0.005  -0.000   0.012   0.009   0.000  -0.041   4.766   0.191   0.030   0.206   0.025  -2.546  -0.154  -0.027  -0.162
  0.002  -0.005   0.000   0.029  -0.021   0.000   0.054   0.191   5.745   0.058  -0.049  -0.042  -0.154  -3.398  -0.051   0.023
 -0.000  -0.000  -0.007  -0.001  -0.008   0.033  -0.538   0.030   0.058   4.550  -0.014   0.386  -0.026  -0.051  -2.366   0.010
  0.005  -0.001  -0.000  -0.019   0.008  -0.003  -0.031   0.206  -0.049  -0.014   5.370   0.022  -0.162   0.014   0.010  -3.029
  0.000   0.000   0.000   0.003   0.004  -0.029   1.000   0.025  -0.042   0.386   0.022  -1.271  -0.016   0.033  -0.295  -0.016
  0.003   0.004   0.000  -0.004  -0.003   0.001   0.029  -2.546  -0.154  -0.026  -0.162  -0.016   1.421   0.123   0.024   0.116
 -0.001   0.004  -0.000  -0.020   0.019  -0.001  -0.043  -0.154  -3.398  -0.051   0.014   0.033   0.123   2.031   0.047  -0.012
  0.000   0.000   0.006   0.002   0.007  -0.016   0.385  -0.027  -0.051  -2.366   0.010  -0.295   0.024   0.047   1.270  -0.007
 -0.004   0.001   0.000   0.006  -0.004   0.002   0.023  -0.162   0.023   0.010  -3.029  -0.016   0.116  -0.012  -0.007   1.771
  0.003   0.004  -0.000  -0.000   0.000  -0.001  -0.008  -0.070   0.440  -0.013  -0.007   0.004   0.028  -0.262   0.012  -0.000
 -0.001  -0.002   0.000   0.001  -0.000  -0.000   0.002  -0.013  -0.007   0.001   0.081  -0.001   0.014  -0.005  -0.001  -0.053


------------------------ aborting loop because EDIFF is reached ----------------------------------------


 


 total charge     
 
# of ion       s       p       d       tot
------------------------------------------
    1        0.277   6.307   4.715  11.298
    2        0.281   6.304   4.831  11.416
    3        0.290   6.322   4.835  11.447
    4        0.283   6.306   4.880  11.469
    5        0.290   6.324   4.831  11.445
    6        0.288   6.327   5.298  11.914
    7        0.292   6.326   4.842  11.461
    8        0.313   6.371   5.731  12.415
    9        0.239   6.219   4.558  11.016
   10        0.221   6.198   4.936  11.355
   11        0.236   6.226   4.952  11.415
   12        0.244   6.223   4.602  11.069
   13        1.573   3.674   0.000   5.247
   14        1.558   3.209   0.000   4.766
   15        1.558   3.477   0.000   5.035
   16        1.560   3.476   0.000   5.036
   17        1.574   3.634   0.000   5.208
   18        1.558   3.428   0.000   4.986
   19        1.558   3.480   0.000   5.039
   20        1.566   3.693   0.000   5.260
   21        1.567   2.751   0.000   4.318
   22        1.558   3.457   0.000   5.015
   23        1.559   3.442   0.000   5.001
   24        1.571   3.605   0.000   5.177
   25        1.559   3.469   0.000   5.029
   26        1.580   3.554   0.000   5.135
   27        1.549   3.402   0.000   4.950
   28        1.557   3.558   0.000   5.115
   29        1.560   3.471   0.000   5.031
   30        1.548   3.388   0.000   4.936
   31        1.561   3.508   0.000   5.070
   32        1.559   3.461   0.000   5.020
   33        0.494   0.054   0.000   0.548
   34        0.501   0.052   0.000   0.553
   35        0.493   0.054   0.000   0.547
   36        0.506   0.053   0.000   0.559
   37        0.614   0.123   0.000   0.737
   38        0.608   0.122   0.000   0.730
   39        0.599   0.119   0.000   0.718
--------------------------------------------------
tot         38.302 145.166  59.012 242.481
 


 magnetization (x)
 
# of ion       s       p       d       tot
------------------------------------------
    1        0.029   0.028   3.803   3.860
    2        0.031   0.030   3.897   3.959
    3       -0.026  -0.025  -3.732  -3.783
    4       -0.035  -0.030  -3.863  -3.928
    5        0.031   0.032   3.852   3.915
    6        0.026   0.032   4.334   4.391
    7       -0.027  -0.025  -3.726  -3.779
    8       -0.018  -0.031  -3.971  -4.020
    9        0.024   0.031   4.019   4.074
   10        0.027   0.042   4.489   4.558
   11        0.028   0.049   4.447   4.523
   12        0.025   0.033   4.078   4.136
   13       -0.001  -0.015   0.000  -0.016
   14        0.008  -0.231   0.000  -0.223
   15        0.008   0.041   0.000   0.049
   16       -0.002  -0.040   0.000  -0.042
   17       -0.002  -0.056   0.000  -0.059
   18        0.007  -0.012   0.000  -0.005
   19        0.007   0.046   0.000   0.053
   20       -0.005  -0.026   0.000  -0.031
   21        0.000  -0.803   0.000  -0.803
   22       -0.002  -0.022   0.000  -0.024
   23        0.007  -0.015   0.000  -0.008
   24        0.006   0.000   0.000   0.006
   25        0.008   0.021   0.000   0.030
   26       -0.005  -0.091   0.000  -0.097
   27        0.002  -0.102   0.000  -0.100
   28        0.005   0.058   0.000   0.063
   29       -0.002  -0.034   0.000  -0.036
   30        0.001  -0.119   0.000  -0.118
   31       -0.003  -0.029   0.000  -0.032
   32       -0.002  -0.057   0.000  -0.059
   33        0.007  -0.000   0.000   0.007
   34        0.009  -0.006   0.000   0.003
   35        0.007  -0.000   0.000   0.007
   36        0.008  -0.002   0.000   0.006
   37       -0.001  -0.000   0.000  -0.001
   38        0.000  -0.000   0.000  -0.000
   39       -0.002   0.000   0.000  -0.001
--------------------------------------------------
tot          0.181  -1.331  17.627  16.476
 
    CHARGE:  cpu time    3.0208: real time    3.0246
    FORLOC:  cpu time    0.0757: real time    0.0757
    FORNL :  cpu time   10.5900: real time   10.6094
    FORCOR:  cpu time    0.5514: real time    0.5517
    FORHAR:  cpu time    0.0979: real time    0.0979
    MIXING:  cpu time    0.0311: real time    0.0311
    OFIELD:  cpu time    0.0001: real time    0.0001

 VOLUME and BASIS-vectors are now :
 -----------------------------------------------------------------------------
  energy-cutoff  :      520.00
  volume of cell :     1228.02
      direct lattice vectors                 reciprocal lattice vectors
     2.873573495 -2.873573495  4.708335110     0.000000000 -0.094445153  0.154747888
     5.747146990  0.000000000  0.000000000     0.173999378  0.047222576 -0.077373944
     0.000000000 33.065691007 20.180529009     0.000000000  0.022035073  0.013448363

  length of vectors
     6.219587508  5.747146990 38.737496987     0.181292017  0.196195011  0.025814781


 FORCES acting on ions
    electron-ion (+dipol)            ewald-force                    non-local-force                 convergence-correction
 -----------------------------------------------------------------------------------------------
   -.284E+01 0.433E+04 0.266E+04   0.360E+01 -.426E+04 -.261E+04   0.451E-01 0.104E+01 0.235E+01   -.663E+00 -.742E+02 -.497E+02
   0.110E+02 -.134E+04 -.759E+03   -.135E+02 0.146E+04 0.844E+03   -.118E+01 0.115E+01 -.542E-01   0.358E+01 -.122E+03 -.849E+02
   0.678E+01 0.152E+04 0.926E+03   -.578E+01 -.139E+04 -.849E+03   -.104E+00 0.874E+00 0.193E+00   -.839E+00 -.128E+03 -.766E+02
   0.206E+02 -.425E+04 -.262E+04   -.136E+02 0.430E+04 0.264E+04   -.181E+01 -.257E+01 0.151E+01   -.505E+01 -.498E+02 -.216E+02
   -.586E+01 0.151E+04 0.939E+03   0.419E+01 -.138E+04 -.863E+03   -.830E-01 0.571E+00 -.243E+00   0.178E+01 -.125E+03 -.759E+02
   -.188E+02 -.419E+04 -.252E+04   0.221E+02 0.423E+04 0.255E+04   -.645E+00 0.228E+01 -.112E+01   -.267E+01 -.434E+02 -.295E+02
   0.538E+01 0.152E+04 0.930E+03   -.363E+01 -.139E+04 -.855E+03   0.828E-01 0.297E+00 0.645E-02   -.179E+01 -.125E+03 -.754E+02
   0.135E+02 -.415E+04 -.245E+04   -.164E+02 0.419E+04 0.249E+04   0.838E+00 0.240E+01 -.488E+01   0.216E+01 -.446E+02 -.371E+02
   0.330E+01 0.365E+04 0.223E+04   -.387E+01 -.355E+04 -.217E+04   -.872E+00 0.199E+01 0.657E+00   0.159E+01 -.109E+03 -.691E+02
   -.200E+02 -.203E+04 -.126E+04   0.187E+02 0.215E+04 0.132E+04   0.217E+01 0.244E+00 -.182E+00   -.791E+00 -.115E+03 -.599E+02
   -.814E+01 -.564E+03 -.362E+03   0.911E+01 0.700E+03 0.445E+03   0.511E-01 0.144E+01 0.112E+01   -.103E+01 -.137E+03 -.842E+02
   -.317E+01 0.480E+04 0.288E+04   0.344E+01 -.475E+04 -.285E+04   0.248E+00 0.210E+01 0.160E+00   -.574E+00 -.592E+02 -.273E+02
   -.940E+00 -.271E+04 -.138E+04   0.706E+01 0.270E+04 0.135E+04   -.676E-01 -.451E+01 0.347E+02   -.569E+01 0.154E+02 -.413E+01
   -.108E+02 0.250E+04 0.149E+04   0.128E+02 -.247E+04 -.146E+04   -.212E+01 -.182E+02 -.174E+02   -.122E+00 -.839E+01 -.955E+01
   -.183E+01 -.815E+02 0.761E+02   0.207E+01 0.150E+03 -.370E+02   -.792E+00 -.812E+01 -.311E+01   0.363E+00 -.601E+02 -.358E+02
   0.303E+00 0.143E+04 0.797E+03   -.415E+00 -.138E+04 -.761E+03   -.211E+00 0.100E+02 -.234E+01   0.237E+00 -.549E+02 -.330E+02
   0.492E+01 -.112E+04 -.769E+03   0.263E+01 0.117E+04 0.795E+03   0.773E+00 0.734E+01 -.198E+01   -.737E+01 -.585E+02 -.245E+02
   0.166E+03 0.133E+04 0.850E+03   -.171E+03 -.128E+04 -.811E+03   0.927E+01 0.117E+01 -.242E+01   -.446E+01 -.508E+02 -.357E+02
   -.156E+03 -.129E+04 -.731E+03   0.163E+03 0.134E+04 0.765E+03   -.805E+01 0.275E+00 -.207E+01   0.113E+01 -.425E+02 -.313E+02
   0.818E+01 -.263E+04 -.151E+04   -.155E+02 0.261E+04 0.150E+04   0.166E+01 0.155E+02 0.221E+02   0.510E+01 0.130E+02 -.649E+01
   0.277E+02 0.252E+04 0.157E+04   -.508E+02 -.251E+04 -.157E+04   0.227E+02 -.107E+02 0.765E+01   0.705E+00 -.769E+01 -.407E+01
   0.489E+01 -.557E+02 0.296E+02   -.504E+01 0.126E+03 0.378E+01   0.621E+00 -.949E+01 0.237E+01   -.359E+00 -.602E+02 -.357E+02
   -.270E+00 0.148E+04 0.765E+03   0.249E+00 -.143E+04 -.741E+03   0.350E+00 0.102E+02 0.278E+01   -.304E+00 -.563E+02 -.270E+02
   -.115E+02 -.109E+04 -.821E+03   0.451E+01 0.114E+04 0.845E+03   -.834E+00 0.716E+01 0.257E+01   0.722E+01 -.585E+02 -.266E+02
   -.155E+03 0.792E+02 0.214E+02   0.163E+03 -.188E+02 0.125E+02   -.842E+01 0.131E+00 0.413E+01   0.432E+00 -.603E+02 -.380E+02
   -.177E+03 -.241E+04 -.166E+04   0.185E+03 0.242E+04 0.166E+04   -.105E+02 -.900E+01 -.105E+02   0.193E+01 -.845E+01 0.185E+02
   0.224E+02 0.252E+04 0.153E+04   -.209E+02 -.250E+04 -.152E+04   -.125E+00 -.171E+02 -.111E+02   -.269E+01 -.111E+02 -.462E+01
   0.124E+03 -.253E+04 -.163E+04   -.100E+03 0.255E+04 0.161E+04   -.221E+02 -.187E+02 0.766E+01   -.168E+01 -.276E+01 0.640E+01
   0.155E+03 0.620E+02 0.899E+01   -.163E+03 -.130E+01 0.254E+02   0.831E+01 0.596E+00 0.386E+01   -.304E+00 -.611E+02 -.382E+02
   -.230E+02 0.252E+04 0.154E+04   0.208E+02 -.249E+04 -.153E+04   0.804E+00 -.179E+02 -.965E+01   0.281E+01 -.115E+02 -.431E+01
   0.160E+03 -.139E+04 -.747E+03   -.167E+03 0.143E+04 0.790E+03   0.729E+01 -.836E+00 -.228E+01   -.194E+00 -.381E+02 -.409E+02
   -.166E+03 0.133E+04 0.851E+03   0.171E+03 -.128E+04 -.813E+03   -.939E+01 0.113E+01 -.206E+01   0.429E+01 -.507E+02 -.355E+02
   0.102E+01 0.492E+03 0.302E+03   -.414E+00 -.494E+03 -.303E+03   0.106E+00 0.420E+01 0.266E+01   -.149E+00 0.137E+01 0.956E+00
   -.266E+02 0.466E+03 0.269E+03   0.324E+02 -.471E+03 -.269E+03   -.369E+01 0.318E+01 0.117E+00   -.317E+01 0.337E+01 0.112E+00
   -.219E+01 0.491E+03 0.302E+03   0.162E+01 -.493E+03 -.304E+03   -.231E+00 0.422E+01 0.264E+01   0.150E+00 0.145E+01 0.100E+01
   -.110E+01 0.490E+03 0.295E+03   0.140E+01 -.494E+03 -.297E+03   0.101E-02 0.428E+01 0.233E+01   0.272E-01 0.257E+01 0.117E+01
   -.136E+01 -.514E+03 -.325E+03   0.114E+01 0.516E+03 0.329E+03   -.222E+00 -.612E+01 -.563E+01   0.343E+00 0.324E+01 0.154E+01
   -.127E+01 -.487E+03 -.341E+03   0.202E+01 0.486E+03 0.346E+03   -.101E+00 -.235E+01 -.778E+01   -.600E+00 0.291E+01 0.241E+01
   0.733E+02 -.396E+03 -.293E+03   -.807E+02 0.395E+03 0.296E+03   0.717E+01 0.146E+01 -.331E+01   0.294E+00 -.385E+00 0.398E+00
 -----------------------------------------------------------------------------------------------
   0.148E+02 0.183E+04 0.108E+04   0.114E-12 -.409E-11 0.182E-11   -.911E+01 -.403E+02 0.134E+02   -.637E+01 -.179E+04 -.109E+04
 
 
 POSITION                                       TOTAL-FORCE (eV/Angst)
 -----------------------------------------------------------------------------------
      5.76288      2.30925      2.83538         0.156974     -1.830870     -1.514709
      2.90013      5.27621      7.60355        -0.132767     -0.551207     -0.033191
      2.88931      2.30925      7.54371         0.076974      0.439015      0.011623
      2.94905      8.29549      7.58694         0.180118     -0.405536     -0.182341
      4.32610      3.74603      5.18954         0.045946      0.455326      0.158260
      4.37353      6.77401      9.96764        -0.045972     -0.440947     -0.115272
      1.45252      3.74603      5.18954         0.059876      0.420285      0.117110
      7.22444      6.71950      9.98899         0.099796     -0.626037     -0.799117
      5.76288      0.87246      6.36663         0.171930     -1.621520     -1.157671
      5.81824      6.73442      6.45920         0.159271     -0.096683     -0.352870
      5.75588      3.79532      8.74102         0.001181     -0.092533      0.073115
      2.88931      0.87246      4.01246        -0.036274     -1.164067      0.113984
      5.79802      8.13814     10.01461         0.376798      1.513418      1.002604
      2.88931     -0.69884      5.25540        -0.243412     -2.021759     -1.545677
      2.88369      5.07405      5.30252        -0.163953      0.091624      0.141309
      2.88931      2.44376      5.25540        -0.069882      0.249218      0.389304
      2.84447      8.27309      5.27003         0.973540     -0.735640      0.016734
      4.46061      3.74603      2.90123        -0.094046      0.078310      0.325197
      4.18596      6.73741      7.67739        -0.089288      0.379589      0.211908
      2.97425      8.16994      9.82079        -0.526415      1.587677      0.612974
      5.76288     -0.69884      5.12368         0.342523      0.005038      0.200143
      5.76913      5.08580      5.15018         0.123593      0.153616      0.091049
      5.76288      2.44376      5.12368         0.041075      0.184834     -0.301659
      0.09013      8.31078      5.13188        -0.585946     -0.736260     -0.024190
      4.18527      3.77620      7.45462        -0.110820      0.215687      0.102931
      4.32878      9.51201      7.12766        -0.257162     -0.217647      1.100594
      4.46061      0.87246      2.76952        -1.256609     -3.317037     -1.759248
      1.58614      9.68924      7.42880        -0.027015      0.010006      0.033554
      7.35252      3.79713      7.48433         0.096709      0.241070      0.102199
      1.31801      0.87246      2.76952         1.436958     -3.376946     -1.537630
      7.34672      6.77981      7.89882         0.107451      0.243796     -0.594707
      1.31801      3.74603      2.90123        -0.065294      0.296706      0.403873
      4.44914     -0.05819      2.16465         0.579752      3.514238      2.137201
      6.59433     -1.43378      5.09818        -1.052013      1.332925      0.339321
      1.35527     -0.06710      2.17965        -0.634728      3.610224      1.919173
      2.87242     -1.67143      4.72073         0.346824      2.882063      1.752949
      3.00028      8.88467     10.47980        -0.089435     -0.411960     -0.564446
      5.80872      8.41917     10.95405         0.065368     -0.215617     -0.811361
      6.45959      9.49212      7.83302         0.038373     -0.042399     -0.063019
 -----------------------------------------------------------------------------------
    total drift:                               -0.633195      1.237587      0.211628


--------------------------------------------------------------------------------------------------------



  FREE ENERGIE OF THE ION-ELECTRON SYSTEM (eV)
  ---------------------------------------------------
  free  energy   TOTEN  =      -262.37159266 eV

  energy  without entropy=     -262.39713330  energy(sigma->0) =     -262.38010621
 


--------------------------------------------------------------------------------------------------------


    POTLOK:  cpu time    0.5134: real time    0.5155


--------------------------------------------------------------------------------------------------------


 stress matrix after NEB project (eV)
      0.00000      0.00000      0.00000
      0.00000      0.00000      0.00000
      0.00000      0.00000      0.00000
  FORCES: max atom, RMS     1.854084    0.607080
  FORCE total and by dimension    3.791214    1.587677
  Stress total and by dimension    0.000000    0.000000


--------------------------------------------------------------------------------------------------------


    WAVPRE:  cpu time    0.0851: real time    0.1093
    FEWALD:  cpu time    0.0019: real time    0.0019

 real space projection operators:
  total allocation   :      16350.99 KBytes
  max/ min on nodes  :        753.59        248.57

    ORTHCH:  cpu time    3.8649: real time    3.8688
     LOOP+:  cpu time 2113.4535: real time 2132.2197


--------------------------------------- Iteration      2(   1)  ---------------------------------------


    POTLOK:  cpu time    0.4832: real time    0.4933
    SETDIJ:  cpu time    0.0411: real time    0.0411
     EDDAV:  cpu time   39.7970: real time   40.2015
       DOS:  cpu time    0.0260: real time    0.0261
    CHARGE:  cpu time    2.9858: real time    2.9887
    MIXING:  cpu time    0.0098: real time    0.0098
    --------------------------------------------
      LOOP:  cpu time   43.3431: real time   43.7607

 eigenvalue-minimisations  :  8430
 total energy-change (2. order) : 0.1800173E+01  (-0.1782719E+02)
 number of electron     283.0000022 magnetization      19.8655460
 augmentation part      100.7498520 magnetization      14.8962587

  free energy =  -0.260391537954E+03  energy without entropy=  -0.260412497291E+03


--------------------------------------------------------------------------------------------------------




--------------------------------------- Iteration      2(   2)  ---------------------------------------


    POTLOK:  cpu time    0.4642: real time    0.4984
    SETDIJ:  cpu time    0.0412: real time    0.0412
    EDDIAG:  cpu time    7.5954: real time    7.6104
  RMM-DIIS:  cpu time   24.4490: real time   24.5253
    ORTHCH:  cpu time    0.3930: real time    0.3940
       DOS:  cpu time    0.0272: real time    0.0272
    CHARGE:  cpu time    2.8680: real time    2.8804
    MIXING:  cpu time    0.0091: real time    0.0091
    --------------------------------------------
      LOOP:  cpu time   35.8470: real time   35.9859

 eigenvalue-minimisations  :  8181
 total energy-change (2. order) :-0.4715068E+02  (-0.6582727E+01)
 number of electron     283.0000008 magnetization      19.7946011
 augmentation part      101.6227019 magnetization      17.6053716

 eigenvalues of (default mixing * dielectric matrix)
  average eigenvalue GAMMA=   0.2071
  0.2071

  free energy =  -0.307542219143E+03  energy without entropy=  -0.307549819295E+03


--------------------------------------------------------------------------------------------------------




--------------------------------------- Iteration      2(   3)  ---------------------------------------


    POTLOK:  cpu time    0.4960: real time    0.4974
    SETDIJ:  cpu time    0.0409: real time    0.0409
    EDDIAG:  cpu time    7.9909: real time    8.3639
  RMM-DIIS:  cpu time   23.6209: real time   23.6625
    ORTHCH:  cpu time    0.3865: real time    0.3874
       DOS:  cpu time    0.0261: real time    0.0261
    CHARGE:  cpu time    3.0073: real time    3.0101
    MIXING:  cpu time    0.0092: real time    0.0092
    --------------------------------------------
      LOOP:  cpu time   35.5778: real time   35.9975

 eigenvalue-minimisations  :  7902
 total energy-change (2. order) : 0.3869256E+02  (-0.3292543E+01)
 number of electron     283.0000022 magnetization      19.7357565
 augmentation part       99.7487054 magnetization      14.4584448

 eigenvalues of (default mixing * dielectric matrix)
  average eigenvalue GAMMA=   0.2131
  0.3059  0.1202

  free energy =  -0.268849656276E+03  energy without entropy=  -0.268856276660E+03


--------------------------------------------------------------------------------------------------------




--------------------------------------- Iteration      2(   4)  ---------------------------------------


    POTLOK:  cpu time    0.4960: real time    0.4971
    SETDIJ:  cpu time    0.0413: real time    0.0413
    EDDIAG:  cpu time    7.5874: real time    7.5956
  RMM-DIIS:  cpu time   25.9520: real time   26.6004
    ORTHCH:  cpu time    0.3870: real time    0.3871
       DOS:  cpu time    0.0253: real time    0.0253
    CHARGE:  cpu time    3.0359: real time    3.0389
    MIXING:  cpu time    0.0094: real time    0.0094
    --------------------------------------------
      LOOP:  cpu time   37.5342: real time   38.1950

 eigenvalue-minimisations  :  8512
 total energy-change (2. order) : 0.6617278E+01  (-0.5221521E+00)
 number of electron     283.0000023 magnetization      19.6528662
 augmentation part      100.0671038 magnetization      14.7294811

 eigenvalues of (default mixing * dielectric matrix)
  average eigenvalue GAMMA=   0.2789
  0.4694  0.1837  0.1837

  free energy =  -0.262232378714E+03  energy without entropy=  -0.262252233359E+03


--------------------------------------------------------------------------------------------------------




--------------------------------------- Iteration      2(   5)  ---------------------------------------


    POTLOK:  cpu time    0.4638: real time    0.4993
    SETDIJ:  cpu time    0.0410: real time    0.0410
    EDDIAG:  cpu time    7.6102: real time    7.6179
  RMM-DIIS:  cpu time   23.1616: real time   23.1934
    ORTHCH:  cpu time    0.3874: real time    0.3885
       DOS:  cpu time    0.0258: real time    0.0258
    CHARGE:  cpu time    3.0413: real time    3.0512
    MIXING:  cpu time    0.0098: real time    0.0098
    --------------------------------------------
      LOOP:  cpu time   34.7409: real time   34.8269

 eigenvalue-minimisations  :  7736
 total energy-change (2. order) : 0.1665329E+01  (-0.2818530E+00)
 number of electron     283.0000022 magnetization      19.5820840
 augmentation part      100.0351084 magnetization      13.7949657

 eigenvalues of (default mixing * dielectric matrix)
  average eigenvalue GAMMA=   0.3124
  0.5648  0.1488  0.2680  0.2680

  free energy =  -0.260567050139E+03  energy without entropy=  -0.260567216159E+03


--------------------------------------------------------------------------------------------------------




--------------------------------------- Iteration      2(   6)  ---------------------------------------


    POTLOK:  cpu time    0.4994: real time    0.5032
    SETDIJ:  cpu time    0.0412: real time    0.0412
    EDDIAG:  cpu time    7.6760: real time    7.7336
  RMM-DIIS:  cpu time   23.0552: real time   23.4688
    ORTHCH:  cpu time    0.3869: real time    0.3879
       DOS:  cpu time    0.0262: real time    0.0263
    CHARGE:  cpu time    3.0335: real time    3.0364
    MIXING:  cpu time    0.0102: real time    0.0101
    --------------------------------------------
      LOOP:  cpu time   34.7288: real time   35.2075

 eigenvalue-minimisations  :  7557
 total energy-change (2. order) : 0.6138225E+00  (-0.1423635E+00)
 number of electron     283.0000022 magnetization      19.5526732
 augmentation part      100.1871021 magnetization      13.5029760

 eigenvalues of (default mixing * dielectric matrix)
  average eigenvalue GAMMA=   0.3619
  0.5393  0.5393  0.1585  0.3292  0.2432

  free energy =  -0.259953227665E+03  energy without entropy=  -0.259934996040E+03


--------------------------------------------------------------------------------------------------------




--------------------------------------- Iteration      2(   7)  ---------------------------------------


    POTLOK:  cpu time    0.4954: real time    0.4963
    SETDIJ:  cpu time    0.0411: real time    0.0411
    EDDIAG:  cpu time    7.5984: real time    7.6121
  RMM-DIIS:  cpu time   21.8981: real time   21.9865
    ORTHCH:  cpu time    0.3871: real time    0.3871
       DOS:  cpu time    0.0254: real time    0.0254
    CHARGE:  cpu time    3.0356: real time    3.0458
    MIXING:  cpu time    0.0099: real time    0.0099
    --------------------------------------------
      LOOP:  cpu time   33.4909: real time   33.6041

 eigenvalue-minimisations  :  7285
 total energy-change (2. order) : 0.2830335E+00  (-0.1051782E+00)
 number of electron     283.0000021 magnetization      19.5991039
 augmentation part      100.1859488 magnetization      12.7910488

 eigenvalues of (default mixing * dielectric matrix)
  average eigenvalue GAMMA=   0.3763
  0.6383  0.6383  0.3082  0.3082  0.1578  0.2067

  free energy =  -0.259670194124E+03  energy without entropy=  -0.259687571714E+03


--------------------------------------------------------------------------------------------------------




--------------------------------------- Iteration      2(   8)  ---------------------------------------


    POTLOK:  cpu time    0.4656: real time    0.5069
    SETDIJ:  cpu time    0.0411: real time    0.0411
    EDDIAG:  cpu time    7.6730: real time    7.7302
  RMM-DIIS:  cpu time   23.0146: real time   23.4390
    ORTHCH:  cpu time    0.3867: real time    0.3868
       DOS:  cpu time    0.0251: real time    0.0251
    CHARGE:  cpu time    3.0313: real time    3.0350
    MIXING:  cpu time    0.0103: real time    0.0103
    --------------------------------------------
      LOOP:  cpu time   34.6476: real time   35.1743

 eigenvalue-minimisations  :  7513
 total energy-change (2. order) :-0.6385256E+00  (-0.5419969E-01)
 number of electron     283.0000021 magnetization      19.6321251
 augmentation part      100.1961223 magnetization      12.8486451

 eigenvalues of (default mixing * dielectric matrix)
  average eigenvalue GAMMA=   0.4296
  0.7475  0.7475  0.3844  0.3844  0.3630  0.1580  0.2225

  free energy =  -0.260308719751E+03  energy without entropy=  -0.260314260994E+03


--------------------------------------------------------------------------------------------------------




--------------------------------------- Iteration      2(   9)  ---------------------------------------


    POTLOK:  cpu time    0.4649: real time    0.4969
    SETDIJ:  cpu time    0.0408: real time    0.0408
    EDDIAG:  cpu time    7.5990: real time    7.6076
  RMM-DIIS:  cpu time   23.0442: real time   23.1364
    ORTHCH:  cpu time    0.3883: real time    0.3893
       DOS:  cpu time    0.0255: real time    0.0255
    CHARGE:  cpu time    3.4594: real time    3.7328
    MIXING:  cpu time    0.0104: real time    0.0104
    --------------------------------------------
      LOOP:  cpu time   35.0324: real time   35.4396

 eigenvalue-minimisations  :  7638
 total energy-change (2. order) :-0.1978956E+00  (-0.3125165E-01)
 number of electron     283.0000021 magnetization      19.7057461
 augmentation part      100.2608692 magnetization      12.6618336

 eigenvalues of (default mixing * dielectric matrix)
  average eigenvalue GAMMA=   0.4789
  0.9188  0.9188  0.4744  0.4744  0.1581  0.2178  0.3344  0.3344

  free energy =  -0.260506615333E+03  energy without entropy=  -0.260502809106E+03


--------------------------------------------------------------------------------------------------------




--------------------------------------- Iteration      2(  10)  ---------------------------------------


    POTLOK:  cpu time    0.4969: real time    0.4979
    SETDIJ:  cpu time    0.0411: real time    0.0411
    EDDIAG:  cpu time    7.5864: real time    7.5945
  RMM-DIIS:  cpu time   22.8257: real time   22.8559
    ORTHCH:  cpu time    0.3872: real time    0.3882
       DOS:  cpu time    0.0251: real time    0.0251
    CHARGE:  cpu time    3.0269: real time    3.0300
    MIXING:  cpu time    0.0107: real time    0.0107
    --------------------------------------------
      LOOP:  cpu time   34.4000: real time   34.4434

 eigenvalue-minimisations  :  7621
 total energy-change (2. order) :-0.3090227E+00  (-0.3829425E-01)
 number of electron     283.0000021 magnetization      19.7746907
 augmentation part      100.3161118 magnetization      12.6169024

 eigenvalues of (default mixing * dielectric matrix)
  average eigenvalue GAMMA=   0.5451
  1.1346  1.1346  0.5723  0.5723  0.3613  0.3613  0.1581  0.2193  0.3921

  free energy =  -0.260815637993E+03  energy without entropy=  -0.260812928126E+03


--------------------------------------------------------------------------------------------------------




--------------------------------------- Iteration      2(  11)  ---------------------------------------


    POTLOK:  cpu time    0.4951: real time    0.4961
    SETDIJ:  cpu time    0.0410: real time    0.0410
    EDDIAG:  cpu time    7.5947: real time    7.6387
  RMM-DIIS:  cpu time   23.6987: real time   24.2265
    ORTHCH:  cpu time    0.3841: real time    0.3853
       DOS:  cpu time    0.0258: real time    0.0259
    CHARGE:  cpu time    2.9975: real time    3.0003
    MIXING:  cpu time    0.0109: real time    0.0109
    --------------------------------------------
      LOOP:  cpu time   35.2480: real time   35.8249

 eigenvalue-minimisations  :  7832
 total energy-change (2. order) :-0.7572345E-01  (-0.2105458E-01)
 number of electron     283.0000021 magnetization      19.7963188
 augmentation part      100.3648272 magnetization      12.8218825

 eigenvalues of (default mixing * dielectric matrix)
  average eigenvalue GAMMA=   0.5460
  1.2112  1.2112  0.5706  0.5706  0.1581  0.2191  0.3911  0.3911  0.3688  0.3688

  free energy =  -0.260891361442E+03  energy without entropy=  -0.260880702444E+03


--------------------------------------------------------------------------------------------------------




--------------------------------------- Iteration      2(  12)  ---------------------------------------


    POTLOK:  cpu time    0.4652: real time    0.4975
    SETDIJ:  cpu time    0.0410: real time    0.0410
    EDDIAG:  cpu time    7.5953: real time    7.6028
  RMM-DIIS:  cpu time   24.9798: real time   25.0692
    ORTHCH:  cpu time    0.3875: real time    0.3876
       DOS:  cpu time    0.0259: real time    0.0259
    CHARGE:  cpu time    3.0533: real time    3.1005
    MIXING:  cpu time    0.0111: real time    0.0112
    --------------------------------------------
      LOOP:  cpu time   36.5589: real time   36.7355

 eigenvalue-minimisations  :  8374
 total energy-change (2. order) :-0.1696010E-01  (-0.3243409E-02)
 number of electron     283.0000021 magnetization      19.8010477
 augmentation part      100.3942234 magnetization      13.0009670

 eigenvalues of (default mixing * dielectric matrix)
  average eigenvalue GAMMA=   0.5252
  1.2152  1.2152  0.5855  0.5855  0.4302  0.4302  0.3814  0.3814  0.1581  0.2191
  0.1752

  free energy =  -0.260908321545E+03  energy without entropy=  -0.260895385049E+03


--------------------------------------------------------------------------------------------------------




--------------------------------------- Iteration      2(  13)  ---------------------------------------


    POTLOK:  cpu time    0.4649: real time    0.4975
    SETDIJ:  cpu time    0.0413: real time    0.0413
    EDDIAG:  cpu time    7.6498: real time    7.7332
  RMM-DIIS:  cpu time   26.8164: real time   27.1676
    ORTHCH:  cpu time    0.3863: real time    0.3873
       DOS:  cpu time    0.0255: real time    0.0255
    CHARGE:  cpu time    3.0212: real time    3.0242
    MIXING:  cpu time    0.0114: real time    0.0114
    --------------------------------------------
      LOOP:  cpu time   38.4168: real time   38.8881

 eigenvalue-minimisations  :  8905
 total energy-change (2. order) :-0.5075588E-02  (-0.6362021E-03)
 number of electron     283.0000021 magnetization      19.8478106
 augmentation part      100.4147409 magnetization      13.1849851

 eigenvalues of (default mixing * dielectric matrix)
  average eigenvalue GAMMA=   0.5977
  1.3311  1.3311  0.6872  0.6872  0.5448  0.5448  0.1581  0.2191  0.4540  0.4540
  0.3807  0.3807

  free energy =  -0.260913397133E+03  energy without entropy=  -0.260900860783E+03


--------------------------------------------------------------------------------------------------------




--------------------------------------- Iteration      2(  14)  ---------------------------------------


    POTLOK:  cpu time    0.4944: real time    0.4956
    SETDIJ:  cpu time    0.0411: real time    0.0411
    EDDIAG:  cpu time    7.5930: real time    7.6009
  RMM-DIIS:  cpu time   22.1828: real time   22.3108
    ORTHCH:  cpu time    0.4124: real time    0.4344
       DOS:  cpu time    0.0267: real time    0.0298
    CHARGE:  cpu time    3.4399: real time    3.7371
    MIXING:  cpu time    0.0119: real time    0.0119
    --------------------------------------------
      LOOP:  cpu time   34.2021: real time   34.6615

 eigenvalue-minimisations  :  7341
 total energy-change (2. order) : 0.4189126E-03  (-0.6227615E-02)
 number of electron     283.0000021 magnetization      19.8726050
 augmentation part      100.4680910 magnetization      13.3662232

 eigenvalues of (default mixing * dielectric matrix)
  average eigenvalue GAMMA=   0.6544
  1.3256  1.3256  1.0425  1.0425  0.6177  0.6177  0.5256  0.5256  0.3794  0.3794
  0.1581  0.2190  0.3484

  free energy =  -0.260912978221E+03  energy without entropy=  -0.260901404931E+03


--------------------------------------------------------------------------------------------------------




--------------------------------------- Iteration      2(  15)  ---------------------------------------


    POTLOK:  cpu time    0.4688: real time    0.5031
    SETDIJ:  cpu time    0.0411: real time    0.0411
    EDDIAG:  cpu time    7.6027: real time    7.6110
  RMM-DIIS:  cpu time   22.1518: real time   22.1806
    ORTHCH:  cpu time    0.3877: real time    0.3885
       DOS:  cpu time    0.0263: real time    0.0263
    CHARGE:  cpu time    3.0299: real time    3.0328
    MIXING:  cpu time    0.0119: real time    0.0119
    --------------------------------------------
      LOOP:  cpu time   33.7203: real time   33.7954

 eigenvalue-minimisations  :  7353
 total energy-change (2. order) : 0.1407786E-01  (-0.5876123E-02)
 number of electron     283.0000021 magnetization      19.8560550
 augmentation part      100.5045803 magnetization      13.4412856

 eigenvalues of (default mixing * dielectric matrix)
  average eigenvalue GAMMA=   0.6864
  1.3100  1.3100  1.2636  1.2636  0.5851  0.5851  0.6716  0.6716  0.1581  0.2190
  0.3948  0.3948  0.3909  0.3909

  free energy =  -0.260898900365E+03  energy without entropy=  -0.260889102096E+03


--------------------------------------------------------------------------------------------------------




--------------------------------------- Iteration      2(  16)  ---------------------------------------


    POTLOK:  cpu time    0.4636: real time    0.4957
    SETDIJ:  cpu time    0.0410: real time    0.0410
    EDDIAG:  cpu time    7.6042: real time    7.6120
  RMM-DIIS:  cpu time   23.3861: real time   23.8063
    ORTHCH:  cpu time    0.3877: real time    0.3877
       DOS:  cpu time    0.0259: real time    0.0259
    CHARGE:  cpu time    3.0407: real time    3.0437
    MIXING:  cpu time    0.0122: real time    0.0122
    --------------------------------------------
      LOOP:  cpu time   34.9612: real time   35.4245

 eigenvalue-minimisations  :  7534
 total energy-change (2. order) : 0.2506087E-01  (-0.2362250E-02)
 number of electron     283.0000021 magnetization      19.8419957
 augmentation part      100.4839612 magnetization      13.2890018

 eigenvalues of (default mixing * dielectric matrix)
  average eigenvalue GAMMA=   0.7121
  1.3120  1.3120  1.2488  1.2488  0.9023  0.9023  0.5656  0.5656  0.5870  0.1581
  0.2190  0.3870  0.3870  0.4429  0.4429

  free energy =  -0.260873839498E+03  energy without entropy=  -0.260868756263E+03


--------------------------------------------------------------------------------------------------------




--------------------------------------- Iteration      2(  17)  ---------------------------------------


    POTLOK:  cpu time    0.4948: real time    0.4958
    SETDIJ:  cpu time    0.0410: real time    0.0410
    EDDIAG:  cpu time    7.5968: real time    7.6119
  RMM-DIIS:  cpu time   22.5749: real time   22.6004
    ORTHCH:  cpu time    0.3946: real time    0.3992
       DOS:  cpu time    0.0258: real time    0.0259
    CHARGE:  cpu time    3.0607: real time    3.0702
    MIXING:  cpu time    0.0128: real time    0.0128
    --------------------------------------------
      LOOP:  cpu time   34.2014: real time   34.2571

 eigenvalue-minimisations  :  7535
 total energy-change (2. order) :-0.8270851E-02  (-0.2157502E-02)
 number of electron     283.0000021 magnetization      19.8435570
 augmentation part      100.4440455 magnetization      12.9927075

 eigenvalues of (default mixing * dielectric matrix)
  average eigenvalue GAMMA=   0.7044
  1.3133  1.3133  1.4308  0.9414  0.9414  0.5641  0.5641  0.8282  0.8282  0.1581
  0.2190  0.3872  0.3872  0.5331  0.4303  0.4303

  free energy =  -0.260882110349E+03  energy without entropy=  -0.260881292947E+03


--------------------------------------------------------------------------------------------------------




--------------------------------------- Iteration      2(  18)  ---------------------------------------


    POTLOK:  cpu time    0.4635: real time    0.5043
    SETDIJ:  cpu time    0.0389: real time    0.0567
    EDDIAG:  cpu time    7.5925: real time    7.6383
  RMM-DIIS:  cpu time   22.7959: real time   23.0385
    ORTHCH:  cpu time    0.3846: real time    0.3857
       DOS:  cpu time    0.0259: real time    0.0258
    CHARGE:  cpu time    3.0094: real time    3.0186
    MIXING:  cpu time    0.0131: real time    0.0131
    --------------------------------------------
      LOOP:  cpu time   34.3238: real time   34.6810

 eigenvalue-minimisations  :  7442
 total energy-change (2. order) :-0.3283725E-01  (-0.7119955E-03)
 number of electron     283.0000021 magnetization      19.8519852
 augmentation part      100.4187103 magnetization      12.8043354

 eigenvalues of (default mixing * dielectric matrix)
  average eigenvalue GAMMA=   0.7222
  1.3060  1.3060  1.1796  1.1796  0.8636  0.8636  0.9212  0.9212  0.5688  0.5688
  0.6039  0.1581  0.2190  0.3875  0.3875  0.4213  0.4213

  free energy =  -0.260914947598E+03  energy without entropy=  -0.260919976320E+03


--------------------------------------------------------------------------------------------------------




--------------------------------------- Iteration      2(  19)  ---------------------------------------


    POTLOK:  cpu time    0.4640: real time    0.4958
    SETDIJ:  cpu time    0.0401: real time    0.0410
    EDDIAG:  cpu time    7.5994: real time    7.6073
  RMM-DIIS:  cpu time   21.6776: real time   21.7628
    ORTHCH:  cpu time    0.3896: real time    0.3961
       DOS:  cpu time    0.0259: real time    0.0259
    CHARGE:  cpu time    3.0250: real time    3.0279
    MIXING:  cpu time    0.0135: real time    0.0135
    --------------------------------------------
      LOOP:  cpu time   33.2352: real time   33.3704

 eigenvalue-minimisations  :  7144
 total energy-change (2. order) :-0.1269050E-01  (-0.5059283E-03)
 number of electron     283.0000021 magnetization      19.8672856
 augmentation part      100.4141556 magnetization      12.7660797

 eigenvalues of (default mixing * dielectric matrix)
  average eigenvalue GAMMA=   0.7638
  1.2840  1.2840  1.2095  1.2095  1.1376  1.1376  1.0793  1.0793  0.5724  0.5724
  0.1581  0.5851  0.5851  0.2190  0.3878  0.3878  0.4298  0.4298

  free energy =  -0.260927638096E+03  energy without entropy=  -0.260933443462E+03


--------------------------------------------------------------------------------------------------------




--------------------------------------- Iteration      2(  20)  ---------------------------------------


    POTLOK:  cpu time    0.4952: real time    0.4964
    SETDIJ:  cpu time    0.0415: real time    0.0415
    EDDIAG:  cpu time    8.0540: real time    8.4627
  RMM-DIIS:  cpu time   22.1190: real time   22.1494
    ORTHCH:  cpu time    0.3871: real time    0.3871
       DOS:  cpu time    0.0255: real time    0.0255
    CHARGE:  cpu time    3.0221: real time    3.0251
    MIXING:  cpu time    0.0139: real time    0.0139
    --------------------------------------------
      LOOP:  cpu time   34.1582: real time   34.6015

 eigenvalue-minimisations  :  7321
 total energy-change (2. order) : 0.9224769E-02  (-0.7207307E-03)
 number of electron     283.0000021 magnetization      19.8839098
 augmentation part      100.4300129 magnetization      12.8517511

 eigenvalues of (default mixing * dielectric matrix)
  average eigenvalue GAMMA=   0.7782
  1.2916  1.2916  1.2442  1.2442  1.2256  1.2256  1.1609  1.1609  0.5726  0.5726
  0.1581  0.5903  0.5903  0.6094  0.2190  0.3876  0.3876  0.4265  0.4265

  free energy =  -0.260918413327E+03  energy without entropy=  -0.260918982139E+03


--------------------------------------------------------------------------------------------------------




--------------------------------------- Iteration      2(  21)  ---------------------------------------


    POTLOK:  cpu time    0.4941: real time    0.4953
    SETDIJ:  cpu time    0.0409: real time    0.0409
    EDDIAG:  cpu time    7.5999: real time    7.6080
  RMM-DIIS:  cpu time   22.4979: real time   22.6198
    ORTHCH:  cpu time    0.4047: real time    0.4058
       DOS:  cpu time    0.0259: real time    0.0260
    CHARGE:  cpu time    3.6257: real time    3.9736
    MIXING:  cpu time    0.0146: real time    0.0146
    --------------------------------------------
      LOOP:  cpu time   34.7038: real time   35.1839

 eigenvalue-minimisations  :  7440
 total energy-change (2. order) :-0.6284028E-02  (-0.4171848E-03)
 number of electron     283.0000021 magnetization      19.8850469
 augmentation part      100.4520867 magnetization      12.9575230

 eigenvalues of (default mixing * dielectric matrix)
  average eigenvalue GAMMA=   0.8311
  1.8367  1.8367  1.2735  1.2735  1.1383  1.1383  1.1077  1.1077  0.5711  0.5711
  0.7748  0.7748  0.1581  0.6054  0.6054  0.2190  0.3877  0.3877  0.4272  0.4272

  free energy =  -0.260924697354E+03  energy without entropy=  -0.260921406213E+03


--------------------------------------------------------------------------------------------------------




--------------------------------------- Iteration      2(  22)  ---------------------------------------


    POTLOK:  cpu time    0.4628: real time    0.5025
    SETDIJ:  cpu time    0.0411: real time    0.0411
    EDDIAG:  cpu time    7.5925: real time    7.6008
  RMM-DIIS:  cpu time   22.0370: real time   22.0656
    ORTHCH:  cpu time    0.3870: real time    0.3879
       DOS:  cpu time    0.0259: real time    0.0259
    CHARGE:  cpu time    3.0252: real time    3.0286
    MIXING:  cpu time    0.0151: real time    0.0151
    --------------------------------------------
      LOOP:  cpu time   33.5867: real time   33.6676

 eigenvalue-minimisations  :  7360
 total energy-change (2. order) :-0.4413875E-01  (-0.6235867E-03)
 number of electron     283.0000021 magnetization      19.9071167
 augmentation part      100.4368747 magnetization      12.9201753

 eigenvalues of (default mixing * dielectric matrix)
  average eigenvalue GAMMA=   0.8504
  2.0260  2.0260  1.2883  1.2883  1.0547  1.0547  1.0076  1.0076  0.9924  0.9924
  0.5713  0.5713  0.6883  0.6883  0.1581  0.5939  0.2190  0.3877  0.3877  0.4271
  0.4271

  free energy =  -0.260968836105E+03  energy without entropy=  -0.260969733676E+03


--------------------------------------------------------------------------------------------------------




--------------------------------------- Iteration      2(  23)  ---------------------------------------


    POTLOK:  cpu time    0.4643: real time    0.4959
    SETDIJ:  cpu time    0.0402: real time    0.0409
    EDDIAG:  cpu time    7.6100: real time    7.6205
  RMM-DIIS:  cpu time   23.2351: real time   23.6600
    ORTHCH:  cpu time    0.3830: real time    0.3841
       DOS:  cpu time    0.0260: real time    0.0260
    CHARGE:  cpu time    2.9864: real time    2.9893
    MIXING:  cpu time    0.0152: real time    0.0152
    --------------------------------------------
      LOOP:  cpu time   34.7601: real time   35.2318

 eigenvalue-minimisations  :  7531
 total energy-change (2. order) :-0.1733649E-01  (-0.3391288E-03)
 number of electron     283.0000021 magnetization      19.9085587
 augmentation part      100.4512681 magnetization      12.9881866

 eigenvalues of (default mixing * dielectric matrix)
  average eigenvalue GAMMA=   0.8558
  1.9529  1.9529  1.2856  1.2856  1.0968  1.0968  1.2916  1.0780  1.0780  0.5714
  0.5714  0.8655  0.8655  0.1581  0.2190  0.6227  0.6227  0.5847  0.3877  0.3877
  0.4270  0.4270

  free energy =  -0.260986172596E+03  energy without entropy=  -0.260983638281E+03


--------------------------------------------------------------------------------------------------------




--------------------------------------- Iteration      2(  24)  ---------------------------------------


    POTLOK:  cpu time    0.4945: real time    0.4957
    SETDIJ:  cpu time    0.0412: real time    0.0412
    EDDIAG:  cpu time    7.5921: real time    7.6058
  RMM-DIIS:  cpu time   21.7848: real time   21.8550
    ORTHCH:  cpu time    0.3869: real time    0.3878
       DOS:  cpu time    0.0250: real time    0.0250
    CHARGE:  cpu time    3.0640: real time    3.0733
    MIXING:  cpu time    0.0160: real time    0.0160
    --------------------------------------------
      LOOP:  cpu time   33.4046: real time   33.4998

 eigenvalue-minimisations  :  7172
 total energy-change (2. order) :-0.1626898E-01  (-0.7604273E-04)
 number of electron     283.0000021 magnetization      19.9103448
 augmentation part      100.4530194 magnetization      13.0089253

 eigenvalues of (default mixing * dielectric matrix)
  average eigenvalue GAMMA=   0.8584
  1.8576  1.8576  1.2847  1.2847  1.1221  1.1221  1.3681  1.1910  1.1910  0.5714
  0.5714  0.7463  0.7463  0.7633  0.7633  0.1581  0.6845  0.2190  0.6119  0.3877
  0.3877  0.4271  0.4271

  free energy =  -0.261002441572E+03  energy without entropy=  -0.260999811323E+03


--------------------------------------------------------------------------------------------------------




--------------------------------------- Iteration      2(  25)  ---------------------------------------


    POTLOK:  cpu time    0.4946: real time    0.5253
    SETDIJ:  cpu time    0.0409: real time    0.0409
    EDDIAG:  cpu time    7.5644: real time    7.5808
  RMM-DIIS:  cpu time   21.2743: real time   21.7268
    ORTHCH:  cpu time    0.3864: real time    0.3872
       DOS:  cpu time    0.0259: real time    0.0259
    CHARGE:  cpu time    2.9887: real time    2.9916
    MIXING:  cpu time    0.0163: real time    0.0164
    --------------------------------------------
      LOOP:  cpu time   32.7916: real time   33.2950

 eigenvalue-minimisations  :  6872
 total energy-change (2. order) :-0.2721112E-01  (-0.1275791E-03)
 number of electron     283.0000021 magnetization      19.9173905
 augmentation part      100.4457190 magnetization      12.9869366

 eigenvalues of (default mixing * dielectric matrix)
  average eigenvalue GAMMA=   0.8710
  1.7151  1.7151  1.2849  1.2849  1.5456  1.5456  1.1154  1.1154  1.1340  1.1340
  0.5714  0.5714  0.7147  0.7147  0.7737  0.7737  0.1581  0.2190  0.3877  0.3877
  0.5936  0.5936  0.4270  0.4270

  free energy =  -0.261029652691E+03  energy without entropy=  -0.261028461389E+03


--------------------------------------------------------------------------------------------------------




--------------------------------------- Iteration      2(  26)  ---------------------------------------


    POTLOK:  cpu time    0.4622: real time    0.5008
    SETDIJ:  cpu time    0.0412: real time    0.0412
    EDDIAG:  cpu time    7.5937: real time    7.6016
  RMM-DIIS:  cpu time   20.3642: real time   20.4519
    ORTHCH:  cpu time    0.3848: real time    0.3849
       DOS:  cpu time    0.0259: real time    0.0260
    CHARGE:  cpu time    3.0003: real time    3.0175
    MIXING:  cpu time    0.0172: real time    0.0172
    --------------------------------------------
      LOOP:  cpu time   31.8895: real time   32.0410

 eigenvalue-minimisations  :  6700
 total energy-change (2. order) :-0.2441154E-01  (-0.4860157E-04)
 number of electron     283.0000021 magnetization      19.9239868
 augmentation part      100.4455803 magnetization      12.9980577

 eigenvalues of (default mixing * dielectric matrix)
  average eigenvalue GAMMA=   0.9044
  2.1339  2.1339  1.7828  1.7828  1.2852  1.2852  1.1094  1.1094  1.0568  1.0568
  0.5714  0.5714  0.7090  0.7090  0.7486  0.7486  0.1581  0.2190  0.3877  0.3877
  0.6180  0.6180  0.5732  0.4270  0.4270

  free energy =  -0.261054064234E+03  energy without entropy=  -0.261052345749E+03


--------------------------------------------------------------------------------------------------------




--------------------------------------- Iteration      2(  27)  ---------------------------------------


    POTLOK:  cpu time    0.4670: real time    0.4985
    SETDIJ:  cpu time    0.0410: real time    0.0410
    EDDIAG:  cpu time    7.8898: real time    8.1683
  RMM-DIIS:  cpu time   19.7208: real time   19.8602
    ORTHCH:  cpu time    0.3933: real time    0.3933
       DOS:  cpu time    0.0254: real time    0.0254
    CHARGE:  cpu time    3.0329: real time    3.0359
    MIXING:  cpu time    0.0175: real time    0.0175
    --------------------------------------------
      LOOP:  cpu time   31.5878: real time   32.0403

 eigenvalue-minimisations  :  6373
 total energy-change (2. order) :-0.2262437E-01  (-0.4233766E-04)
 number of electron     283.0000021 magnetization      19.9350351
 augmentation part      100.4484228 magnetization      13.0269323

 eigenvalues of (default mixing * dielectric matrix)
  average eigenvalue GAMMA=   0.9419
  2.4366  2.4366  1.9027  1.9027  1.2850  1.2850  1.1134  1.1134  1.0769  1.0769
  0.9231  0.9231  0.5714  0.5714  0.6989  0.6989  0.1581  0.2190  0.3877  0.3877
  0.6411  0.6411  0.5929  0.5929  0.4270  0.4270

  free energy =  -0.261076688604E+03  energy without entropy=  -0.261074239653E+03


--------------------------------------------------------------------------------------------------------




--------------------------------------- Iteration      2(  28)  ---------------------------------------


    POTLOK:  cpu time    0.4630: real time    0.4948
    SETDIJ:  cpu time    0.0411: real time    0.0411
    EDDIAG:  cpu time    7.5965: real time    7.6043
  RMM-DIIS:  cpu time   19.4407: real time   19.5357
    ORTHCH:  cpu time    0.3880: real time    0.4108
       DOS:  cpu time    0.0257: real time    0.0258
    CHARGE:  cpu time    3.0407: real time    3.0560
    MIXING:  cpu time    0.0183: real time    0.0183
    --------------------------------------------
      LOOP:  cpu time   31.0140: real time   31.1867

 eigenvalue-minimisations  :  6342
 total energy-change (2. order) :-0.2975747E-01  (-0.8088366E-04)
 number of electron     283.0000021 magnetization      19.9431015
 augmentation part      100.4519554 magnetization      13.0612735

 eigenvalues of (default mixing * dielectric matrix)
  average eigenvalue GAMMA=   0.9639
  3.1894  1.9507  1.9507  2.0074  1.2850  1.2850  1.1133  1.1133  1.1177  1.1177
  1.0481  1.0481  0.5714  0.5714  0.1581  0.7081  0.7081  0.2190  0.3877  0.3877
  0.4270  0.4270  0.6706  0.6706  0.6841  0.6344  0.5749

  free energy =  -0.261106446071E+03  energy without entropy=  -0.261103158741E+03


--------------------------------------------------------------------------------------------------------




--------------------------------------- Iteration      2(  29)  ---------------------------------------


    POTLOK:  cpu time    0.4944: real time    0.4956
    SETDIJ:  cpu time    0.0411: real time    0.0411
    EDDIAG:  cpu time    7.8101: real time    8.2520
  RMM-DIIS:  cpu time   19.4959: real time   19.5236
    ORTHCH:  cpu time    0.3873: real time    0.3884
       DOS:  cpu time    0.0254: real time    0.0255
    CHARGE:  cpu time    3.0253: real time    3.0281
    MIXING:  cpu time    0.0189: real time    0.0189
    --------------------------------------------
      LOOP:  cpu time   31.2985: real time   31.7731

 eigenvalue-minimisations  :  6365
 total energy-change (2. order) :-0.1713755E-01  (-0.5424772E-04)
 number of electron     283.0000021 magnetization      19.9483051
 augmentation part      100.4543409 magnetization      13.0849175

 eigenvalues of (default mixing * dielectric matrix)
  average eigenvalue GAMMA=   0.9855
  3.7744  2.0289  2.0289  1.2850  1.2850  1.1139  1.1139  1.3729  1.3729  1.0963
  1.0963  1.0785  1.0785  0.5714  0.5714  0.1581  0.2190  0.6992  0.6992  0.3877
  0.3877  0.6959  0.6959  0.7269  0.4270  0.4270  0.6007  0.6007

  free energy =  -0.261123583616E+03  energy without entropy=  -0.261120006534E+03


--------------------------------------------------------------------------------------------------------




--------------------------------------- Iteration      2(  30)  ---------------------------------------


    POTLOK:  cpu time    0.4939: real time    0.4949
    SETDIJ:  cpu time    0.0410: real time    0.0410
    EDDIAG:  cpu time    7.5943: real time    7.6020
  RMM-DIIS:  cpu time   20.1750: real time   20.2368
    ORTHCH:  cpu time    0.3871: real time    0.3871
       DOS:  cpu time    0.0255: real time    0.0256
    CHARGE:  cpu time    3.0979: real time    3.1126
    MIXING:  cpu time    0.0196: real time    0.0196
    --------------------------------------------
      LOOP:  cpu time   31.8343: real time   31.9197

 eigenvalue-minimisations  :  6596
 total energy-change (2. order) :-0.1050091E-01  (-0.2891601E-04)
 number of electron     283.0000021 magnetization      19.9542001
 augmentation part      100.4535218 magnetization      13.0852873

 eigenvalues of (default mixing * dielectric matrix)
  average eigenvalue GAMMA=   1.0439
  4.6908  2.1652  2.1652  1.7239  1.7239  1.2850  1.2850  1.1151  1.1151  1.1355
  1.1355  1.0828  1.0828  0.5714  0.5714  0.1581  0.2190  0.7000  0.7000  0.3877
  0.3877  0.4270  0.4270  0.7214  0.7214  0.6902  0.6902  0.5973  0.5973

  free energy =  -0.261134084528E+03  energy without entropy=  -0.261131008221E+03


--------------------------------------------------------------------------------------------------------




--------------------------------------- Iteration      2(  31)  ---------------------------------------


    POTLOK:  cpu time    0.5127: real time    0.5130
    SETDIJ:  cpu time    0.0409: real time    0.0409
    EDDIAG:  cpu time    8.0267: real time    8.3970
  RMM-DIIS:  cpu time   20.0181: real time   20.0454
    ORTHCH:  cpu time    0.3870: real time    0.3871
       DOS:  cpu time    0.0259: real time    0.0259
    CHARGE:  cpu time    3.0267: real time    3.0301
    MIXING:  cpu time    0.0201: real time    0.0201
    --------------------------------------------
      LOOP:  cpu time   32.0581: real time   32.4594

 eigenvalue-minimisations  :  6544
 total energy-change (2. order) :-0.8915456E-02  (-0.2339931E-04)
 number of electron     283.0000021 magnetization      19.9585095
 augmentation part      100.4506491 magnetization      13.0693244

 eigenvalues of (default mixing * dielectric matrix)
  average eigenvalue GAMMA=   1.0795
  5.5348  2.0313  2.0313  1.9006  1.9006  1.2850  1.2850  1.1157  1.1157  1.2835
  1.2835  1.1175  1.1175  0.5714  0.5714  0.8414  0.8414  0.1581  0.2190  0.6973
  0.6973  0.3877  0.3877  0.4270  0.4270  0.6757  0.6757  0.6140  0.6140  0.5771

  free energy =  -0.261142999984E+03  energy without entropy=  -0.261140627437E+03


--------------------------------------------------------------------------------------------------------




--------------------------------------- Iteration      2(  32)  ---------------------------------------


    POTLOK:  cpu time    0.4638: real time    0.4965
    SETDIJ:  cpu time    0.0413: real time    0.0413
    EDDIAG:  cpu time    7.5839: real time    7.5927
  RMM-DIIS:  cpu time   17.4017: real time   17.5241
    ORTHCH:  cpu time    0.3868: real time    0.3877
       DOS:  cpu time    0.0259: real time    0.0259
    CHARGE:  cpu time    3.5729: real time    3.8551
    MIXING:  cpu time    0.0210: real time    0.0210
    --------------------------------------------
      LOOP:  cpu time   29.4974: real time   29.9444

 eigenvalue-minimisations  :  5508
 total energy-change (2. order) :-0.3247858E-02  (-0.7009631E-05)
 number of electron     283.0000021 magnetization      19.9654944
 augmentation part      100.4491545 magnetization      13.0652464

 eigenvalues of (default mixing * dielectric matrix)
  average eigenvalue GAMMA=   1.1348
  6.9039  2.2114  2.0453  2.0453  1.2850  1.2850  1.6224  1.6224  1.1159  1.1159
  1.1078  1.1078  1.2236  1.0058  1.0058  0.5714  0.5714  0.1581  0.2190  0.6997
  0.6997  0.3877  0.3877  0.4270  0.4270  0.7168  0.7168  0.6554  0.6554  0.5910
  0.5910

  free energy =  -0.261146247842E+03  energy without entropy=  -0.261144059999E+03


--------------------------------------------------------------------------------------------------------




--------------------------------------- Iteration      2(  33)  ---------------------------------------


    POTLOK:  cpu time    0.4858: real time    0.5394
    SETDIJ:  cpu time    0.0411: real time    0.0411
    EDDIAG:  cpu time    7.6351: real time    7.6479
  RMM-DIIS:  cpu time   17.1250: real time   17.1436
    ORTHCH:  cpu time    0.3866: real time    0.3876
       DOS:  cpu time    0.0256: real time    0.0256
    CHARGE:  cpu time    3.0313: real time    3.0342
    MIXING:  cpu time    0.0217: real time    0.0217
    --------------------------------------------
      LOOP:  cpu time   28.7521: real time   28.8410

 eigenvalue-minimisations  :  5400
 total energy-change (2. order) :-0.3721324E-02  (-0.7339094E-05)
 number of electron     283.0000021 magnetization      19.9701239
 augmentation part      100.4494934 magnetization      13.0687769

 eigenvalues of (default mixing * dielectric matrix)
  average eigenvalue GAMMA=   1.1861
  8.1040  2.4750  2.2142  2.2142  1.2850  1.2850  1.7159  1.7159  1.1158  1.1158
  1.1182  1.1182  1.2206  1.0391  1.0391  0.5714  0.5714  0.1581  0.2190  0.6964
  0.6964  0.3877  0.3877  0.7479  0.7479  0.4270  0.4270  0.6726  0.6726  0.6120
  0.6120  0.5717

  free energy =  -0.261149969165E+03  energy without entropy=  -0.261147684907E+03


--------------------------------------------------------------------------------------------------------




--------------------------------------- Iteration      2(  34)  ---------------------------------------


    POTLOK:  cpu time    0.4633: real time    0.4932
    SETDIJ:  cpu time    0.0411: real time    0.0411
    EDDIAG:  cpu time    7.5921: real time    7.5993
  RMM-DIIS:  cpu time   14.7555: real time   14.9390
    ORTHCH:  cpu time    0.3850: real time    0.3850
       DOS:  cpu time    0.0259: real time    0.0259
    CHARGE:  cpu time    2.9936: real time    2.9983
    MIXING:  cpu time    0.0234: real time    0.0284
    --------------------------------------------
      LOOP:  cpu time   26.2799: real time   26.5102

 eigenvalue-minimisations  :  4518
 total energy-change (2. order) :-0.1752373E-02  (-0.2655462E-05)
 number of electron     283.0000021 magnetization      19.9745970
 augmentation part      100.4494335 magnetization      13.0733532

 eigenvalues of (default mixing * dielectric matrix)
  average eigenvalue GAMMA=   1.2045
  8.7727  2.4891  2.2638  2.2638  1.2850  1.2850  1.7428  1.7428  1.1158  1.1158
  1.3913  1.1259  1.1259  1.0476  1.0476  0.5714  0.5714  0.1581  0.2190  0.6967
  0.6967  0.3877  0.3877  0.4270  0.4270  0.7568  0.7568  0.7370  0.6874  0.6874
  0.6045  0.6045  0.5570

  free energy =  -0.261151721539E+03  energy without entropy=  -0.261149396503E+03


--------------------------------------------------------------------------------------------------------




--------------------------------------- Iteration      2(  35)  ---------------------------------------


    POTLOK:  cpu time    0.5358: real time    0.5362
    SETDIJ:  cpu time    0.0411: real time    0.0411
    EDDIAG:  cpu time    7.9013: real time    8.2796
  RMM-DIIS:  cpu time   13.8239: real time   13.8386
    ORTHCH:  cpu time    0.3812: real time    0.3812
       DOS:  cpu time    0.0259: real time    0.0259
    CHARGE:  cpu time    2.9956: real time    2.9993
    MIXING:  cpu time    0.0229: real time    0.0229
    --------------------------------------------
      LOOP:  cpu time   25.7278: real time   26.1250

 eigenvalue-minimisations  :  4083
 total energy-change (2. order) :-0.1507559E-02  (-0.1456492E-05)
 number of electron     283.0000021 magnetization      19.9807401
 augmentation part      100.4493596 magnetization      13.0783306

 eigenvalues of (default mixing * dielectric matrix)
  average eigenvalue GAMMA=   1.2255
  9.2173  2.4557  2.2697  2.2697  1.7900  1.7900  1.2850  1.2850  1.5344  1.5344
  1.1158  1.1158  1.1200  1.1200  0.9797  0.9797  0.5714  0.5714  0.1581  0.2190
  0.6961  0.6961  0.3877  0.3877  0.4270  0.4270  0.7238  0.7238  0.6806  0.6806
  0.6775  0.6256  0.6073  0.5451

  free energy =  -0.261153229098E+03  energy without entropy=  -0.261150965091E+03


--------------------------------------------------------------------------------------------------------




--------------------------------------- Iteration      2(  36)  ---------------------------------------


    POTLOK:  cpu time    0.4941: real time    0.4943
    SETDIJ:  cpu time    0.0410: real time    0.0410
    EDDIAG:  cpu time    7.5909: real time    7.5993
  RMM-DIIS:  cpu time   13.8952: real time   13.9153
    ORTHCH:  cpu time    0.3906: real time    0.4220
       DOS:  cpu time    0.0249: real time    0.0249
    CHARGE:  cpu time    3.0775: real time    3.1736
    MIXING:  cpu time    0.0242: real time    0.0242
    --------------------------------------------
      LOOP:  cpu time   25.5383: real time   25.6947

 eigenvalue-minimisations  :  4132
 total energy-change (2. order) :-0.1478202E-02  (-0.1492366E-05)
 number of electron     283.0000021 magnetization      19.9884029
 augmentation part      100.4495619 magnetization      13.0868663

 eigenvalues of (default mixing * dielectric matrix)
  average eigenvalue GAMMA=   1.2540
  9.7099  2.5817  2.2283  2.2283  1.2850  1.2850  1.9629  1.9629  1.7600  1.7600
  1.1158  1.1158  1.1220  1.1220  0.5714  0.5714  0.9963  0.9963  0.1581  0.2190
  0.3877  0.3877  0.6968  0.6968  0.4270  0.4270  0.8138  0.8138  0.7186  0.7186
  0.6542  0.6542  0.6003  0.6003  0.5422

  free energy =  -0.261154707300E+03  energy without entropy=  -0.261152412068E+03


--------------------------------------------------------------------------------------------------------




--------------------------------------- Iteration      2(  37)  ---------------------------------------


    POTLOK:  cpu time    0.4635: real time    0.4955
    SETDIJ:  cpu time    0.0411: real time    0.0411
    EDDIAG:  cpu time    7.6213: real time    7.6590
  RMM-DIIS:  cpu time   14.4307: real time   14.7942
    ORTHCH:  cpu time    0.3869: real time    0.3871
       DOS:  cpu time    0.0260: real time    0.0260
    CHARGE:  cpu time    3.0200: real time    3.0236
    MIXING:  cpu time    0.0247: real time    0.0247
    --------------------------------------------
      LOOP:  cpu time   26.0141: real time   26.4511

 eigenvalue-minimisations  :  4085
 total energy-change (2. order) :-0.1490462E-02  (-0.1860752E-05)
 number of electron     283.0000021 magnetization      19.9951197
 augmentation part      100.4502136 magnetization      13.0967459

 eigenvalues of (default mixing * dielectric matrix)
  average eigenvalue GAMMA=   1.2972
 10.2415  3.8623  2.2152  2.2152  2.0533  2.0533  1.2850  1.2850  1.7596  1.7596
  1.1158  1.1158  1.1263  1.1263  1.0301  1.0301  0.5714  0.5714  0.1581  0.8845
  0.8845  0.2190  0.6972  0.6972  0.3877  0.3877  0.4270  0.4270  0.7178  0.7178
  0.6556  0.6556  0.6208  0.6208  0.5915  0.5332

  free energy =  -0.261156197762E+03  energy without entropy=  -0.261153791435E+03


--------------------------------------------------------------------------------------------------------




--------------------------------------- Iteration      2(  38)  ---------------------------------------


    POTLOK:  cpu time    0.4645: real time    0.4935
    SETDIJ:  cpu time    0.0412: real time    0.0412
    EDDIAG:  cpu time    7.6112: real time    7.6197
  RMM-DIIS:  cpu time   13.7504: real time   13.7647
    ORTHCH:  cpu time    0.3875: real time    0.3876
       DOS:  cpu time    0.0262: real time    0.0262
    CHARGE:  cpu time    3.0380: real time    3.0420
    MIXING:  cpu time    0.0255: real time    0.0256
    --------------------------------------------
      LOOP:  cpu time   25.3446: real time   25.4005

 eigenvalue-minimisations  :  4025
 total energy-change (2. order) :-0.1136222E-02  (-0.1719906E-05)
 number of electron     283.0000021 magnetization      19.9998705
 augmentation part      100.4504138 magnetization      13.1029552

 eigenvalues of (default mixing * dielectric matrix)
  average eigenvalue GAMMA=   1.3481
 11.0878  5.0981  2.5237  2.2598  2.2598  1.8078  1.8078  1.2850  1.2850  1.1158
  1.1158  1.3038  1.3038  1.1241  1.1241  1.0948  0.9728  0.9728  0.5714  0.5714
  0.1581  0.2190  0.6973  0.6973  0.3877  0.3877  0.7500  0.7500  0.4270  0.4270
  0.6729  0.6729  0.6495  0.6139  0.5670  0.5670  0.5485

  free energy =  -0.261157333984E+03  energy without entropy=  -0.261154907300E+03


--------------------------------------------------------------------------------------------------------




--------------------------------------- Iteration      2(  39)  ---------------------------------------


    POTLOK:  cpu time    0.4639: real time    0.5017
    SETDIJ:  cpu time    0.0410: real time    0.0410
    EDDIAG:  cpu time    7.6874: real time    7.7458
  RMM-DIIS:  cpu time   14.0403: real time   14.4060
    ORTHCH:  cpu time    0.4133: real time    0.4866
       DOS:  cpu time    0.0260: real time    0.0260
    CHARGE:  cpu time    3.0959: real time    3.1307
    MIXING:  cpu time    0.0262: real time    0.0262
    --------------------------------------------
      LOOP:  cpu time   25.7940: real time   26.3640

 eigenvalue-minimisations  :  3921
 total energy-change (2. order) :-0.6773342E-03  (-0.1212586E-05)
 number of electron     283.0000021 magnetization      20.0049762
 augmentation part      100.4504459 magnetization      13.1079253

 eigenvalues of (default mixing * dielectric matrix)
  average eigenvalue GAMMA=   1.4235
 12.5453  6.3489  2.2320  2.2320  1.2850  1.2850  2.0869  2.0869  1.8163  1.8163
  1.1158  1.1158  1.6681  1.1235  1.1235  0.5714  0.5714  1.0183  1.0183  0.1581
  0.9130  0.9130  0.2190  0.6974  0.6974  0.3877  0.3877  0.4270  0.4270  0.7339
  0.7339  0.6937  0.6937  0.6245  0.6245  0.5914  0.5838  0.5236

  free energy =  -0.261158011318E+03  energy without entropy=  -0.261155598073E+03


--------------------------------------------------------------------------------------------------------




--------------------------------------- Iteration      2(  40)  ---------------------------------------


    POTLOK:  cpu time    0.4646: real time    0.4945
    SETDIJ:  cpu time    0.0411: real time    0.0411
    EDDIAG:  cpu time    7.5923: real time    7.5998
  RMM-DIIS:  cpu time   13.9333: real time   13.9485
    ORTHCH:  cpu time    0.3874: real time    0.3875
       DOS:  cpu time    0.0252: real time    0.0251
    CHARGE:  cpu time    3.0305: real time    3.0334
    MIXING:  cpu time    0.0271: real time    0.0271
    --------------------------------------------
      LOOP:  cpu time   25.5015: real time   25.5569

 eigenvalue-minimisations  :  4118
 total energy-change (2. order) :-0.3815550E-03  (-0.1594747E-05)
 number of electron     283.0000021 magnetization      20.0080279
 augmentation part      100.4502012 magnetization      13.1096995

 eigenvalues of (default mixing * dielectric matrix)
  average eigenvalue GAMMA=   1.4958
 14.4401  7.3464  2.4103  2.2395  2.2395  2.0289  2.0289  1.2850  1.2850  1.8023
  1.8023  1.1158  1.1158  1.1246  1.1246  1.0705  1.0705  0.5714  0.5714  0.9379
  0.9379  0.1581  0.2190  0.3877  0.3877  0.6971  0.6971  0.4270  0.4270  0.7239
  0.7239  0.6709  0.6709  0.6684  0.6684  0.5973  0.5973  0.5645  0.4999

  free energy =  -0.261158392873E+03  energy without entropy=  -0.261156010499E+03


--------------------------------------------------------------------------------------------------------




--------------------------------------- Iteration      2(  41)  ---------------------------------------


    POTLOK:  cpu time    0.4963: real time    0.4972
    SETDIJ:  cpu time    0.0414: real time    0.0413
    EDDIAG:  cpu time    7.6019: real time    7.6104
  RMM-DIIS:  cpu time   12.7196: real time   12.9047
    ORTHCH:  cpu time    0.3855: real time    0.3855
       DOS:  cpu time    0.0258: real time    0.0258
    CHARGE:  cpu time    3.0299: real time    3.0418
    MIXING:  cpu time    0.0280: real time    0.0281
    --------------------------------------------
      LOOP:  cpu time   24.3284: real time   24.5349

 eigenvalue-minimisations  :  3281
 total energy-change (2. order) :-0.1457132E-03  (-0.4086374E-06)
 number of electron     283.0000021 magnetization      20.0102849
 augmentation part      100.4500164 magnetization      13.1106144

 eigenvalues of (default mixing * dielectric matrix)
  average eigenvalue GAMMA=   1.5348
 15.7817  7.8589  2.5535  2.2502  2.2502  1.2850  1.2850  1.9890  1.9890  1.8201
  1.8201  1.1158  1.1158  1.1242  1.1242  1.1684  1.1684  0.5714  0.5714  0.9837
  0.9837  0.1581  0.2190  0.3877  0.3877  0.6970  0.6970  0.4270  0.4270  0.7694
  0.7694  0.7014  0.7014  0.6729  0.6729  0.6493  0.5956  0.5956  0.5548  0.4972

  free energy =  -0.261158538587E+03  energy without entropy=  -0.261156194691E+03


--------------------------------------------------------------------------------------------------------




--------------------------------------- Iteration      2(  42)  ---------------------------------------


    POTLOK:  cpu time    0.4790: real time    0.5091
    SETDIJ:  cpu time    0.0410: real time    0.0410
    EDDIAG:  cpu time    7.7866: real time    8.0394
  RMM-DIIS:  cpu time   12.5330: real time   12.5464
    ORTHCH:  cpu time    0.3850: real time    0.3860
       DOS:  cpu time    0.0251: real time    0.0251
    CHARGE:  cpu time    3.0085: real time    3.0176
    MIXING:  cpu time    0.0287: real time    0.0286
    --------------------------------------------
      LOOP:  cpu time   24.2869: real time   24.5931

 eigenvalue-minimisations  :  3340
 total energy-change (2. order) :-0.2379882E-03  (-0.2996948E-06)
 number of electron     283.0000021 magnetization      20.0124726
 augmentation part      100.4499791 magnetization      13.1123677

 eigenvalues of (default mixing * dielectric matrix)
  average eigenvalue GAMMA=   1.5879
 17.5113  8.2553  3.1051  2.2543  2.2543  2.0636  2.0636  1.2850  1.2850  1.8149
  1.8149  1.1158  1.1158  1.1241  1.1241  1.2565  1.2565  0.5714  0.5714  0.9855
  0.9855  0.1581  0.2190  0.8528  0.8528  0.6971  0.6971  0.3877  0.3877  0.4270
  0.4270  0.7056  0.7056  0.6624  0.6624  0.6261  0.6261  0.5893  0.5893  0.5411
  0.4753

  free energy =  -0.261158776575E+03  energy without entropy=  -0.261156437871E+03


--------------------------------------------------------------------------------------------------------




--------------------------------------- Iteration      2(  43)  ---------------------------------------


    POTLOK:  cpu time    0.4967: real time    0.4982
    SETDIJ:  cpu time    0.0410: real time    0.0410
    EDDIAG:  cpu time    7.5961: real time    7.6036
  RMM-DIIS:  cpu time   12.5335: real time   12.5469
    ORTHCH:  cpu time    0.3906: real time    0.3941
       DOS:  cpu time    0.0262: real time    0.0269
    CHARGE:  cpu time    3.0229: real time    3.0257
    MIXING:  cpu time    0.0297: real time    0.0297
    --------------------------------------------
      LOOP:  cpu time   24.1366: real time   24.1663

 eigenvalue-minimisations  :  3250
 total energy-change (2. order) :-0.2237086E-03  (-0.2567103E-06)
 number of electron     283.0000021 magnetization      20.0144821
 augmentation part      100.4501514 magnetization      13.1150674

 eigenvalues of (default mixing * dielectric matrix)
  average eigenvalue GAMMA=   1.6221
 18.8052  8.4857  3.4524  2.2868  2.2868  1.2850  1.2850  2.0041  1.8556  1.8556
  1.7992  1.7992  1.1158  1.1158  1.1239  1.1239  1.0863  1.0863  0.5714  0.5714
  0.9682  0.9682  0.1581  0.2190  0.3877  0.3877  0.6972  0.6972  0.4270  0.4270
  0.7417  0.7417  0.7307  0.7307  0.6525  0.6525  0.6951  0.6479  0.5915  0.5915
  0.5449  0.4737

  free energy =  -0.261159000283E+03  energy without entropy=  -0.261156633600E+03


--------------------------------------------------------------------------------------------------------




--------------------------------------- Iteration      2(  44)  ---------------------------------------


    POTLOK:  cpu time    0.4661: real time    0.4960
    SETDIJ:  cpu time    0.0405: real time    0.0413
    EDDIAG:  cpu time    7.6428: real time    7.9700
  RMM-DIIS:  cpu time   12.8646: real time   13.2027
    ORTHCH:  cpu time    0.3875: real time    0.3875
       DOS:  cpu time    0.0260: real time    0.0260
    CHARGE:  cpu time    3.0299: real time    3.0339
    MIXING:  cpu time    0.0307: real time    0.0307
    --------------------------------------------
      LOOP:  cpu time   24.4881: real time   25.1881

 eigenvalue-minimisations  :  3225
 total energy-change (2. order) :-0.2668044E-03  (-0.2722282E-06)
 number of electron     283.0000021 magnetization      20.0153807
 augmentation part      100.4504220 magnetization      13.1174372

 eigenvalues of (default mixing * dielectric matrix)
  average eigenvalue GAMMA=   1.6967
 20.5831  8.8711  4.5031  2.2785  2.2785  2.3457  2.0143  2.0143  1.2850  1.2850
  1.8077  1.8077  1.1158  1.1158  1.1244  1.1244  1.2090  1.2090  0.5714  0.5714
  0.9634  0.9634  0.1581  0.2190  0.8351  0.8351  0.6972  0.6972  0.3877  0.3877
  0.4270  0.4270  0.7047  0.7047  0.6589  0.6589  0.6644  0.6644  0.6028  0.5910
  0.5910  0.5388  0.4634

  free energy =  -0.261159267088E+03  energy without entropy=  -0.261156854647E+03


--------------------------------------------------------------------------------------------------------




--------------------------------------- Iteration      2(  45)  ---------------------------------------


    POTLOK:  cpu time    0.5023: real time    0.5024
    SETDIJ:  cpu time    0.0409: real time    0.0409
    EDDIAG:  cpu time    7.5981: real time    7.6061
  RMM-DIIS:  cpu time   11.9423: real time   11.9612
    ORTHCH:  cpu time    0.3928: real time    0.3938
       DOS:  cpu time    0.0248: real time    0.0248
    CHARGE:  cpu time    3.0295: real time    3.0326
    MIXING:  cpu time    0.0316: real time    0.0316
    --------------------------------------------
      LOOP:  cpu time   23.5621: real time   23.5933

 eigenvalue-minimisations  :  2771
 total energy-change (2. order) :-0.1995717E-03  (-0.1970457E-06)
 number of electron     283.0000021 magnetization      20.0158875
 augmentation part      100.4503962 magnetization      13.1178851

 eigenvalues of (default mixing * dielectric matrix)
  average eigenvalue GAMMA=   1.7548
 22.2536  9.3025  5.3488  2.5137  2.2649  2.2649  2.1159  2.1159  1.2850  1.2850
  1.8104  1.8104  1.1158  1.1158  1.2896  1.2896  1.1238  1.1238  0.5714  0.5714
  0.9669  0.9669  0.1581  0.2190  0.8761  0.8761  0.3877  0.3877  0.6971  0.6971
  0.4270  0.4270  0.7292  0.7292  0.6891  0.6891  0.6590  0.6590  0.6219  0.6219
  0.5758  0.5758  0.5393  0.4641

  free energy =  -0.261159466660E+03  energy without entropy=  -0.261157077517E+03


--------------------------------------------------------------------------------------------------------




--------------------------------------- Iteration      2(  46)  ---------------------------------------


    POTLOK:  cpu time    0.4654: real time    0.4957
    SETDIJ:  cpu time    0.0411: real time    0.0411
    EDDIAG:  cpu time    7.6006: real time    7.6079
  RMM-DIIS:  cpu time   11.3614: real time   11.4269
    ORTHCH:  cpu time    0.3833: real time    0.3834
       DOS:  cpu time    0.0260: real time    0.0260
    CHARGE:  cpu time    3.0795: real time    3.0959
    MIXING:  cpu time    0.0304: real time    0.0304
    --------------------------------------------
      LOOP:  cpu time   22.9877: real time   23.1075

 eigenvalue-minimisations  :  2280
 total energy-change (2. order) :-0.8505064E-04  (-0.1194017E-06)
 number of electron     283.0000021 magnetization      20.0164041
 augmentation part      100.4503576 magnetization      13.1179171

 eigenvalues of (default mixing * dielectric matrix)
  average eigenvalue GAMMA=   1.8531
 23.3757  9.6928  5.7944  2.2811  2.1294  2.1294  2.0728  2.0728  1.3189  1.3189
  1.4265  1.4265  1.0423  1.0423  1.0919  1.0919  0.2369  0.2369  0.7011  0.7011
  0.9286  0.8597  0.8597  0.7846  0.7846  0.5791  0.5791  0.3897  0.7651  0.7651
  0.5153  0.5153  0.4831  0.4831  0.5807  0.5807  0.6158  0.6158  0.6282  0.6282

  free energy =  -0.261159551710E+03  energy without entropy=  -0.261157184562E+03


--------------------------------------------------------------------------------------------------------




--------------------------------------- Iteration      2(  47)  ---------------------------------------


    POTLOK:  cpu time    0.4806: real time    0.5138
    SETDIJ:  cpu time    0.0411: real time    0.0411
    EDDIAG:  cpu time    8.1896: real time    8.5186
  RMM-DIIS:  cpu time   11.1100: real time   11.1221
    ORTHCH:  cpu time    0.3870: real time    0.3880
       DOS:  cpu time    0.0240: real time    0.0240
    CHARGE:  cpu time    3.0375: real time    3.0467
    MIXING:  cpu time    0.0289: real time    0.0289
    --------------------------------------------
      LOOP:  cpu time   23.2988: real time   23.6833

 eigenvalue-minimisations  :  2113
 total energy-change (2. order) :-0.3924357E-04  (-0.9275994E-07)
 number of electron     283.0000021 magnetization      20.0164561
 augmentation part      100.4503012 magnetization      13.1174044

 eigenvalues of (default mixing * dielectric matrix)
  average eigenvalue GAMMA=   1.8554
 23.6760  9.9422  6.2310  2.1271  2.1271  2.1667  2.1667  1.3401  1.3401  1.7572
  1.7572  1.0646  1.0646  1.2931  1.2931  1.0892  1.0892  0.7492  0.7492  0.2268
  0.2268  0.7778  0.7778  0.8432  0.8432  0.5464  0.5464  0.3896  0.7212  0.7212
  0.5459  0.5459  0.4861  0.4861  0.6894  0.6894  0.5728  0.5728  0.6102  0.6102
  0.6183

  free energy =  -0.261159590954E+03  energy without entropy=  -0.261157241903E+03


--------------------------------------------------------------------------------------------------------




--------------------------------------- Iteration      2(  48)  ---------------------------------------


    POTLOK:  cpu time    0.4664: real time    0.4967
    SETDIJ:  cpu time    0.0410: real time    0.0410
    EDDIAG:  cpu time    7.5933: real time    7.6008
  RMM-DIIS:  cpu time   10.5007: real time   10.5120
    ORTHCH:  cpu time    0.3870: real time    0.3872
       DOS:  cpu time    0.0255: real time    0.0255
    --------------------------------------------
      LOOP:  cpu time   19.0140: real time   19.0631

 eigenvalue-minimisations  :  1686
 total energy-change (2. order) :-0.7093215E-05  (-0.3436717E-07)
 number of electron     283.0000021 magnetization      20.0164561
 augmentation part      100.4503012 magnetization      13.1174044

  free energy =  -0.261159598047E+03  energy without entropy=  -0.261157252955E+03


--------------------------------------------------------------------------------------------------------




 average (electrostatic) potential at core
  the test charge radii are     0.9577  0.7215  0.5201
  (the norm of the test charge is              1.0000)
       1 -76.9434       2 -76.8292       3 -77.0625       4 -76.5552       5 -76.9121
       6 -77.0383       7 -77.0134       8 -77.2487       9 -75.3387      10 -75.3142
      11 -75.2736      12 -75.1409      13 -77.1001      14 -76.4590      15 -76.7397
      16 -76.9081      17 -76.8230      18 -76.9258      19 -76.4336      20 -77.4652
      21 -75.7629      22 -76.6836      23 -76.9323      24 -76.8310      25 -76.7474
      26 -75.8677      27 -77.1100      28 -76.1741      29 -76.7721      30 -77.0479
      31 -76.7394      32 -76.9602      33 -40.6875      34 -39.0797      35 -40.6040
      36 -40.0420      37 -43.5969      38 -42.9217      39 -40.1880
 
 
 
 E-fermi :  -1.6951     XC(G=0):  -3.7626     alpha+bet : -3.3905


 spin component 1

 k-point     1 :       0.0000    0.0000    0.0000
  band No.  band energies     occupation 
      1     -52.5333      1.00000
      2     -52.4460      1.00000
      3     -52.4058      1.00000
      4     -52.3442      1.00000
      5     -52.3376      1.00000
      6     -52.3122      1.00000
      7     -52.2661      1.00000
      8     -52.2205      1.00000
      9     -52.0758      1.00000
     10     -52.0736      1.00000
     11     -52.0364      1.00000
     12     -51.9543      1.00000
     13     -51.0390      1.00000
     14     -51.0071      1.00000
     15     -50.9895      1.00000
     16     -50.9623      1.00000
     17     -50.9592      1.00000
     18     -50.9526      1.00000
     19     -50.9520      1.00000
     20     -50.9407      1.00000
     21     -50.9158      1.00000
     22     -50.8405      1.00000
     23     -50.8035      1.00000
     24     -50.7541      1.00000
     25     -48.5821      1.00000
     26     -48.5088      1.00000
     27     -48.4620      1.00000
     28     -48.4564      1.00000
     29     -48.4192      1.00000
     30     -48.3880      1.00000
     31     -48.1406      1.00000
     32     -47.9490      1.00000
     33     -47.8065      1.00000
     34     -47.5217      1.00000
     35     -47.4707      1.00000
     36     -47.0757      1.00000
     37     -22.0446      1.00000
     38     -21.5920      1.00000
     39     -20.8436      1.00000
     40     -20.5761      1.00000
     41     -20.3215      1.00000
     42     -20.1813      1.00000
     43     -20.0535      1.00000
     44     -20.0189      1.00000
     45     -19.9041      1.00000
     46     -19.7602      1.00000
     47     -19.7398      1.00000
     48     -19.6396      1.00000
     49     -19.6193      1.00000
     50     -19.6088      1.00000
     51     -19.5808      1.00000
     52     -19.5051      1.00000
     53     -19.4247      1.00000
     54     -19.2488      1.00000
     55     -18.5152      1.00000
     56     -18.4904      1.00000
     57      -9.8240      1.00000
     58      -9.2069      1.00000
     59      -8.9002      1.00000
     60      -8.8200      1.00000
     61      -8.7324      1.00000
     62      -8.3256      1.00000
     63      -8.2735      1.00000
     64      -8.1407      1.00000
     65      -8.0676      1.00000
     66      -7.9860      1.00000
     67      -7.9281      1.00000
     68      -7.9133      1.00000
     69      -7.7816      1.00000
     70      -7.6547      1.00000
     71      -7.6020      1.00000
     72      -7.4545      1.00000
     73      -7.3975      1.00000
     74      -7.3924      1.00000
     75      -7.2803      1.00000
     76      -7.2033      1.00000
     77      -7.0889      1.00000
     78      -7.0631      1.00000
     79      -7.0205      1.00000
     80      -6.9148      1.00000
     81      -6.8909      1.00000
     82      -6.8019      1.00000
     83      -6.7762      1.00000
     84      -6.7616      1.00000
     85      -6.6696      1.00000
     86      -6.5749      1.00000
     87      -6.5602      1.00000
     88      -6.4650      1.00000
     89      -6.3868      1.00000
     90      -6.3274      1.00000
     91      -6.2792      1.00000
     92      -6.2179      1.00000
     93      -6.1172      1.00000
     94      -6.0989      1.00000
     95      -5.9743      1.00000
     96      -5.9416      1.00000
     97      -5.9052      1.00000
     98      -5.7683      1.00000
     99      -5.6658      1.00000
    100      -5.6070      1.00000
    101      -5.5382      1.00000
    102      -5.4377      1.00000
    103      -5.3621      1.00000
    104      -5.3006      1.00000
    105      -5.2029      1.00000
    106      -5.1850      1.00000
    107      -5.1167      1.00000
    108      -5.0840      1.00000
    109      -5.0293      1.00000
    110      -4.9955      1.00000
    111      -4.9470      1.00000
    112      -4.9191      1.00000
    113      -4.8556      1.00000
    114      -4.8061      1.00000
    115      -4.7995      1.00000
    116      -4.7108      1.00000
    117      -4.6321      1.00000
    118      -4.5759      1.00000
    119      -4.5207      1.00000
    120      -4.3635      1.00000
    121      -4.2468      1.00000
    122      -4.1922      1.00000
    123      -4.1738      1.00000
    124      -4.1122      1.00000
    125      -4.0681      1.00000
    126      -4.0306      1.00000
    127      -3.9723      1.00000
    128      -3.9455      1.00000
    129      -3.8802      1.00000
    130      -3.8408      1.00000
    131      -3.7227      1.00000
    132      -3.7006      1.00000
    133      -3.5887      1.00000
    134      -3.3735      1.00000
    135      -3.2782      1.00000
    136      -3.2023      1.00000
    137      -3.1016      1.00000
    138      -3.0491      1.00000
    139      -2.9494      1.00000
    140      -2.8131      1.00000
    141      -2.7099      1.00000
    142      -2.6763      1.00000
    143      -2.6038      1.00000
    144      -2.4085      1.00000
    145      -2.2960      1.00009
    146      -2.2693      1.00019
    147      -2.1749      1.00180
    148      -2.0993      1.00746
    149      -2.0446      1.01651
    150      -1.8339      0.95776
    151      -1.7516      0.72895
    152      -1.4675     -0.03415
    153      -0.7511     -0.00000
    154      -0.4423     -0.00000
    155      -0.2424     -0.00000
    156      -0.1682     -0.00000
    157       0.0413     -0.00000
    158       1.0930     -0.00000
    159       1.1806     -0.00000
    160       1.3311     -0.00000
    161       1.3836     -0.00000
    162       1.3979     -0.00000
    163       1.4816     -0.00000
    164       1.5551     -0.00000
    165       1.6032     -0.00000
    166       1.7965     -0.00000
    167       1.8299     -0.00000
    168       2.0360     -0.00000
    169       2.0809     -0.00000
    170       2.1563     -0.00000
    171       2.2557     -0.00000
    172       2.3339     -0.00000
    173       2.4736     -0.00000
    174       2.5038     -0.00000
    175       2.5721     -0.00000
    176       2.6373     -0.00000
    177       2.7693     -0.00000
    178       2.9153     -0.00000

 k-point     2 :       0.2500    0.0000   -0.0000
  band No.  band energies     occupation 
      1     -52.5333      1.00000
      2     -52.4460      1.00000
      3     -52.4058      1.00000
      4     -52.3442      1.00000
      5     -52.3376      1.00000
      6     -52.3122      1.00000
      7     -52.2661      1.00000
      8     -52.2205      1.00000
      9     -52.0758      1.00000
     10     -52.0736      1.00000
     11     -52.0364      1.00000
     12     -51.9543      1.00000
     13     -51.0390      1.00000
     14     -51.0071      1.00000
     15     -50.9895      1.00000
     16     -50.9623      1.00000
     17     -50.9592      1.00000
     18     -50.9527      1.00000
     19     -50.9519      1.00000
     20     -50.9407      1.00000
     21     -50.9158      1.00000
     22     -50.8405      1.00000
     23     -50.8035      1.00000
     24     -50.7541      1.00000
     25     -48.5818      1.00000
     26     -48.5088      1.00000
     27     -48.4608      1.00000
     28     -48.4568      1.00000
     29     -48.4199      1.00000
     30     -48.3880      1.00000
     31     -48.1403      1.00000
     32     -47.9495      1.00000
     33     -47.8065      1.00000
     34     -47.5205      1.00000
     35     -47.4721      1.00000
     36     -47.0758      1.00000
     37     -22.0371      1.00000
     38     -21.5918      1.00000
     39     -20.7803      1.00000
     40     -20.5429      1.00000
     41     -20.2784      1.00000
     42     -20.1832      1.00000
     43     -20.1405      1.00000
     44     -20.0534      1.00000
     45     -19.8820      1.00000
     46     -19.7681      1.00000
     47     -19.7416      1.00000
     48     -19.6839      1.00000
     49     -19.6451      1.00000
     50     -19.6067      1.00000
     51     -19.5822      1.00000
     52     -19.5062      1.00000
     53     -19.4178      1.00000
     54     -19.2536      1.00000
     55     -18.5189      1.00000
     56     -18.4921      1.00000
     57      -9.8020      1.00000
     58      -9.1746      1.00000
     59      -8.8063      1.00000
     60      -8.7546      1.00000
     61      -8.7101      1.00000
     62      -8.2932      1.00000
     63      -8.2578      1.00000
     64      -8.1366      1.00000
     65      -8.0444      1.00000
     66      -8.0123      1.00000
     67      -7.9417      1.00000
     68      -7.8822      1.00000
     69      -7.7750      1.00000
     70      -7.6795      1.00000
     71      -7.5484      1.00000
     72      -7.4893      1.00000
     73      -7.3944      1.00000
     74      -7.3456      1.00000
     75      -7.2518      1.00000
     76      -7.2010      1.00000
     77      -7.1189      1.00000
     78      -7.0569      1.00000
     79      -6.9159      1.00000
     80      -6.8903      1.00000
     81      -6.8250      1.00000
     82      -6.8098      1.00000
     83      -6.7793      1.00000
     84      -6.6958      1.00000
     85      -6.6491      1.00000
     86      -6.5325      1.00000
     87      -6.5050      1.00000
     88      -6.4431      1.00000
     89      -6.4041      1.00000
     90      -6.3437      1.00000
     91      -6.2163      1.00000
     92      -6.2006      1.00000
     93      -6.1507      1.00000
     94      -6.0590      1.00000
     95      -6.0147      1.00000
     96      -5.9360      1.00000
     97      -5.8956      1.00000
     98      -5.8016      1.00000
     99      -5.6673      1.00000
    100      -5.6323      1.00000
    101      -5.5620      1.00000
    102      -5.5225      1.00000
    103      -5.4298      1.00000
    104      -5.3708      1.00000
    105      -5.2814      1.00000
    106      -5.2072      1.00000
    107      -5.1737      1.00000
    108      -5.0790      1.00000
    109      -5.0312      1.00000
    110      -4.9975      1.00000
    111      -4.9641      1.00000
    112      -4.9142      1.00000
    113      -4.8704      1.00000
    114      -4.7723      1.00000
    115      -4.7001      1.00000
    116      -4.6501      1.00000
    117      -4.6199      1.00000
    118      -4.5371      1.00000
    119      -4.5218      1.00000
    120      -4.4275      1.00000
    121      -4.3508      1.00000
    122      -4.2681      1.00000
    123      -4.2285      1.00000
    124      -4.1815      1.00000
    125      -4.0820      1.00000
    126      -4.0253      1.00000
    127      -3.9749      1.00000
    128      -3.8952      1.00000
    129      -3.8204      1.00000
    130      -3.7384      1.00000
    131      -3.6919      1.00000
    132      -3.6510      1.00000
    133      -3.5939      1.00000
    134      -3.4058      1.00000
    135      -3.2854      1.00000
    136      -3.2305      1.00000
    137      -3.1688      1.00000
    138      -3.0909      1.00000
    139      -2.9579      1.00000
    140      -2.8793      1.00000
    141      -2.8252      1.00000
    142      -2.7401      1.00000
    143      -2.7092      1.00000
    144      -2.5888      1.00000
    145      -2.4624      1.00000
    146      -2.3586      1.00001
    147      -2.2415      1.00039
    148      -2.1869      1.00139
    149      -2.1589      1.00250
    150      -2.0657      1.01248
    151      -1.9584      1.03432
    152      -1.5495      0.03082
    153      -0.7469     -0.00000
    154      -0.4419     -0.00000
    155      -0.2135     -0.00000
    156      -0.1409     -0.00000
    157       0.3837     -0.00000
    158       1.2866     -0.00000
    159       1.3293     -0.00000
    160       1.3695     -0.00000
    161       1.4442     -0.00000
    162       1.4952     -0.00000
    163       1.5287     -0.00000
    164       1.5681     -0.00000
    165       1.7086     -0.00000
    166       1.7958     -0.00000
    167       1.8922     -0.00000
    168       1.9288     -0.00000
    169       2.0521     -0.00000
    170       2.1952     -0.00000
    171       2.2356     -0.00000
    172       2.2973     -0.00000
    173       2.3828     -0.00000
    174       2.4472     -0.00000
    175       2.4966     -0.00000
    176       2.5748     -0.00000
    177       2.6864     -0.00000
    178       2.8918     -0.00000

 k-point     3 :       0.5000    0.0000   -0.0000
  band No.  band energies     occupation 
      1     -52.5333      1.00000
      2     -52.4460      1.00000
      3     -52.4058      1.00000
      4     -52.3442      1.00000
      5     -52.3376      1.00000
      6     -52.3122      1.00000
      7     -52.2661      1.00000
      8     -52.2205      1.00000
      9     -52.0758      1.00000
     10     -52.0736      1.00000
     11     -52.0364      1.00000
     12     -51.9543      1.00000
     13     -51.0390      1.00000
     14     -51.0071      1.00000
     15     -50.9895      1.00000
     16     -50.9623      1.00000
     17     -50.9592      1.00000
     18     -50.9528      1.00000
     19     -50.9518      1.00000
     20     -50.9407      1.00000
     21     -50.9158      1.00000
     22     -50.8405      1.00000
     23     -50.8035      1.00000
     24     -50.7542      1.00000
     25     -48.5815      1.00000
     26     -48.5088      1.00000
     27     -48.4590      1.00000
     28     -48.4577      1.00000
     29     -48.4206      1.00000
     30     -48.3880      1.00000
     31     -48.1400      1.00000
     32     -47.9500      1.00000
     33     -47.8066      1.00000
     34     -47.5194      1.00000
     35     -47.4735      1.00000
     36     -47.0759      1.00000
     37     -22.0296      1.00000
     38     -21.5916      1.00000
     39     -20.7054      1.00000
     40     -20.4693      1.00000
     41     -20.3118      1.00000
     42     -20.1897      1.00000
     43     -20.1798      1.00000
     44     -20.0946      1.00000
     45     -19.8690      1.00000
     46     -19.7765      1.00000
     47     -19.7484      1.00000
     48     -19.7222      1.00000
     49     -19.6587      1.00000
     50     -19.6154      1.00000
     51     -19.5871      1.00000
     52     -19.5071      1.00000
     53     -19.4129      1.00000
     54     -19.2580      1.00000
     55     -18.5225      1.00000
     56     -18.4937      1.00000
     57      -9.7803      1.00000
     58      -9.1457      1.00000
     59      -8.7383      1.00000
     60      -8.6986      1.00000
     61      -8.5795      1.00000
     62      -8.3440      1.00000
     63      -8.1992      1.00000
     64      -8.1630      1.00000
     65      -8.0842      1.00000
     66      -7.9722      1.00000
     67      -7.9290      1.00000
     68      -7.8583      1.00000
     69      -7.7802      1.00000
     70      -7.6882      1.00000
     71      -7.5609      1.00000
     72      -7.4693      1.00000
     73      -7.4135      1.00000
     74      -7.3405      1.00000
     75      -7.2317      1.00000
     76      -7.1818      1.00000
     77      -7.1485      1.00000
     78      -6.9855      1.00000
     79      -6.9035      1.00000
     80      -6.8823      1.00000
     81      -6.7768      1.00000
     82      -6.7681      1.00000
     83      -6.6898      1.00000
     84      -6.6555      1.00000
     85      -6.6101      1.00000
     86      -6.5536      1.00000
     87      -6.4587      1.00000
     88      -6.4163      1.00000
     89      -6.3112      1.00000
     90      -6.2640      1.00000
     91      -6.2062      1.00000
     92      -6.1602      1.00000
     93      -6.1112      1.00000
     94      -6.0704      1.00000
     95      -6.0371      1.00000
     96      -5.9907      1.00000
     97      -5.9039      1.00000
     98      -5.8842      1.00000
     99      -5.7618      1.00000
    100      -5.6984      1.00000
    101      -5.5295      1.00000
    102      -5.5203      1.00000
    103      -5.4437      1.00000
    104      -5.4041      1.00000
    105      -5.2427      1.00000
    106      -5.2206      1.00000
    107      -5.1767      1.00000
    108      -5.1306      1.00000
    109      -5.0928      1.00000
    110      -5.0691      1.00000
    111      -5.0480      1.00000
    112      -4.9140      1.00000
    113      -4.8477      1.00000
    114      -4.8322      1.00000
    115      -4.7569      1.00000
    116      -4.6761      1.00000
    117      -4.6456      1.00000
    118      -4.5717      1.00000
    119      -4.4878      1.00000
    120      -4.4282      1.00000
    121      -4.4215      1.00000
    122      -4.3166      1.00000
    123      -4.2552      1.00000
    124      -4.2058      1.00000
    125      -4.0846      1.00000
    126      -3.9879      1.00000
    127      -3.8888      1.00000
    128      -3.8566      1.00000
    129      -3.8052      1.00000
    130      -3.6691      1.00000
    131      -3.6021      1.00000
    132      -3.4939      1.00000
    133      -3.4843      1.00000
    134      -3.3883      1.00000
    135      -3.3415      1.00000
    136      -3.3026      1.00000
    137      -3.1989      1.00000
    138      -3.1825      1.00000
    139      -3.0734      1.00000
    140      -3.0160      1.00000
    141      -2.9331      1.00000
    142      -2.8653      1.00000
    143      -2.7921      1.00000
    144      -2.6998      1.00000
    145      -2.5818      1.00000
    146      -2.4876      1.00000
    147      -2.4523      1.00000
    148      -2.3914      1.00000
    149      -2.1941      1.00118
    150      -2.1359      1.00392
    151      -2.0528      1.01488
    152      -1.6332      0.25169
    153      -0.7418     -0.00000
    154      -0.4402     -0.00000
    155      -0.1905     -0.00000
    156      -0.1133     -0.00000
    157       0.9443     -0.00000
    158       1.3754     -0.00000
    159       1.4101     -0.00000
    160       1.4649     -0.00000
    161       1.4958     -0.00000
    162       1.5028     -0.00000
    163       1.5710     -0.00000
    164       1.6276     -0.00000
    165       1.6462     -0.00000
    166       1.6969     -0.00000
    167       1.7203     -0.00000
    168       1.8191     -0.00000
    169       1.9793     -0.00000
    170       2.0753     -0.00000
    171       2.1299     -0.00000
    172       2.2038     -0.00000
    173       2.2281     -0.00000
    174       2.2969     -0.00000
    175       2.4160     -0.00000
    176       2.4875     -0.00000
    177       2.5848     -0.00000
    178       2.9953     -0.00000

 k-point     4 :       0.0000    0.2500   -0.0000
  band No.  band energies     occupation 
      1     -52.5331      1.00000
      2     -52.4460      1.00000
      3     -52.4058      1.00000
      4     -52.3442      1.00000
      5     -52.3373      1.00000
      6     -52.3122      1.00000
      7     -52.2661      1.00000
      8     -52.2205      1.00000
      9     -52.0758      1.00000
     10     -52.0736      1.00000
     11     -52.0364      1.00000
     12     -51.9543      1.00000
     13     -51.0390      1.00000
     14     -51.0071      1.00000
     15     -50.9895      1.00000
     16     -50.9623      1.00000
     17     -50.9592      1.00000
     18     -50.9529      1.00000
     19     -50.9517      1.00000
     20     -50.9407      1.00000
     21     -50.9158      1.00000
     22     -50.8405      1.00000
     23     -50.8035      1.00000
     24     -50.7541      1.00000
     25     -48.5818      1.00000
     26     -48.5088      1.00000
     27     -48.4622      1.00000
     28     -48.4566      1.00000
     29     -48.4193      1.00000
     30     -48.3883      1.00000
     31     -48.1404      1.00000
     32     -47.9495      1.00000
     33     -47.8065      1.00000
     34     -47.5217      1.00000
     35     -47.4707      1.00000
     36     -47.0758      1.00000
     37     -22.0111      1.00000
     38     -21.6189      1.00000
     39     -20.7519      1.00000
     40     -20.5104      1.00000
     41     -20.2675      1.00000
     42     -20.2245      1.00000
     43     -20.0657      1.00000
     44     -20.0069      1.00000
     45     -19.9069      1.00000
     46     -19.8128      1.00000
     47     -19.7537      1.00000
     48     -19.6866      1.00000
     49     -19.6325      1.00000
     50     -19.6131      1.00000
     51     -19.5858      1.00000
     52     -19.5437      1.00000
     53     -19.4453      1.00000
     54     -19.2682      1.00000
     55     -18.5373      1.00000
     56     -18.5015      1.00000
     57      -9.7866      1.00000
     58      -9.1359      1.00000
     59      -8.7971      1.00000
     60      -8.7733      1.00000
     61      -8.6962      1.00000
     62      -8.2545      1.00000
     63      -8.1835      1.00000
     64      -8.0775      1.00000
     65      -7.9844      1.00000
     66      -7.9508      1.00000
     67      -7.8873      1.00000
     68      -7.7831      1.00000
     69      -7.6860      1.00000
     70      -7.6210      1.00000
     71      -7.5828      1.00000
     72      -7.5024      1.00000
     73      -7.3597      1.00000
     74      -7.3391      1.00000
     75      -7.2619      1.00000
     76      -7.1961      1.00000
     77      -7.1364      1.00000
     78      -7.0851      1.00000
     79      -6.9976      1.00000
     80      -6.9414      1.00000
     81      -6.8827      1.00000
     82      -6.8686      1.00000
     83      -6.7828      1.00000
     84      -6.7342      1.00000
     85      -6.6667      1.00000
     86      -6.5860      1.00000
     87      -6.4883      1.00000
     88      -6.4540      1.00000
     89      -6.3758      1.00000
     90      -6.2857      1.00000
     91      -6.2217      1.00000
     92      -6.2120      1.00000
     93      -6.1621      1.00000
     94      -6.0740      1.00000
     95      -6.0049      1.00000
     96      -5.9404      1.00000
     97      -5.8755      1.00000
     98      -5.8512      1.00000
     99      -5.7001      1.00000
    100      -5.6020      1.00000
    101      -5.5213      1.00000
    102      -5.4559      1.00000
    103      -5.4047      1.00000
    104      -5.3501      1.00000
    105      -5.2866      1.00000
    106      -5.2562      1.00000
    107      -5.2152      1.00000
    108      -5.1291      1.00000
    109      -5.0798      1.00000
    110      -5.0142      1.00000
    111      -4.9690      1.00000
    112      -4.9051      1.00000
    113      -4.8659      1.00000
    114      -4.8237      1.00000
    115      -4.7885      1.00000
    116      -4.7383      1.00000
    117      -4.6545      1.00000
    118      -4.5639      1.00000
    119      -4.4724      1.00000
    120      -4.4256      1.00000
    121      -4.3504      1.00000
    122      -4.2947      1.00000
    123      -4.2439      1.00000
    124      -4.1471      1.00000
    125      -4.0712      1.00000
    126      -4.0171      1.00000
    127      -3.9342      1.00000
    128      -3.9147      1.00000
    129      -3.8157      1.00000
    130      -3.7477      1.00000
    131      -3.7053      1.00000
    132      -3.6556      1.00000
    133      -3.5643      1.00000
    134      -3.4045      1.00000
    135      -3.3076      1.00000
    136      -3.1964      1.00000
    137      -3.1407      1.00000
    138      -3.0708      1.00000
    139      -2.9818      1.00000
    140      -2.9470      1.00000
    141      -2.8448      1.00000
    142      -2.7427      1.00000
    143      -2.6425      1.00000
    144      -2.6008      1.00000
    145      -2.5051      1.00000
    146      -2.3431      1.00002
    147      -2.2204      1.00065
    148      -2.1621      1.00234
    149      -2.0088      1.02452
    150      -1.9175      1.03319
    151      -1.8048      0.89564
    152      -1.7107      0.56578
    153      -0.9671     -0.00000
    154      -0.7439     -0.00000
    155      -0.4397     -0.00000
    156      -0.3837     -0.00000
    157       0.4913     -0.00000
    158       1.0960     -0.00000
    159       1.2885     -0.00000
    160       1.3925     -0.00000
    161       1.4440     -0.00000
    162       1.5056     -0.00000
    163       1.5154     -0.00000
    164       1.6268     -0.00000
    165       1.7396     -0.00000
    166       1.8205     -0.00000
    167       1.8572     -0.00000
    168       1.9965     -0.00000
    169       2.0998     -0.00000
    170       2.1136     -0.00000
    171       2.2298     -0.00000
    172       2.2971     -0.00000
    173       2.3111     -0.00000
    174       2.3910     -0.00000
    175       2.5283     -0.00000
    176       2.5449     -0.00000
    177       2.7894     -0.00000
    178       2.9701     -0.00000

 k-point     5 :       0.2500    0.2500   -0.0000
  band No.  band energies     occupation 
      1     -52.5330      1.00000
      2     -52.4460      1.00000
      3     -52.4058      1.00000
      4     -52.3442      1.00000
      5     -52.3374      1.00000
      6     -52.3122      1.00000
      7     -52.2661      1.00000
      8     -52.2205      1.00000
      9     -52.0758      1.00000
     10     -52.0736      1.00000
     11     -52.0364      1.00000
     12     -51.9543      1.00000
     13     -51.0390      1.00000
     14     -51.0071      1.00000
     15     -50.9895      1.00000
     16     -50.9623      1.00000
     17     -50.9592      1.00000
     18     -50.9526      1.00000
     19     -50.9520      1.00000
     20     -50.9407      1.00000
     21     -50.9158      1.00000
     22     -50.8405      1.00000
     23     -50.8035      1.00000
     24     -50.7541      1.00000
     25     -48.5821      1.00000
     26     -48.5087      1.00000
     27     -48.4610      1.00000
     28     -48.4569      1.00000
     29     -48.4200      1.00000
     30     -48.3883      1.00000
     31     -48.1407      1.00000
     32     -47.9490      1.00000
     33     -47.8065      1.00000
     34     -47.5205      1.00000
     35     -47.4721      1.00000
     36     -47.0757      1.00000
     37     -22.0101      1.00000
     38     -21.6209      1.00000
     39     -20.7528      1.00000
     40     -20.5094      1.00000
     41     -20.2586      1.00000
     42     -20.2252      1.00000
     43     -20.0693      1.00000
     44     -20.0154      1.00000
     45     -19.9107      1.00000
     46     -19.8184      1.00000
     47     -19.7477      1.00000
     48     -19.7057      1.00000
     49     -19.6309      1.00000
     50     -19.6092      1.00000
     51     -19.5739      1.00000
     52     -19.5267      1.00000
     53     -19.4441      1.00000
     54     -19.2777      1.00000
     55     -18.5376      1.00000
     56     -18.4989      1.00000
     57      -9.7780      1.00000
     58      -9.1365      1.00000
     59      -8.8150      1.00000
     60      -8.7924      1.00000
     61      -8.7229      1.00000
     62      -8.2395      1.00000
     63      -8.2091      1.00000
     64      -8.0633      1.00000
     65      -7.9639      1.00000
     66      -7.9344      1.00000
     67      -7.8292      1.00000
     68      -7.7860      1.00000
     69      -7.7184      1.00000
     70      -7.6244      1.00000
     71      -7.5507      1.00000
     72      -7.4803      1.00000
     73      -7.4117      1.00000
     74      -7.3361      1.00000
     75      -7.2724      1.00000
     76      -7.2253      1.00000
     77      -7.1353      1.00000
     78      -7.0792      1.00000
     79      -7.0223      1.00000
     80      -6.9170      1.00000
     81      -6.8823      1.00000
     82      -6.8405      1.00000
     83      -6.7915      1.00000
     84      -6.7411      1.00000
     85      -6.6742      1.00000
     86      -6.6253      1.00000
     87      -6.5174      1.00000
     88      -6.4373      1.00000
     89      -6.3975      1.00000
     90      -6.3045      1.00000
     91      -6.2206      1.00000
     92      -6.1404      1.00000
     93      -6.0916      1.00000
     94      -6.0490      1.00000
     95      -6.0171      1.00000
     96      -5.9062      1.00000
     97      -5.8723      1.00000
     98      -5.8086      1.00000
     99      -5.6939      1.00000
    100      -5.6354      1.00000
    101      -5.5434      1.00000
    102      -5.5223      1.00000
    103      -5.4154      1.00000
    104      -5.3521      1.00000
    105      -5.2932      1.00000
    106      -5.2657      1.00000
    107      -5.1907      1.00000
    108      -5.1228      1.00000
    109      -5.1114      1.00000
    110      -5.0463      1.00000
    111      -4.9867      1.00000
    112      -4.9070      1.00000
    113      -4.8854      1.00000
    114      -4.8133      1.00000
    115      -4.7399      1.00000
    116      -4.6807      1.00000
    117      -4.6134      1.00000
    118      -4.5514      1.00000
    119      -4.4783      1.00000
    120      -4.4071      1.00000
    121      -4.3496      1.00000
    122      -4.2912      1.00000
    123      -4.2487      1.00000
    124      -4.1750      1.00000
    125      -4.1095      1.00000
    126      -4.0591      1.00000
    127      -3.9508      1.00000
    128      -3.9076      1.00000
    129      -3.8185      1.00000
    130      -3.7321      1.00000
    131      -3.6403      1.00000
    132      -3.5686      1.00000
    133      -3.5379      1.00000
    134      -3.4098      1.00000
    135      -3.3069      1.00000
    136      -3.2619      1.00000
    137      -3.1190      1.00000
    138      -3.0651      1.00000
    139      -3.0197      1.00000
    140      -2.9559      1.00000
    141      -2.9354      1.00000
    142      -2.7564      1.00000
    143      -2.6205      1.00000
    144      -2.5919      1.00000
    145      -2.5088      1.00000
    146      -2.3701      1.00001
    147      -2.2669      1.00020
    148      -2.1028      1.00705
    149      -2.0869      1.00910
    150      -1.9183      1.03335
    151      -1.8560      0.99124
    152      -1.6114      0.17801
    153      -0.9497     -0.00000
    154      -0.7268     -0.00000
    155      -0.4256     -0.00000
    156      -0.3969     -0.00000
    157       0.4882     -0.00000
    158       1.1966     -0.00000
    159       1.3065     -0.00000
    160       1.3946     -0.00000
    161       1.4275     -0.00000
    162       1.4957     -0.00000
    163       1.5308     -0.00000
    164       1.6132     -0.00000
    165       1.7200     -0.00000
    166       1.7568     -0.00000
    167       1.8423     -0.00000
    168       1.9196     -0.00000
    169       2.0860     -0.00000
    170       2.1395     -0.00000
    171       2.1804     -0.00000
    172       2.2518     -0.00000
    173       2.3076     -0.00000
    174       2.4787     -0.00000
    175       2.4990     -0.00000
    176       2.5575     -0.00000
    177       2.8537     -0.00000
    178       3.0063     -0.00000

 k-point     6 :       0.5000    0.2500    0.0000
  band No.  band energies     occupation 
      1     -52.5330      1.00000
      2     -52.4460      1.00000
      3     -52.4058      1.00000
      4     -52.3442      1.00000
      5     -52.3373      1.00000
      6     -52.3122      1.00000
      7     -52.2661      1.00000
      8     -52.2205      1.00000
      9     -52.0758      1.00000
     10     -52.0736      1.00000
     11     -52.0364      1.00000
     12     -51.9543      1.00000
     13     -51.0390      1.00000
     14     -51.0071      1.00000
     15     -50.9895      1.00000
     16     -50.9623      1.00000
     17     -50.9592      1.00000
     18     -50.9527      1.00000
     19     -50.9519      1.00000
     20     -50.9407      1.00000
     21     -50.9158      1.00000
     22     -50.8405      1.00000
     23     -50.8035      1.00000
     24     -50.7541      1.00000
     25     -48.5818      1.00000
     26     -48.5087      1.00000
     27     -48.4594      1.00000
     28     -48.4577      1.00000
     29     -48.4208      1.00000
     30     -48.3883      1.00000
     31     -48.1404      1.00000
     32     -47.9495      1.00000
     33     -47.8066      1.00000
     34     -47.5193      1.00000
     35     -47.4735      1.00000
     36     -47.0758      1.00000
     37     -22.0021      1.00000
     38     -21.6212      1.00000
     39     -20.6799      1.00000
     40     -20.4344      1.00000
     41     -20.2564      1.00000
     42     -20.2050      1.00000
     43     -20.1683      1.00000
     44     -20.0656      1.00000
     45     -19.9091      1.00000
     46     -19.8237      1.00000
     47     -19.7507      1.00000
     48     -19.7201      1.00000
     49     -19.6465      1.00000
     50     -19.6192      1.00000
     51     -19.6015      1.00000
     52     -19.5335      1.00000
     53     -19.4257      1.00000
     54     -19.2766      1.00000
     55     -18.5411      1.00000
     56     -18.5000      1.00000
     57      -9.7580      1.00000
     58      -9.1018      1.00000
     59      -8.7902      1.00000
     60      -8.7480      1.00000
     61      -8.5842      1.00000
     62      -8.2477      1.00000
     63      -8.1536      1.00000
     64      -8.0719      1.00000
     65      -8.0060      1.00000
     66      -7.8703      1.00000
     67      -7.8025      1.00000
     68      -7.7528      1.00000
     69      -7.7057      1.00000
     70      -7.6513      1.00000
     71      -7.5682      1.00000
     72      -7.4539      1.00000
     73      -7.3842      1.00000
     74      -7.3485      1.00000
     75      -7.3178      1.00000
     76      -7.2057      1.00000
     77      -7.1483      1.00000
     78      -7.0741      1.00000
     79      -6.9787      1.00000
     80      -6.9279      1.00000
     81      -6.8862      1.00000
     82      -6.7944      1.00000
     83      -6.7537      1.00000
     84      -6.6716      1.00000
     85      -6.5634      1.00000
     86      -6.5463      1.00000
     87      -6.4847      1.00000
     88      -6.4308      1.00000
     89      -6.4019      1.00000
     90      -6.2694      1.00000
     91      -6.1884      1.00000
     92      -6.1147      1.00000
     93      -6.0874      1.00000
     94      -6.0486      1.00000
     95      -6.0105      1.00000
     96      -5.9776      1.00000
     97      -5.8804      1.00000
     98      -5.8125      1.00000
     99      -5.7581      1.00000
    100      -5.6689      1.00000
    101      -5.5790      1.00000
    102      -5.5006      1.00000
    103      -5.4522      1.00000
    104      -5.3690      1.00000
    105      -5.3195      1.00000
    106      -5.2880      1.00000
    107      -5.2220      1.00000
    108      -5.1765      1.00000
    109      -5.1131      1.00000
    110      -5.0542      1.00000
    111      -5.0027      1.00000
    112      -4.9237      1.00000
    113      -4.9083      1.00000
    114      -4.8590      1.00000
    115      -4.7758      1.00000
    116      -4.6439      1.00000
    117      -4.6235      1.00000
    118      -4.5584      1.00000
    119      -4.5084      1.00000
    120      -4.4510      1.00000
    121      -4.3931      1.00000
    122      -4.3417      1.00000
    123      -4.2657      1.00000
    124      -4.1658      1.00000
    125      -4.1232      1.00000
    126      -4.0934      1.00000
    127      -3.9173      1.00000
    128      -3.8908      1.00000
    129      -3.7773      1.00000
    130      -3.6830      1.00000
    131      -3.5670      1.00000
    132      -3.5077      1.00000
    133      -3.4869      1.00000
    134      -3.4593      1.00000
    135      -3.3416      1.00000
    136      -3.2702      1.00000
    137      -3.2325      1.00000
    138      -3.0951      1.00000
    139      -3.0479      1.00000
    140      -2.9776      1.00000
    141      -2.9327      1.00000
    142      -2.8445      1.00000
    143      -2.7981      1.00000
    144      -2.7019      1.00000
    145      -2.6547      1.00000
    146      -2.5289      1.00000
    147      -2.4054      1.00000
    148      -2.2503      1.00031
    149      -2.1651      1.00220
    150      -2.1112      1.00611
    151      -1.9308      1.03511
    152      -1.6988      0.51574
    153      -0.9350     -0.00000
    154      -0.6918     -0.00000
    155      -0.4050     -0.00000
    156      -0.3613     -0.00000
    157       0.9762     -0.00000
    158       1.3548     -0.00000
    159       1.4382     -0.00000
    160       1.4467     -0.00000
    161       1.5075     -0.00000
    162       1.5522     -0.00000
    163       1.6093     -0.00000
    164       1.6393     -0.00000
    165       1.6738     -0.00000
    166       1.6946     -0.00000
    167       1.7468     -0.00000
    168       1.9545     -0.00000
    169       2.0130     -0.00000
    170       2.0708     -0.00000
    171       2.1252     -0.00000
    172       2.1536     -0.00000
    173       2.2373     -0.00000
    174       2.2820     -0.00000
    175       2.3504     -0.00000
    176       2.4085     -0.00000
    177       2.6495     -0.00000
    178       2.8742     -0.00000

 k-point     7 :      -0.2500    0.2500   -0.0000
  band No.  band energies     occupation 
      1     -52.5330      1.00000
      2     -52.4460      1.00000
      3     -52.4058      1.00000
      4     -52.3442      1.00000
      5     -52.3373      1.00000
      6     -52.3122      1.00000
      7     -52.2661      1.00000
      8     -52.2205      1.00000
      9     -52.0758      1.00000
     10     -52.0736      1.00000
     11     -52.0364      1.00000
     12     -51.9543      1.00000
     13     -51.0390      1.00000
     14     -51.0071      1.00000
     15     -50.9895      1.00000
     16     -50.9623      1.00000
     17     -50.9592      1.00000
     18     -50.9529      1.00000
     19     -50.9517      1.00000
     20     -50.9407      1.00000
     21     -50.9158      1.00000
     22     -50.8405      1.00000
     23     -50.8035      1.00000
     24     -50.7541      1.00000
     25     -48.5815      1.00000
     26     -48.5088      1.00000
     27     -48.4610      1.00000
     28     -48.4569      1.00000
     29     -48.4200      1.00000
     30     -48.3883      1.00000
     31     -48.1401      1.00000
     32     -47.9500      1.00000
     33     -47.8065      1.00000
     34     -47.5206      1.00000
     35     -47.4721      1.00000
     36     -47.0759      1.00000
     37     -22.0031      1.00000
     38     -21.6191      1.00000
     39     -20.6787      1.00000
     40     -20.4366      1.00000
     41     -20.2512      1.00000
     42     -20.2210      1.00000
     43     -20.1769      1.00000
     44     -20.0344      1.00000
     45     -19.9099      1.00000
     46     -19.8236      1.00000
     47     -19.7331      1.00000
     48     -19.7280      1.00000
     49     -19.6459      1.00000
     50     -19.6267      1.00000
     51     -19.6064      1.00000
     52     -19.5494      1.00000
     53     -19.4267      1.00000
     54     -19.2675      1.00000
     55     -18.5408      1.00000
     56     -18.5027      1.00000
     57      -9.7668      1.00000
     58      -9.1013      1.00000
     59      -8.7895      1.00000
     60      -8.7015      1.00000
     61      -8.5428      1.00000
     62      -8.2956      1.00000
     63      -8.1284      1.00000
     64      -8.0866      1.00000
     65      -8.0075      1.00000
     66      -7.9217      1.00000
     67      -7.8521      1.00000
     68      -7.7760      1.00000
     69      -7.6767      1.00000
     70      -7.6009      1.00000
     71      -7.5614      1.00000
     72      -7.4883      1.00000
     73      -7.3891      1.00000
     74      -7.3406      1.00000
     75      -7.2539      1.00000
     76      -7.2047      1.00000
     77      -7.1324      1.00000
     78      -7.0737      1.00000
     79      -6.9981      1.00000
     80      -6.9280      1.00000
     81      -6.8852      1.00000
     82      -6.7847      1.00000
     83      -6.7228      1.00000
     84      -6.6729      1.00000
     85      -6.5935      1.00000
     86      -6.5390      1.00000
     87      -6.4887      1.00000
     88      -6.4161      1.00000
     89      -6.3320      1.00000
     90      -6.3063      1.00000
     91      -6.2608      1.00000
     92      -6.1803      1.00000
     93      -6.1089      1.00000
     94      -6.0826      1.00000
     95      -6.0188      1.00000
     96      -5.9589      1.00000
     97      -5.9021      1.00000
     98      -5.8078      1.00000
     99      -5.7495      1.00000
    100      -5.6853      1.00000
    101      -5.5537      1.00000
    102      -5.5001      1.00000
    103      -5.4305      1.00000
    104      -5.3415      1.00000
    105      -5.3046      1.00000
    106      -5.2449      1.00000
    107      -5.2129      1.00000
    108      -5.1952      1.00000
    109      -5.1113      1.00000
    110      -5.0189      1.00000
    111      -5.0126      1.00000
    112      -4.9590      1.00000
    113      -4.8850      1.00000
    114      -4.8415      1.00000
    115      -4.7588      1.00000
    116      -4.6968      1.00000
    117      -4.6525      1.00000
    118      -4.6061      1.00000
    119      -4.5405      1.00000
    120      -4.4492      1.00000
    121      -4.3754      1.00000
    122      -4.3082      1.00000
    123      -4.2353      1.00000
    124      -4.1649      1.00000
    125      -4.1267      1.00000
    126      -4.0502      1.00000
    127      -3.9689      1.00000
    128      -3.8202      1.00000
    129      -3.8003      1.00000
    130      -3.7440      1.00000
    131      -3.6597      1.00000
    132      -3.4871      1.00000
    133      -3.4650      1.00000
    134      -3.4379      1.00000
    135      -3.3126      1.00000
    136      -3.2389      1.00000
    137      -3.2251      1.00000
    138      -3.1768      1.00000
    139      -3.0884      1.00000
    140      -2.9913      1.00000
    141      -2.9326      1.00000
    142      -2.8400      1.00000
    143      -2.7748      1.00000
    144      -2.6754      1.00000
    145      -2.6503      1.00000
    146      -2.4031      1.00000
    147      -2.3435      1.00002
    148      -2.2963      1.00009
    149      -2.1283      1.00451
    150      -2.0615      1.01323
    151      -1.9535      1.03482
    152      -1.7787      0.82173
    153      -0.9565     -0.00000
    154      -0.7025     -0.00000
    155      -0.4097     -0.00000
    156      -0.3598     -0.00000
    157       0.9816     -0.00000
    158       1.3089     -0.00000
    159       1.3727     -0.00000
    160       1.4498     -0.00000
    161       1.4895     -0.00000
    162       1.5164     -0.00000
    163       1.5598     -0.00000
    164       1.5914     -0.00000
    165       1.7385     -0.00000
    166       1.8249     -0.00000
    167       1.9161     -0.00000
    168       1.9351     -0.00000
    169       1.9744     -0.00000
    170       2.0760     -0.00000
    171       2.1842     -0.00000
    172       2.2104     -0.00000
    173       2.2230     -0.00000
    174       2.2835     -0.00000
    175       2.3114     -0.00000
    176       2.4051     -0.00000
    177       2.5607     -0.00000
    178       2.8631     -0.00000

 k-point     8 :       0.0000    0.5000   -0.0000
  band No.  band energies     occupation 
      1     -52.5328      1.00000
      2     -52.4460      1.00000
      3     -52.4057      1.00000
      4     -52.3441      1.00000
      5     -52.3371      1.00000
      6     -52.3121      1.00000
      7     -52.2661      1.00000
      8     -52.2205      1.00000
      9     -52.0758      1.00000
     10     -52.0736      1.00000
     11     -52.0364      1.00000
     12     -51.9543      1.00000
     13     -51.0390      1.00000
     14     -51.0071      1.00000
     15     -50.9895      1.00000
     16     -50.9623      1.00000
     17     -50.9592      1.00000
     18     -50.9530      1.00000
     19     -50.9516      1.00000
     20     -50.9407      1.00000
     21     -50.9158      1.00000
     22     -50.8405      1.00000
     23     -50.8035      1.00000
     24     -50.7541      1.00000
     25     -48.5815      1.00000
     26     -48.5088      1.00000
     27     -48.4625      1.00000
     28     -48.4567      1.00000
     29     -48.4194      1.00000
     30     -48.3885      1.00000
     31     -48.1403      1.00000
     32     -47.9500      1.00000
     33     -47.8065      1.00000
     34     -47.5217      1.00000
     35     -47.4707      1.00000
     36     -47.0758      1.00000
     37     -21.9719      1.00000
     38     -21.6515      1.00000
     39     -20.6374      1.00000
     40     -20.3853      1.00000
     41     -20.2723      1.00000
     42     -20.2162      1.00000
     43     -20.1628      1.00000
     44     -19.9824      1.00000
     45     -19.9304      1.00000
     46     -19.8221      1.00000
     47     -19.7851      1.00000
     48     -19.7643      1.00000
     49     -19.6307      1.00000
     50     -19.6086      1.00000
     51     -19.5979      1.00000
     52     -19.5798      1.00000
     53     -19.4633      1.00000
     54     -19.2864      1.00000
     55     -18.5596      1.00000
     56     -18.5120      1.00000
     57      -9.7504      1.00000
     58      -9.0315      1.00000
     59      -8.8742      1.00000
     60      -8.6978      1.00000
     61      -8.4450      1.00000
     62      -8.3180      1.00000
     63      -8.0665      1.00000
     64      -8.0130      1.00000
     65      -7.9556      1.00000
     66      -7.8660      1.00000
     67      -7.7968      1.00000
     68      -7.6526      1.00000
     69      -7.6362      1.00000
     70      -7.5726      1.00000
     71      -7.5530      1.00000
     72      -7.4280      1.00000
     73      -7.3714      1.00000
     74      -7.3017      1.00000
     75      -7.2199      1.00000
     76      -7.1882      1.00000
     77      -7.1137      1.00000
     78      -7.0886      1.00000
     79      -7.0377      1.00000
     80      -7.0098      1.00000
     81      -6.9337      1.00000
     82      -6.8841      1.00000
     83      -6.7610      1.00000
     84      -6.6450      1.00000
     85      -6.6254      1.00000
     86      -6.5734      1.00000
     87      -6.4657      1.00000
     88      -6.4410      1.00000
     89      -6.4098      1.00000
     90      -6.3517      1.00000
     91      -6.2515      1.00000
     92      -6.2055      1.00000
     93      -6.1470      1.00000
     94      -6.0580      1.00000
     95      -5.9726      1.00000
     96      -5.9370      1.00000
     97      -5.8478      1.00000
     98      -5.8116      1.00000
     99      -5.6864      1.00000
    100      -5.6232      1.00000
    101      -5.6010      1.00000
    102      -5.4980      1.00000
    103      -5.4385      1.00000
    104      -5.3889      1.00000
    105      -5.3605      1.00000
    106      -5.3433      1.00000
    107      -5.3014      1.00000
    108      -5.1800      1.00000
    109      -5.1407      1.00000
    110      -5.0592      1.00000
    111      -5.0204      1.00000
    112      -4.9702      1.00000
    113      -4.8782      1.00000
    114      -4.8529      1.00000
    115      -4.8065      1.00000
    116      -4.7768      1.00000
    117      -4.7479      1.00000
    118      -4.6314      1.00000
    119      -4.5998      1.00000
    120      -4.4792      1.00000
    121      -4.4400      1.00000
    122      -4.2786      1.00000
    123      -4.1255      1.00000
    124      -4.0880      1.00000
    125      -4.0484      1.00000
    126      -4.0278      1.00000
    127      -3.9248      1.00000
    128      -3.8531      1.00000
    129      -3.7836      1.00000
    130      -3.6839      1.00000
    131      -3.6181      1.00000
    132      -3.5163      1.00000
    133      -3.4463      1.00000
    134      -3.4374      1.00000
    135      -3.3931      1.00000
    136      -3.2830      1.00000
    137      -3.2159      1.00000
    138      -3.1246      1.00000
    139      -3.0768      1.00000
    140      -3.0017      1.00000
    141      -2.9257      1.00000
    142      -2.7725      1.00000
    143      -2.7240      1.00000
    144      -2.6684      1.00000
    145      -2.6249      1.00000
    146      -2.6086      1.00000
    147      -2.3129      1.00006
    148      -2.1548      1.00271
    149      -2.0486      1.01571
    150      -1.9775      1.03133
    151      -1.9419      1.03544
    152      -1.7984      0.87903
    153      -1.1667     -0.00060
    154      -0.9330     -0.00000
    155      -0.6310     -0.00000
    156      -0.5595     -0.00000
    157       1.0689     -0.00000
    158       1.2319     -0.00000
    159       1.3112     -0.00000
    160       1.4358     -0.00000
    161       1.4759     -0.00000
    162       1.5101     -0.00000
    163       1.5521     -0.00000
    164       1.5755     -0.00000
    165       1.6555     -0.00000
    166       1.7824     -0.00000
    167       1.8570     -0.00000
    168       1.9387     -0.00000
    169       2.0224     -0.00000
    170       2.0969     -0.00000
    171       2.1188     -0.00000
    172       2.2283     -0.00000
    173       2.2407     -0.00000
    174       2.2765     -0.00000
    175       2.2932     -0.00000
    176       2.4909     -0.00000
    177       2.5556     -0.00000
    178       2.8725     -0.00000

 k-point     9 :       0.2500    0.5000   -0.0000
  band No.  band energies     occupation 
      1     -52.5328      1.00000
      2     -52.4460      1.00000
      3     -52.4057      1.00000
      4     -52.3441      1.00000
      5     -52.3371      1.00000
      6     -52.3121      1.00000
      7     -52.2661      1.00000
      8     -52.2205      1.00000
      9     -52.0758      1.00000
     10     -52.0736      1.00000
     11     -52.0364      1.00000
     12     -51.9543      1.00000
     13     -51.0390      1.00000
     14     -51.0071      1.00000
     15     -50.9895      1.00000
     16     -50.9623      1.00000
     17     -50.9592      1.00000
     18     -50.9529      1.00000
     19     -50.9517      1.00000
     20     -50.9407      1.00000
     21     -50.9158      1.00000
     22     -50.8405      1.00000
     23     -50.8035      1.00000
     24     -50.7541      1.00000
     25     -48.5818      1.00000
     26     -48.5088      1.00000
     27     -48.4613      1.00000
     28     -48.4570      1.00000
     29     -48.4201      1.00000
     30     -48.3885      1.00000
     31     -48.1405      1.00000
     32     -47.9495      1.00000
     33     -47.8065      1.00000
     34     -47.5205      1.00000
     35     -47.4721      1.00000
     36     -47.0758      1.00000
     37     -21.9707      1.00000
     38     -21.6538      1.00000
     39     -20.6404      1.00000
     40     -20.3864      1.00000
     41     -20.2797      1.00000
     42     -20.1915      1.00000
     43     -20.1357      1.00000
     44     -20.0089      1.00000
     45     -19.9791      1.00000
     46     -19.8042      1.00000
     47     -19.7860      1.00000
     48     -19.7585      1.00000
     49     -19.6410      1.00000
     50     -19.6110      1.00000
     51     -19.5945      1.00000
     52     -19.5567      1.00000
     53     -19.4565      1.00000
     54     -19.2951      1.00000
     55     -18.5599      1.00000
     56     -18.5094      1.00000
     57      -9.7423      1.00000
     58      -9.0333      1.00000
     59      -8.8750      1.00000
     60      -8.7433      1.00000
     61      -8.5097      1.00000
     62      -8.2394      1.00000
     63      -8.0745      1.00000
     64      -8.0037      1.00000
     65      -7.9212      1.00000
     66      -7.8719      1.00000
     67      -7.7593      1.00000
     68      -7.6981      1.00000
     69      -7.6273      1.00000
     70      -7.5980      1.00000
     71      -7.5600      1.00000
     72      -7.4255      1.00000
     73      -7.3444      1.00000
     74      -7.2891      1.00000
     75      -7.2413      1.00000
     76      -7.1685      1.00000
     77      -7.1321      1.00000
     78      -7.0768      1.00000
     79      -7.0143      1.00000
     80      -6.9517      1.00000
     81      -6.9365      1.00000
     82      -6.8675      1.00000
     83      -6.8095      1.00000
     84      -6.7073      1.00000
     85      -6.6442      1.00000
     86      -6.5895      1.00000
     87      -6.5172      1.00000
     88      -6.4690      1.00000
     89      -6.4079      1.00000
     90      -6.3381      1.00000
     91      -6.2425      1.00000
     92      -6.1525      1.00000
     93      -6.1104      1.00000
     94      -6.0461      1.00000
     95      -5.9490      1.00000
     96      -5.9344      1.00000
     97      -5.8734      1.00000
     98      -5.7723      1.00000
     99      -5.7264      1.00000
    100      -5.6889      1.00000
    101      -5.6289      1.00000
    102      -5.5330      1.00000
    103      -5.4232      1.00000
    104      -5.3806      1.00000
    105      -5.3155      1.00000
    106      -5.3032      1.00000
    107      -5.2401      1.00000
    108      -5.1869      1.00000
    109      -5.1338      1.00000
    110      -5.0946      1.00000
    111      -5.0183      1.00000
    112      -4.9712      1.00000
    113      -4.9108      1.00000
    114      -4.8364      1.00000
    115      -4.7778      1.00000
    116      -4.7377      1.00000
    117      -4.6788      1.00000
    118      -4.5987      1.00000
    119      -4.5518      1.00000
    120      -4.5359      1.00000
    121      -4.4128      1.00000
    122      -4.3146      1.00000
    123      -4.1995      1.00000
    124      -4.1169      1.00000
    125      -4.0621      1.00000
    126      -3.9967      1.00000
    127      -3.9257      1.00000
    128      -3.8593      1.00000
    129      -3.7230      1.00000
    130      -3.6969      1.00000
    131      -3.6275      1.00000
    132      -3.5226      1.00000
    133      -3.4890      1.00000
    134      -3.4218      1.00000
    135      -3.3515      1.00000
    136      -3.3071      1.00000
    137      -3.1964      1.00000
    138      -3.1401      1.00000
    139      -3.0537      1.00000
    140      -3.0388      1.00000
    141      -3.0029      1.00000
    142      -2.8770      1.00000
    143      -2.7862      1.00000
    144      -2.7191      1.00000
    145      -2.6518      1.00000
    146      -2.3888      1.00001
    147      -2.2777      1.00015
    148      -2.1892      1.00132
    149      -2.0528      1.01487
    150      -1.9550      1.03468
    151      -1.9126      1.03199
    152      -1.8158      0.92158
    153      -1.1622     -0.00054
    154      -0.9494     -0.00000
    155      -0.6548     -0.00000
    156      -0.5602     -0.00000
    157       1.1203     -0.00000
    158       1.3070     -0.00000
    159       1.3224     -0.00000
    160       1.4343     -0.00000
    161       1.4956     -0.00000
    162       1.5339     -0.00000
    163       1.5455     -0.00000
    164       1.6059     -0.00000
    165       1.7150     -0.00000
    166       1.7777     -0.00000
    167       1.8364     -0.00000
    168       1.8939     -0.00000
    169       1.9687     -0.00000
    170       2.0359     -0.00000
    171       2.1032     -0.00000
    172       2.1494     -0.00000
    173       2.1961     -0.00000
    174       2.2706     -0.00000
    175       2.4192     -0.00000
    176       2.4892     -0.00000
    177       2.6540     -0.00000
    178       2.7974     -0.00000

 k-point    10 :       0.5000    0.5000   -0.0000
  band No.  band energies     occupation 
      1     -52.5328      1.00000
      2     -52.4460      1.00000
      3     -52.4057      1.00000
      4     -52.3441      1.00000
      5     -52.3371      1.00000
      6     -52.3121      1.00000
      7     -52.2661      1.00000
      8     -52.2205      1.00000
      9     -52.0758      1.00000
     10     -52.0736      1.00000
     11     -52.0364      1.00000
     12     -51.9543      1.00000
     13     -51.0390      1.00000
     14     -51.0071      1.00000
     15     -50.9895      1.00000
     16     -50.9624      1.00000
     17     -50.9592      1.00000
     18     -50.9526      1.00000
     19     -50.9520      1.00000
     20     -50.9407      1.00000
     21     -50.9158      1.00000
     22     -50.8405      1.00000
     23     -50.8035      1.00000
     24     -50.7541      1.00000
     25     -48.5821      1.00000
     26     -48.5087      1.00000
     27     -48.4598      1.00000
     28     -48.4577      1.00000
     29     -48.4209      1.00000
     30     -48.3885      1.00000
     31     -48.1408      1.00000
     32     -47.9490      1.00000
     33     -47.8065      1.00000
     34     -47.5193      1.00000
     35     -47.4735      1.00000
     36     -47.0757      1.00000
     37     -21.9694      1.00000
     38     -21.6561      1.00000
     39     -20.6405      1.00000
     40     -20.3771      1.00000
     41     -20.2889      1.00000
     42     -20.1848      1.00000
     43     -20.1331      1.00000
     44     -20.0466      1.00000
     45     -19.9463      1.00000
     46     -19.8275      1.00000
     47     -19.7964      1.00000
     48     -19.7489      1.00000
     49     -19.6495      1.00000
     50     -19.6154      1.00000
     51     -19.5689      1.00000
     52     -19.5354      1.00000
     53     -19.4580      1.00000
     54     -19.3072      1.00000
     55     -18.5603      1.00000
     56     -18.5072      1.00000
     57      -9.7336      1.00000
     58      -9.0334      1.00000
     59      -8.8778      1.00000
     60      -8.7856      1.00000
     61      -8.5433      1.00000
     62      -8.1764      1.00000
     63      -8.1066      1.00000
     64      -7.9916      1.00000
     65      -7.9643      1.00000
     66      -7.7959      1.00000
     67      -7.7507      1.00000
     68      -7.6628      1.00000
     69      -7.6277      1.00000
     70      -7.6074      1.00000
     71      -7.5889      1.00000
     72      -7.4640      1.00000
     73      -7.3842      1.00000
     74      -7.2519      1.00000
     75      -7.2410      1.00000
     76      -7.2133      1.00000
     77      -7.1341      1.00000
     78      -7.0758      1.00000
     79      -7.0154      1.00000
     80      -6.9109      1.00000
     81      -6.8907      1.00000
     82      -6.8360      1.00000
     83      -6.7723      1.00000
     84      -6.7146      1.00000
     85      -6.6611      1.00000
     86      -6.5936      1.00000
     87      -6.5616      1.00000
     88      -6.4903      1.00000
     89      -6.4497      1.00000
     90      -6.3224      1.00000
     91      -6.2198      1.00000
     92      -6.1059      1.00000
     93      -6.0528      1.00000
     94      -6.0219      1.00000
     95      -5.9766      1.00000
     96      -5.9068      1.00000
     97      -5.8487      1.00000
     98      -5.7925      1.00000
     99      -5.7630      1.00000
    100      -5.6748      1.00000
    101      -5.6017      1.00000
    102      -5.5342      1.00000
    103      -5.4710      1.00000
    104      -5.4115      1.00000
    105      -5.3789      1.00000
    106      -5.2896      1.00000
    107      -5.2364      1.00000
    108      -5.1841      1.00000
    109      -5.1752      1.00000
    110      -5.1170      1.00000
    111      -5.0239      1.00000
    112      -4.9777      1.00000
    113      -4.9580      1.00000
    114      -4.9189      1.00000
    115      -4.7553      1.00000
    116      -4.7108      1.00000
    117      -4.6608      1.00000
    118      -4.5424      1.00000
    119      -4.4777      1.00000
    120      -4.4185      1.00000
    121      -4.3656      1.00000
    122      -4.2909      1.00000
    123      -4.2144      1.00000
    124      -4.1669      1.00000
    125      -4.1189      1.00000
    126      -4.0454      1.00000
    127      -3.9979      1.00000
    128      -3.8351      1.00000
    129      -3.7413      1.00000
    130      -3.6378      1.00000
    131      -3.5580      1.00000
    132      -3.5091      1.00000
    133      -3.4370      1.00000
    134      -3.3904      1.00000
    135      -3.3277      1.00000
    136      -3.2782      1.00000
    137      -3.2492      1.00000
    138      -3.1671      1.00000
    139      -3.1296      1.00000
    140      -3.0849      1.00000
    141      -2.9319      1.00000
    142      -2.8005      1.00000
    143      -2.7536      1.00000
    144      -2.7234      1.00000
    145      -2.6205      1.00000
    146      -2.5426      1.00000
    147      -2.4836      1.00000
    148      -2.1231      1.00495
    149      -2.1096      1.00628
    150      -2.0733      1.01119
    151      -1.8316      0.95365
    152      -1.7509      0.72626
    153      -1.1242     -0.00021
    154      -0.8901     -0.00000
    155      -0.6504     -0.00000
    156      -0.5484     -0.00000
    157       1.1744     -0.00000
    158       1.2104     -0.00000
    159       1.4419     -0.00000
    160       1.4856     -0.00000
    161       1.5215     -0.00000
    162       1.5337     -0.00000
    163       1.5927     -0.00000
    164       1.6233     -0.00000
    165       1.6569     -0.00000
    166       1.6896     -0.00000
    167       1.7001     -0.00000
    168       1.7223     -0.00000
    169       1.8902     -0.00000
    170       1.9717     -0.00000
    171       2.1098     -0.00000
    172       2.2245     -0.00000
    173       2.2774     -0.00000
    174       2.3001     -0.00000
    175       2.3113     -0.00000
    176       2.4929     -0.00000
    177       2.6845     -0.00000
    178       2.9795     -0.00000

 spin component 2

 k-point     1 :       0.0000    0.0000    0.0000
  band No.  band energies     occupation 
      1     -52.4555      1.00000
      2     -52.4160      1.00000
      3     -52.4091      1.00000
      4     -52.3748      1.00000
      5     -52.3522      1.00000
      6     -52.3287      1.00000
      7     -52.3287      1.00000
      8     -52.0818      1.00000
      9     -52.0312      1.00000
     10     -51.9059      1.00000
     11     -51.8530      1.00000
     12     -51.6858      1.00000
     13     -48.3813      1.00000
     14     -48.3029      1.00000
     15     -48.2471      1.00000
     16     -48.2371      1.00000
     17     -48.1993      1.00000
     18     -48.1836      1.00000
     19     -48.1745      1.00000
     20     -48.0678      1.00000
     21     -47.3852      1.00000
     22     -47.3843      1.00000
     23     -47.3711      1.00000
     24     -47.2757      1.00000
     25     -46.2505      1.00000
     26     -46.1613      1.00000
     27     -46.1474      1.00000
     28     -46.1417      1.00000
     29     -46.1237      1.00000
     30     -46.1090      1.00000
     31     -46.1019      1.00000
     32     -46.0766      1.00000
     33     -46.0723      1.00000
     34     -46.0122      1.00000
     35     -45.9836      1.00000
     36     -45.9479      1.00000
     37     -22.0866      1.00000
     38     -21.6074      1.00000
     39     -20.7965      1.00000
     40     -20.5297      1.00000
     41     -20.2515      1.00000
     42     -20.1223      1.00000
     43     -19.9913      1.00000
     44     -19.9460      1.00000
     45     -19.8074      1.00000
     46     -19.7112      1.00000
     47     -19.6681      1.00000
     48     -19.6185      1.00000
     49     -19.6074      1.00000
     50     -19.5129      1.00000
     51     -19.4939      1.00000
     52     -19.4143      1.00000
     53     -19.3993      1.00000
     54     -19.1491      1.00000
     55     -18.7791      1.00000
     56     -18.2301      1.00000
     57      -9.9022      1.00000
     58      -8.8604      1.00000
     59      -8.8306      1.00000
     60      -8.7952      1.00000
     61      -8.3622      1.00000
     62      -8.3008      1.00000
     63      -8.1978      1.00000
     64      -7.9492      1.00000
     65      -7.8391      1.00000
     66      -7.7241      1.00000
     67      -7.6560      1.00000
     68      -7.6203      1.00000
     69      -7.5002      1.00000
     70      -7.3505      1.00000
     71      -7.2656      1.00000
     72      -7.2070      1.00000
     73      -7.1416      1.00000
     74      -7.0317      1.00000
     75      -7.0204      1.00000
     76      -6.9148      1.00000
     77      -6.7724      1.00000
     78      -6.7211      1.00000
     79      -6.6842      1.00000
     80      -6.6613      1.00000
     81      -6.6296      1.00000
     82      -6.5797      1.00000
     83      -6.5451      1.00000
     84      -6.5075      1.00000
     85      -6.4249      1.00000
     86      -6.2877      1.00000
     87      -6.1344      1.00000
     88      -6.0423      1.00000
     89      -5.7200      1.00000
     90      -5.7012      1.00000
     91      -5.6829      1.00000
     92      -5.5881      1.00000
     93      -5.5194      1.00000
     94      -5.4794      1.00000
     95      -5.3779      1.00000
     96      -5.2879      1.00000
     97      -5.1952      1.00000
     98      -5.1392      1.00000
     99      -5.1059      1.00000
    100      -5.0748      1.00000
    101      -5.0516      1.00000
    102      -4.9975      1.00000
    103      -4.9051      1.00000
    104      -4.8347      1.00000
    105      -4.7947      1.00000
    106      -4.7418      1.00000
    107      -4.6664      1.00000
    108      -4.6084      1.00000
    109      -4.5884      1.00000
    110      -4.4122      1.00000
    111      -4.3508      1.00000
    112      -4.2996      1.00000
    113      -4.1802      1.00000
    114      -4.1348      1.00000
    115      -4.0707      1.00000
    116      -4.0203      1.00000
    117      -3.9916      1.00000
    118      -3.9558      1.00000
    119      -3.9212      1.00000
    120      -3.8830      1.00000
    121      -3.7906      1.00000
    122      -3.6330      1.00000
    123      -3.5407      1.00000
    124      -3.2948      1.00000
    125      -3.1956      1.00000
    126      -2.8202      1.00000
    127      -2.6499      1.00000
    128      -2.5265      1.00000
    129      -2.4737      1.00000
    130      -2.3847      1.00001
    131      -2.1838      1.00148
    132      -1.3961     -0.02789
    133      -0.6968     -0.00000
    134      -0.3853     -0.00000
    135      -0.0920     -0.00000
    136       0.1238     -0.00000
    137       0.3056     -0.00000
    138       1.2734     -0.00000
    139       1.3477     -0.00000
    140       1.4528     -0.00000
    141       1.4822     -0.00000
    142       1.5453     -0.00000
    143       1.5879     -0.00000
    144       1.6428     -0.00000
    145       1.6900     -0.00000
    146       1.8175     -0.00000
    147       1.8346     -0.00000
    148       1.8793     -0.00000
    149       1.9759     -0.00000
    150       2.0496     -0.00000
    151       2.0909     -0.00000
    152       2.1258     -0.00000
    153       2.1750     -0.00000
    154       2.2949     -0.00000
    155       2.3646     -0.00000
    156       2.3891     -0.00000
    157       2.5029     -0.00000
    158       2.5868     -0.00000
    159       2.6444     -0.00000
    160       2.6951     -0.00000
    161       2.7354     -0.00000
    162       2.7762     -0.00000
    163       2.8573     -0.00000
    164       2.8977     -0.00000
    165       2.9396     -0.00000
    166       2.9608     -0.00000
    167       2.9954     -0.00000
    168       3.0755     -0.00000
    169       3.1088     -0.00000
    170       3.1605     -0.00000
    171       3.1756     -0.00000
    172       3.2223     -0.00000
    173       3.2844     -0.00000
    174       3.3263     -0.00000
    175       3.3738     -0.00000
    176       3.4336     -0.00000
    177       3.5115     -0.00000
    178       3.5542     -0.00000

 k-point     2 :       0.2500    0.0000   -0.0000
  band No.  band energies     occupation 
      1     -52.4553      1.00000
      2     -52.4160      1.00000
      3     -52.4091      1.00000
      4     -52.3741      1.00000
      5     -52.3523      1.00000
      6     -52.3289      1.00000
      7     -52.3286      1.00000
      8     -52.0812      1.00000
      9     -52.0322      1.00000
     10     -51.9062      1.00000
     11     -51.8530      1.00000
     12     -51.6859      1.00000
     13     -48.3813      1.00000
     14     -48.3029      1.00000
     15     -48.2471      1.00000
     16     -48.2372      1.00000
     17     -48.1993      1.00000
     18     -48.1836      1.00000
     19     -48.1745      1.00000
     20     -48.0678      1.00000
     21     -47.3852      1.00000
     22     -47.3844      1.00000
     23     -47.3711      1.00000
     24     -47.2757      1.00000
     25     -46.2505      1.00000
     26     -46.1613      1.00000
     27     -46.1474      1.00000
     28     -46.1417      1.00000
     29     -46.1237      1.00000
     30     -46.1090      1.00000
     31     -46.1018      1.00000
     32     -46.0765      1.00000
     33     -46.0724      1.00000
     34     -46.0122      1.00000
     35     -45.9836      1.00000
     36     -45.9479      1.00000
     37     -22.0799      1.00000
     38     -21.6067      1.00000
     39     -20.7283      1.00000
     40     -20.4943      1.00000
     41     -20.2049      1.00000
     42     -20.1239      1.00000
     43     -20.0993      1.00000
     44     -19.9618      1.00000
     45     -19.7900      1.00000
     46     -19.7171      1.00000
     47     -19.6693      1.00000
     48     -19.6485      1.00000
     49     -19.6200      1.00000
     50     -19.5368      1.00000
     51     -19.4981      1.00000
     52     -19.4161      1.00000
     53     -19.3957      1.00000
     54     -19.1563      1.00000
     55     -18.7817      1.00000
     56     -18.2360      1.00000
     57      -9.8752      1.00000
     58      -8.7920      1.00000
     59      -8.7622      1.00000
     60      -8.6370      1.00000
     61      -8.3175      1.00000
     62      -8.2744      1.00000
     63      -8.1796      1.00000
     64      -7.8750      1.00000
     65      -7.7651      1.00000
     66      -7.6961      1.00000
     67      -7.6250      1.00000
     68      -7.6030      1.00000
     69      -7.5098      1.00000
     70      -7.4084      1.00000
     71      -7.3144      1.00000
     72      -7.1979      1.00000
     73      -7.1551      1.00000
     74      -7.1110      1.00000
     75      -6.9176      1.00000
     76      -6.8180      1.00000
     77      -6.7909      1.00000
     78      -6.7731      1.00000
     79      -6.6901      1.00000
     80      -6.6724      1.00000
     81      -6.6059      1.00000
     82      -6.5289      1.00000
     83      -6.4664      1.00000
     84      -6.4228      1.00000
     85      -6.3651      1.00000
     86      -6.2772      1.00000
     87      -6.1232      1.00000
     88      -5.9413      1.00000
     89      -5.8022      1.00000
     90      -5.7759      1.00000
     91      -5.6750      1.00000
     92      -5.6509      1.00000
     93      -5.5762      1.00000
     94      -5.5165      1.00000
     95      -5.4629      1.00000
     96      -5.3847      1.00000
     97      -5.3404      1.00000
     98      -5.2451      1.00000
     99      -5.2035      1.00000
    100      -5.1137      1.00000
    101      -5.0482      1.00000
    102      -4.9490      1.00000
    103      -4.9070      1.00000
    104      -4.8315      1.00000
    105      -4.7388      1.00000
    106      -4.6982      1.00000
    107      -4.6762      1.00000
    108      -4.5926      1.00000
    109      -4.5486      1.00000
    110      -4.4590      1.00000
    111      -4.3874      1.00000
    112      -4.3328      1.00000
    113      -4.2636      1.00000
    114      -4.1866      1.00000
    115      -4.1216      1.00000
    116      -4.0641      1.00000
    117      -4.0089      1.00000
    118      -3.9779      1.00000
    119      -3.9308      1.00000
    120      -3.9258      1.00000
    121      -3.7863      1.00000
    122      -3.7287      1.00000
    123      -3.3382      1.00000
    124      -3.3100      1.00000
    125      -3.2062      1.00000
    126      -2.9544      1.00000
    127      -2.8213      1.00000
    128      -2.7824      1.00000
    129      -2.5450      1.00000
    130      -2.5071      1.00000
    131      -2.2047      1.00093
    132      -1.4510     -0.03545
    133      -0.8039     -0.00000
    134      -0.3968     -0.00000
    135      -0.1052     -0.00000
    136       0.2733     -0.00000
    137       0.4008     -0.00000
    138       1.3186     -0.00000
    139       1.4108     -0.00000
    140       1.4517     -0.00000
    141       1.4983     -0.00000
    142       1.5846     -0.00000
    143       1.6162     -0.00000
    144       1.6474     -0.00000
    145       1.7127     -0.00000
    146       1.7994     -0.00000
    147       1.8375     -0.00000
    148       1.9312     -0.00000
    149       1.9877     -0.00000
    150       2.0391     -0.00000
    151       2.0857     -0.00000
    152       2.1545     -0.00000
    153       2.2032     -0.00000
    154       2.2933     -0.00000
    155       2.3935     -0.00000
    156       2.4864     -0.00000
    157       2.5361     -0.00000
    158       2.5534     -0.00000
    159       2.6159     -0.00000
    160       2.7055     -0.00000
    161       2.7957     -0.00000
    162       2.8915     -0.00000
    163       2.9493     -0.00000
    164       2.9770     -0.00000
    165       3.0242     -0.00000
    166       3.0481     -0.00000
    167       3.0624     -0.00000
    168       3.0764     -0.00000
    169       3.1129     -0.00000
    170       3.1446     -0.00000
    171       3.1975     -0.00000
    172       3.2421     -0.00000
    173       3.2922     -0.00000
    174       3.3325     -0.00000
    175       3.3713     -0.00000
    176       3.4641     -0.00000
    177       3.5811     -0.00000
    178       3.7852      0.00000

 k-point     3 :       0.5000    0.0000   -0.0000
  band No.  band energies     occupation 
      1     -52.4551      1.00000
      2     -52.4160      1.00000
      3     -52.4090      1.00000
      4     -52.3735      1.00000
      5     -52.3524      1.00000
      6     -52.3292      1.00000
      7     -52.3285      1.00000
      8     -52.0805      1.00000
      9     -52.0332      1.00000
     10     -51.9065      1.00000
     11     -51.8530      1.00000
     12     -51.6859      1.00000
     13     -48.3813      1.00000
     14     -48.3029      1.00000
     15     -48.2471      1.00000
     16     -48.2372      1.00000
     17     -48.1993      1.00000
     18     -48.1836      1.00000
     19     -48.1745      1.00000
     20     -48.0678      1.00000
     21     -47.3852      1.00000
     22     -47.3844      1.00000
     23     -47.3711      1.00000
     24     -47.2757      1.00000
     25     -46.2505      1.00000
     26     -46.1613      1.00000
     27     -46.1474      1.00000
     28     -46.1417      1.00000
     29     -46.1237      1.00000
     30     -46.1090      1.00000
     31     -46.1018      1.00000
     32     -46.0764      1.00000
     33     -46.0726      1.00000
     34     -46.0121      1.00000
     35     -45.9836      1.00000
     36     -45.9479      1.00000
     37     -22.0732      1.00000
     38     -21.6060      1.00000
     39     -20.6451      1.00000
     40     -20.4092      1.00000
     41     -20.2851      1.00000
     42     -20.1225      1.00000
     43     -20.0989      1.00000
     44     -20.0228      1.00000
     45     -19.7774      1.00000
     46     -19.7209      1.00000
     47     -19.6847      1.00000
     48     -19.6666      1.00000
     49     -19.6293      1.00000
     50     -19.5503      1.00000
     51     -19.5147      1.00000
     52     -19.4188      1.00000
     53     -19.3922      1.00000
     54     -19.1629      1.00000
     55     -18.7843      1.00000
     56     -18.2416      1.00000
     57      -9.8483      1.00000
     58      -8.7442      1.00000
     59      -8.6682      1.00000
     60      -8.3407      1.00000
     61      -8.3037      1.00000
     62      -8.2476      1.00000
     63      -8.2088      1.00000
     64      -7.8608      1.00000
     65      -7.7859      1.00000
     66      -7.7269      1.00000
     67      -7.6264      1.00000
     68      -7.5430      1.00000
     69      -7.4465      1.00000
     70      -7.4274      1.00000
     71      -7.2699      1.00000
     72      -7.2541      1.00000
     73      -7.1498      1.00000
     74      -7.0953      1.00000
     75      -6.9245      1.00000
     76      -6.8170      1.00000
     77      -6.7608      1.00000
     78      -6.6937      1.00000
     79      -6.6628      1.00000
     80      -6.5574      1.00000
     81      -6.4972      1.00000
     82      -6.4586      1.00000
     83      -6.3915      1.00000
     84      -6.3547      1.00000
     85      -6.2609      1.00000
     86      -6.2371      1.00000
     87      -6.1772      1.00000
     88      -6.0628      1.00000
     89      -6.0187      1.00000
     90      -5.9507      1.00000
     91      -5.8473      1.00000
     92      -5.7305      1.00000
     93      -5.6772      1.00000
     94      -5.5435      1.00000
     95      -5.5130      1.00000
     96      -5.4315      1.00000
     97      -5.3907      1.00000
     98      -5.2914      1.00000
     99      -5.2123      1.00000
    100      -5.0750      1.00000
    101      -4.9650      1.00000
    102      -4.9275      1.00000
    103      -4.8938      1.00000
    104      -4.8341      1.00000
    105      -4.7916      1.00000
    106      -4.7569      1.00000
    107      -4.6697      1.00000
    108      -4.5972      1.00000
    109      -4.5384      1.00000
    110      -4.4855      1.00000
    111      -4.4422      1.00000
    112      -4.3624      1.00000
    113      -4.2937      1.00000
    114      -4.2151      1.00000
    115      -4.1231      1.00000
    116      -4.0449      1.00000
    117      -4.0023      1.00000
    118      -3.9735      1.00000
    119      -3.9608      1.00000
    120      -3.9409      1.00000
    121      -3.7821      1.00000
    122      -3.7210      1.00000
    123      -3.4208      1.00000
    124      -3.2047      1.00000
    125      -3.1905      1.00000
    126      -3.1093      1.00000
    127      -3.0838      1.00000
    128      -2.9688      1.00000
    129      -2.7184      1.00000
    130      -2.5145      1.00000
    131      -2.2327      1.00048
    132      -1.5214     -0.00556
    133      -0.9063     -0.00000
    134      -0.4016     -0.00000
    135      -0.1183     -0.00000
    136       0.2487     -0.00000
    137       0.8387     -0.00000
    138       1.2867     -0.00000
    139       1.3896     -0.00000
    140       1.4684     -0.00000
    141       1.5103     -0.00000
    142       1.5693     -0.00000
    143       1.6215     -0.00000
    144       1.6404     -0.00000
    145       1.6815     -0.00000
    146       1.7486     -0.00000
    147       1.8137     -0.00000
    148       1.8653     -0.00000
    149       1.9661     -0.00000
    150       2.0332     -0.00000
    151       2.0563     -0.00000
    152       2.0994     -0.00000
    153       2.2092     -0.00000
    154       2.2505     -0.00000
    155       2.2881     -0.00000
    156       2.4733     -0.00000
    157       2.5400     -0.00000
    158       2.5616     -0.00000
    159       2.8790     -0.00000
    160       2.9069     -0.00000
    161       2.9732     -0.00000
    162       2.9971     -0.00000
    163       3.0372     -0.00000
    164       3.0593     -0.00000
    165       3.0886     -0.00000
    166       3.1016     -0.00000
    167       3.1317     -0.00000
    168       3.1570     -0.00000
    169       3.2105     -0.00000
    170       3.2173     -0.00000
    171       3.2814     -0.00000
    172       3.3066     -0.00000
    173       3.3666     -0.00000
    174       3.4676     -0.00000
    175       3.5209     -0.00000
    176       3.5459     -0.00000
    177       3.6620     -0.00000
    178       3.9992      0.00000

 k-point     4 :       0.0000    0.2500   -0.0000
  band No.  band energies     occupation 
      1     -52.4553      1.00000
      2     -52.4159      1.00000
      3     -52.4091      1.00000
      4     -52.3748      1.00000
      5     -52.3520      1.00000
      6     -52.3286      1.00000
      7     -52.3285      1.00000
      8     -52.0817      1.00000
      9     -52.0312      1.00000
     10     -51.9062      1.00000
     11     -51.8530      1.00000
     12     -51.6859      1.00000
     13     -48.3817      1.00000
     14     -48.3029      1.00000
     15     -48.2470      1.00000
     16     -48.2375      1.00000
     17     -48.1994      1.00000
     18     -48.1836      1.00000
     19     -48.1745      1.00000
     20     -48.0678      1.00000
     21     -47.3852      1.00000
     22     -47.3843      1.00000
     23     -47.3711      1.00000
     24     -47.2757      1.00000
     25     -46.2505      1.00000
     26     -46.1613      1.00000
     27     -46.1474      1.00000
     28     -46.1417      1.00000
     29     -46.1237      1.00000
     30     -46.1090      1.00000
     31     -46.1019      1.00000
     32     -46.0765      1.00000
     33     -46.0724      1.00000
     34     -46.0122      1.00000
     35     -45.9836      1.00000
     36     -45.9479      1.00000
     37     -22.0576      1.00000
     38     -21.6300      1.00000
     39     -20.6996      1.00000
     40     -20.4628      1.00000
     41     -20.1935      1.00000
     42     -20.1717      1.00000
     43     -19.9946      1.00000
     44     -19.9305      1.00000
     45     -19.8258      1.00000
     46     -19.7567      1.00000
     47     -19.6916      1.00000
     48     -19.6650      1.00000
     49     -19.5970      1.00000
     50     -19.5358      1.00000
     51     -19.4985      1.00000
     52     -19.4575      1.00000
     53     -19.4064      1.00000
     54     -19.1788      1.00000
     55     -18.8050      1.00000
     56     -18.2463      1.00000
     57      -9.8675      1.00000
     58      -8.7646      1.00000
     59      -8.7428      1.00000
     60      -8.6396      1.00000
     61      -8.3360      1.00000
     62      -8.2042      1.00000
     63      -8.0695      1.00000
     64      -7.8753      1.00000
     65      -7.6906      1.00000
     66      -7.6338      1.00000
     67      -7.5775      1.00000
     68      -7.5445      1.00000
     69      -7.4318      1.00000
     70      -7.3935      1.00000
     71      -7.2563      1.00000
     72      -7.2188      1.00000
     73      -7.1320      1.00000
     74      -7.0634      1.00000
     75      -6.9374      1.00000
     76      -6.9006      1.00000
     77      -6.8532      1.00000
     78      -6.8061      1.00000
     79      -6.7183      1.00000
     80      -6.6745      1.00000
     81      -6.6184      1.00000
     82      -6.5361      1.00000
     83      -6.5279      1.00000
     84      -6.4278      1.00000
     85      -6.3238      1.00000
     86      -6.2737      1.00000
     87      -6.0800      1.00000
     88      -6.0394      1.00000
     89      -5.8933      1.00000
     90      -5.8484      1.00000
     91      -5.6830      1.00000
     92      -5.5787      1.00000
     93      -5.5074      1.00000
     94      -5.4499      1.00000
     95      -5.3826      1.00000
     96      -5.3301      1.00000
     97      -5.2815      1.00000
     98      -5.2256      1.00000
     99      -5.1593      1.00000
    100      -5.1200      1.00000
    101      -5.0649      1.00000
    102      -4.9943      1.00000
    103      -4.9356      1.00000
    104      -4.8702      1.00000
    105      -4.8327      1.00000
    106      -4.7973      1.00000
    107      -4.7206      1.00000
    108      -4.6485      1.00000
    109      -4.5388      1.00000
    110      -4.5131      1.00000
    111      -4.4366      1.00000
    112      -4.3487      1.00000
    113      -4.2324      1.00000
    114      -4.2046      1.00000
    115      -4.1336      1.00000
    116      -4.0945      1.00000
    117      -4.0575      1.00000
    118      -4.0290      1.00000
    119      -3.9688      1.00000
    120      -3.8938      1.00000
    121      -3.7574      1.00000
    122      -3.6540      1.00000
    123      -3.3873      1.00000
    124      -3.3690      1.00000
    125      -3.2953      1.00000
    126      -2.8927      1.00000
    127      -2.7601      1.00000
    128      -2.6495      1.00000
    129      -2.5466      1.00000
    130      -2.4233      1.00000
    131      -2.2222      1.00062
    132      -1.7077      0.55339
    133      -0.6818     -0.00000
    134      -0.5375     -0.00000
    135      -0.3624     -0.00000
    136       0.0869     -0.00000
    137       0.4337     -0.00000
    138       1.3089     -0.00000
    139       1.4417     -0.00000
    140       1.4572     -0.00000
    141       1.4929     -0.00000
    142       1.5450     -0.00000
    143       1.6287     -0.00000
    144       1.6673     -0.00000
    145       1.6966     -0.00000
    146       1.7863     -0.00000
    147       1.8263     -0.00000
    148       1.8600     -0.00000
    149       1.9194     -0.00000
    150       1.9759     -0.00000
    151       2.0228     -0.00000
    152       2.0966     -0.00000
    153       2.1476     -0.00000
    154       2.2706     -0.00000
    155       2.3480     -0.00000
    156       2.4490     -0.00000
    157       2.5982     -0.00000
    158       2.6086     -0.00000
    159       2.7330     -0.00000
    160       2.8309     -0.00000
    161       2.8538     -0.00000
    162       2.9023     -0.00000
    163       2.9348     -0.00000
    164       2.9717     -0.00000
    165       3.0232     -0.00000
    166       3.0458     -0.00000
    167       3.0991     -0.00000
    168       3.1449     -0.00000
    169       3.1582     -0.00000
    170       3.1712     -0.00000
    171       3.2105     -0.00000
    172       3.2453     -0.00000
    173       3.2873     -0.00000
    174       3.3488     -0.00000
    175       3.4605     -0.00000
    176       3.5130     -0.00000
    177       3.6840     -0.00000
    178       3.7406     -0.00000

 k-point     5 :       0.2500    0.2500   -0.0000
  band No.  band energies     occupation 
      1     -52.4555      1.00000
      2     -52.4159      1.00000
      3     -52.4091      1.00000
      4     -52.3741      1.00000
      5     -52.3521      1.00000
      6     -52.3288      1.00000
      7     -52.3286      1.00000
      8     -52.0812      1.00000
      9     -52.0322      1.00000
     10     -51.9059      1.00000
     11     -51.8530      1.00000
     12     -51.6858      1.00000
     13     -48.3817      1.00000
     14     -48.3029      1.00000
     15     -48.2470      1.00000
     16     -48.2375      1.00000
     17     -48.1994      1.00000
     18     -48.1836      1.00000
     19     -48.1745      1.00000
     20     -48.0678      1.00000
     21     -47.3852      1.00000
     22     -47.3844      1.00000
     23     -47.3711      1.00000
     24     -47.2757      1.00000
     25     -46.2505      1.00000
     26     -46.1613      1.00000
     27     -46.1474      1.00000
     28     -46.1417      1.00000
     29     -46.1237      1.00000
     30     -46.1090      1.00000
     31     -46.1019      1.00000
     32     -46.0765      1.00000
     33     -46.0724      1.00000
     34     -46.0122      1.00000
     35     -45.9836      1.00000
     36     -45.9479      1.00000
     37     -22.0568      1.00000
     38     -21.6320      1.00000
     39     -20.6987      1.00000
     40     -20.4599      1.00000
     41     -20.1877      1.00000
     42     -20.1720      1.00000
     43     -20.0092      1.00000
     44     -19.9364      1.00000
     45     -19.8198      1.00000
     46     -19.7477      1.00000
     47     -19.6973      1.00000
     48     -19.6730      1.00000
     49     -19.5991      1.00000
     50     -19.5261      1.00000
     51     -19.4912      1.00000
     52     -19.4614      1.00000
     53     -19.4096      1.00000
     54     -19.1792      1.00000
     55     -18.8052      1.00000
     56     -18.2403      1.00000
     57      -9.8764      1.00000
     58      -8.7871      1.00000
     59      -8.7405      1.00000
     60      -8.5920      1.00000
     61      -8.3300      1.00000
     62      -8.2303      1.00000
     63      -8.1076      1.00000
     64      -7.7746      1.00000
     65      -7.6998      1.00000
     66      -7.6525      1.00000
     67      -7.5507      1.00000
     68      -7.5137      1.00000
     69      -7.4452      1.00000
     70      -7.4032      1.00000
     71      -7.3243      1.00000
     72      -7.2345      1.00000
     73      -7.1943      1.00000
     74      -7.0985      1.00000
     75      -7.0638      1.00000
     76      -6.9495      1.00000
     77      -6.8831      1.00000
     78      -6.7808      1.00000
     79      -6.6981      1.00000
     80      -6.6663      1.00000
     81      -6.6139      1.00000
     82      -6.5272      1.00000
     83      -6.4474      1.00000
     84      -6.3222      1.00000
     85      -6.2337      1.00000
     86      -6.1709      1.00000
     87      -6.0404      1.00000
     88      -5.9627      1.00000
     89      -5.9087      1.00000
     90      -5.8107      1.00000
     91      -5.7151      1.00000
     92      -5.6846      1.00000
     93      -5.6265      1.00000
     94      -5.5709      1.00000
     95      -5.4263      1.00000
     96      -5.3282      1.00000
     97      -5.2494      1.00000
     98      -5.2084      1.00000
     99      -5.1551      1.00000
    100      -5.0915      1.00000
    101      -5.0764      1.00000
    102      -5.0003      1.00000
    103      -4.9817      1.00000
    104      -4.8459      1.00000
    105      -4.7608      1.00000
    106      -4.6778      1.00000
    107      -4.6403      1.00000
    108      -4.6100      1.00000
    109      -4.5632      1.00000
    110      -4.4515      1.00000
    111      -4.3674      1.00000
    112      -4.3380      1.00000
    113      -4.2769      1.00000
    114      -4.2180      1.00000
    115      -4.1507      1.00000
    116      -4.1378      1.00000
    117      -4.0881      1.00000
    118      -3.9788      1.00000
    119      -3.9386      1.00000
    120      -3.8313      1.00000
    121      -3.7812      1.00000
    122      -3.6921      1.00000
    123      -3.6339      1.00000
    124      -3.4013      1.00000
    125      -3.1925      1.00000
    126      -2.9384      1.00000
    127      -2.7995      1.00000
    128      -2.7076      1.00000
    129      -2.5715      1.00000
    130      -2.4664      1.00000
    131      -2.2445      1.00036
    132      -1.6351      0.25839
    133      -0.6951     -0.00000
    134      -0.5312     -0.00000
    135      -0.3792     -0.00000
    136       0.1913     -0.00000
    137       0.4425     -0.00000
    138       1.3088     -0.00000
    139       1.4311     -0.00000
    140       1.4488     -0.00000
    141       1.4838     -0.00000
    142       1.5685     -0.00000
    143       1.6366     -0.00000
    144       1.6807     -0.00000
    145       1.6852     -0.00000
    146       1.8119     -0.00000
    147       1.8336     -0.00000
    148       1.8814     -0.00000
    149       1.9206     -0.00000
    150       2.0083     -0.00000
    151       2.0618     -0.00000
    152       2.0787     -0.00000
    153       2.1109     -0.00000
    154       2.2714     -0.00000
    155       2.3124     -0.00000
    156       2.4765     -0.00000
    157       2.5591     -0.00000
    158       2.6319     -0.00000
    159       2.6900     -0.00000
    160       2.8077     -0.00000
    161       2.8784     -0.00000
    162       2.9155     -0.00000
    163       2.9419     -0.00000
    164       2.9680     -0.00000
    165       3.0332     -0.00000
    166       3.0547     -0.00000
    167       3.1063     -0.00000
    168       3.1300     -0.00000
    169       3.1556     -0.00000
    170       3.1661     -0.00000
    171       3.2260     -0.00000
    172       3.2392     -0.00000
    173       3.2726     -0.00000
    174       3.3697     -0.00000
    175       3.4289     -0.00000
    176       3.5108     -0.00000
    177       3.6131     -0.00000
    178       3.7591     -0.00000

 k-point     6 :       0.5000    0.2500    0.0000
  band No.  band energies     occupation 
      1     -52.4553      1.00000
      2     -52.4159      1.00000
      3     -52.4090      1.00000
      4     -52.3735      1.00000
      5     -52.3522      1.00000
      6     -52.3291      1.00000
      7     -52.3285      1.00000
      8     -52.0806      1.00000
      9     -52.0332      1.00000
     10     -51.9062      1.00000
     11     -51.8530      1.00000
     12     -51.6859      1.00000
     13     -48.3817      1.00000
     14     -48.3029      1.00000
     15     -48.2470      1.00000
     16     -48.2375      1.00000
     17     -48.1995      1.00000
     18     -48.1836      1.00000
     19     -48.1745      1.00000
     20     -48.0678      1.00000
     21     -47.3852      1.00000
     22     -47.3844      1.00000
     23     -47.3711      1.00000
     24     -47.2757      1.00000
     25     -46.2505      1.00000
     26     -46.1613      1.00000
     27     -46.1474      1.00000
     28     -46.1417      1.00000
     29     -46.1237      1.00000
     30     -46.1090      1.00000
     31     -46.1019      1.00000
     32     -46.0764      1.00000
     33     -46.0725      1.00000
     34     -46.0122      1.00000
     35     -45.9836      1.00000
     36     -45.9479      1.00000
     37     -22.0498      1.00000
     38     -21.6316      1.00000
     39     -20.6162      1.00000
     40     -20.3793      1.00000
     41     -20.2155      1.00000
     42     -20.1556      1.00000
     43     -20.0879      1.00000
     44     -19.9817      1.00000
     45     -19.8325      1.00000
     46     -19.7519      1.00000
     47     -19.6974      1.00000
     48     -19.6630      1.00000
     49     -19.6124      1.00000
     50     -19.5648      1.00000
     51     -19.5132      1.00000
     52     -19.4733      1.00000
     53     -19.3839      1.00000
     54     -19.1813      1.00000
     55     -18.8072      1.00000
     56     -18.2453      1.00000
     57      -9.8504      1.00000
     58      -8.7054      1.00000
     59      -8.6930      1.00000
     60      -8.3583      1.00000
     61      -8.2580      1.00000
     62      -8.1782      1.00000
     63      -8.1277      1.00000
     64      -7.8027      1.00000
     65      -7.6926      1.00000
     66      -7.6042      1.00000
     67      -7.5739      1.00000
     68      -7.5107      1.00000
     69      -7.4165      1.00000
     70      -7.3864      1.00000
     71      -7.3336      1.00000
     72      -7.2448      1.00000
     73      -7.1497      1.00000
     74      -7.0516      1.00000
     75      -6.9544      1.00000
     76      -6.8701      1.00000
     77      -6.8249      1.00000
     78      -6.7947      1.00000
     79      -6.7069      1.00000
     80      -6.6362      1.00000
     81      -6.5563      1.00000
     82      -6.4826      1.00000
     83      -6.3984      1.00000
     84      -6.3331      1.00000
     85      -6.2738      1.00000
     86      -6.1828      1.00000
     87      -6.1257      1.00000
     88      -6.0866      1.00000
     89      -6.0047      1.00000
     90      -5.8844      1.00000
     91      -5.8283      1.00000
     92      -5.6969      1.00000
     93      -5.6135      1.00000
     94      -5.5429      1.00000
     95      -5.4319      1.00000
     96      -5.4220      1.00000
     97      -5.3678      1.00000
     98      -5.2979      1.00000
     99      -5.1624      1.00000
    100      -5.0915      1.00000
    101      -5.0202      1.00000
    102      -4.9872      1.00000
    103      -4.9201      1.00000
    104      -4.8653      1.00000
    105      -4.7533      1.00000
    106      -4.7328      1.00000
    107      -4.6905      1.00000
    108      -4.6559      1.00000
    109      -4.5260      1.00000
    110      -4.4566      1.00000
    111      -4.4131      1.00000
    112      -4.3575      1.00000
    113      -4.3110      1.00000
    114      -4.2404      1.00000
    115      -4.2021      1.00000
    116      -4.1410      1.00000
    117      -4.0619      1.00000
    118      -4.0010      1.00000
    119      -3.9557      1.00000
    120      -3.8551      1.00000
    121      -3.8397      1.00000
    122      -3.7527      1.00000
    123      -3.6507      1.00000
    124      -3.4642      1.00000
    125      -3.1052      1.00000
    126      -3.0024      1.00000
    127      -2.9680      1.00000
    128      -2.8651      1.00000
    129      -2.6855      1.00000
    130      -2.5859      1.00000
    131      -2.2646      1.00021
    132      -1.6695      0.39286
    133      -0.7844     -0.00000
    134      -0.5236     -0.00000
    135      -0.4063     -0.00000
    136       0.1421     -0.00000
    137       0.8360     -0.00000
    138       1.2859     -0.00000
    139       1.4273     -0.00000
    140       1.4600     -0.00000
    141       1.4888     -0.00000
    142       1.6036     -0.00000
    143       1.6362     -0.00000
    144       1.6698     -0.00000
    145       1.7110     -0.00000
    146       1.7784     -0.00000
    147       1.8198     -0.00000
    148       1.8744     -0.00000
    149       1.9090     -0.00000
    150       1.9383     -0.00000
    151       2.0349     -0.00000
    152       2.0820     -0.00000
    153       2.1713     -0.00000
    154       2.2628     -0.00000
    155       2.3023     -0.00000
    156       2.3770     -0.00000
    157       2.4803     -0.00000
    158       2.5575     -0.00000
    159       2.8336     -0.00000
    160       2.9160     -0.00000
    161       2.9882     -0.00000
    162       3.0083     -0.00000
    163       3.0216     -0.00000
    164       3.0470     -0.00000
    165       3.0888     -0.00000
    166       3.1143     -0.00000
    167       3.1426     -0.00000
    168       3.1864     -0.00000
    169       3.2048     -0.00000
    170       3.2373     -0.00000
    171       3.2981     -0.00000
    172       3.3093     -0.00000
    173       3.3459     -0.00000
    174       3.4453     -0.00000
    175       3.4978     -0.00000
    176       3.5943     -0.00000
    177       3.6760     -0.00000
    178       3.7721      0.00000

 k-point     7 :      -0.2500    0.2500   -0.0000
  band No.  band energies     occupation 
      1     -52.4551      1.00000
      2     -52.4159      1.00000
      3     -52.4091      1.00000
      4     -52.3741      1.00000
      5     -52.3521      1.00000
      6     -52.3288      1.00000
      7     -52.3285      1.00000
      8     -52.0811      1.00000
      9     -52.0322      1.00000
     10     -51.9065      1.00000
     11     -51.8530      1.00000
     12     -51.6860      1.00000
     13     -48.3817      1.00000
     14     -48.3029      1.00000
     15     -48.2470      1.00000
     16     -48.2375      1.00000
     17     -48.1995      1.00000
     18     -48.1836      1.00000
     19     -48.1745      1.00000
     20     -48.0678      1.00000
     21     -47.3852      1.00000
     22     -47.3844      1.00000
     23     -47.3711      1.00000
     24     -47.2757      1.00000
     25     -46.2505      1.00000
     26     -46.1613      1.00000
     27     -46.1474      1.00000
     28     -46.1417      1.00000
     29     -46.1237      1.00000
     30     -46.1090      1.00000
     31     -46.1019      1.00000
     32     -46.0764      1.00000
     33     -46.0725      1.00000
     34     -46.0122      1.00000
     35     -45.9836      1.00000
     36     -45.9479      1.00000
     37     -22.0506      1.00000
     38     -21.6296      1.00000
     39     -20.6169      1.00000
     40     -20.3898      1.00000
     41     -20.1920      1.00000
     42     -20.1664      1.00000
     43     -20.1058      1.00000
     44     -19.9499      1.00000
     45     -19.8373      1.00000
     46     -19.7587      1.00000
     47     -19.6955      1.00000
     48     -19.6617      1.00000
     49     -19.6084      1.00000
     50     -19.5725      1.00000
     51     -19.5179      1.00000
     52     -19.4731      1.00000
     53     -19.3813      1.00000
     54     -19.1802      1.00000
     55     -18.8071      1.00000
     56     -18.2514      1.00000
     57      -9.8413      1.00000
     58      -8.7016      1.00000
     59      -8.6756      1.00000
     60      -8.4179      1.00000
     61      -8.3308      1.00000
     62      -8.1508      1.00000
     63      -8.0298      1.00000
     64      -7.8383      1.00000
     65      -7.6587      1.00000
     66      -7.6057      1.00000
     67      -7.5684      1.00000
     68      -7.5103      1.00000
     69      -7.4215      1.00000
     70      -7.3713      1.00000
     71      -7.3115      1.00000
     72      -7.2684      1.00000
     73      -7.1477      1.00000
     74      -7.0454      1.00000
     75      -6.9942      1.00000
     76      -6.8399      1.00000
     77      -6.7744      1.00000
     78      -6.7535      1.00000
     79      -6.6921      1.00000
     80      -6.6474      1.00000
     81      -6.5654      1.00000
     82      -6.4738      1.00000
     83      -6.3899      1.00000
     84      -6.3058      1.00000
     85      -6.2500      1.00000
     86      -6.2183      1.00000
     87      -6.1535      1.00000
     88      -6.0582      1.00000
     89      -6.0084      1.00000
     90      -5.9495      1.00000
     91      -5.8366      1.00000
     92      -5.7661      1.00000
     93      -5.6618      1.00000
     94      -5.5428      1.00000
     95      -5.4924      1.00000
     96      -5.4479      1.00000
     97      -5.3919      1.00000
     98      -5.2366      1.00000
     99      -5.2059      1.00000
    100      -5.0867      1.00000
    101      -5.0013      1.00000
    102      -4.9566      1.00000
    103      -4.9088      1.00000
    104      -4.8718      1.00000
    105      -4.7981      1.00000
    106      -4.7895      1.00000
    107      -4.6951      1.00000
    108      -4.6341      1.00000
    109      -4.5385      1.00000
    110      -4.4763      1.00000
    111      -4.4392      1.00000
    112      -4.3487      1.00000
    113      -4.3336      1.00000
    114      -4.2527      1.00000
    115      -4.1556      1.00000
    116      -4.1004      1.00000
    117      -4.0714      1.00000
    118      -4.0153      1.00000
    119      -3.9713      1.00000
    120      -3.8819      1.00000
    121      -3.8432      1.00000
    122      -3.7391      1.00000
    123      -3.6521      1.00000
    124      -3.3179      1.00000
    125      -3.0854      1.00000
    126      -2.9454      1.00000
    127      -2.8584      1.00000
    128      -2.7936      1.00000
    129      -2.7290      1.00000
    130      -2.5943      1.00000
    131      -2.2390      1.00041
    132      -1.7497      0.72193
    133      -0.7844     -0.00000
    134      -0.5384     -0.00000
    135      -0.3818     -0.00000
    136       0.0596     -0.00000
    137       0.8224     -0.00000
    138       1.3043     -0.00000
    139       1.4451     -0.00000
    140       1.4807     -0.00000
    141       1.4993     -0.00000
    142       1.5572     -0.00000
    143       1.6024     -0.00000
    144       1.6689     -0.00000
    145       1.6911     -0.00000
    146       1.7474     -0.00000
    147       1.8157     -0.00000
    148       1.8537     -0.00000
    149       1.8985     -0.00000
    150       1.9331     -0.00000
    151       1.9936     -0.00000
    152       2.0599     -0.00000
    153       2.2085     -0.00000
    154       2.2854     -0.00000
    155       2.3403     -0.00000
    156       2.4243     -0.00000
    157       2.5238     -0.00000
    158       2.5998     -0.00000
    159       2.7676     -0.00000
    160       2.9079     -0.00000
    161       2.9832     -0.00000
    162       3.0221     -0.00000
    163       3.0433     -0.00000
    164       3.0661     -0.00000
    165       3.0924     -0.00000
    166       3.1023     -0.00000
    167       3.1317     -0.00000
    168       3.1402     -0.00000
    169       3.2243     -0.00000
    170       3.2396     -0.00000
    171       3.3179     -0.00000
    172       3.3537     -0.00000
    173       3.4555     -0.00000
    174       3.5017     -0.00000
    175       3.5522     -0.00000
    176       3.6111     -0.00000
    177       3.7586     -0.00000
    178       3.8647      0.00000

 k-point     8 :       0.0000    0.5000   -0.0000
  band No.  band energies     occupation 
      1     -52.4550      1.00000
      2     -52.4157      1.00000
      3     -52.4091      1.00000
      4     -52.3747      1.00000
      5     -52.3518      1.00000
      6     -52.3285      1.00000
      7     -52.3284      1.00000
      8     -52.0817      1.00000
      9     -52.0312      1.00000
     10     -51.9065      1.00000
     11     -51.8530      1.00000
     12     -51.6860      1.00000
     13     -48.3821      1.00000
     14     -48.3029      1.00000
     15     -48.2470      1.00000
     16     -48.2379      1.00000
     17     -48.1996      1.00000
     18     -48.1836      1.00000
     19     -48.1745      1.00000
     20     -48.0678      1.00000
     21     -47.3853      1.00000
     22     -47.3843      1.00000
     23     -47.3711      1.00000
     24     -47.2757      1.00000
     25     -46.2505      1.00000
     26     -46.1612      1.00000
     27     -46.1474      1.00000
     28     -46.1417      1.00000
     29     -46.1237      1.00000
     30     -46.1090      1.00000
     31     -46.1019      1.00000
     32     -46.0764      1.00000
     33     -46.0725      1.00000
     34     -46.0121      1.00000
     35     -45.9836      1.00000
     36     -45.9479      1.00000
     37     -22.0248      1.00000
     38     -21.6563      1.00000
     39     -20.5711      1.00000
     40     -20.3535      1.00000
     41     -20.2285      1.00000
     42     -20.1267      1.00000
     43     -20.0715      1.00000
     44     -19.8961      1.00000
     45     -19.8879      1.00000
     46     -19.7843      1.00000
     47     -19.7440      1.00000
     48     -19.6819      1.00000
     49     -19.5841      1.00000
     50     -19.5675      1.00000
     51     -19.5182      1.00000
     52     -19.4706      1.00000
     53     -19.4174      1.00000
     54     -19.2082      1.00000
     55     -18.8315      1.00000
     56     -18.2615      1.00000
     57      -9.8336      1.00000
     58      -8.6775      1.00000
     59      -8.6290      1.00000
     60      -8.4695      1.00000
     61      -8.3765      1.00000
     62      -8.0658      1.00000
     63      -7.8828      1.00000
     64      -7.8334      1.00000
     65      -7.6168      1.00000
     66      -7.5821      1.00000
     67      -7.5050      1.00000
     68      -7.4375      1.00000
     69      -7.3630      1.00000
     70      -7.3143      1.00000
     71      -7.2108      1.00000
     72      -7.1937      1.00000
     73      -7.0751      1.00000
     74      -7.0180      1.00000
     75      -6.9634      1.00000
     76      -6.8795      1.00000
     77      -6.7758      1.00000
     78      -6.7723      1.00000
     79      -6.7287      1.00000
     80      -6.7181      1.00000
     81      -6.6525      1.00000
     82      -6.5534      1.00000
     83      -6.4578      1.00000
     84      -6.3352      1.00000
     85      -6.2941      1.00000
     86      -6.2344      1.00000
     87      -6.1508      1.00000
     88      -6.0718      1.00000
     89      -6.0238      1.00000
     90      -5.9162      1.00000
     91      -5.7974      1.00000
     92      -5.7441      1.00000
     93      -5.5955      1.00000
     94      -5.5671      1.00000
     95      -5.4965      1.00000
     96      -5.4547      1.00000
     97      -5.3338      1.00000
     98      -5.2447      1.00000
     99      -5.1708      1.00000
    100      -5.1609      1.00000
    101      -5.0914      1.00000
    102      -5.0753      1.00000
    103      -5.0014      1.00000
    104      -4.9598      1.00000
    105      -4.8907      1.00000
    106      -4.8266      1.00000
    107      -4.7131      1.00000
    108      -4.6714      1.00000
    109      -4.5071      1.00000
    110      -4.4790      1.00000
    111      -4.3801      1.00000
    112      -4.3286      1.00000
    113      -4.2793      1.00000
    114      -4.2018      1.00000
    115      -4.1840      1.00000
    116      -4.1157      1.00000
    117      -4.0539      1.00000
    118      -4.0503      1.00000
    119      -4.0406      1.00000
    120      -3.9105      1.00000
    121      -3.7164      1.00000
    122      -3.6534      1.00000
    123      -3.4985      1.00000
    124      -3.3446      1.00000
    125      -3.3352      1.00000
    126      -3.1669      1.00000
    127      -2.7909      1.00000
    128      -2.6961      1.00000
    129      -2.5551      1.00000
    130      -2.4891      1.00000
    131      -2.2477      1.00033
    132      -2.0275      1.02022
    133      -0.7192     -0.00000
    134      -0.6642     -0.00000
    135      -0.5839     -0.00000
    136      -0.1102     -0.00000
    137       0.9367     -0.00000
    138       1.1566     -0.00000
    139       1.3850     -0.00000
    140       1.4766     -0.00000
    141       1.4852     -0.00000
    142       1.5768     -0.00000
    143       1.6294     -0.00000
    144       1.6645     -0.00000
    145       1.6884     -0.00000
    146       1.7226     -0.00000
    147       1.7394     -0.00000
    148       1.8120     -0.00000
    149       1.8816     -0.00000
    150       1.8968     -0.00000
    151       1.9494     -0.00000
    152       2.0424     -0.00000
    153       2.1983     -0.00000
    154       2.2324     -0.00000
    155       2.3495     -0.00000
    156       2.4860     -0.00000
    157       2.5439     -0.00000
    158       2.6036     -0.00000
    159       2.9047     -0.00000
    160       2.9240     -0.00000
    161       2.9517     -0.00000
    162       2.9690     -0.00000
    163       2.9832     -0.00000
    164       3.0198     -0.00000
    165       3.0888     -0.00000
    166       3.1351     -0.00000
    167       3.1643     -0.00000
    168       3.1984     -0.00000
    169       3.2453     -0.00000
    170       3.2918     -0.00000
    171       3.3534     -0.00000
    172       3.3679     -0.00000
    173       3.4118     -0.00000
    174       3.6252     -0.00000
    175       3.6759     -0.00000
    176       3.7354     -0.00000
    177       3.8291      0.00000
    178       4.0306      0.00000

 k-point     9 :       0.2500    0.5000   -0.0000
  band No.  band energies     occupation 
      1     -52.4553      1.00000
      2     -52.4157      1.00000
      3     -52.4091      1.00000
      4     -52.3741      1.00000
      5     -52.3519      1.00000
      6     -52.3287      1.00000
      7     -52.3285      1.00000
      8     -52.0812      1.00000
      9     -52.0322      1.00000
     10     -51.9062      1.00000
     11     -51.8530      1.00000
     12     -51.6859      1.00000
     13     -48.3821      1.00000
     14     -48.3029      1.00000
     15     -48.2470      1.00000
     16     -48.2378      1.00000
     17     -48.1996      1.00000
     18     -48.1836      1.00000
     19     -48.1745      1.00000
     20     -48.0678      1.00000
     21     -47.3853      1.00000
     22     -47.3844      1.00000
     23     -47.3711      1.00000
     24     -47.2757      1.00000
     25     -46.2505      1.00000
     26     -46.1613      1.00000
     27     -46.1474      1.00000
     28     -46.1417      1.00000
     29     -46.1237      1.00000
     30     -46.1090      1.00000
     31     -46.1019      1.00000
     32     -46.0764      1.00000
     33     -46.0725      1.00000
     34     -46.0121      1.00000
     35     -45.9836      1.00000
     36     -45.9479      1.00000
     37     -22.0240      1.00000
     38     -21.6585      1.00000
     39     -20.5718      1.00000
     40     -20.3433      1.00000
     41     -20.2357      1.00000
     42     -20.1164      1.00000
     43     -20.0648      1.00000
     44     -19.9332      1.00000
     45     -19.8968      1.00000
     46     -19.7725      1.00000
     47     -19.7243      1.00000
     48     -19.6956      1.00000
     49     -19.5857      1.00000
     50     -19.5577      1.00000
     51     -19.5157      1.00000
     52     -19.4783      1.00000
     53     -19.4151      1.00000
     54     -19.2078      1.00000
     55     -18.8317      1.00000
     56     -18.2556      1.00000
     57      -9.8432      1.00000
     58      -8.7030      1.00000
     59      -8.6244      1.00000
     60      -8.4497      1.00000
     61      -8.3029      1.00000
     62      -8.1007      1.00000
     63      -7.9066      1.00000
     64      -7.7793      1.00000
     65      -7.6009      1.00000
     66      -7.5836      1.00000
     67      -7.5007      1.00000
     68      -7.4679      1.00000
     69      -7.3877      1.00000
     70      -7.3480      1.00000
     71      -7.2668      1.00000
     72      -7.1910      1.00000
     73      -7.1135      1.00000
     74      -7.0630      1.00000
     75      -6.9860      1.00000
     76      -6.9709      1.00000
     77      -6.9050      1.00000
     78      -6.7981      1.00000
     79      -6.6878      1.00000
     80      -6.6721      1.00000
     81      -6.6117      1.00000
     82      -6.5240      1.00000
     83      -6.3933      1.00000
     84      -6.2764      1.00000
     85      -6.2494      1.00000
     86      -6.1714      1.00000
     87      -6.0906      1.00000
     88      -6.0106      1.00000
     89      -5.9292      1.00000
     90      -5.8616      1.00000
     91      -5.8015      1.00000
     92      -5.7144      1.00000
     93      -5.6696      1.00000
     94      -5.5790      1.00000
     95      -5.5424      1.00000
     96      -5.4548      1.00000
     97      -5.4165      1.00000
     98      -5.3235      1.00000
     99      -5.2643      1.00000
    100      -5.1863      1.00000
    101      -5.0897      1.00000
    102      -5.0131      1.00000
    103      -4.9558      1.00000
    104      -4.8879      1.00000
    105      -4.7953      1.00000
    106      -4.7448      1.00000
    107      -4.6899      1.00000
    108      -4.6155      1.00000
    109      -4.5175      1.00000
    110      -4.4592      1.00000
    111      -4.4175      1.00000
    112      -4.3295      1.00000
    113      -4.2748      1.00000
    114      -4.2473      1.00000
    115      -4.1937      1.00000
    116      -4.1576      1.00000
    117      -4.1001      1.00000
    118      -4.0050      1.00000
    119      -3.9772      1.00000
    120      -3.9112      1.00000
    121      -3.8213      1.00000
    122      -3.7177      1.00000
    123      -3.5578      1.00000
    124      -3.4460      1.00000
    125      -3.2761      1.00000
    126      -3.1671      1.00000
    127      -2.8143      1.00000
    128      -2.7055      1.00000
    129      -2.6311      1.00000
    130      -2.4677      1.00000
    131      -2.2658      1.00021
    132      -1.9409      1.03545
    133      -0.7541     -0.00000
    134      -0.6711     -0.00000
    135      -0.5903     -0.00000
    136      -0.0255     -0.00000
    137       0.8971     -0.00000
    138       1.2052     -0.00000
    139       1.4135     -0.00000
    140       1.4616     -0.00000
    141       1.4840     -0.00000
    142       1.5987     -0.00000
    143       1.6230     -0.00000
    144       1.6801     -0.00000
    145       1.7115     -0.00000
    146       1.7360     -0.00000
    147       1.7575     -0.00000
    148       1.8236     -0.00000
    149       1.8834     -0.00000
    150       1.9189     -0.00000
    151       1.9937     -0.00000
    152       2.0555     -0.00000
    153       2.1222     -0.00000
    154       2.2634     -0.00000
    155       2.3066     -0.00000
    156       2.4248     -0.00000
    157       2.5257     -0.00000
    158       2.5870     -0.00000
    159       2.7748     -0.00000
    160       2.9336     -0.00000
    161       2.9713     -0.00000
    162       2.9983     -0.00000
    163       3.0168     -0.00000
    164       3.0555     -0.00000
    165       3.0968     -0.00000
    166       3.1342     -0.00000
    167       3.1853     -0.00000
    168       3.2067     -0.00000
    169       3.2164     -0.00000
    170       3.2585     -0.00000
    171       3.3411     -0.00000
    172       3.3674     -0.00000
    173       3.4440     -0.00000
    174       3.5550     -0.00000
    175       3.6077     -0.00000
    176       3.6855     -0.00000
    177       3.7754      0.00000
    178       3.9283      0.00000

 k-point    10 :       0.5000    0.5000   -0.0000
  band No.  band energies     occupation 
      1     -52.4555      1.00000
      2     -52.4157      1.00000
      3     -52.4090      1.00000
      4     -52.3735      1.00000
      5     -52.3520      1.00000
      6     -52.3290      1.00000
      7     -52.3286      1.00000
      8     -52.0806      1.00000
      9     -52.0332      1.00000
     10     -51.9059      1.00000
     11     -51.8530      1.00000
     12     -51.6858      1.00000
     13     -48.3821      1.00000
     14     -48.3029      1.00000
     15     -48.2470      1.00000
     16     -48.2378      1.00000
     17     -48.1996      1.00000
     18     -48.1836      1.00000
     19     -48.1745      1.00000
     20     -48.0678      1.00000
     21     -47.3852      1.00000
     22     -47.3844      1.00000
     23     -47.3711      1.00000
     24     -47.2757      1.00000
     25     -46.2505      1.00000
     26     -46.1613      1.00000
     27     -46.1474      1.00000
     28     -46.1417      1.00000
     29     -46.1237      1.00000
     30     -46.1090      1.00000
     31     -46.1019      1.00000
     32     -46.0764      1.00000
     33     -46.0725      1.00000
     34     -46.0122      1.00000
     35     -45.9836      1.00000
     36     -45.9479      1.00000
     37     -22.0229      1.00000
     38     -21.6607      1.00000
     39     -20.5687      1.00000
     40     -20.3190      1.00000
     41     -20.2529      1.00000
     42     -20.1456      1.00000
     43     -20.0564      1.00000
     44     -19.9542      1.00000
     45     -19.8588      1.00000
     46     -19.7691      1.00000
     47     -19.7375      1.00000
     48     -19.7027      1.00000
     49     -19.5858      1.00000
     50     -19.5404      1.00000
     51     -19.5195      1.00000
     52     -19.4778      1.00000
     53     -19.4184      1.00000
     54     -19.2091      1.00000
     55     -18.8319      1.00000
     56     -18.2500      1.00000
     57      -9.8523      1.00000
     58      -8.7298      1.00000
     59      -8.6186      1.00000
     60      -8.4358      1.00000
     61      -8.1571      1.00000
     62      -8.0992      1.00000
     63      -8.0120      1.00000
     64      -7.7783      1.00000
     65      -7.6463      1.00000
     66      -7.5610      1.00000
     67      -7.5315      1.00000
     68      -7.4300      1.00000
     69      -7.3890      1.00000
     70      -7.3748      1.00000
     71      -7.3186      1.00000
     72      -7.2471      1.00000
     73      -7.1853      1.00000
     74      -7.1084      1.00000
     75      -7.0749      1.00000
     76      -7.0525      1.00000
     77      -6.8952      1.00000
     78      -6.6842      1.00000
     79      -6.6255      1.00000
     80      -6.5818      1.00000
     81      -6.5168      1.00000
     82      -6.3977      1.00000
     83      -6.3375      1.00000
     84      -6.2601      1.00000
     85      -6.2229      1.00000
     86      -6.1323      1.00000
     87      -6.0702      1.00000
     88      -5.9745      1.00000
     89      -5.9535      1.00000
     90      -5.9027      1.00000
     91      -5.8614      1.00000
     92      -5.7845      1.00000
     93      -5.6531      1.00000
     94      -5.6126      1.00000
     95      -5.5721      1.00000
     96      -5.5059      1.00000
     97      -5.4341      1.00000
     98      -5.3595      1.00000
     99      -5.3211      1.00000
    100      -5.1336      1.00000
    101      -5.0679      1.00000
    102      -5.0153      1.00000
    103      -4.9357      1.00000
    104      -4.8729      1.00000
    105      -4.8290      1.00000
    106      -4.6449      1.00000
    107      -4.6282      1.00000
    108      -4.5708      1.00000
    109      -4.5297      1.00000
    110      -4.5075      1.00000
    111      -4.3667      1.00000
    112      -4.3355      1.00000
    113      -4.3047      1.00000
    114      -4.2875      1.00000
    115      -4.1953      1.00000
    116      -4.1548      1.00000
    117      -4.1477      1.00000
    118      -3.9278      1.00000
    119      -3.9135      1.00000
    120      -3.7845      1.00000
    121      -3.7689      1.00000
    122      -3.6975      1.00000
    123      -3.6727      1.00000
    124      -3.4926      1.00000
    125      -3.3512      1.00000
    126      -3.1277      1.00000
    127      -2.9046      1.00000
    128      -2.8592      1.00000
    129      -2.6175      1.00000
    130      -2.5697      1.00000
    131      -2.2894      1.00011
    132      -1.8785      1.01421
    133      -0.7255     -0.00000
    134      -0.6990     -0.00000
    135      -0.5841     -0.00000
    136       0.0947     -0.00000
    137       0.9561     -0.00000
    138       1.1287     -0.00000
    139       1.4363     -0.00000
    140       1.4429     -0.00000
    141       1.4697     -0.00000
    142       1.6000     -0.00000
    143       1.6278     -0.00000
    144       1.6814     -0.00000
    145       1.7007     -0.00000
    146       1.7724     -0.00000
    147       1.8217     -0.00000
    148       1.8361     -0.00000
    149       1.8460     -0.00000
    150       1.9294     -0.00000
    151       2.0066     -0.00000
    152       2.0773     -0.00000
    153       2.1141     -0.00000
    154       2.1986     -0.00000
    155       2.3509     -0.00000
    156       2.4410     -0.00000
    157       2.4757     -0.00000
    158       2.5831     -0.00000
    159       2.8406     -0.00000
    160       2.9557     -0.00000
    161       2.9676     -0.00000
    162       2.9915     -0.00000
    163       3.0094     -0.00000
    164       3.0364     -0.00000
    165       3.1132     -0.00000
    166       3.1148     -0.00000
    167       3.1623     -0.00000
    168       3.1953     -0.00000
    169       3.2356     -0.00000
    170       3.2778     -0.00000
    171       3.3024     -0.00000
    172       3.3364     -0.00000
    173       3.4181     -0.00000
    174       3.5558     -0.00000
    175       3.6925     -0.00000
    176       3.8101      0.00000
    177       3.9019      0.00000
    178       4.0504      0.00000


--------------------------------------------------------------------------------------------------------


 soft charge-density along one line, spin component           1
         0         1         2         3         4         5         6         7         8         9
 total charge-density along one line
 
 soft charge-density along one line, spin component           2
         0         1         2         3         4         5         6         7         8         9
 total charge-density along one line
 
 pseudopotential strength for first ion, spin component:           1
-49.671  -0.027  -0.006  11.217   0.012   0.003   0.001  -0.028
 -0.027 -49.479  -0.001   0.012  11.131   0.001   0.000  -0.028
 -0.006  -0.001 -49.723   0.003   0.001  11.235  -0.027   0.000
 11.217   0.012   0.003   4.215  -0.004  -0.001  -0.000   0.007
  0.012  11.131   0.001  -0.004   4.244  -0.000  -0.000   0.008
  0.003   0.001  11.235  -0.001  -0.000   4.209   0.009  -0.000
  0.001   0.000  -0.027  -0.000  -0.000   0.009  -9.357   0.004
 -0.028  -0.028   0.000   0.007   0.008  -0.000   0.004 -10.765
  0.016  -0.035  -0.000  -0.005   0.010   0.000  -0.012  -0.021
  0.000   0.001  -0.032  -0.000  -0.000   0.007   0.145  -0.004
  0.029  -0.002   0.001  -0.008   0.000  -0.000   0.000   0.016
  0.001   0.000  -0.027  -0.000  -0.000   0.009  -9.758   0.004
 -0.028  -0.028   0.000   0.007   0.008  -0.000   0.004 -11.208
  0.016  -0.034  -0.000  -0.005   0.010   0.000  -0.012  -0.021
  0.000   0.001  -0.032  -0.000  -0.000   0.007   0.150  -0.004
  0.029  -0.002   0.001  -0.008   0.000  -0.000   0.000   0.015
  0.011   0.011  -0.000   0.001   0.002  -0.000   0.001   0.007
  0.022   0.022  -0.001   0.002   0.004  -0.000   0.002   0.013
 pseudopotential strength for first ion, spin component:           2
-46.849  -0.054  -0.010   9.919   0.024   0.004   0.000  -0.040
 -0.054 -46.335  -0.001   0.024   9.688   0.000   0.000  -0.039
 -0.010  -0.001 -46.915   0.004   0.000   9.945  -0.031   0.000
  9.919   0.024   0.004   4.653  -0.007  -0.001  -0.000   0.013
  0.024   9.688   0.000  -0.007   4.715  -0.000  -0.000   0.013
  0.004   0.000   9.945  -0.001  -0.000   4.644   0.010  -0.000
  0.000   0.000  -0.031  -0.000  -0.000   0.010  -6.090   0.001
 -0.040  -0.039   0.000   0.013   0.013  -0.000   0.001  -4.857
  0.019  -0.041   0.000  -0.006   0.013  -0.000   0.006  -0.005
  0.000   0.002  -0.048  -0.000  -0.001   0.015  -0.097  -0.004
  0.040  -0.004   0.001  -0.013   0.001  -0.000  -0.000  -0.010
  0.000   0.000  -0.030  -0.000  -0.000   0.010  -6.488   0.001
 -0.039  -0.038   0.000   0.013   0.013  -0.000   0.001  -5.245
  0.018  -0.041   0.000  -0.006   0.013  -0.000   0.006  -0.004
  0.000   0.002  -0.048  -0.000  -0.001   0.015  -0.097  -0.004
  0.040  -0.004   0.001  -0.013   0.001  -0.000  -0.000  -0.011
  0.015   0.016  -0.000   0.000   0.001  -0.000   0.002   0.013
  0.029   0.033  -0.001   0.001   0.003  -0.000   0.004   0.026
 total augmentation occupancy for first ion, spin component:           1
  1.989  -0.000  -0.000  -0.045  -0.001  -0.000   0.000   0.002   0.001   0.000   0.003  -0.000   0.000  -0.002  -0.000  -0.005
 -0.000   1.991   0.000  -0.001  -0.039   0.000  -0.000  -0.003  -0.002   0.000  -0.002  -0.000   0.005   0.003  -0.000   0.002
 -0.000   0.000   1.989  -0.000   0.000  -0.045   0.001  -0.000  -0.000  -0.001   0.000   0.000   0.000   0.000   0.004  -0.000
 -0.045  -0.001  -0.000   0.234   0.012   0.000   0.003   0.020   0.030   0.000  -0.016  -0.003  -0.018  -0.034  -0.000   0.014
 -0.001  -0.039   0.000   0.012   0.101   0.000  -0.003  -0.012  -0.027  -0.002   0.021   0.002   0.017   0.031   0.001  -0.018
 -0.000   0.000  -0.045   0.000   0.000   0.204   0.010  -0.003  -0.006   0.046  -0.002   0.016   0.002   0.005  -0.037   0.002
  0.000  -0.000   0.001   0.003  -0.003   0.010   5.940  -0.014   0.109  -0.371   0.006  -6.400   0.008  -0.084   0.130  -0.006
  0.002  -0.003  -0.000   0.020  -0.012  -0.003  -0.014   5.827   0.105   0.004   0.152   0.008  -3.804  -0.076  -0.003  -0.137
  0.001  -0.002  -0.000   0.030  -0.027  -0.006   0.109   0.105  10.904   0.084   0.825  -0.083  -0.077  -8.817  -0.070  -0.824
  0.000   0.000  -0.001   0.000  -0.002   0.046  -0.371   0.004   0.084   5.457   0.020   0.132  -0.003  -0.070  -3.468  -0.017
  0.003  -0.002   0.000  -0.016   0.021  -0.002   0.006   0.152   0.825   0.020   7.017  -0.006  -0.134  -0.823  -0.017  -4.955
 -0.000  -0.000   0.000  -0.003   0.002   0.016  -6.400   0.008  -0.083   0.132  -0.006   7.611  -0.005   0.065   0.063   0.006
  0.000   0.005   0.000  -0.018   0.017   0.002   0.008  -3.804  -0.077  -0.003  -0.134  -0.005   2.944   0.050   0.003   0.130
 -0.002   0.003   0.000  -0.034   0.031   0.005  -0.084  -0.076  -8.817  -0.070  -0.823   0.065   0.050   7.953   0.057   0.829
 -0.000  -0.000   0.004  -0.000   0.001  -0.037   0.130  -0.003  -0.070  -3.468  -0.017   0.063   0.003   0.057   2.634   0.015
 -0.005   0.002  -0.000   0.014  -0.018   0.002  -0.006  -0.137  -0.824  -0.017  -4.955   0.006   0.130   0.829   0.015   4.077
 -0.038  -0.049   0.001   0.026   0.007  -0.002   0.004  -0.328   1.708  -0.004   0.330  -0.006   0.322  -1.660   0.000  -0.378
  0.020   0.026  -0.001  -0.001  -0.003   0.000  -0.000   0.021  -0.164   0.002   0.025   0.002  -0.025   0.165  -0.000   0.010
 total augmentation occupancy for first ion, spin component:           2
 -0.003  -0.000   0.000  -0.010   0.000   0.000  -0.000  -0.004   0.002  -0.000   0.005   0.000   0.003  -0.001   0.000  -0.004
 -0.000  -0.002   0.000  -0.000  -0.010   0.000  -0.000  -0.005  -0.005  -0.000  -0.001   0.000   0.004   0.003   0.000   0.001
  0.000   0.000  -0.003   0.000   0.000  -0.009  -0.000  -0.000   0.000  -0.006   0.000   0.000   0.000  -0.000   0.005  -0.000
 -0.010  -0.000   0.000   0.021   0.001  -0.000   0.002   0.021   0.015  -0.001  -0.022  -0.002  -0.012  -0.008   0.002   0.009
  0.000  -0.010   0.000   0.001   0.014   0.000  -0.004   0.007  -0.007  -0.006   0.015   0.003  -0.002   0.007   0.006  -0.009
  0.000   0.000  -0.009  -0.000   0.000   0.020   0.030  -0.005  -0.006   0.041  -0.003  -0.026   0.005   0.004  -0.023   0.003
 -0.000  -0.000  -0.000   0.002  -0.004   0.030   0.060  -0.014   0.116  -0.630   0.006   0.708   0.008  -0.092   0.459  -0.006
 -0.004  -0.005  -0.000   0.021   0.007  -0.005  -0.014   4.918   0.138   0.004   0.182   0.006  -2.667  -0.112  -0.005  -0.143
  0.002  -0.005   0.000   0.015  -0.007  -0.006   0.116   0.138   7.672   0.086   0.437  -0.089  -0.112  -4.937  -0.075  -0.371
 -0.000  -0.000  -0.006  -0.001  -0.006   0.041  -0.630   0.004   0.086   4.667   0.018   0.456  -0.005  -0.074  -2.461  -0.016
  0.005  -0.001   0.000  -0.022   0.015  -0.003   0.006   0.182   0.437   0.018   5.657  -0.006  -0.143  -0.373  -0.016  -3.261
  0.000   0.000   0.000  -0.002   0.003  -0.026   0.708   0.006  -0.089   0.456  -0.006  -1.075  -0.001   0.070  -0.350   0.005
  0.003   0.004   0.000  -0.012  -0.002   0.005   0.008  -2.667  -0.112  -0.005  -0.143  -0.001   1.514   0.090   0.006   0.101
 -0.001   0.003  -0.000  -0.008   0.007   0.004  -0.092  -0.112  -4.937  -0.074  -0.373   0.070   0.090   3.261   0.066   0.302
  0.000   0.000   0.005   0.002   0.006  -0.023   0.459  -0.005  -0.075  -2.461  -0.016  -0.350   0.006   0.066   1.345   0.014
 -0.004   0.001  -0.000   0.009  -0.009   0.003  -0.006  -0.143  -0.371  -0.016  -3.261   0.005   0.101   0.302   0.014   1.957
  0.003   0.003  -0.000  -0.002  -0.000  -0.000  -0.000  -0.085   0.517  -0.012   0.025  -0.002   0.041  -0.328   0.011  -0.025
 -0.001  -0.002   0.000   0.001  -0.000  -0.000   0.003  -0.016   0.007   0.002   0.078  -0.002   0.016  -0.014  -0.002  -0.052


------------------------ aborting loop because EDIFF is reached ----------------------------------------


 


 total charge     
 
# of ion       s       p       d       tot
------------------------------------------
    1        0.280   6.311   4.826  11.417
    2        0.283   6.308   4.829  11.420
    3        0.289   6.322   4.845  11.456
    4        0.288   6.313   4.832  11.433
    5        0.289   6.322   4.845  11.456
    6        0.272   6.290   4.795  11.356
    7        0.293   6.328   4.850  11.471
    8        0.291   6.328   4.814  11.434
    9        0.244   6.242   4.921  11.407
   10        0.221   6.201   4.924  11.346
   11        0.236   6.228   4.943  11.407
   12        0.247   6.243   4.943  11.434
   13        1.575   3.598   0.000   5.173
   14        1.561   3.427   0.000   4.988
   15        1.559   3.474   0.000   5.033
   16        1.559   3.491   0.000   5.050
   17        1.564   3.459   0.000   5.024
   18        1.560   3.489   0.000   5.049
   19        1.558   3.471   0.000   5.029
   20        1.563   3.653   0.000   5.216
   21        1.568   3.373   0.000   4.942
   22        1.559   3.458   0.000   5.018
   23        1.560   3.489   0.000   5.048
   24        1.563   3.472   0.000   5.035
   25        1.559   3.479   0.000   5.038
   26        1.578   3.365   0.000   4.943
   27        1.552   3.490   0.000   5.042
   28        1.558   3.546   0.000   5.104
   29        1.560   3.478   0.000   5.037
   30        1.551   3.487   0.000   5.039
   31        1.555   3.465   0.000   5.020
   32        1.561   3.486   0.000   5.047
   33        0.494   0.055   0.000   0.549
   34        0.500   0.058   0.000   0.558
   35        0.493   0.055   0.000   0.548
   36        0.506   0.055   0.000   0.561
   37        0.751   0.238   0.000   0.988
   38        0.742   0.228   0.000   0.970
   39        0.603   0.122   0.000   0.725
--------------------------------------------------
tot         38.548 145.896  58.368 242.812
 


 magnetization (x)
 
# of ion       s       p       d       tot
------------------------------------------
    1        0.032   0.032   3.906   3.970
    2        0.031   0.032   3.887   3.950
    3       -0.025  -0.024  -3.724  -3.773
    4       -0.034  -0.026  -3.791  -3.850
    5        0.032   0.034   3.874   3.940
    6        0.027   0.032   3.903   3.962
    7       -0.026  -0.024  -3.719  -3.770
    8       -0.019  -0.027  -3.618  -3.664
    9        0.027   0.052   4.365   4.444
   10        0.028   0.044   4.485   4.556
   11        0.027   0.049   4.439   4.516
   12        0.028   0.052   4.411   4.491
   13       -0.001  -0.004   0.000  -0.005
   14        0.009  -0.032   0.000  -0.023
   15        0.008   0.034   0.000   0.042
   16       -0.002  -0.026   0.000  -0.028
   17       -0.004  -0.023   0.000  -0.027
   18        0.008   0.033   0.000   0.041
   19        0.007   0.029   0.000   0.036
   20       -0.008  -0.027   0.000  -0.035
   21        0.001  -0.189   0.000  -0.189
   22       -0.001  -0.029   0.000  -0.030
   23        0.007   0.022   0.000   0.030
   24        0.007   0.053   0.000   0.060
   25        0.008   0.040   0.000   0.048
   26       -0.001   0.192   0.000   0.191
   27        0.004  -0.019   0.000  -0.015
   28        0.005   0.068   0.000   0.074
   29       -0.002  -0.025   0.000  -0.026
   30        0.004  -0.030   0.000  -0.026
   31        0.002   0.013   0.000   0.015
   32       -0.001  -0.038   0.000  -0.040
   33        0.009   0.000   0.000   0.009
   34        0.011  -0.001   0.000   0.010
   35        0.009   0.000   0.000   0.009
   36        0.010   0.000   0.000   0.010
   37       -0.001  -0.001   0.000  -0.002
   38        0.000  -0.000   0.000   0.000
   39       -0.001   0.001   0.000  -0.000
--------------------------------------------------
tot          0.215   0.268  18.418  18.902
 
    CHARGE:  cpu time    3.0423: real time    3.0459
    FORLOC:  cpu time    0.0745: real time    0.0745
    FORNL :  cpu time   10.6183: real time   10.7131
    FORCOR:  cpu time    0.5476: real time    0.5563
    FORHAR:  cpu time    0.0949: real time    0.0949
    MIXING:  cpu time    0.0292: real time    0.0301
    OFIELD:  cpu time    0.0001: real time    0.0001

 VOLUME and BASIS-vectors are now :
 -----------------------------------------------------------------------------
  energy-cutoff  :      520.00
  volume of cell :     1228.02
      direct lattice vectors                 reciprocal lattice vectors
     2.873573495 -2.873573495  4.708335110     0.000000000 -0.094445153  0.154747888
     5.747146990  0.000000000  0.000000000     0.173999378  0.047222576 -0.077373944
     0.000000000 33.065691007 20.180529009     0.000000000  0.022035073  0.013448363

  length of vectors
     6.219587508  5.747146990 38.737496987     0.181292017  0.196195011  0.025814781


 FORCES acting on ions
    electron-ion (+dipol)            ewald-force                    non-local-force                 convergence-correction
 -----------------------------------------------------------------------------------------------
   -.337E+01 0.426E+04 0.261E+04   0.346E+01 -.426E+04 -.262E+04   0.361E-01 0.839E+00 0.202E+01   -.219E-03 0.110E-01 0.749E-02
   0.766E+00 -.147E+04 -.841E+03   0.254E+00 0.147E+04 0.841E+03   -.837E+00 0.800E+00 -.670E+00   -.810E-03 0.167E-01 0.119E-01
   0.597E+01 0.140E+04 0.852E+03   -.582E+01 -.140E+04 -.852E+03   -.163E+00 -.602E-01 -.948E-01   -.353E-05 0.181E-01 0.108E-01
   0.252E+02 -.429E+04 -.263E+04   -.229E+02 0.429E+04 0.263E+04   -.249E+01 -.323E+01 0.106E+01   0.209E-03 0.633E-02 0.300E-02
   -.589E+01 0.138E+04 0.864E+03   0.587E+01 -.138E+04 -.863E+03   0.295E-01 0.116E+00 -.746E+00   -.526E-03 0.177E-01 0.107E-01
   -.281E+02 -.423E+04 -.254E+04   0.287E+02 0.422E+04 0.254E+04   -.432E+00 0.176E+01 -.192E+01   0.481E-03 0.576E-02 0.393E-02
   0.591E+01 0.140E+04 0.858E+03   -.583E+01 -.140E+04 -.858E+03   -.909E-01 -.452E+00 -.465E+00   0.538E-03 0.178E-01 0.107E-01
   0.277E+02 -.418E+04 -.248E+04   -.285E+02 0.418E+04 0.249E+04   0.528E+00 0.214E+01 -.336E+01   -.476E-03 0.630E-02 0.422E-02
   0.471E+01 0.354E+04 0.217E+04   -.390E+01 -.355E+04 -.217E+04   -.848E+00 0.258E+01 0.145E+01   -.195E-03 0.165E-01 0.110E-01
   -.129E+02 -.214E+04 -.134E+04   0.109E+02 0.214E+04 0.134E+04   0.180E+01 -.126E+01 -.429E+00   0.229E-04 0.158E-01 0.796E-02
   -.256E+01 -.697E+03 -.434E+03   0.256E+01 0.698E+03 0.434E+03   0.227E-02 -.426E+00 -.256E+00   0.216E-03 0.196E-01 0.122E-01
   -.376E+01 0.474E+04 0.286E+04   0.351E+01 -.475E+04 -.285E+04   0.250E+00 0.212E+01 -.118E+00   0.366E-03 0.941E-02 0.406E-02
   -.190E+01 -.268E+04 -.140E+04   0.329E+01 0.269E+04 0.135E+04   -.155E+01 -.944E+01 0.379E+02   0.226E-02 -.229E-02 0.240E-03
   -.110E+02 0.249E+04 0.148E+04   0.128E+02 -.247E+04 -.146E+04   -.213E+01 -.189E+02 -.179E+02   -.483E-04 0.192E-02 0.121E-02
   -.473E+01 -.143E+03 0.388E+02   0.544E+01 0.152E+03 -.349E+02   -.781E+00 -.937E+01 -.394E+01   -.593E-04 0.846E-02 0.496E-02
   0.132E+00 0.137E+04 0.765E+03   -.576E-01 -.138E+04 -.762E+03   -.172E+00 0.954E+01 -.282E+01   -.406E-05 0.760E-02 0.449E-02
   0.123E+02 -.119E+04 -.792E+03   -.121E+02 0.118E+04 0.796E+03   -.596E+00 0.914E+01 -.342E+01   0.300E-02 0.825E-02 0.301E-02
   0.162E+03 0.128E+04 0.814E+03   -.171E+03 -.128E+04 -.811E+03   0.975E+01 0.947E+00 -.202E+01   0.508E-03 0.741E-02 0.514E-02
   -.161E+03 -.134E+04 -.778E+03   0.170E+03 0.134E+04 0.780E+03   -.821E+01 -.636E+00 -.210E+01   -.176E-03 0.560E-02 0.383E-02
   0.796E+01 -.261E+04 -.153E+04   -.130E+02 0.259E+04 0.150E+04   0.480E+01 0.138E+02 0.255E+02   -.250E-02 -.213E-02 0.982E-03
   0.291E+02 0.251E+04 0.156E+04   -.508E+02 -.251E+04 -.157E+04   0.244E+02 -.116E+02 0.796E+01   -.606E-04 0.162E-02 0.751E-03
   0.771E+01 -.112E+03 -.682E+01   -.833E+01 0.122E+03 0.493E+01   0.630E+00 -.104E+02 0.171E+01   0.509E-04 0.847E-02 0.495E-02
   -.207E+00 0.142E+04 0.738E+03   -.872E-01 -.143E+04 -.741E+03   0.404E+00 0.986E+01 0.268E+01   0.247E-05 0.820E-02 0.396E-02
   -.162E+02 -.115E+04 -.841E+03   0.171E+02 0.114E+04 0.838E+03   -.590E+00 0.944E+01 0.240E+01   -.272E-02 0.821E-02 0.350E-02
   -.163E+03 0.156E+02 -.185E+02   0.171E+03 -.151E+02 0.151E+02   -.886E+01 -.918E+00 0.331E+01   -.586E-04 0.840E-02 0.535E-02
   -.180E+03 -.244E+04 -.162E+04   0.192E+03 0.245E+04 0.163E+04   -.111E+02 -.113E+02 -.132E+02   -.647E-04 0.134E-02 -.333E-02
   0.199E+02 0.251E+04 0.153E+04   -.209E+02 -.250E+04 -.152E+04   0.598E-01 -.171E+02 -.120E+02   -.580E-04 0.186E-02 0.118E-02
   0.119E+03 -.253E+04 -.161E+04   -.957E+02 0.255E+04 0.160E+04   -.228E+02 -.196E+02 0.656E+01   0.144E-03 0.389E-03 -.335E-03
   0.163E+03 0.263E+01 -.309E+02   -.172E+03 -.275E+01 0.276E+02   0.875E+01 -.319E+00 0.310E+01   0.212E-04 0.856E-02 0.543E-02
   -.201E+02 0.251E+04 0.154E+04   0.208E+02 -.250E+04 -.153E+04   0.431E+00 -.177E+02 -.108E+02   0.186E-04 0.190E-02 0.113E-02
   0.160E+03 -.143E+04 -.795E+03   -.167E+03 0.143E+04 0.795E+03   0.706E+01 -.218E+01 0.150E+00   -.983E-04 0.499E-02 0.640E-02
   -.162E+03 0.128E+04 0.816E+03   0.171E+03 -.128E+04 -.813E+03   -.951E+01 0.689E+00 -.228E+01   -.578E-03 0.743E-02 0.517E-02
   0.871E+00 0.493E+03 0.303E+03   -.414E+00 -.494E+03 -.303E+03   0.105E+00 0.420E+01 0.266E+01   0.391E-05 -.160E-03 -.846E-04
   -.316E+02 0.471E+03 0.269E+03   0.324E+02 -.471E+03 -.269E+03   -.369E+01 0.322E+01 0.138E+00   0.611E-03 -.591E-03 0.813E-05
   -.205E+01 0.493E+03 0.303E+03   0.162E+01 -.493E+03 -.304E+03   -.230E+00 0.423E+01 0.263E+01   -.777E-05 -.201E-03 -.102E-03
   -.104E+01 0.493E+03 0.296E+03   0.140E+01 -.494E+03 -.297E+03   0.485E-02 0.430E+01 0.234E+01   -.135E-04 -.362E-03 -.193E-03
   -.382E+01 -.516E+03 -.333E+03   0.487E+01 0.531E+03 0.347E+03   -.641E+00 -.884E+01 -.849E+01   -.151E-03 -.566E-03 -.319E-03
   -.746E+00 -.480E+03 -.350E+03   0.727E+00 0.484E+03 0.369E+03   0.405E-01 -.279E+01 -.116E+02   0.195E-03 -.400E-03 -.403E-03
   0.739E+02 -.396E+03 -.292E+03   -.813E+02 0.394E+03 0.295E+03   0.728E+01 0.149E+01 -.336E+01   -.257E-04 0.370E-04 -.117E-04
 -----------------------------------------------------------------------------------------------
   0.938E+01 0.652E+02 -.173E+01   -.114E-12 0.153E-11 0.512E-12   -.938E+01 -.654E+02 0.158E+01   -.204E-03 0.255E+00 0.155E+00
 
 
 POSITION                                       TOTAL-FORCE (eV/Angst)
 -----------------------------------------------------------------------------------
      5.76288      2.30925      2.83538         0.123520     -1.624058     -1.531723
      2.89373      5.24962      7.60195         0.182360      0.815302      0.071733
      2.88931      2.30925      7.54371        -0.014930      0.759729      0.121979
      2.95774      8.27592      7.57814        -0.239626      0.438019      0.159704
      4.32610      3.74603      5.18954         0.012928      0.782386      0.294328
      4.37131      6.75273      9.96208         0.185449      0.907463      0.225465
      1.45252      3.74603      5.18954        -0.007702      0.609248      0.247493
      7.22925      6.68930      9.95044        -0.243546      0.943264      1.169458
      5.76288      0.87246      6.36663        -0.037014     -1.248383     -0.816022
      5.82592      6.72975      6.44218        -0.163902     -0.070729      0.389188
      5.75594      3.79085      8.74455         0.006508     -0.150425     -0.109068
      2.88931      0.87246      4.01246         0.005066     -0.446649      0.295700
      5.81620      8.21115     10.06298        -0.160098     -2.813403     -7.366284
      2.88931     -0.69884      5.25540        -0.319787     -3.625903     -1.974535
      2.87578      5.07847      5.30933        -0.075660     -0.310084     -0.020417
      2.88931      2.44376      5.25540        -0.097710      0.192658      0.327981
      2.89144      8.23760      5.27084        -0.461442      0.559082      0.051162
      4.46061      3.74603      2.90123         0.312981      0.276332      0.511394
      4.18165      6.75572      7.68761         0.069521     -0.506456      0.055444
      2.94885      8.24653      9.85036        -0.196355     -6.821675     -5.791994
      5.76288     -0.69884      5.12368         2.700283     -2.523031     -0.223017
      5.77509      5.09321      5.15457         0.007299     -0.330237     -0.176224
      5.76288      2.44376      5.12368         0.109654      0.231914     -0.391992
      0.06186      8.27526      5.13071         0.354867      0.396676     -0.255144
      4.17993      3.78660      7.45958        -0.050576     -0.373344     -0.104035
      4.31637      9.50151      7.18075         0.141324      0.004019     -1.087830
      4.46061      0.87246      2.76952        -0.962739     -3.603867     -2.165540
      1.58484      9.68972      7.43042         0.273211     -0.197093     -0.298521
      7.35718      3.80876      7.48926        -0.097023     -0.423937     -0.119565
      1.31801      0.87246      2.76952         1.066614     -3.666046     -1.940854
      7.35190      6.79157      7.87013         0.039617     -0.254980      0.163812
      1.31801      3.74603      2.90123        -0.143364      0.230560      0.408117
      4.44914     -0.05819      2.16465         0.562377      3.796374      2.312759
      6.59433     -1.43378      5.09818        -2.887573      3.071227      0.455449
      1.35527     -0.06710      2.17965        -0.655559      3.937421      2.095825
      2.87242     -1.67143      4.72073         0.364419      3.670579      2.171103
      2.99596      8.86480     10.45257         0.411502      5.708345      5.606859
      5.81187      8.40877     10.91491         0.021718      1.708778      7.177896
      6.46144      9.49008      7.82998        -0.136609     -0.049078      0.059916
 -----------------------------------------------------------------------------------
    total drift:                               -0.000416      0.015157     -0.000373


--------------------------------------------------------------------------------------------------------



  FREE ENERGIE OF THE ION-ELECTRON SYSTEM (eV)
  ---------------------------------------------------
  free  energy   TOTEN  =      -261.15959805 eV

  energy  without entropy=     -261.15725295  energy(sigma->0) =     -261.15881635
 
 d Force =-0.7106883E+00[-0.211E+01, 0.693E+00]  d Energy =-0.1211995E+01 0.501E+00
 d Force =-0.3802768E+02[-0.416E+02,-0.344E+02]  d Ewald  =-0.3788640E+02-0.141E+00


--------------------------------------------------------------------------------------------------------


    POTLOK:  cpu time    0.5142: real time    0.5142


--------------------------------------------------------------------------------------------------------


 stress matrix after NEB project (eV)
      0.00000      0.00000      0.00000
      0.00000      0.00000      0.00000
      0.00000      0.00000      0.00000
  FORCES: max atom, RMS     8.951033    2.624553
  FORCE total and by dimension   16.390327    7.366284
  Stress total and by dimension    0.000000    0.000000
 Steepest descent step on ions:
 trial-energy change:    1.211995  1 .order    0.710688   -0.693406    2.114783
  (g-gl).g = 0.693E+00      g.g   = 0.693E+00  gl.gl    = 0.000E+00
 g(Force)  = 0.693E+00   g(Stress)= 0.000E+00 ortho     = 0.000E+00
 gamma     =   0.00000
 trial     =   1.00000
 opt step  =   0.12765  (harmonic =   0.24692) maximal distance =0.00977722
 next E    =  -262.414807   (d E  =  -0.04321)


--------------------------------------------------------------------------------------------------------


    WAVPRE:  cpu time    0.0815: real time    0.1048
    FEWALD:  cpu time    0.0017: real time    0.0017

 real space projection operators:
  total allocation   :      16347.69 KBytes
  max/ min on nodes  :        754.64        248.03

    ORTHCH:  cpu time    3.8918: real time    3.9294
     LOOP+:  cpu time 1510.8982: real time 1525.2125


--------------------------------------- Iteration      3(   1)  ---------------------------------------


    POTLOK:  cpu time    0.4923: real time    0.5009
    SETDIJ:  cpu time    0.0410: real time    0.0410
     EDDAV:  cpu time   39.2490: real time   39.6239
       DOS:  cpu time    0.0265: real time    0.0265
    CHARGE:  cpu time    3.0379: real time    3.0418
    MIXING:  cpu time    0.0094: real time    0.0093
    --------------------------------------------
      LOOP:  cpu time   42.8563: real time   43.2437

 eigenvalue-minimisations  :  8160
 total energy-change (2. order) : 0.1253202E+00  (-0.1300225E+02)
 number of electron     283.0000003 magnetization      20.0323418
 augmentation part      100.4568440 magnetization      12.9130440

  free energy =  -0.261034270709E+03  energy without entropy=  -0.261040050825E+03


--------------------------------------------------------------------------------------------------------




--------------------------------------- Iteration      3(   2)  ---------------------------------------


    POTLOK:  cpu time    0.4652: real time    0.4975
    SETDIJ:  cpu time    0.0410: real time    0.0410
    EDDIAG:  cpu time    7.6886: real time    7.7310
  RMM-DIIS:  cpu time   26.4998: real time   26.9859
    ORTHCH:  cpu time    0.3871: real time    0.3872
       DOS:  cpu time    0.0259: real time    0.0259
    CHARGE:  cpu time    3.0435: real time    3.0536
    MIXING:  cpu time    0.0092: real time    0.0092
    --------------------------------------------
      LOOP:  cpu time   38.1603: real time   38.7313

 eigenvalue-minimisations  :  8836
 total energy-change (2. order) :-0.1395382E+01  (-0.1251999E+01)
 number of electron     283.0000004 magnetization      20.0197079
 augmentation part      100.5224925 magnetization      13.7389328

 eigenvalues of (default mixing * dielectric matrix)
  average eigenvalue GAMMA=   0.2969
  0.2969

  free energy =  -0.262429652320E+03  energy without entropy=  -0.262429837185E+03


--------------------------------------------------------------------------------------------------------




--------------------------------------- Iteration      3(   3)  ---------------------------------------


    POTLOK:  cpu time    0.4657: real time    0.4979
    SETDIJ:  cpu time    0.0411: real time    0.0411
    EDDIAG:  cpu time    7.5871: real time    7.5953
  RMM-DIIS:  cpu time   23.6499: real time   23.7786
    ORTHCH:  cpu time    0.3854: real time    0.3863
       DOS:  cpu time    0.0263: real time    0.0264
    CHARGE:  cpu time    3.0001: real time    3.0130
    MIXING:  cpu time    0.0093: real time    0.0093
    --------------------------------------------
      LOOP:  cpu time   35.1650: real time   35.3479

 eigenvalue-minimisations  :  7889
 total energy-change (2. order) : 0.2909776E+00  (-0.8869360E-01)
 number of electron     283.0000003 magnetization      20.0106845
 augmentation part      100.4075047 magnetization      13.4101510

 eigenvalues of (default mixing * dielectric matrix)
  average eigenvalue GAMMA=   0.4512
  0.4512  0.4512

  free energy =  -0.262138674762E+03  energy without entropy=  -0.262132294639E+03


--------------------------------------------------------------------------------------------------------




--------------------------------------- Iteration      3(   4)  ---------------------------------------


    POTLOK:  cpu time    0.4954: real time    0.4956
    SETDIJ:  cpu time    0.0400: real time    0.0408
    EDDIAG:  cpu time    8.0302: real time    8.4723
  RMM-DIIS:  cpu time   22.9871: real time   23.0191
    ORTHCH:  cpu time    0.3849: real time    0.3849
       DOS:  cpu time    0.0254: real time    0.0254
    CHARGE:  cpu time    3.0222: real time    3.0253
    MIXING:  cpu time    0.0095: real time    0.0095
    --------------------------------------------
      LOOP:  cpu time   34.9948: real time   35.4729

 eigenvalue-minimisations  :  7751
 total energy-change (2. order) : 0.9286054E-02  (-0.1620804E-01)
 number of electron     283.0000003 magnetization      20.0171958
 augmentation part      100.3799060 magnetization      12.9150553

 eigenvalues of (default mixing * dielectric matrix)
  average eigenvalue GAMMA=   0.4578
  0.5998  0.3868  0.3868

  free energy =  -0.262129388708E+03  energy without entropy=  -0.262139683041E+03


--------------------------------------------------------------------------------------------------------




--------------------------------------- Iteration      3(   5)  ---------------------------------------


    POTLOK:  cpu time    0.4954: real time    0.4964
    SETDIJ:  cpu time    0.0410: real time    0.0410
    EDDIAG:  cpu time    7.5932: real time    7.6008
  RMM-DIIS:  cpu time   23.2469: real time   23.6872
    ORTHCH:  cpu time    0.3897: real time    0.3969
       DOS:  cpu time    0.0260: real time    0.0260
    CHARGE:  cpu time    3.0010: real time    3.0038
    MIXING:  cpu time    0.0096: real time    0.0105
    --------------------------------------------
      LOOP:  cpu time   34.8029: real time   35.2627

 eigenvalue-minimisations  :  7652
 total energy-change (2. order) : 0.1482722E-01  (-0.7054516E-02)
 number of electron     283.0000003 magnetization      20.0185955
 augmentation part      100.4093181 magnetization      13.1564096

 eigenvalues of (default mixing * dielectric matrix)
  average eigenvalue GAMMA=   0.5569
  0.7232  0.7232  0.3906  0.3906

  free energy =  -0.262114561489E+03  energy without entropy=  -0.262106557680E+03


--------------------------------------------------------------------------------------------------------




--------------------------------------- Iteration      3(   6)  ---------------------------------------


    POTLOK:  cpu time    0.4653: real time    0.4968
    SETDIJ:  cpu time    0.0407: real time    0.0407
    EDDIAG:  cpu time    7.5997: real time    7.6080
  RMM-DIIS:  cpu time   22.6205: real time   22.6438
    ORTHCH:  cpu time    0.3869: real time    0.3869
       DOS:  cpu time    0.0263: real time    0.0263
    CHARGE:  cpu time    3.0318: real time    3.0359
    MIXING:  cpu time    0.0099: real time    0.0099
    --------------------------------------------
      LOOP:  cpu time   34.1810: real time   34.2482

 eigenvalue-minimisations  :  7590
 total energy-change (2. order) :-0.2763438E-01  (-0.3421881E-02)
 number of electron     283.0000003 magnetization      20.0113946
 augmentation part      100.4554273 magnetization      13.4550047

 eigenvalues of (default mixing * dielectric matrix)
  average eigenvalue GAMMA=   0.5930
  0.8998  0.8998  0.3739  0.3739  0.4177

  free energy =  -0.262142195873E+03  energy without entropy=  -0.262134447973E+03


--------------------------------------------------------------------------------------------------------




--------------------------------------- Iteration      3(   7)  ---------------------------------------


    POTLOK:  cpu time    0.4663: real time    0.4675
    SETDIJ:  cpu time    0.0410: real time    0.0410
    EDDIAG:  cpu time    7.9359: real time    7.9835
  RMM-DIIS:  cpu time   23.1175: real time   23.4863
    ORTHCH:  cpu time    0.3899: real time    0.3904
       DOS:  cpu time    0.0270: real time    0.0278
    CHARGE:  cpu time    3.0331: real time    3.0366
    MIXING:  cpu time    0.0191: real time    0.0210
    --------------------------------------------
      LOOP:  cpu time   35.0298: real time   35.4541

 eigenvalue-minimisations  :  7497
 total energy-change (2. order) : 0.5026998E-01  (-0.3311094E-02)
 number of electron     283.0000003 magnetization      20.0063408
 augmentation part      100.4237441 magnetization      13.2394651

 eigenvalues of (default mixing * dielectric matrix)
  average eigenvalue GAMMA=   0.7592
  1.7407  0.8811  0.3882  0.3882  0.6633  0.4937

  free energy =  -0.262091925895E+03  energy without entropy=  -0.262088514517E+03


--------------------------------------------------------------------------------------------------------




--------------------------------------- Iteration      3(   8)  ---------------------------------------


    POTLOK:  cpu time    0.4763: real time    0.4780
    SETDIJ:  cpu time    0.0436: real time    0.0446
    EDDIAG:  cpu time    7.6028: real time    7.6164
  RMM-DIIS:  cpu time   23.0124: real time   23.0915
    ORTHCH:  cpu time    0.3874: real time    0.3875
       DOS:  cpu time    0.0258: real time    0.0258
    CHARGE:  cpu time    3.0363: real time    3.0393
    MIXING:  cpu time    0.0101: real time    0.0101
    --------------------------------------------
      LOOP:  cpu time   34.5949: real time   34.6931

 eigenvalue-minimisations  :  7652
 total energy-change (2. order) :-0.1056812E-01  (-0.1112430E-02)
 number of electron     283.0000003 magnetization      20.0063463
 augmentation part      100.3903176 magnetization      13.0224618

 eigenvalues of (default mixing * dielectric matrix)
  average eigenvalue GAMMA=   0.7673
  1.9835  0.7860  0.7860  0.3875  0.3875  0.5203  0.5203

  free energy =  -0.262102494019E+03  energy without entropy=  -0.262103965680E+03


--------------------------------------------------------------------------------------------------------




--------------------------------------- Iteration      3(   9)  ---------------------------------------


    POTLOK:  cpu time    0.4680: real time    0.4689
    SETDIJ:  cpu time    0.0410: real time    0.0410
    EDDIAG:  cpu time    7.6976: real time    7.7402
  RMM-DIIS:  cpu time   21.7468: real time   22.0676
    ORTHCH:  cpu time    0.3869: real time    0.3879
       DOS:  cpu time    0.0255: real time    0.0255
    CHARGE:  cpu time    3.0311: real time    3.0341
    MIXING:  cpu time    0.0105: real time    0.0105
    --------------------------------------------
      LOOP:  cpu time   33.4073: real time   33.7757

 eigenvalue-minimisations  :  7100
 total energy-change (2. order) :-0.6415215E-02  (-0.4247245E-03)
 number of electron     283.0000003 magnetization      20.0073547
 augmentation part      100.3836098 magnetization      12.9860542

 eigenvalues of (default mixing * dielectric matrix)
  average eigenvalue GAMMA=   0.7758
  2.1544  0.3958  0.3958  0.6713  0.6713  0.7257  0.7257  0.4665

  free energy =  -0.262108909234E+03  energy without entropy=  -0.262109806233E+03


--------------------------------------------------------------------------------------------------------




--------------------------------------- Iteration      3(  10)  ---------------------------------------


    POTLOK:  cpu time    0.4657: real time    0.4666
    SETDIJ:  cpu time    0.0408: real time    0.0409
    EDDIAG:  cpu time    7.6017: real time    7.6094
  RMM-DIIS:  cpu time   21.6322: real time   21.7165
    ORTHCH:  cpu time    0.3849: real time    0.3859
       DOS:  cpu time    0.0240: real time    0.0240
    CHARGE:  cpu time    3.0599: real time    3.0774
    MIXING:  cpu time    0.0107: real time    0.0107
    --------------------------------------------
      LOOP:  cpu time   33.2200: real time   33.3315

 eigenvalue-minimisations  :  7226
 total energy-change (2. order) : 0.7325401E-02  (-0.2531376E-03)
 number of electron     283.0000003 magnetization      20.0075157
 augmentation part      100.3953336 magnetization      13.0547218

 eigenvalues of (default mixing * dielectric matrix)
  average eigenvalue GAMMA=   0.8228
  2.1960  0.8343  0.8343  0.3925  0.3925  0.8828  0.7980  0.5372  0.5372

  free energy =  -0.262101583833E+03  energy without entropy=  -0.262097876737E+03


--------------------------------------------------------------------------------------------------------




--------------------------------------- Iteration      3(  11)  ---------------------------------------


    POTLOK:  cpu time    0.4746: real time    0.4796
    SETDIJ:  cpu time    0.0411: real time    0.0411
    EDDIAG:  cpu time    7.8366: real time    8.1960
  RMM-DIIS:  cpu time   22.2475: real time   22.2768
    ORTHCH:  cpu time    0.3847: real time    0.3855
       DOS:  cpu time    0.0258: real time    0.0258
    CHARGE:  cpu time    3.0282: real time    3.0312
    MIXING:  cpu time    0.0110: real time    0.0110
    --------------------------------------------
      LOOP:  cpu time   34.0495: real time   34.4470

 eigenvalue-minimisations  :  7469
 total energy-change (2. order) :-0.1466585E-02  (-0.1014322E-03)
 number of electron     283.0000003 magnetization      20.0056554
 augmentation part      100.4111462 magnetization      13.1570228

 eigenvalues of (default mixing * dielectric matrix)
  average eigenvalue GAMMA=   0.8416
  2.1693  0.8249  0.8249  1.0372  1.0372  0.3924  0.3924  0.6533  0.5424  0.5424

  free energy =  -0.262103050418E+03  energy without entropy=  -0.262095971664E+03


--------------------------------------------------------------------------------------------------------




--------------------------------------- Iteration      3(  12)  ---------------------------------------


    POTLOK:  cpu time    0.4640: real time    0.4647
    SETDIJ:  cpu time    0.0411: real time    0.0411
    EDDIAG:  cpu time    7.5674: real time    7.5748
  RMM-DIIS:  cpu time   19.9952: real time   20.1728
    ORTHCH:  cpu time    0.4290: real time    0.4995
       DOS:  cpu time    0.0265: real time    0.0348
    CHARGE:  cpu time    3.2444: real time    3.4888
    MIXING:  cpu time    0.0113: real time    0.0113
    --------------------------------------------
      LOOP:  cpu time   31.7788: real time   32.2877

 eigenvalue-minimisations  :  6579
 total energy-change (2. order) :-0.2718265E-02  (-0.6846708E-04)
 number of electron     283.0000003 magnetization      20.0043181
 augmentation part      100.4152780 magnetization      13.1829868

 eigenvalues of (default mixing * dielectric matrix)
  average eigenvalue GAMMA=   0.8338
  2.2264  0.8469  0.8469  1.0477  1.0477  0.3921  0.3921  0.6217  0.6217  0.6201
  0.5083

  free energy =  -0.262105768683E+03  energy without entropy=  -0.262099018269E+03


--------------------------------------------------------------------------------------------------------




--------------------------------------- Iteration      3(  13)  ---------------------------------------


    POTLOK:  cpu time    0.4644: real time    0.4652
    SETDIJ:  cpu time    0.0407: real time    0.0407
    EDDIAG:  cpu time    7.5459: real time    7.5535
  RMM-DIIS:  cpu time   19.4909: real time   19.5117
    ORTHCH:  cpu time    0.3856: real time    0.3856
       DOS:  cpu time    0.0252: real time    0.0253
    CHARGE:  cpu time    2.9888: real time    2.9929
    MIXING:  cpu time    0.0112: real time    0.0112
    --------------------------------------------
      LOOP:  cpu time   30.9528: real time   30.9861

 eigenvalue-minimisations  :  6394
 total energy-change (2. order) : 0.6926042E-03  (-0.2284540E-04)
 number of electron     283.0000003 magnetization      20.0023826
 augmentation part      100.4145295 magnetization      13.1733183

 eigenvalues of (default mixing * dielectric matrix)
  average eigenvalue GAMMA=   0.8737
  2.2590  1.0310  1.0310  1.0094  1.0094  0.8115  0.8115  0.3923  0.3923  0.6335
  0.5517  0.5517

  free energy =  -0.262105076079E+03  energy without entropy=  -0.262098892279E+03


--------------------------------------------------------------------------------------------------------




--------------------------------------- Iteration      3(  14)  ---------------------------------------


    POTLOK:  cpu time    0.4645: real time    0.4646
    SETDIJ:  cpu time    0.0410: real time    0.0410
    EDDIAG:  cpu time    7.5707: real time    7.5844
  RMM-DIIS:  cpu time   21.2860: real time   21.8383
    ORTHCH:  cpu time    0.3844: real time    0.3844
       DOS:  cpu time    0.0256: real time    0.0256
    CHARGE:  cpu time    2.9995: real time    3.0032
    MIXING:  cpu time    0.0115: real time    0.0115
    --------------------------------------------
      LOOP:  cpu time   32.7832: real time   33.3530

 eigenvalue-minimisations  :  6805
 total energy-change (2. order) : 0.4896251E-03  (-0.1623050E-04)
 number of electron     283.0000003 magnetization      20.0007489
 augmentation part      100.4098536 magnetization      13.1394575

 eigenvalues of (default mixing * dielectric matrix)
  average eigenvalue GAMMA=   0.8887
  2.3364  1.0260  1.0260  1.1903  1.1903  0.3923  0.3923  0.7969  0.7969  0.5683
  0.5683  0.6347  0.6347

  free energy =  -0.262104586454E+03  energy without entropy=  -0.262099254256E+03


--------------------------------------------------------------------------------------------------------




--------------------------------------- Iteration      3(  15)  ---------------------------------------


    POTLOK:  cpu time    0.4639: real time    0.4639
    SETDIJ:  cpu time    0.0410: real time    0.0410
    EDDIAG:  cpu time    7.5519: real time    7.5599
  RMM-DIIS:  cpu time   17.1687: real time   17.1868
    ORTHCH:  cpu time    0.3845: real time    0.3846
       DOS:  cpu time    0.0261: real time    0.0261
    CHARGE:  cpu time    3.0070: real time    3.0108
    MIXING:  cpu time    0.0118: real time    0.0118
    --------------------------------------------
      LOOP:  cpu time   28.6549: real time   28.6847

 eigenvalue-minimisations  :  5582
 total energy-change (2. order) :-0.5527058E-03  (-0.6193761E-05)
 number of electron     283.0000003 magnetization      19.9998276
 augmentation part      100.4061864 magnetization      13.1151229

 eigenvalues of (default mixing * dielectric matrix)
  average eigenvalue GAMMA=   0.9082
  2.4049  1.5576  1.0309  1.0309  1.0946  0.8119  0.8119  0.3923  0.3923  0.7215
  0.7215  0.5468  0.5985  0.5985

  free energy =  -0.262105139159E+03  energy without entropy=  -0.262100289994E+03


--------------------------------------------------------------------------------------------------------




--------------------------------------- Iteration      3(  16)  ---------------------------------------


    POTLOK:  cpu time    0.4637: real time    0.4638
    SETDIJ:  cpu time    0.0407: real time    0.0407
    EDDIAG:  cpu time    7.6103: real time    7.6249
  RMM-DIIS:  cpu time   16.6665: real time   17.0357
    ORTHCH:  cpu time    0.3855: real time    0.3856
       DOS:  cpu time    0.0259: real time    0.0259
    CHARGE:  cpu time    3.0050: real time    3.0077
    MIXING:  cpu time    0.0122: real time    0.0122
    --------------------------------------------
      LOOP:  cpu time   28.2099: real time   28.5964

 eigenvalue-minimisations  :  5042
 total energy-change (2. order) :-0.2383713E-03  (-0.4692309E-05)
 number of electron     283.0000003 magnetization      19.9989380
 augmentation part      100.4058606 magnetization      13.1132242

 eigenvalues of (default mixing * dielectric matrix)
  average eigenvalue GAMMA=   0.9214
  2.4575  1.6292  1.0762  1.0762  1.1149  0.8509  0.8509  0.3923  0.3923  0.7414
  0.7414  0.7815  0.5580  0.5580  0.6001

  free energy =  -0.262105377531E+03  energy without entropy=  -0.262100295592E+03


--------------------------------------------------------------------------------------------------------




--------------------------------------- Iteration      3(  17)  ---------------------------------------


    POTLOK:  cpu time    0.4631: real time    0.4639
    SETDIJ:  cpu time    0.0410: real time    0.0410
    EDDIAG:  cpu time    7.5593: real time    7.5667
  RMM-DIIS:  cpu time   17.0254: real time   17.0550
    ORTHCH:  cpu time    0.3840: real time    0.3850
       DOS:  cpu time    0.0254: real time    0.0255
    CHARGE:  cpu time    3.0172: real time    3.0204
    MIXING:  cpu time    0.0125: real time    0.0125
    --------------------------------------------
      LOOP:  cpu time   28.5279: real time   28.5700

 eigenvalue-minimisations  :  5542
 total energy-change (2. order) :-0.1192798E-03  (-0.3455121E-05)
 number of electron     283.0000003 magnetization      19.9973013
 augmentation part      100.4077678 magnetization      13.1246934

 eigenvalues of (default mixing * dielectric matrix)
  average eigenvalue GAMMA=   0.9335
  2.5044  1.7274  1.1142  1.1142  0.8669  0.8669  1.0746  1.0746  0.3923  0.3923
  0.7063  0.7063  0.5646  0.5864  0.5864  0.6576

  free energy =  -0.262105496810E+03  energy without entropy=  -0.262099922590E+03


--------------------------------------------------------------------------------------------------------




--------------------------------------- Iteration      3(  18)  ---------------------------------------


    POTLOK:  cpu time    0.4629: real time    0.4637
    SETDIJ:  cpu time    0.0409: real time    0.0409
    EDDIAG:  cpu time    7.5673: real time    7.5803
  RMM-DIIS:  cpu time   14.6979: real time   14.7913
    ORTHCH:  cpu time    0.3863: real time    0.4070
       DOS:  cpu time    0.0262: real time    0.0303
    CHARGE:  cpu time    3.6346: real time    3.8804
    MIXING:  cpu time    0.0229: real time    0.0257
    --------------------------------------------
      LOOP:  cpu time   26.8391: real time   27.2195

 eigenvalue-minimisations  :  4557
 total energy-change (2. order) :-0.3495013E-03  (-0.1861251E-05)
 number of electron     283.0000003 magnetization      19.9959223
 augmentation part      100.4100711 magnetization      13.1394924

 eigenvalues of (default mixing * dielectric matrix)
  average eigenvalue GAMMA=   0.9268
  2.5280  1.8996  1.0976  1.0976  1.2012  1.2012  0.8509  0.8509  0.3923  0.3923
  0.6705  0.6705  0.6828  0.6547  0.5467  0.5467  0.4727

  free energy =  -0.262105846312E+03  energy without entropy=  -0.262099886928E+03


--------------------------------------------------------------------------------------------------------




--------------------------------------- Iteration      3(  19)  ---------------------------------------


    POTLOK:  cpu time    0.6399: real time    0.6673
    SETDIJ:  cpu time    0.0442: real time    0.0442
    EDDIAG:  cpu time    7.7755: real time    7.8099
  RMM-DIIS:  cpu time   13.8447: real time   13.8587
    ORTHCH:  cpu time    0.3856: real time    0.3867
       DOS:  cpu time    0.0248: real time    0.0247
    CHARGE:  cpu time    3.0057: real time    3.0087
    MIXING:  cpu time    0.0133: real time    0.0133
    --------------------------------------------
      LOOP:  cpu time   25.7342: real time   25.8139

 eigenvalue-minimisations  :  4110
 total energy-change (2. order) :-0.1202888E-03  (-0.1468721E-05)
 number of electron     283.0000003 magnetization      19.9943853
 augmentation part      100.4107450 magnetization      13.1425431

 eigenvalues of (default mixing * dielectric matrix)
  average eigenvalue GAMMA=   0.9358
  2.5905  2.0137  1.0845  1.0845  1.2351  1.2351  0.9002  0.9002  0.3923  0.3923
  0.7498  0.7498  0.7024  0.6643  0.5793  0.5793  0.5341  0.4576

  free energy =  -0.262105966600E+03  energy without entropy=  -0.262100044490E+03


--------------------------------------------------------------------------------------------------------




--------------------------------------- Iteration      3(  20)  ---------------------------------------


    POTLOK:  cpu time    0.4632: real time    0.4641
    SETDIJ:  cpu time    0.0409: real time    0.0409
    EDDIAG:  cpu time    7.5575: real time    7.5648
  RMM-DIIS:  cpu time   14.4125: real time   14.4723
    ORTHCH:  cpu time    0.3851: real time    0.3860
       DOS:  cpu time    0.0259: real time    0.0259
    CHARGE:  cpu time    3.0124: real time    3.0296
    MIXING:  cpu time    0.0140: real time    0.0140
    --------------------------------------------
      LOOP:  cpu time   25.9112: real time   25.9972

 eigenvalue-minimisations  :  4444
 total energy-change (2. order) : 0.5116820E-04  (-0.1730070E-05)
 number of electron     283.0000003 magnetization      19.9922420
 augmentation part      100.4095137 magnetization      13.1317892

 eigenvalues of (default mixing * dielectric matrix)
  average eigenvalue GAMMA=   0.9610
  2.7631  2.1752  1.0865  1.0865  1.2260  1.2260  0.9659  0.9659  0.8555  0.8555
  0.3923  0.3923  0.7259  0.7259  0.6110  0.6110  0.5533  0.5533  0.4876

  free energy =  -0.262105915432E+03  energy without entropy=  -0.262100313860E+03


--------------------------------------------------------------------------------------------------------




--------------------------------------- Iteration      3(  21)  ---------------------------------------


    POTLOK:  cpu time    0.4638: real time    0.4639
    SETDIJ:  cpu time    0.0410: real time    0.0410
    EDDIAG:  cpu time    7.9537: real time    8.2927
  RMM-DIIS:  cpu time   12.9860: real time   12.9995
    ORTHCH:  cpu time    0.3841: real time    0.3850
       DOS:  cpu time    0.0250: real time    0.0251
    CHARGE:  cpu time    3.0001: real time    3.0031
    MIXING:  cpu time    0.0147: real time    0.0147
    --------------------------------------------
      LOOP:  cpu time   24.8685: real time   25.2248

 eigenvalue-minimisations  :  3699
 total energy-change (2. order) :-0.2116437E-03  (-0.6383841E-06)
 number of electron     283.0000003 magnetization      19.9899125
 augmentation part      100.4083737 magnetization      13.1217501

 eigenvalues of (default mixing * dielectric matrix)
  average eigenvalue GAMMA=   0.9916
  3.1137  2.2797  1.0811  1.0811  1.2555  1.2555  1.0248  1.0248  0.9155  0.9155
  0.3923  0.3923  0.7868  0.7868  0.6690  0.6690  0.5772  0.5772  0.5577  0.4762

  free energy =  -0.262106127076E+03  energy without entropy=  -0.262100693131E+03


--------------------------------------------------------------------------------------------------------




--------------------------------------- Iteration      3(  22)  ---------------------------------------


    POTLOK:  cpu time    0.4633: real time    0.4633
    SETDIJ:  cpu time    0.0400: real time    0.0408
    EDDIAG:  cpu time    7.5500: real time    7.5575
  RMM-DIIS:  cpu time   13.2184: real time   13.2333
    ORTHCH:  cpu time    0.3857: real time    0.3856
       DOS:  cpu time    0.0246: real time    0.0246
    CHARGE:  cpu time    3.0125: real time    3.0203
    MIXING:  cpu time    0.0149: real time    0.0149
    --------------------------------------------
      LOOP:  cpu time   24.7095: real time   24.7402

 eigenvalue-minimisations  :  3751
 total energy-change (2. order) :-0.3237498E-03  (-0.6760795E-06)
 number of electron     283.0000003 magnetization      19.9860183
 augmentation part      100.4084771 magnetization      13.1189595

 eigenvalues of (default mixing * dielectric matrix)
  average eigenvalue GAMMA=   1.0511
  4.1105  2.3993  1.0827  1.0827  1.4131  1.4131  1.0117  1.0117  0.8921  0.8921
  0.3923  0.3923  0.9800  0.7893  0.6821  0.6821  0.6922  0.5714  0.5714  0.5538
  0.4569

  free energy =  -0.262106450826E+03  energy without entropy=  -0.262100897159E+03


--------------------------------------------------------------------------------------------------------




--------------------------------------- Iteration      3(  23)  ---------------------------------------


    POTLOK:  cpu time    0.4644: real time    0.4653
    SETDIJ:  cpu time    0.0410: real time    0.0410
    EDDIAG:  cpu time    7.6139: real time    7.6819
  RMM-DIIS:  cpu time   13.5924: real time   13.9576
    ORTHCH:  cpu time    0.3860: real time    0.3862
       DOS:  cpu time    0.0256: real time    0.0264
    CHARGE:  cpu time    3.0074: real time    3.0107
    MIXING:  cpu time    0.0152: real time    0.0152
    --------------------------------------------
      LOOP:  cpu time   25.1460: real time   25.5842

 eigenvalue-minimisations  :  3708
 total energy-change (2. order) :-0.4330097E-03  (-0.7552563E-06)
 number of electron     283.0000003 magnetization      19.9832237
 augmentation part      100.4088601 magnetization      13.1190657

 eigenvalues of (default mixing * dielectric matrix)
  average eigenvalue GAMMA=   1.1490
  6.3036  2.4588  1.7080  1.0782  1.0782  1.0209  1.0209  1.2583  0.8932  0.8932
  0.9719  0.9719  0.3923  0.3923  0.7610  0.6600  0.6600  0.5749  0.5749  0.5862
  0.5731  0.4461

  free energy =  -0.262106883835E+03  energy without entropy=  -0.262101246177E+03


--------------------------------------------------------------------------------------------------------




--------------------------------------- Iteration      3(  24)  ---------------------------------------


    POTLOK:  cpu time    0.4633: real time    0.4633
    SETDIJ:  cpu time    0.0470: real time    0.0470
    EDDIAG:  cpu time    7.5536: real time    7.5625
  RMM-DIIS:  cpu time   13.0760: real time   13.0893
    ORTHCH:  cpu time    0.3853: real time    0.3863
       DOS:  cpu time    0.0252: real time    0.0251
    CHARGE:  cpu time    3.0067: real time    3.0096
    MIXING:  cpu time    0.0158: real time    0.0158
    --------------------------------------------
      LOOP:  cpu time   24.5730: real time   24.5989

 eigenvalue-minimisations  :  3585
 total energy-change (2. order) :-0.2428567E-03  (-0.7937983E-06)
 number of electron     283.0000003 magnetization      19.9809891
 augmentation part      100.4086143 magnetization      13.1151083

 eigenvalues of (default mixing * dielectric matrix)
  average eigenvalue GAMMA=   1.2453
  8.4062  2.4990  1.9768  1.0782  1.0782  1.0155  1.0155  1.1392  1.1392  1.0260
  1.0260  0.8522  0.8522  0.3923  0.3923  0.6747  0.6747  0.5950  0.5950  0.6337
  0.5661  0.5661  0.4485

  free energy =  -0.262107126692E+03  energy without entropy=  -0.262101574782E+03


--------------------------------------------------------------------------------------------------------




--------------------------------------- Iteration      3(  25)  ---------------------------------------


    POTLOK:  cpu time    0.4629: real time    0.4644
    SETDIJ:  cpu time    0.0409: real time    0.0409
    EDDIAG:  cpu time    7.5410: real time    7.5486
  RMM-DIIS:  cpu time   12.5344: real time   12.6044
    ORTHCH:  cpu time    0.3857: real time    0.3868
       DOS:  cpu time    0.0256: real time    0.0256
    CHARGE:  cpu time    3.0258: real time    3.0375
    MIXING:  cpu time    0.0164: real time    0.0165
    --------------------------------------------
      LOOP:  cpu time   24.0325: real time   24.1245

 eigenvalue-minimisations  :  3282
 total energy-change (2. order) :-0.2335916E-03  (-0.3880861E-06)
 number of electron     283.0000003 magnetization      19.9780506
 augmentation part      100.4081396 magnetization      13.1088240

 eigenvalues of (default mixing * dielectric matrix)
  average eigenvalue GAMMA=   1.3293
 10.3034  2.6382  2.1173  1.0784  1.0784  1.3350  1.0154  1.0154  1.1092  1.1092
  1.1247  0.8532  0.8532  0.3923  0.3923  0.7158  0.7158  0.6859  0.6859  0.5752
  0.5752  0.5431  0.5431  0.4465

  free energy =  -0.262107360284E+03  energy without entropy=  -0.262101905425E+03


--------------------------------------------------------------------------------------------------------




--------------------------------------- Iteration      3(  26)  ---------------------------------------


    POTLOK:  cpu time    0.4752: real time    0.4770
    SETDIJ:  cpu time    0.0412: real time    0.0411
    EDDIAG:  cpu time    8.0308: real time    8.3890
  RMM-DIIS:  cpu time   13.1891: real time   13.2097
    ORTHCH:  cpu time    0.3846: real time    0.3846
       DOS:  cpu time    0.0259: real time    0.0259
    CHARGE:  cpu time    2.9928: real time    2.9957
    MIXING:  cpu time    0.0170: real time    0.0170
    --------------------------------------------
      LOOP:  cpu time   25.1566: real time   25.5402

 eigenvalue-minimisations  :  3793
 total energy-change (2. order) :-0.3630531E-03  (-0.6648780E-06)
 number of electron     283.0000003 magnetization      19.9764531
 augmentation part      100.4074331 magnetization      13.1025110

 eigenvalues of (default mixing * dielectric matrix)
  average eigenvalue GAMMA=   1.4010
 11.7929  2.8581  2.2937  1.0775  1.0775  1.5543  1.2487  1.2487  1.0151  1.0151
  0.8615  0.8615  0.3923  0.3923  1.0164  0.9089  0.6980  0.6980  0.6734  0.6734
  0.5771  0.5771  0.5459  0.5223  0.4461

  free energy =  -0.262107723337E+03  energy without entropy=  -0.262102392173E+03


--------------------------------------------------------------------------------------------------------




--------------------------------------- Iteration      3(  27)  ---------------------------------------


    POTLOK:  cpu time    0.4623: real time    0.4630
    SETDIJ:  cpu time    0.0410: real time    0.0410
    EDDIAG:  cpu time    7.5158: real time    7.5237
  RMM-DIIS:  cpu time   13.2141: real time   13.2318
    ORTHCH:  cpu time    0.3988: real time    0.4377
       DOS:  cpu time    0.0259: real time    0.0259
    CHARGE:  cpu time    2.9869: real time    2.9906
    MIXING:  cpu time    0.0175: real time    0.0175
    --------------------------------------------
      LOOP:  cpu time   24.6622: real time   24.7312

 eigenvalue-minimisations  :  3798
 total energy-change (2. order) :-0.2618729E-03  (-0.6855804E-06)
 number of electron     283.0000003 magnetization      19.9746488
 augmentation part      100.4079618 magnetization      13.1044430

 eigenvalues of (default mixing * dielectric matrix)
  average eigenvalue GAMMA=   1.4804
 13.4551  3.4511  2.4334  1.6346  1.0774  1.0774  1.2937  1.2937  1.0160  1.0160
  1.0663  1.0663  0.8690  0.8690  0.3923  0.3923  0.6594  0.6594  0.7477  0.7477
  0.6433  0.5738  0.5738  0.5534  0.4789  0.4486

  free energy =  -0.262107985210E+03  energy without entropy=  -0.262102480319E+03


--------------------------------------------------------------------------------------------------------




--------------------------------------- Iteration      3(  28)  ---------------------------------------


    POTLOK:  cpu time    0.4615: real time    0.4616
    SETDIJ:  cpu time    0.0410: real time    0.0409
    EDDIAG:  cpu time    7.5251: real time    7.5444
  RMM-DIIS:  cpu time   13.0575: real time   13.4465
    ORTHCH:  cpu time    0.3851: real time    0.3852
       DOS:  cpu time    0.0261: real time    0.0260
    CHARGE:  cpu time    2.9863: real time    2.9902
    MIXING:  cpu time    0.0180: real time    0.0180
    --------------------------------------------
      LOOP:  cpu time   24.5006: real time   24.9129

 eigenvalue-minimisations  :  3179
 total energy-change (2. order) :-0.2450053E-03  (-0.2715364E-06)
 number of electron     283.0000003 magnetization      19.9732827
 augmentation part      100.4082644 magnetization      13.1050995

 eigenvalues of (default mixing * dielectric matrix)
  average eigenvalue GAMMA=   1.5688
 15.2316  4.4142  2.4277  1.9035  1.0775  1.0775  1.4125  1.0138  1.0138  1.1578
  1.1578  1.2021  0.8623  0.8623  0.3923  0.3923  0.7896  0.7279  0.7279  0.6341
  0.6341  0.6594  0.5706  0.5706  0.5527  0.4453  0.4453

  free energy =  -0.262108230215E+03  energy without entropy=  -0.262102689444E+03


--------------------------------------------------------------------------------------------------------




--------------------------------------- Iteration      3(  29)  ---------------------------------------


    POTLOK:  cpu time    0.4613: real time    0.4613
    SETDIJ:  cpu time    0.0411: real time    0.0411
    EDDIAG:  cpu time    7.5236: real time    7.5319
  RMM-DIIS:  cpu time   12.6906: real time   12.7037
    ORTHCH:  cpu time    0.3855: real time    0.3856
       DOS:  cpu time    0.0259: real time    0.0259
    CHARGE:  cpu time    2.9846: real time    2.9876
    MIXING:  cpu time    0.0188: real time    0.0188
    --------------------------------------------
      LOOP:  cpu time   24.1314: real time   24.1558

 eigenvalue-minimisations  :  3513
 total energy-change (2. order) :-0.1960595E-03  (-0.2577884E-06)
 number of electron     283.0000003 magnetization      19.9722143
 augmentation part      100.4086982 magnetization      13.1069566

 eigenvalues of (default mixing * dielectric matrix)
  average eigenvalue GAMMA=   1.6370
 16.9773  5.2227  2.4727  1.8331  1.0775  1.0775  1.4839  1.3440  1.3440  1.0122
  1.0122  0.8728  0.8728  0.3923  0.3923  0.8120  0.8120  0.8779  0.8397  0.6791
  0.6791  0.6441  0.5776  0.5776  0.5436  0.5436  0.4388  0.4231

  free energy =  -0.262108426275E+03  energy without entropy=  -0.262102813718E+03


--------------------------------------------------------------------------------------------------------




--------------------------------------- Iteration      3(  30)  ---------------------------------------


    POTLOK:  cpu time    0.4622: real time    0.4630
    SETDIJ:  cpu time    0.0408: real time    0.0409
    EDDIAG:  cpu time    7.6154: real time    7.6696
  RMM-DIIS:  cpu time   12.5497: real time   12.5908
    ORTHCH:  cpu time    0.5189: real time    0.5341
       DOS:  cpu time    0.0255: real time    0.0255
    CHARGE:  cpu time    3.4143: real time    3.6885
    MIXING:  cpu time    0.0196: real time    0.0196
    --------------------------------------------
      LOOP:  cpu time   24.6464: real time   25.0320

 eigenvalue-minimisations  :  3316
 total energy-change (2. order) :-0.9714522E-04  (-0.1739180E-06)
 number of electron     283.0000003 magnetization      19.9716455
 augmentation part      100.4086247 magnetization      13.1058111

 eigenvalues of (default mixing * dielectric matrix)
  average eigenvalue GAMMA=   1.6937
 18.5055  5.8348  2.4741  1.7878  1.5752  1.5752  1.0774  1.0774  1.4883  1.0165
  1.0165  0.8866  0.8866  0.9205  0.9205  0.3923  0.3923  0.7753  0.7753  0.6828
  0.6828  0.6977  0.5886  0.5886  0.5574  0.5574  0.5285  0.4383  0.4173

  free energy =  -0.262108523420E+03  energy without entropy=  -0.262102959925E+03


--------------------------------------------------------------------------------------------------------




--------------------------------------- Iteration      3(  31)  ---------------------------------------


    POTLOK:  cpu time    0.4622: real time    0.4643
    SETDIJ:  cpu time    0.0411: real time    0.0411
    EDDIAG:  cpu time    7.5196: real time    7.5270
