unknown system                          
           1
     2.873573   -2.873573    4.708335
     5.747147    0.000000    0.000000
     0.000000   33.065691   20.180529
   Mn   O    H 
  12  20   7
Direct configuration=     1
   0.22067121  0.89240241  0.08901558
   0.67832162  0.16546081  0.21851703
   0.94927612  0.02809995  0.15233499
   0.39059421  0.31783541  0.28482356
   0.44927612  0.52809995  0.15233499
   0.90269916  0.30964228  0.28331419
   0.44927612  0.02809995  0.15233499
   0.91115102  0.80147189  0.28240023
   0.90282244  0.55132680  0.10484543
   0.36351501  0.83061206  0.23525910
   0.99420497  0.50441741  0.20118246
   0.53851998  0.23347802  0.07318573
   0.78113181  0.61828606  0.31400449
   0.87926422  0.06310591  0.05527763
   0.34133388  0.33109373  0.18311723
   0.58246139  0.21150732  0.12452493
   0.03417290  0.47785038  0.25317139
   0.09516526  0.72856013  0.12156099
   0.55174398  0.45248284  0.25170756
   0.74813573  0.14344955  0.31209872
   0.85888103  0.57329750  0.05350623
   0.31664995  0.84549975  0.18132753
   0.56207820  0.72169891  0.12275353
   0.00923420  0.01106495  0.25214393
   0.79694282  0.32976337  0.18346114
   0.20462624  0.65089141  0.30545324
   0.34617716  0.60305419  0.05647018
   0.23448902  0.15874300  0.31340823
   0.79956308  0.87955203  0.18432206
   0.34617716  0.05624469  0.05647018
   0.58200513  0.98732189  0.25561980
   0.09516526  0.18175063  0.12156099
   0.34047062  0.60391201  0.02782883
   0.92434681  0.68523651  0.03696881
   0.34363348  0.06399961  0.02783421
   0.88838126  0.05560908  0.02665597
   0.78261286  0.13074033  0.33671057
   0.89996691  0.56073039  0.33283104
   0.31565836  0.96613584  0.31450099
Direct configuration=     2
   0.22067121  0.89240241  0.08901558
   0.68058528  0.16321451  0.21790955
   0.94927612  0.02809995  0.15233499
   0.39108070  0.31910412  0.28427417
   0.44927612  0.52809995  0.15233499
   0.90384768  0.30868212  0.28277066
   0.44927612  0.02809995  0.15233499
   0.90803766  0.80386628  0.28121628
   0.90282244  0.55132680  0.10484543
   0.36132120  0.83304592  0.23492739
   0.99517241  0.50394360  0.20113153
   0.53851998  0.23347802  0.07318573
   0.78172114  0.62115432  0.31626378
   0.87926422  0.06310591  0.05527763
   0.34197135  0.32939874  0.18330630
   0.58246139  0.21150732  0.12452493
   0.03764962  0.48428410  0.25240024
   0.09516526  0.72856013  0.12156099
   0.55159645  0.45180711  0.25224855
   0.74547795  0.14035961  0.31418416
   0.85888103  0.57329750  0.05350623
   0.31662976  0.84654731  0.18154990
   0.56207820  0.72169891  0.12275353
   0.01240822  0.00455939  0.25134557
   0.79672851  0.32894028  0.18375720
   0.21383433  0.64412870  0.30593593
   0.34617716  0.60305419  0.05647018
   0.23469393  0.15841378  0.31344064
   0.79922766  0.88053153  0.18464463
   0.34617716  0.05624469  0.05647018
   0.57645457  0.99099914  0.25549312
   0.09516526  0.18175063  0.12156099
   0.34047062  0.60391201  0.02782883
   0.92434681  0.68523651  0.03696881
   0.34363348  0.06399961  0.02783421
   0.88838126  0.05560908  0.02665597
   0.78027602  0.13115801  0.33590644
   0.89489215  0.56381648  0.33207543
   0.31538107  0.96659659  0.31441503
