Mn O  H 
 1.0000000000000000
     5.7471469900000001    0.0000000000000000    0.0000000000000000
     0.0000000000000000    5.7471469900000001    0.0000000000000000
     0.0000000000000000    0.0000000000000000   38.3523056924327008
 Mn  O   H  
  14  20   3
Selective dynamics
Direct
 -0.0093835343744717  0.2391760241319369  0.2623916092900749   F   F   F
  0.7489864879576713  0.4968346817732093  0.3235847127412249   F   F   F
  0.5078703309854965  0.2707610156869183  0.3951222042327039   T   T   T
  0.7641500748486126  0.0206327908588544  0.4651303649375993   T   T   T
  0.2577810406218145  0.0197078450088647  0.4615512052010306   T   T   T
  0.2510151206674320  0.4955812159049278  0.3269556710605909   F   F   F
  0.5100103327892564  0.7730398834111448  0.3976622442394248   T   T   T
 -0.0100916428494874  0.7513987945614823  0.2627757334990781   F   F   F
  0.0024768544779153 -0.0045784375955736  0.3571699137271092   F   F   F
  0.0029774543876035  0.5145000038905689  0.4289850786038885   T   T   T
  0.4358207132123970  0.5750645364393459  0.4954822822775454   T   T   T
  0.4872487909802456 -0.0043314717839424  0.2917774653642574   F   F   F
  0.4938347305170273  0.1425976926228736  0.5312224739310790   T   T   T
 -0.0168756156017976  0.7112723663362314  0.5244683457718043   T   T   T
  0.0138789779337760  0.2427562173986123  0.4629894256092522   T   T   T
  0.7747574636748692  0.4958631552600724  0.2647010163483396   F   F   F
  0.4994775423373534  0.2678073900728424  0.3280746410023943   F   F   F
  0.7346888764878051  0.0250341251961391  0.3996690314217394   T   T   T
  0.0037645548922136  0.2690184215424850  0.3222536979589821   F   F   F
  0.7692367725186661 -0.0055241815224737  0.2597891457639432   F   F   F
  0.5050640168959225  0.2462541195333801  0.4693204746113474   T   T   T
  0.7341596171776319  0.5218809936163167  0.3935356547807546   T   T   T
  0.2111692605782599 -0.0057975698878655  0.2583053953367737   F   F   F
  0.2801676220104344  0.5224941867004576  0.3943366896612892   T   T   T
  0.2272536477132092  0.4962741366236937  0.2626329689737672   F   F   F
  0.2811053983105627  0.0233891208009253  0.4003512808856625   T   T   T
  0.4987015056994976  0.7247605740973498  0.3278246169346272   F   F   F
  0.0126653414407827  0.7806630482451804  0.4652446972360789   T   T   T
  0.5125290455889331  0.7962465470538245  0.4555974823030637   T   T   T
  0.0041034282560547  0.7236694402594225  0.3222276800561435   F   F   F
  0.6742829290559031  0.4627494610384636  0.5373008433154914   T   T   T
  0.2155309990343494  0.3651712339328860  0.5331458256594925   T   T   T
  0.3069346435997856 -0.1215919208580815  0.5234661911694491   T   T   T
  0.7689793616447572 -0.0106799139710960  0.5237071984196005   T   T   T
  0.3862807976787250  0.4992215041381847  0.2532026820654570   F   F   F
  0.5938321292438346  0.5530290112520253  0.5552578046797407   T   T   T
  0.0834889533880594  0.2625465231521006  0.5273568379649828   T   T   T
