<?xml version="1.0" encoding="ISO-8859-1"?>
<modeling>
 <generator>
  <i name="program" type="string">vasp </i>
  <i name="version" type="string">5.4.4.18Apr17-6-g9f103f2a35  </i>
  <i name="subversion" type="string">(build Sep 24 2019 09:38:50) complex            parallel </i>
  <i name="platform" type="string">KEELxe18.1gRLX-z </i>
  <i name="date" type="string">2026 07 25 </i>
  <i name="time" type="string">01:34:45 </i>
 </generator>
 <incar>
  <i type="int" name="ISTART">     0</i>
  <i type="string" name="PREC">accurate</i>
  <i type="string" name="ALGO"> fast</i>
  <i type="int" name="ISPIN">     2</i>
  <i type="int" name="IBRION">     2</i>
  <i name="EDIFF">      0.00001000</i>
  <i name="EDIFFG">     -0.05000000</i>
  <i type="int" name="NSW">   500</i>
  <i type="int" name="ISIF">     0</i>
  <i name="ENCUT">    520.00000000</i>
  <i name="POTIM">      0.50000000</i>
  <v name="MAGMOM">      3.80000000      3.80000000     -3.80000000     -3.80000000      3.80000000      3.80000000     -3.80000000     -3.80000000      4.40000000      4.40000000      4.40000000      4.40000000      0.00000000      0.00000000      0.00000000      0.00000000      0.00000000      0.00000000      0.00000000      0.00000000
      0.00000000      0.00000000      0.00000000      0.00000000      0.00000000      0.00000000      0.00000000      0.00000000      0.00000000      0.00000000      0.00000000      0.00000000      0.00000000      0.00000000      0.00000000      0.00000000      0.00000000      0.00000000      0.00000000      0.00000000
      0.00000000      0.00000000      0.00000000</v>
  <i type="string" name="LREAL"> auto</i>
  <i type="int" name="ISMEAR">     1</i>
  <i name="SIGMA">      0.20000000</i>
  <i type="int" name="NWRITE">     1</i>
  <i type="logical" name="LWAVE"> F  </i>
  <i type="logical" name="LCHARG"> F  </i>
  <i type="logical" name="LVTOT"> F  </i>
  <i type="int" name="LORBIT">    11</i>
  <v type="int" name="KPOINT_BSE">    -1     0     0     0</v>
  <i type="string" name="GGA"> PE</i>
  <i type="logical" name="LDAU"> T  </i>
  <v type="int" name="LDAUL">     2    -1    -1</v>
  <v name="LDAUU">      3.90000000      0.00000000      0.00000000</v>
  <v name="LDAUJ">      0.00000000      0.00000000      0.00000000</v>
 </incar>
 <structure name="primitive_cell" >
  <crystal>
   <varray name="basis" >
    <v>       2.87357350      -2.87357350       4.70833511 </v>
    <v>       5.74714699       0.00000000       0.00000000 </v>
    <v>       0.00000000      33.06569101      20.18052901 </v>
   </varray>
   <i name="volume">   1228.01926054 </i>
   <varray name="rec_basis" >
    <v>       0.00000000      -0.09444515       0.15474789 </v>
    <v>       0.17399938       0.04722258      -0.07737394 </v>
    <v>       0.00000000       0.02203507       0.01344836 </v>
   </varray>
  </crystal>
  <varray name="positions" >
   <v>       0.22067121      -0.10759759       0.08901558 </v>
   <v>       0.34617716      -0.39694581       0.05647018 </v>
   <v>       0.09516526       0.18175063       0.12156099 </v>
   <v>       0.09516526      -0.27143987       0.12156099 </v>
   <v>       0.34617716       0.05624469       0.05647018 </v>
   <v>      -0.43792180      -0.27830109       0.12275353 </v>
   <v>      -0.12073578       0.06310591       0.05527763 </v>
   <v>       0.34047062      -0.39608799       0.02782883 </v>
   <v>       0.34363348       0.06399961       0.02783421 </v>
   <v>      -0.05072388       0.02809995       0.15233499 </v>
   <v>      -0.11161874       0.05560908       0.02665597 </v>
   <v>       0.44927612       0.02809995       0.15233499 </v>
   <v>       0.44927612      -0.47190005       0.15233499 </v>
   <v>      -0.07565319      -0.31476349       0.03696881 </v>
   <v>      -0.09717756      -0.44867320       0.10484543 </v>
   <v>      -0.46148002       0.23347802       0.07318573 </v>
   <v>       0.31236908      -0.15357835       0.18079119 </v>
   <v>      -0.41753861       0.21150732       0.12452493 </v>
   <v>      -0.14111897      -0.42670250       0.05350623 </v>
   <v>      -0.20771831      -0.11756904       0.18439851 </v>
   <v>      -0.20659904       0.33141056       0.18449073 </v>
   <v>       0.33729845       0.33411960       0.18284258 </v>
   <v>      -0.00749581      -0.49238234       0.20067455 </v>
   <v>       0.35202467      -0.17377432       0.23324475 </v>
   <v>      -0.33850091       0.17262467       0.21816341 </v>
   <v>       0.00372891      -0.00183148       0.25271433 </v>
   <v>      -0.46171836       0.01178009       0.25311590 </v>
   <v>      -0.45679328       0.45510368       0.25353906 </v>
   <v>       0.03644971       0.48551206       0.25340603 </v>
   <v>      -0.10524595       0.30154553       0.28157972 </v>
   <v>      -0.10776130      -0.19719351       0.28162620 </v>
   <v>       0.37416792       0.31693754       0.28561941 </v>
   <v>       0.21364514       0.16569856       0.31540701 </v>
   <v>       0.21775513      -0.37697399       0.31614429 </v>
   <v>      -0.26594816       0.12870311       0.31225486 </v>
   <v>      -0.22332377      -0.39187147       0.30956090 </v>
   <v>       0.42328239      -0.20868404       0.33216585 </v>
   <v>      -0.24687399       0.10719796       0.33718203 </v>
   <v>       0.02196032       0.48302529       0.35055212 </v>
   <v>      -0.32045867      -0.30182552       0.37151306 </v>
   <v>      -0.35569325      -0.21985126       0.39413200 </v>
   <v>       0.18217073       0.36168378       0.39358446 </v>
   <v>       0.07187087       0.43743669       0.41303735 </v>
  </varray>
 </structure>
 <varray name="primitive_index" >
  <v type="int" >        1 </v>
  <v type="int" >       30 </v>
  <v type="int" >       35 </v>
  <v type="int" >       21 </v>
  <v type="int" >       33 </v>
  <v type="int" >       26 </v>
  <v type="int" >       16 </v>
  <v type="int" >       37 </v>
  <v type="int" >       39 </v>
  <v type="int" >        3 </v>
  <v type="int" >       40 </v>
  <v type="int" >        7 </v>
  <v type="int" >        5 </v>
  <v type="int" >       38 </v>
  <v type="int" >        9 </v>
  <v type="int" >       13 </v>
  <v type="int" >       25 </v>
  <v type="int" >       18 </v>
  <v type="int" >       24 </v>
  <v type="int" >       32 </v>
  <v type="int" >       28 </v>
  <v type="int" >       17 </v>
  <v type="int" >       11 </v>
  <v type="int" >       10 </v>
  <v type="int" >        2 </v>
  <v type="int" >       27 </v>
  <v type="int" >       34 </v>
  <v type="int" >       22 </v>
  <v type="int" >       19 </v>
  <v type="int" >        6 </v>
  <v type="int" >        8 </v>
  <v type="int" >        4 </v>
  <v type="int" >       31 </v>
  <v type="int" >       29 </v>
  <v type="int" >       23 </v>
  <v type="int" >       15 </v>
  <v type="int" >       12 </v>
  <v type="int" >       42 </v>
  <v type="int" >       14 </v>
  <v type="int" >       20 </v>
  <v type="int" >       41 </v>
  <v type="int" >       36 </v>
  <v type="int" >       43 </v>
 </varray>
 <kpoints>
  <generation param="Gamma">
   <v type="int" name="divisions">       4        4        1 </v>
   <v name="usershift">      0.00000000       0.00000000       0.00000000 </v>
   <v name="genvec1">      0.25000000       0.00000000       0.00000000 </v>
   <v name="genvec2">     -0.00000000       0.25000000      -0.00000000 </v>
   <v name="genvec3">     -0.00000000       0.00000000       1.00000000 </v>
   <v name="shift">      0.00000000       0.00000000       0.00000000 </v>
  </generation>
  <varray name="kpointlist" >
   <v>       0.00000000       0.00000000       0.00000000 </v>
   <v>       0.25000000       0.00000000      -0.00000000 </v>
   <v>       0.50000000       0.00000000      -0.00000000 </v>
   <v>       0.00000000       0.25000000      -0.00000000 </v>
   <v>       0.25000000       0.25000000      -0.00000000 </v>
   <v>       0.50000000       0.25000000       0.00000000 </v>
   <v>      -0.25000000       0.25000000      -0.00000000 </v>
   <v>       0.00000000       0.50000000      -0.00000000 </v>
   <v>       0.25000000       0.50000000      -0.00000000 </v>
   <v>       0.50000000       0.50000000      -0.00000000 </v>
  </varray>
  <varray name="weights" >
   <v>       0.06250000 </v>
   <v>       0.12500000 </v>
   <v>       0.06250000 </v>
   <v>       0.12500000 </v>
   <v>       0.12500000 </v>
   <v>       0.12500000 </v>
   <v>       0.12500000 </v>
   <v>       0.06250000 </v>
   <v>       0.12500000 </v>
   <v>       0.06250000 </v>
  </varray>
 </kpoints>
 <parameters>
  <separator name="general" >
   <i type="string" name="SYSTEM">unknown system</i>
   <i type="logical" name="LCOMPAT"> F  </i>
  </separator>
  <separator name="electronic" >
   <i type="string" name="PREC">accura</i>
   <i name="ENMAX">    520.00000000</i>
   <i name="ENAUG">    605.39200000</i>
   <i name="EDIFF">      0.00001000</i>
   <i type="int" name="IALGO">    68</i>
   <i type="int" name="IWAVPR">    11</i>
   <i type="int" name="NBANDS">   202</i>
   <i name="NELECT">    321.00000000</i>
   <i type="int" name="TURBO">     0</i>
   <i type="int" name="IRESTART">     0</i>
   <i type="int" name="NREBOOT">     0</i>
   <i type="int" name="NMIN">     0</i>
   <i name="EREF">      0.00000000</i>
   <separator name="electronic smearing" >
    <i type="int" name="ISMEAR">     1</i>
    <i name="SIGMA">      0.20000000</i>
    <i name="KSPACING">      0.50000000</i>
    <i type="logical" name="KGAMMA"> T  </i>
   </separator>
   <separator name="electronic projectors" >
    <i type="logical" name="LREAL"> T  </i>
    <v name="ROPT">     -0.00025000     -0.00025000     -0.00025000</v>
    <i type="int" name="LMAXPAW">  -100</i>
    <i type="int" name="LMAXMIX">     2</i>
    <i type="logical" name="NLSPLINE"> F  </i>
   </separator>
   <separator name="electronic startup" >
    <i type="int" name="ISTART">     0</i>
    <i type="int" name="ICHARG">     2</i>
    <i type="int" name="INIWAV">     1</i>
   </separator>
   <separator name="electronic spin" >
    <i type="int" name="ISPIN">     2</i>
    <i type="logical" name="LNONCOLLINEAR"> F  </i>
    <v name="MAGMOM">      3.80000000      3.80000000     -3.80000000     -3.80000000      3.80000000      3.80000000     -3.80000000     -3.80000000      4.40000000      4.40000000      4.40000000      4.40000000      0.00000000      0.00000000      0.00000000      0.00000000      0.00000000      0.00000000      0.00000000      0.00000000
      0.00000000      0.00000000      0.00000000      0.00000000      0.00000000      0.00000000      0.00000000      0.00000000      0.00000000      0.00000000      0.00000000      0.00000000      0.00000000      0.00000000      0.00000000      0.00000000      0.00000000      0.00000000      0.00000000      0.00000000
      0.00000000      0.00000000      0.00000000</v>
    <i name="NUPDOWN">     -1.00000000</i>
    <i type="logical" name="LSORBIT"> F  </i>
    <v name="SAXIS">      0.00000000      0.00000000      1.00000000</v>
    <i type="logical" name="LSPIRAL"> F  </i>
    <v name="QSPIRAL">      0.00000000      0.00000000      0.00000000</v>
    <i type="logical" name="LZEROZ"> F  </i>
   </separator>
   <separator name="electronic exchange-correlation" >
    <i type="logical" name="LASPH"> F  </i>
    <i type="logical" name="LMETAGGA"> F  </i>
   </separator>
   <separator name="electronic convergence" >
    <i type="int" name="NELM">    60</i>
    <i type="int" name="NELMDL">    -5</i>
    <i type="int" name="NELMIN">     2</i>
    <i name="ENINI">    520.00000000</i>
    <separator name="electronic convergence detail" >
     <i type="logical" name="LDIAG"> T  </i>
     <i type="logical" name="LSUBROT"> F  </i>
     <i name="WEIMIN">      0.00100000</i>
     <i name="EBREAK">      0.00000001</i>
     <i name="DEPER">      0.30000000</i>
     <i type="int" name="NRMM">     4</i>
     <i name="TIME">      0.40000000</i>
    </separator>
   </separator>
   <separator name="electronic mixer" >
    <i name="AMIX">      0.40000000</i>
    <i name="BMIX">      1.00000000</i>
    <i name="AMIN">      0.10000000</i>
    <i name="AMIX_MAG">      1.60000000</i>
    <i name="BMIX_MAG">      1.00000000</i>
    <separator name="electronic mixer details" >
     <i type="int" name="IMIX">     4</i>
     <i type="logical" name="MIXFIRST"> F  </i>
     <i type="int" name="MAXMIX">   -45</i>
     <i name="WC">    100.00000000</i>
     <i type="int" name="INIMIX">     1</i>
     <i type="int" name="MIXPRE">     1</i>
     <i type="int" name="MREMOVE">     5</i>
    </separator>
   </separator>
   <separator name="electronic dipolcorrection" >
    <i type="logical" name="LDIPOL"> F  </i>
    <i type="logical" name="LMONO"> F  </i>
    <i type="int" name="IDIPOL">     0</i>
    <i name="EPSILON">      1.00000000</i>
    <v name="DIPOL">   -100.00000000   -100.00000000   -100.00000000</v>
    <i name="EFIELD">      0.00000000</i>
   </separator>
  </separator>
  <separator name="grids" >
   <i type="int" name="NGX">    48</i>
   <i type="int" name="NGY">    48</i>
   <i type="int" name="NGZ">   288</i>
   <i type="int" name="NGXF">    96</i>
   <i type="int" name="NGYF">    96</i>
   <i type="int" name="NGZF">   576</i>
   <i type="logical" name="ADDGRID"> F  </i>
  </separator>
  <separator name="ionic" >
   <i type="int" name="NSW">   500</i>
   <i type="int" name="IBRION">     2</i>
   <i type="int" name="MDALGO">     0</i>
   <i type="int" name="ISIF">     0</i>
   <i name="PSTRESS">      0.00000000</i>
   <i name="EDIFFG">     -0.05000000</i>
   <i type="int" name="NFREE">     1</i>
   <i name="POTIM">      0.50000000</i>
   <i name="SMASS">     -3.00000000</i>
   <i name="SCALEE">      1.00000000</i>
  </separator>
  <separator name="ionic md" >
   <i name="TEBEG">      0.00010000</i>
   <i name="TEEND">      0.00010000</i>
   <i type="int" name="NBLOCK">     1</i>
   <i type="int" name="KBLOCK">   500</i>
   <i type="int" name="NPACO">   256</i>
   <i name="APACO">     16.00000000</i>
  </separator>
  <separator name="symmetry" >
   <i type="int" name="ISYM">     2</i>
   <i name="SYMPREC">      0.00001000</i>
  </separator>
  <separator name="dos" >
   <i type="int" name="LORBIT">    11</i>
   <v name="RWIGS">     -1.00000000     -1.00000000     -1.00000000</v>
   <i type="int" name="NEDOS">   301</i>
   <i name="EMIN">     10.00000000</i>
   <i name="EMAX">    -10.00000000</i>
   <i name="EFERMI">      0.00000000</i>
  </separator>
  <separator name="writing" >
   <i type="int" name="NWRITE">     1</i>
   <i type="logical" name="LWAVE"> F  </i>
   <i type="logical" name="LDOWNSAMPLE"> F  </i>
   <i type="logical" name="LCHARG"> F  </i>
   <i type="logical" name="LPARD"> F  </i>
   <i type="logical" name="LVTOT"> F  </i>
   <i type="logical" name="LVHAR"> F  </i>
   <i type="logical" name="LELF"> F  </i>
   <i type="logical" name="LOPTICS"> F  </i>
   <v name="STM">      0.00000000      0.00000000      0.00000000      0.00000000      0.00000000      0.00000000      0.00000000</v>
  </separator>
  <separator name="performance" >
   <i type="int" name="NPAR">     2</i>
   <i type="int" name="NSIM">     4</i>
   <i type="int" name="NBLK">    -1</i>
   <i type="logical" name="LPLANE"> T  </i>
   <i type="logical" name="LSCALAPACK"> F  </i>
   <i type="logical" name="LSCAAWARE"> F  </i>
   <i type="logical" name="LSCALU"> F  </i>
   <i type="logical" name="LASYNC"> F  </i>
   <i type="logical" name="LORBITALREAL"> F  </i>
  </separator>
  <separator name="miscellaneous" >
   <i type="int" name="IDIOT">     3</i>
   <i type="int" name="ISPECIAL">     0</i>
   <i type="logical" name="LMUSIC"> F  </i>
   <v name="POMASS">     54.93800000     16.00000000      1.00000000</v>
   <v name="DARWINR">      0.00000000      0.00000000      0.00000000</v>
   <v name="DARWINV">      1.00000000      1.00000000      1.00000000</v>
   <i type="logical" name="LCORR"> T  </i>
  </separator>
  <i type="logical" name="GGA_COMPAT"> T  </i>
  <i type="logical" name="LBERRY"> F  </i>
  <i type="int" name="ICORELEVEL">     0</i>
  <i type="logical" name="LDAU"> T  </i>
  <v type="int" name="LDAUTYPE">     2</v>
  <v type="int" name="LDAUL">     2</v>
  <v name="LDAUU">      3.90000000</v>
  <v name="LDAUJ">      0.00000000</v>
  <i type="int" name="LDAUPRINT">     0</i>
  <i type="int" name="I_CONSTRAINED_M">     0</i>
  <separator name="electronic exchange-correlation" >
   <i type="string" name="GGA">PE</i>
   <i type="int" name="VOSKOWN">     0</i>
   <i type="logical" name="LHFCALC"> F  </i>
   <i type="string" name="PRECFOCK"></i>
   <i type="logical" name="LSYMGRAD"> F  </i>
   <i type="logical" name="LHFONE"> F  </i>
   <i type="logical" name="LRHFCALC"> F  </i>
   <i type="logical" name="LTHOMAS"> F  </i>
   <i type="logical" name="LMODELHF"> F  </i>
   <i name="ENCUT4O">     -1.00000000</i>
   <i type="int" name="EXXOEP">     0</i>
   <i type="int" name="FOURORBIT">     0</i>
   <i name="AEXX">      0.00000000</i>
   <i name="HFALPHA">      0.00000000</i>
   <i name="MCALPHA">      0.00000000</i>
   <i name="ALDAX">      1.00000000</i>
   <i name="AGGAX">      1.00000000</i>
   <i name="ALDAC">      1.00000000</i>
   <i name="AGGAC">      1.00000000</i>
   <i type="int" name="NKREDX">     1</i>
   <i type="int" name="NKREDY">     1</i>
   <i type="int" name="NKREDZ">     1</i>
   <i type="logical" name="SHIFTRED"> F  </i>
   <i type="logical" name="ODDONLY"> F  </i>
   <i type="logical" name="EVENONLY"> F  </i>
   <i type="int" name="LMAXFOCK">     0</i>
   <i type="int" name="NMAXFOCKAE">     0</i>
   <i type="logical" name="LFOCKAEDFT"> F  </i>
   <i name="HFSCREEN">      0.00000000</i>
   <i name="HFSCREENC">      0.00000000</i>
   <i type="int" name="NBANDSGWLOW">     0</i>
  </separator>
  <separator name="vdW DFT" >
   <i type="logical" name="LUSE_VDW"> F  </i>
   <i name="Zab_VDW">     -0.84910000</i>
   <i name="PARAM1">      0.12340000</i>
   <i name="PARAM2">      1.00000000</i>
   <i name="PARAM3">      0.00000000</i>
  </separator>
  <separator name="model GW" >
   <i type="int" name="MODEL_GW">     0</i>
   <i name="MODEL_EPS0">     17.13515247</i>
   <i name="MODEL_ALPHA">      1.00000000</i>
  </separator>
  <separator name="linear response parameters" >
   <i type="logical" name="LEPSILON"> F  </i>
   <i type="logical" name="LRPA"> F  </i>
   <i type="logical" name="LNABLA"> F  </i>
   <i type="logical" name="LVEL"> F  </i>
   <i type="int" name="KINTER">     0</i>
   <i name="CSHIFT">      0.10000000</i>
   <i name="OMEGAMAX">     -1.00000000</i>
   <i name="DEG_THRESHOLD">      0.00200000</i>
   <i name="RTIME">     -0.10000000</i>
   <i name="WPLASMAI">      0.00000000</i>
   <v name="DFIELD">      0.00000000      0.00000000      0.00000000</v>
   <v name="WPLASMA">      0.00000000      0.00000000      0.00000000      0.00000000      0.00000000      0.00000000      0.00000000      0.00000000      0.00000000</v>
  </separator>
  <separator name="orbital magnetization" >
   <i type="logical" name="NUCIND"> F  </i>
   <v name="MAGPOS">      0.00000000      0.00000000      0.00000000</v>
   <i type="logical" name="LNICSALL"> T  </i>
   <i type="logical" name="ORBITALMAG"> F  </i>
   <i type="logical" name="LMAGBLOCH"> F  </i>
   <i type="logical" name="LCHIMAG"> F  </i>
   <i type="logical" name="LGAUGE"> T  </i>
   <i type="int" name="MAGATOM">     0</i>
   <v name="MAGDIPOL">      0.00000000      0.00000000      0.00000000</v>
   <v name="AVECCONST">      0.00000000      0.00000000      0.00000000</v>
  </separator>
  <separator name="response functions" >
   <i type="logical" name="LADDER"> F  </i>
   <i type="logical" name="LRPAFORCE"> F  </i>
   <i type="logical" name="LFXC"> F  </i>
   <i type="logical" name="LHARTREE"> T  </i>
   <i type="int" name="IBSE">     0</i>
   <v type="int" name="KPOINT">    -1     0     0     0</v>
   <i type="logical" name="LTCTE"> F  </i>
   <i type="logical" name="LTETE"> F  </i>
   <i type="logical" name="LTRIPLET"> F  </i>
   <i type="logical" name="LFXCEPS"> F  </i>
   <i type="logical" name="LFXHEG"> F  </i>
   <i type="int" name="NATURALO">     2</i>
   <i type="logical" name="L2ORDER"> F  </i>
   <i type="logical" name="LMP2LT"> F  </i>
   <i type="logical" name="LUSEW"> F  </i>
   <i name="ENCUTGW">     -2.00000000</i>
   <i name="ENCUTGWSOFT">     -2.00000000</i>
   <i name="ENCUTLF">     -1.00000000</i>
   <i type="int" name="LMAXMP2">    -1</i>
   <i name="SCISSOR">      0.00000000</i>
   <i type="int" name="NOMEGA">     0</i>
   <i type="int" name="NOMEGAR">     0</i>
   <i type="int" name="NBANDSGW">    -1</i>
   <i type="int" name="NBANDSO">    -1</i>
   <i type="int" name="NBANDSV">    -1</i>
   <i type="int" name="NELM">     1</i>
   <i type="int" name="NELMHF">     1</i>
   <i type="int" name="DIM">     3</i>
   <i type="int" name="ANTIRES">     0</i>
   <i name="OMEGAMAX">    -30.00000000</i>
   <i name="OMEGAMIN">    -30.00000000</i>
   <i name="OMEGATL">   -200.00000000</i>
   <i type="int" name="OMEGAGRID">   140</i>
   <i name="CSHIFT">     -0.10000000</i>
   <i type="logical" name="SELFENERGY"> F  </i>
   <i type="logical" name="LSPECTRAL"> F  </i>
   <i type="logical" name="LSPECTRALGW"> F  </i>
   <i type="logical" name="LSINGLES"> F  </i>
   <i type="logical" name="LFERMIGW"> F  </i>
   <i type="logical" name="ODDONLYGW"> F  </i>
   <i type="logical" name="EVENONLYGW"> F  </i>
   <i type="int" name="NKREDLFX">     1</i>
   <i type="int" name="NKREDLFY">     1</i>
   <i type="int" name="NKREDLFZ">     1</i>
   <i type="int" name="MAXMEM">  2800</i>
   <i type="int" name="TELESCOPE">     0</i>
   <i type="int" name="TAUPAR">     1</i>
   <i type="int" name="OMEGAPAR">    -1</i>
   <i name="LAMBDA">      1.00000000</i>
  </separator>
  <separator name="External order field" >
   <i name="OFIELD_KAPPA">      0.00000000</i>
   <v name="OFIELD_K">      0.00000000      0.00000000      0.00000000</v>
   <i name="OFIELD_Q6_NEAR">      0.00000000</i>
   <i name="OFIELD_Q6_FAR">      0.00000000</i>
   <i name="OFIELD_A">      0.00000000</i>
  </separator>
  <separator name="solvation model" >
   <i type="logical" name="LSOL"> F  </i>
  </separator>
 </parameters>
 <atominfo>
  <atoms>      43 </atoms>
  <types>       3 </types>
  <array name="atoms" >
   <dimension dim="1">ion</dimension>
   <field type="string">element</field>
   <field type="int">atomtype</field>
   <set>
    <rc><c>Mn</c><c>   1</c></rc>
    <rc><c>Mn</c><c>   1</c></rc>
    <rc><c>Mn</c><c>   1</c></rc>
    <rc><c>Mn</c><c>   1</c></rc>
    <rc><c>Mn</c><c>   1</c></rc>
    <rc><c>Mn</c><c>   1</c></rc>
    <rc><c>Mn</c><c>   1</c></rc>
    <rc><c>Mn</c><c>   1</c></rc>
    <rc><c>Mn</c><c>   1</c></rc>
    <rc><c>Mn</c><c>   1</c></rc>
    <rc><c>Mn</c><c>   1</c></rc>
    <rc><c>Mn</c><c>   1</c></rc>
    <rc><c>Mn</c><c>   1</c></rc>
    <rc><c>Mn</c><c>   1</c></rc>
    <rc><c>O </c><c>   2</c></rc>
    <rc><c>O </c><c>   2</c></rc>
    <rc><c>O </c><c>   2</c></rc>
    <rc><c>O </c><c>   2</c></rc>
    <rc><c>O </c><c>   2</c></rc>
    <rc><c>O </c><c>   2</c></rc>
    <rc><c>O </c><c>   2</c></rc>
    <rc><c>O </c><c>   2</c></rc>
    <rc><c>O </c><c>   2</c></rc>
    <rc><c>O </c><c>   2</c></rc>
    <rc><c>O </c><c>   2</c></rc>
    <rc><c>O </c><c>   2</c></rc>
    <rc><c>O </c><c>   2</c></rc>
    <rc><c>O </c><c>   2</c></rc>
    <rc><c>O </c><c>   2</c></rc>
    <rc><c>O </c><c>   2</c></rc>
    <rc><c>O </c><c>   2</c></rc>
    <rc><c>O </c><c>   2</c></rc>
    <rc><c>O </c><c>   2</c></rc>
    <rc><c>O </c><c>   2</c></rc>
    <rc><c>O </c><c>   2</c></rc>
    <rc><c>O </c><c>   2</c></rc>
    <rc><c>H </c><c>   3</c></rc>
    <rc><c>H </c><c>   3</c></rc>
    <rc><c>H </c><c>   3</c></rc>
    <rc><c>H </c><c>   3</c></rc>
    <rc><c>H </c><c>   3</c></rc>
    <rc><c>H </c><c>   3</c></rc>
    <rc><c>H </c><c>   3</c></rc>
   </set>
  </array>
  <array name="atomtypes" >
   <dimension dim="1">type</dimension>
   <field type="int">atomspertype</field>
   <field type="string">element</field>
   <field>mass</field>
   <field>valence</field>
   <field type="string">pseudopotential</field>
   <set>
    <rc><c>  14</c><c>Mn</c><c>     54.93800000</c><c>     13.00000000</c><c>  PAW_PBE Mn_pv 02Aug2007               </c></rc>
    <rc><c>  22</c><c>O </c><c>     16.00000000</c><c>      6.00000000</c><c>  PAW_PBE O 08Apr2002                   </c></rc>
    <rc><c>   7</c><c>H </c><c>      1.00000000</c><c>      1.00000000</c><c>  PAW_PBE H 15Jun2001                   </c></rc>
   </set>
  </array>
 </atominfo>
 <structure name="initialpos" >
  <crystal>
   <varray name="basis" >
    <v>       2.87357350      -2.87357350       4.70833511 </v>
    <v>       5.74714699       0.00000000       0.00000000 </v>
    <v>       0.00000000      33.06569101      20.18052901 </v>
   </varray>
   <i name="volume">   1228.01926054 </i>
   <varray name="rec_basis" >
    <v>       0.00000000      -0.09444515       0.15474789 </v>
    <v>       0.17399938       0.04722258      -0.07737394 </v>
    <v>       0.00000000       0.02203507       0.01344836 </v>
   </varray>
  </crystal>
  <varray name="positions" >
   <v>       0.22067121       0.89240241       0.08901558 </v>
   <v>       0.66149909       0.17262467       0.21816341 </v>
   <v>       0.94927612       0.02809995       0.15233499 </v>
   <v>       0.37416792       0.31693754       0.28561941 </v>
   <v>       0.44927612       0.52809995       0.15233499 </v>
   <v>       0.89475405       0.30154553       0.28157972 </v>
   <v>       0.44927612       0.02809995       0.15233499 </v>
   <v>       0.89223870       0.80280649       0.28162620 </v>
   <v>       0.90282244       0.55132680       0.10484543 </v>
   <v>       0.35202467       0.82622568       0.23324475 </v>
   <v>       0.99250419       0.50761766       0.20067455 </v>
   <v>       0.42328239       0.79131596       0.33216585 </v>
   <v>       0.53851998       0.23347802       0.07318573 </v>
   <v>       0.02196032       0.48302529       0.35055212 </v>
   <v>       0.77667623       0.60812853       0.30956090 </v>
   <v>       0.87926422       0.06310591       0.05527763 </v>
   <v>       0.33729845       0.33411960       0.18284258 </v>
   <v>       0.58246139       0.21150732       0.12452493 </v>
   <v>       0.03644971       0.48551206       0.25340603 </v>
   <v>       0.67954133       0.69817448       0.37151306 </v>
   <v>       0.09516526       0.72856013       0.12156099 </v>
   <v>       0.54320672       0.45510368       0.25353906 </v>
   <v>       0.73405184       0.12870311       0.31225486 </v>
   <v>       0.85888103       0.57329750       0.05350623 </v>
   <v>       0.31236908       0.84642165       0.18079119 </v>
   <v>       0.56207820       0.72169891       0.12275353 </v>
   <v>       0.00372891       0.99816852       0.25271433 </v>
   <v>       0.79340096       0.33141056       0.18449073 </v>
   <v>       0.21775513       0.62302601       0.31614429 </v>
   <v>       0.34617716       0.60305419       0.05647018 </v>
   <v>       0.21364514       0.16569856       0.31540701 </v>
   <v>       0.79228169       0.88243096       0.18439851 </v>
   <v>       0.34617716       0.05624469       0.05647018 </v>
   <v>       0.53828164       0.01178009       0.25311590 </v>
   <v>       0.09516526       0.18175063       0.12156099 </v>
   <v>       0.18217073       0.36168378       0.39358446 </v>
   <v>       0.34047062       0.60391201       0.02782883 </v>
   <v>       0.92434681       0.68523651       0.03696881 </v>
   <v>       0.34363348       0.06399961       0.02783421 </v>
   <v>       0.88838126       0.05560908       0.02665597 </v>
   <v>       0.64430675       0.78014874       0.39413200 </v>
   <v>       0.75312601       0.10719796       0.33718203 </v>
   <v>       0.07187087       0.43743669       0.41303735 </v>
  </varray>
  <varray name="selective"  type="logical" >
   <v type="logical" >  F  F  F </v>
   <v type="logical" >  T  T  T </v>
   <v type="logical" >  F  F  F </v>
   <v type="logical" >  T  T  T </v>
   <v type="logical" >  F  F  F </v>
   <v type="logical" >  T  T  T </v>
   <v type="logical" >  F  F  F </v>
   <v type="logical" >  T  T  T </v>
   <v type="logical" >  F  F  F </v>
   <v type="logical" >  T  T  T </v>
   <v type="logical" >  T  T  T </v>
   <v type="logical" >  T  T  T </v>
   <v type="logical" >  F  F  F </v>
   <v type="logical" >  T  T  T </v>
   <v type="logical" >  T  T  T </v>
   <v type="logical" >  F  F  F </v>
   <v type="logical" >  T  T  T </v>
   <v type="logical" >  F  F  F </v>
   <v type="logical" >  T  T  T </v>
   <v type="logical" >  T  T  T </v>
   <v type="logical" >  F  F  F </v>
   <v type="logical" >  T  T  T </v>
   <v type="logical" >  T  T  T </v>
   <v type="logical" >  F  F  F </v>
   <v type="logical" >  T  T  T </v>
   <v type="logical" >  F  F  F </v>
   <v type="logical" >  T  T  T </v>
   <v type="logical" >  T  T  T </v>
   <v type="logical" >  T  T  T </v>
   <v type="logical" >  F  F  F </v>
   <v type="logical" >  T  T  T </v>
   <v type="logical" >  T  T  T </v>
   <v type="logical" >  F  F  F </v>
   <v type="logical" >  T  T  T </v>
   <v type="logical" >  F  F  F </v>
   <v type="logical" >  T  T  T </v>
   <v type="logical" >  F  F  F </v>
   <v type="logical" >  F  F  F </v>
   <v type="logical" >  F  F  F </v>
   <v type="logical" >  F  F  F </v>
   <v type="logical" >  T  T  T </v>
   <v type="logical" >  T  T  T </v>
   <v type="logical" >  T  T  T </v>
  </varray>
  <nose>
   <v>      -3.00000000       0.00000000       0.00010000       0.00010000 </v>
  </nose>
 </structure>
 <calculation>
  <scstep>
   <time name="dav">   46.77   47.14</time>
   <time name="total">   47.41   47.81</time>
   <energy>
    <i name="alphaZ">    477.09650995 </i>
    <i name="ewald"> 394199.57866733 </i>
    <i name="hartreedc">-427555.09127254 </i>
    <i name="XCdc">   1593.70915703 </i>
    <i name="pawpsdc">  30669.74922718 </i>
    <i name="pawaedc"> -31336.17575319 </i>
    <i name="eentropy">      0.00706296 </i>
    <i name="bandstr">  -2392.05843030 </i>
    <i name="atom">  37952.93320877 </i>
    <i name="e_fr_energy">   3609.74837720 </i>
    <i name="e_wo_entrp">   3609.74131424 </i>
    <i name="e_0_energy">   3609.74602288 </i>
   </energy>
  </scstep>
  <scstep>
   <time name="dav">   43.48   43.86</time>
   <time name="total">   43.51   43.89</time>
   <energy>
    <i name="e_fr_energy">    259.60509930 </i>
    <i name="e_wo_entrp">    259.59705429 </i>
    <i name="e_0_energy">    259.60241763 </i>
   </energy>
  </scstep>
  <scstep>
   <time name="dav">   47.19   47.48</time>
   <time name="total">   47.22   47.51</time>
   <energy>
    <i name="e_fr_energy">   -303.77941543 </i>
    <i name="e_wo_entrp">   -303.72189842 </i>
    <i name="e_0_energy">   -303.76024309 </i>
   </energy>
  </scstep>
  <scstep>
   <time name="dav">   47.32   47.73</time>
   <time name="total">   47.35   47.76</time>
   <energy>
    <i name="e_fr_energy">   -331.21545448 </i>
    <i name="e_wo_entrp">   -331.21036723 </i>
    <i name="e_0_energy">   -331.21375873 </i>
   </energy>
  </scstep>
  <scstep>
   <time name="dav">   46.19   46.41</time>
   <time name="total">   49.80   50.21</time>
   <energy>
    <i name="e_fr_energy">   -331.87228470 </i>
    <i name="e_wo_entrp">   -331.86962903 </i>
    <i name="e_0_energy">   -331.87139948 </i>
   </energy>
  </scstep>
  <scstep>
   <time name="diag">    8.93    8.94</time>
   <time name="diis">   32.44   32.50</time>
   <time name="orth">    0.49    0.51</time>
   <time name="total">   45.62   45.77</time>
   <energy>
    <i name="e_fr_energy">   -494.78252197 </i>
    <i name="e_wo_entrp">   -494.80265584 </i>
    <i name="e_0_energy">   -494.78923326 </i>
   </energy>
  </scstep>
  <scstep>
   <time name="diag">    8.87    8.91</time>
   <time name="diis">   24.62   24.84</time>
   <time name="orth">    0.48    0.48</time>
   <time name="total">   37.69   37.96</time>
   <energy>
    <i name="e_fr_energy">   -361.42951776 </i>
    <i name="e_wo_entrp">   -361.43661790 </i>
    <i name="e_0_energy">   -361.43188447 </i>
   </energy>
  </scstep>
  <scstep>
   <time name="diag">    8.80    8.82</time>
   <time name="diis">   26.84   27.19</time>
   <time name="orth">    0.49    0.49</time>
   <time name="total">   40.01   40.39</time>
   <energy>
    <i name="e_fr_energy">   -339.58978197 </i>
    <i name="e_wo_entrp">   -339.58204519 </i>
    <i name="e_0_energy">   -339.58720304 </i>
   </energy>
  </scstep>
  <scstep>
   <time name="diag">    8.74    8.75</time>
   <time name="diis">   27.65   27.69</time>
   <time name="orth">    0.48    0.48</time>
   <time name="total">   40.81   40.94</time>
   <energy>
    <i name="e_fr_energy">   -310.42943635 </i>
    <i name="e_wo_entrp">   -310.45212059 </i>
    <i name="e_0_energy">   -310.43699776 </i>
   </energy>
  </scstep>
  <scstep>
   <time name="diag">    8.87    8.91</time>
   <time name="diis">   26.24   26.54</time>
   <time name="orth">    0.48    0.48</time>
   <time name="total">   39.52   39.87</time>
   <energy>
    <i name="e_fr_energy">   -293.30851082 </i>
    <i name="e_wo_entrp">   -293.26736427 </i>
    <i name="e_0_energy">   -293.29479530 </i>
   </energy>
  </scstep>
  <scstep>
   <time name="diag">    8.75    8.76</time>
   <time name="diis">   25.20   25.53</time>
   <time name="orth">    0.48    0.48</time>
   <time name="total">   38.31   38.65</time>
   <energy>
    <i name="e_fr_energy">   -298.98683534 </i>
    <i name="e_wo_entrp">   -298.98741690 </i>
    <i name="e_0_energy">   -298.98702920 </i>
   </energy>
  </scstep>
  <scstep>
   <time name="diag">    8.74    8.76</time>
   <time name="diis">   26.20   26.24</time>
   <time name="orth">    0.48    0.48</time>
   <time name="total">   39.28   39.38</time>
   <energy>
    <i name="e_fr_energy">   -319.00658865 </i>
    <i name="e_wo_entrp">   -318.97463037 </i>
    <i name="e_0_energy">   -318.99593589 </i>
   </energy>
  </scstep>
  <scstep>
   <time name="diag">    9.01    9.20</time>
   <time name="diis">   27.96   28.31</time>
   <time name="orth">    0.48    0.49</time>
   <time name="total">   41.42   41.96</time>
   <energy>
    <i name="e_fr_energy">   -288.92987864 </i>
    <i name="e_wo_entrp">   -288.92437235 </i>
    <i name="e_0_energy">   -288.92804321 </i>
   </energy>
  </scstep>
  <scstep>
   <time name="diag">    8.86    8.88</time>
   <time name="diis">   25.95   26.33</time>
   <time name="orth">    0.48    0.48</time>
   <time name="total">   39.24   39.64</time>
   <energy>
    <i name="e_fr_energy">   -286.48814370 </i>
    <i name="e_wo_entrp">   -286.49496766 </i>
    <i name="e_0_energy">   -286.49041835 </i>
   </energy>
  </scstep>
  <scstep>
   <time name="diag">    8.86    8.88</time>
   <time name="diis">   26.21   26.25</time>
   <time name="orth">    0.48    0.48</time>
   <time name="total">   39.59   39.69</time>
   <energy>
    <i name="e_fr_energy">   -285.59305658 </i>
    <i name="e_wo_entrp">   -285.51443397 </i>
    <i name="e_0_energy">   -285.56684905 </i>
   </energy>
  </scstep>
  <scstep>
   <time name="diag">    8.87    8.90</time>
   <time name="diis">   25.55   25.87</time>
   <time name="orth">    0.48    0.48</time>
   <time name="total">   38.85   39.20</time>
   <energy>
    <i name="e_fr_energy">   -285.87261592 </i>
    <i name="e_wo_entrp">   -285.86835953 </i>
    <i name="e_0_energy">   -285.87119712 </i>
   </energy>
  </scstep>
  <scstep>
   <time name="diag">    8.80    8.81</time>
   <time name="diis">   25.65   26.13</time>
   <time name="orth">    0.48    0.48</time>
   <time name="total">   38.90   39.39</time>
   <energy>
    <i name="e_fr_energy">   -287.00361130 </i>
    <i name="e_wo_entrp">   -286.99795693 </i>
    <i name="e_0_energy">   -287.00172651 </i>
   </energy>
  </scstep>
  <scstep>
   <time name="diag">    8.87    8.88</time>
   <time name="diis">   24.86   24.91</time>
   <time name="orth">    0.49    0.49</time>
   <time name="total">   38.20   38.27</time>
   <energy>
    <i name="e_fr_energy">   -287.37600407 </i>
    <i name="e_wo_entrp">   -287.37972430 </i>
    <i name="e_0_energy">   -287.37724415 </i>
   </energy>
  </scstep>
  <scstep>
   <time name="diag">    8.93    8.99</time>
   <time name="diis">   25.00   25.35</time>
   <time name="orth">    0.48    0.48</time>
   <time name="total">   38.39   38.79</time>
   <energy>
    <i name="e_fr_energy">   -287.09698858 </i>
    <i name="e_wo_entrp">   -287.10503326 </i>
    <i name="e_0_energy">   -287.09967014 </i>
   </energy>
  </scstep>
  <scstep>
   <time name="diag">    8.88    8.89</time>
   <time name="diis">   25.02   25.16</time>
   <time name="orth">    0.50    0.50</time>
   <time name="total">   38.49   38.90</time>
   <energy>
    <i name="e_fr_energy">   -286.93139381 </i>
    <i name="e_wo_entrp">   -286.90467074 </i>
    <i name="e_0_energy">   -286.92248612 </i>
   </energy>
  </scstep>
  <scstep>
   <time name="diag">    8.85    8.86</time>
   <time name="diis">   25.10   25.15</time>
   <time name="orth">    0.48    0.48</time>
   <time name="total">   38.36   38.43</time>
   <energy>
    <i name="e_fr_energy">   -287.79636927 </i>
    <i name="e_wo_entrp">   -287.77897563 </i>
    <i name="e_0_energy">   -287.79057139 </i>
   </energy>
  </scstep>
  <scstep>
   <time name="diag">    8.93    9.01</time>
   <time name="diis">   26.98   27.26</time>
   <time name="orth">    0.49    0.49</time>
   <time name="total">   40.35   40.73</time>
   <energy>
    <i name="e_fr_energy">   -287.94121976 </i>
    <i name="e_wo_entrp">   -287.92361199 </i>
    <i name="e_0_energy">   -287.93535050 </i>
   </energy>
  </scstep>
  <scstep>
   <time name="diag">    8.89    8.91</time>
   <time name="diis">   25.23   25.33</time>
   <time name="orth">    0.49    0.49</time>
   <time name="total">   38.73   38.89</time>
   <energy>
    <i name="e_fr_energy">   -287.75837923 </i>
    <i name="e_wo_entrp">   -287.73789353 </i>
    <i name="e_0_energy">   -287.75155067 </i>
   </energy>
  </scstep>
  <scstep>
   <time name="diag">    9.05    9.19</time>
   <time name="diis">   25.32   25.38</time>
   <time name="orth">    0.49    0.49</time>
   <time name="total">   38.89   39.20</time>
   <energy>
    <i name="e_fr_energy">   -287.83668399 </i>
    <i name="e_wo_entrp">   -287.80846730 </i>
    <i name="e_0_energy">   -287.82727843 </i>
   </energy>
  </scstep>
  <scstep>
   <time name="diag">    8.93    9.02</time>
   <time name="diis">   25.68   25.98</time>
   <time name="orth">    0.49    0.49</time>
   <time name="total">   39.07   39.49</time>
   <energy>
    <i name="e_fr_energy">   -287.98835847 </i>
    <i name="e_wo_entrp">   -287.96635071 </i>
    <i name="e_0_energy">   -287.98102255 </i>
   </energy>
  </scstep>
  <scstep>
   <time name="diag">    8.87    8.89</time>
   <time name="diis">   24.55   24.63</time>
   <time name="orth">    0.49    0.49</time>
   <time name="total">   37.92   38.04</time>
   <energy>
    <i name="e_fr_energy">   -288.33648058 </i>
    <i name="e_wo_entrp">   -288.31919707 </i>
    <i name="e_0_energy">   -288.33071941 </i>
   </energy>
  </scstep>
  <scstep>
   <time name="diag">    9.06    9.29</time>
   <time name="diis">   24.71   24.75</time>
   <time name="orth">    0.49    0.49</time>
   <time name="total">   38.22   38.50</time>
   <energy>
    <i name="e_fr_energy">   -288.65433385 </i>
    <i name="e_wo_entrp">   -288.65536769 </i>
    <i name="e_0_energy">   -288.65467846 </i>
   </energy>
  </scstep>
  <scstep>
   <time name="diag">    8.84    8.87</time>
   <time name="diis">   26.53   26.86</time>
   <time name="orth">    0.49    0.49</time>
   <time name="total">   39.86   40.22</time>
   <energy>
    <i name="e_fr_energy">   -288.70344945 </i>
    <i name="e_wo_entrp">   -288.70097319 </i>
    <i name="e_0_energy">   -288.70262403 </i>
   </energy>
  </scstep>
  <scstep>
   <time name="diag">    8.91    8.93</time>
   <time name="diis">   24.70   24.75</time>
   <time name="orth">    0.48    0.49</time>
   <time name="total">   38.10   38.19</time>
   <energy>
    <i name="e_fr_energy">   -288.36899579 </i>
    <i name="e_wo_entrp">   -288.37855584 </i>
    <i name="e_0_energy">   -288.37218248 </i>
   </energy>
  </scstep>
  <scstep>
   <time name="diag">    9.14    9.39</time>
   <time name="diis">   24.57   24.62</time>
   <time name="orth">    0.49    0.49</time>
   <time name="total">   38.18   38.50</time>
   <energy>
    <i name="e_fr_energy">   -286.52722134 </i>
    <i name="e_wo_entrp">   -286.52077757 </i>
    <i name="e_0_energy">   -286.52507341 </i>
   </energy>
  </scstep>
  <scstep>
   <time name="diag">    8.88    8.93</time>
   <time name="diis">   25.03   25.38</time>
   <time name="orth">    0.48    0.48</time>
   <time name="total">   38.38   38.77</time>
   <energy>
    <i name="e_fr_energy">   -287.06949444 </i>
    <i name="e_wo_entrp">   -287.07203388 </i>
    <i name="e_0_energy">   -287.07034092 </i>
   </energy>
  </scstep>
  <scstep>
   <time name="diag">    8.85    8.88</time>
   <time name="diis">   26.07   26.11</time>
   <time name="orth">    0.50    0.54</time>
   <time name="total">   39.40   39.52</time>
   <energy>
    <i name="e_fr_energy">   -288.02879388 </i>
    <i name="e_wo_entrp">   -288.09999006 </i>
    <i name="e_0_energy">   -288.05252594 </i>
   </energy>
  </scstep>
  <scstep>
   <time name="diag">    9.19    9.47</time>
   <time name="diis">   24.34   24.40</time>
   <time name="orth">    0.48    0.48</time>
   <time name="total">   37.99   38.33</time>
   <energy>
    <i name="e_fr_energy">   -288.52875123 </i>
    <i name="e_wo_entrp">   -288.56875353 </i>
    <i name="e_0_energy">   -288.54208533 </i>
   </energy>
  </scstep>
  <scstep>
   <time name="diag">    8.85    8.87</time>
   <time name="diis">   27.10   27.41</time>
   <time name="orth">    0.48    0.48</time>
   <time name="total">   40.41   40.73</time>
   <energy>
    <i name="e_fr_energy">   -288.51884632 </i>
    <i name="e_wo_entrp">   -288.56682804 </i>
    <i name="e_0_energy">   -288.53484023 </i>
   </energy>
  </scstep>
  <scstep>
   <time name="diag">    8.85    8.88</time>
   <time name="diis">   24.67   24.70</time>
   <time name="orth">    0.48    0.48</time>
   <time name="total">   37.99   38.10</time>
   <energy>
    <i name="e_fr_energy">   -288.47837929 </i>
    <i name="e_wo_entrp">   -288.51089619 </i>
    <i name="e_0_energy">   -288.48921826 </i>
   </energy>
  </scstep>
  <scstep>
   <time name="diag">    8.96    9.00</time>
   <time name="diis">   25.45   25.79</time>
   <time name="orth">    0.49    0.49</time>
   <time name="total">   38.87   39.26</time>
   <energy>
    <i name="e_fr_energy">   -288.48250584 </i>
    <i name="e_wo_entrp">   -288.51599880 </i>
    <i name="e_0_energy">   -288.49367016 </i>
   </energy>
  </scstep>
  <scstep>
   <time name="diag">    8.88    8.89</time>
   <time name="diis">   25.27   25.72</time>
   <time name="orth">    0.49    0.49</time>
   <time name="total">   38.60   39.06</time>
   <energy>
    <i name="e_fr_energy">   -288.90152517 </i>
    <i name="e_wo_entrp">   -288.93673518 </i>
    <i name="e_0_energy">   -288.91326184 </i>
   </energy>
  </scstep>
  <scstep>
   <time name="diag">    8.90    8.91</time>
   <time name="diis">   24.98   25.02</time>
   <time name="orth">    0.48    0.49</time>
   <time name="total">   38.32   38.39</time>
   <energy>
    <i name="e_fr_energy">   -289.85689475 </i>
    <i name="e_wo_entrp">   -289.86959663 </i>
    <i name="e_0_energy">   -289.86112871 </i>
   </energy>
  </scstep>
  <scstep>
   <time name="diag">    8.92    8.97</time>
   <time name="diis">   24.94   25.29</time>
   <time name="orth">    0.48    0.49</time>
   <time name="total">   38.32   38.74</time>
   <energy>
    <i name="e_fr_energy">   -288.87854384 </i>
    <i name="e_wo_entrp">   -288.90736963 </i>
    <i name="e_0_energy">   -288.88815244 </i>
   </energy>
  </scstep>
  <scstep>
   <time name="diag">    8.89    8.90</time>
   <time name="diis">   24.92   25.03</time>
   <time name="orth">    0.50    0.50</time>
   <time name="total">   38.44   38.83</time>
   <energy>
    <i name="e_fr_energy">   -288.47644919 </i>
    <i name="e_wo_entrp">   -288.51657066 </i>
    <i name="e_0_energy">   -288.48982301 </i>
   </energy>
  </scstep>
  <scstep>
   <time name="diag">    8.88    8.89</time>
   <time name="diis">   26.29   26.36</time>
   <time name="orth">    0.48    0.49</time>
   <time name="total">   39.62   39.73</time>
   <energy>
    <i name="e_fr_energy">   -288.59202279 </i>
    <i name="e_wo_entrp">   -288.62982016 </i>
    <i name="e_0_energy">   -288.60462191 </i>
   </energy>
  </scstep>
  <scstep>
   <time name="diag">    8.92    8.97</time>
   <time name="diis">   25.85   26.19</time>
   <time name="orth">    0.48    0.48</time>
   <time name="total">   39.22   39.63</time>
   <energy>
    <i name="e_fr_energy">   -288.57406456 </i>
    <i name="e_wo_entrp">   -288.60754808 </i>
    <i name="e_0_energy">   -288.58522573 </i>
   </energy>
  </scstep>
  <scstep>
   <time name="diag">    8.88    8.89</time>
   <time name="diis">   25.06   25.17</time>
   <time name="orth">    0.49    0.49</time>
   <time name="total">   38.49   38.65</time>
   <energy>
    <i name="e_fr_energy">   -288.58878884 </i>
    <i name="e_wo_entrp">   -288.62052975 </i>
    <i name="e_0_energy">   -288.59936915 </i>
   </energy>
  </scstep>
  <scstep>
   <time name="diag">    8.94    9.02</time>
   <time name="diis">   25.00   25.05</time>
   <time name="orth">    0.49    0.50</time>
   <time name="total">   38.41   38.62</time>
   <energy>
    <i name="e_fr_energy">   -287.85178225 </i>
    <i name="e_wo_entrp">   -287.85025889 </i>
    <i name="e_0_energy">   -287.85127446 </i>
   </energy>
  </scstep>
  <scstep>
   <time name="diag">    8.95    8.98</time>
   <time name="diis">   25.01   25.31</time>
   <time name="orth">    0.49    0.49</time>
   <time name="total">   38.43   38.77</time>
   <energy>
    <i name="e_fr_energy">   -287.35324621 </i>
    <i name="e_wo_entrp">   -287.34540239 </i>
    <i name="e_0_energy">   -287.35063161 </i>
   </energy>
  </scstep>
  <scstep>
   <time name="diag">    8.87    8.89</time>
   <time name="diis">   24.85   24.94</time>
   <time name="orth">    0.49    0.49</time>
   <time name="total">   38.26   38.40</time>
   <energy>
    <i name="e_fr_energy">   -287.35619696 </i>
    <i name="e_wo_entrp">   -287.35715292 </i>
    <i name="e_0_energy">   -287.35651561 </i>
   </energy>
  </scstep>
  <scstep>
   <time name="diag">    9.43    9.72</time>
   <time name="diis">   26.87   26.91</time>
   <time name="orth">    0.49    0.49</time>
   <time name="total">   40.78   41.12</time>
   <energy>
    <i name="e_fr_energy">   -287.43222154 </i>
    <i name="e_wo_entrp">   -287.43384369 </i>
    <i name="e_0_energy">   -287.43276226 </i>
   </energy>
  </scstep>
  <scstep>
   <time name="diag">    8.88    8.90</time>
   <time name="diis">   24.88   25.18</time>
   <time name="orth">    0.49    0.49</time>
   <time name="total">   38.22   38.56</time>
   <energy>
    <i name="e_fr_energy">   -287.60679131 </i>
    <i name="e_wo_entrp">   -287.61589852 </i>
    <i name="e_0_energy">   -287.60982705 </i>
   </energy>
  </scstep>
  <scstep>
   <time name="diag">    8.87    8.89</time>
   <time name="diis">   24.70   24.79</time>
   <time name="orth">    0.48    0.49</time>
   <time name="total">   38.05   38.19</time>
   <energy>
    <i name="e_fr_energy">   -287.54128459 </i>
    <i name="e_wo_entrp">   -287.54173214 </i>
    <i name="e_0_energy">   -287.54143378 </i>
   </energy>
  </scstep>
  <scstep>
   <time name="diag">    9.16    9.36</time>
   <time name="diis">   24.64   24.68</time>
   <time name="orth">    0.49    0.49</time>
   <time name="total">   38.25   38.50</time>
   <energy>
    <i name="e_fr_energy">   -287.12038954 </i>
    <i name="e_wo_entrp">   -287.11686594 </i>
    <i name="e_0_energy">   -287.11921501 </i>
   </energy>
  </scstep>
  <scstep>
   <time name="diag">    8.86    8.88</time>
   <time name="diis">   25.16   25.49</time>
   <time name="orth">    0.48    0.48</time>
   <time name="total">   38.49   38.86</time>
   <energy>
    <i name="e_fr_energy">   -285.50352503 </i>
    <i name="e_wo_entrp">   -285.49540659 </i>
    <i name="e_0_energy">   -285.50081889 </i>
   </energy>
  </scstep>
  <scstep>
   <time name="diag">    8.90    8.92</time>
   <time name="diis">   25.91   25.97</time>
   <time name="orth">    0.51    0.53</time>
   <time name="total">   39.32   39.44</time>
   <energy>
    <i name="e_fr_energy">   -285.40215392 </i>
    <i name="e_wo_entrp">   -285.40458366 </i>
    <i name="e_0_energy">   -285.40296383 </i>
   </energy>
  </scstep>
  <scstep>
   <time name="diag">    9.05    9.16</time>
   <time name="diis">   25.57   25.74</time>
   <time name="orth">    0.48    0.49</time>
   <time name="total">   39.09   39.38</time>
   <energy>
    <i name="e_fr_energy">   -285.54877349 </i>
    <i name="e_wo_entrp">   -285.55663084 </i>
    <i name="e_0_energy">   -285.55139261 </i>
   </energy>
  </scstep>
  <scstep>
   <time name="diag">    8.89    8.90</time>
   <time name="diis">   25.22   25.55</time>
   <time name="orth">    0.49    0.49</time>
   <time name="total">   38.55   38.90</time>
   <energy>
    <i name="e_fr_energy">   -285.78698926 </i>
    <i name="e_wo_entrp">   -285.82353390 </i>
    <i name="e_0_energy">   -285.79917081 </i>
   </energy>
  </scstep>
  <scstep>
   <time name="diag">    8.86    8.88</time>
   <time name="diis">   25.89   25.93</time>
   <time name="orth">    0.48    0.49</time>
   <time name="total">   39.28   39.37</time>
   <energy>
    <i name="e_fr_energy">   -285.82463440 </i>
    <i name="e_wo_entrp">   -285.85260641 </i>
    <i name="e_0_energy">   -285.83395841 </i>
   </energy>
  </scstep>
  <scstep>
   <time name="diag">    8.93    9.00</time>
   <time name="diis">   25.28   25.55</time>
   <time name="orth">    0.48    0.49</time>
   <time name="total">   38.65   39.00</time>
   <energy>
    <i name="e_fr_energy">   -284.76500893 </i>
    <i name="e_wo_entrp">   -284.75933627 </i>
    <i name="e_0_energy">   -284.76311804 </i>
   </energy>
  </scstep>
  <scstep>
   <time name="diag">    8.85    8.87</time>
   <time name="diis">   26.21   26.50</time>
   <time name="orth">    0.49    0.49</time>
   <time name="total">   39.51   39.82</time>
   <energy>
    <i name="e_fr_energy">   -284.39035871 </i>
    <i name="e_wo_entrp">   -284.38383673 </i>
    <i name="e_0_energy">   -284.38818471 </i>
   </energy>
  </scstep>
  <scstep>
   <time name="diag">    8.86    8.87</time>
   <time name="diis">   28.44   28.50</time>
   <time name="orth">    0.48    0.48</time>
   <time name="total">   41.79   41.93</time>
   <energy>
    <i name="e_fr_energy">   -284.18421060 </i>
    <i name="e_wo_entrp">   -284.18232799 </i>
    <i name="e_0_energy">   -284.18358306 </i>
   </energy>
  </scstep>
  <scstep>
   <time name="diag">    8.92    8.95</time>
   <time name="diis">   26.79   27.08</time>
   <time name="orth">    0.48    0.48</time>
   <time name="total">   40.16   40.49</time>
   <energy>
    <i name="e_fr_energy">   -284.04898585 </i>
    <i name="e_wo_entrp">   -284.04827542 </i>
    <i name="e_0_energy">   -284.04874904 </i>
   </energy>
  </scstep>
  <scstep>
   <time name="diag">    8.87    8.88</time>
   <time name="diis">   25.54   25.95</time>
   <time name="orth">    0.48    0.48</time>
   <time name="total">   35.43   35.85</time>
   <energy>
    <i name="alphaZ">    477.09650995 </i>
    <i name="ewald"> 394199.57866733 </i>
    <i name="hartreedc">-427808.21697068 </i>
    <i name="XCdc">   1613.19700823 </i>
    <i name="pawpsdc">  38017.65265753 </i>
    <i name="pawaedc"> -38724.28174293 </i>
    <i name="eentropy">     -0.00455810 </i>
    <i name="bandstr">  -6011.81776509 </i>
    <i name="atom">  37952.93320877 </i>
    <i name="e_fr_energy">   -283.86298498 </i>
    <i name="e_wo_entrp">   -283.85842688 </i>
    <i name="e_0_energy">   -283.86146562 </i>
   </energy>
  </scstep>
  <structure>
   <crystal>
    <varray name="basis" >
     <v>       2.87357350      -2.87357350       4.70833511 </v>
     <v>       5.74714699       0.00000000       0.00000000 </v>
     <v>       0.00000000      33.06569101      20.18052901 </v>
    </varray>
    <i name="volume">   1228.01926054 </i>
    <varray name="rec_basis" >
     <v>       0.00000000      -0.09444515       0.15474789 </v>
     <v>       0.17399938       0.04722258      -0.07737394 </v>
     <v>       0.00000000       0.02203507       0.01344836 </v>
    </varray>
   </crystal>
   <varray name="positions" >
    <v>       0.22067121       0.89240241       0.08901558 </v>
    <v>       0.66149909       0.17262467       0.21816341 </v>
    <v>       0.94927612       0.02809995       0.15233499 </v>
    <v>       0.37416792       0.31693754       0.28561941 </v>
    <v>       0.44927612       0.52809995       0.15233499 </v>
    <v>       0.89475405       0.30154553       0.28157972 </v>
    <v>       0.44927612       0.02809995       0.15233499 </v>
    <v>       0.89223870       0.80280649       0.28162620 </v>
    <v>       0.90282244       0.55132680       0.10484543 </v>
    <v>       0.35202467       0.82622568       0.23324475 </v>
    <v>       0.99250419       0.50761766       0.20067455 </v>
    <v>       0.42328239       0.79131596       0.33216585 </v>
    <v>       0.53851998       0.23347802       0.07318573 </v>
    <v>       0.02196032       0.48302529       0.35055212 </v>
    <v>       0.77667623       0.60812853       0.30956090 </v>
    <v>       0.87926422       0.06310591       0.05527763 </v>
    <v>       0.33729845       0.33411960       0.18284258 </v>
    <v>       0.58246139       0.21150732       0.12452493 </v>
    <v>       0.03644971       0.48551206       0.25340603 </v>
    <v>       0.67954133       0.69817448       0.37151306 </v>
    <v>       0.09516526       0.72856013       0.12156099 </v>
    <v>       0.54320672       0.45510368       0.25353906 </v>
    <v>       0.73405184       0.12870311       0.31225486 </v>
    <v>       0.85888103       0.57329750       0.05350623 </v>
    <v>       0.31236908       0.84642165       0.18079119 </v>
    <v>       0.56207820       0.72169891       0.12275353 </v>
    <v>       0.00372891       0.99816852       0.25271433 </v>
    <v>       0.79340096       0.33141056       0.18449073 </v>
    <v>       0.21775513       0.62302601       0.31614429 </v>
    <v>       0.34617716       0.60305419       0.05647018 </v>
    <v>       0.21364514       0.16569856       0.31540701 </v>
    <v>       0.79228169       0.88243096       0.18439851 </v>
    <v>       0.34617716       0.05624469       0.05647018 </v>
    <v>       0.53828164       0.01178009       0.25311590 </v>
    <v>       0.09516526       0.18175063       0.12156099 </v>
    <v>       0.18217073       0.36168378       0.39358446 </v>
    <v>       0.34047062       0.60391201       0.02782883 </v>
    <v>       0.92434681       0.68523651       0.03696881 </v>
    <v>       0.34363348       0.06399961       0.02783421 </v>
    <v>       0.88838126       0.05560908       0.02665597 </v>
    <v>       0.64430675       0.78014874       0.39413200 </v>
    <v>       0.75312601       0.10719796       0.33718203 </v>
    <v>       0.07187087       0.43743669       0.41303735 </v>
   </varray>
  </structure>
  <varray name="forces" >
   <v>       0.06807149      -1.06917620      -1.30081824 </v>
   <v>      -0.11804339       0.25183375       0.11388550 </v>
   <v>      -0.03586425       0.92850998       0.01658426 </v>
   <v>      -0.16643738       0.45065156       0.06888188 </v>
   <v>       0.17383427       0.49430462       0.12107510 </v>
   <v>       0.36227193       0.40670278       0.27376405 </v>
   <v>      -0.14536837       0.38440085       0.10326994 </v>
   <v>      -0.26516739       0.19649958       0.11180696 </v>
   <v>      -0.03294238      -1.35043149      -0.79667354 </v>
   <v>      -0.04678689       0.15723842       0.23610953 </v>
   <v>       0.02634152       0.29816781      -0.05103467 </v>
   <v>       0.03827440       0.32116000       0.37255416 </v>
   <v>      -0.12675932      -0.15042282       0.53436962 </v>
   <v>       2.13041009      -0.05226707       1.80065253 </v>
   <v>      -0.15217362      -0.37321523      -0.39385378 </v>
   <v>      -0.28673117      -2.97843698      -2.53144052 </v>
   <v>       0.24357726      -0.01359276      -0.01579354 </v>
   <v>       0.36745736      -0.47579137      -0.13576045 </v>
   <v>       0.08941064      -0.15466246      -0.28123720 </v>
   <v>      -0.14579209      -0.76437098       0.04279377 </v>
   <v>      -0.25057776      -0.41242500       0.55555022 </v>
   <v>      -0.09637806      -0.25675357      -0.13049470 </v>
   <v>      -0.11331034      -0.40730576      -0.18562148 </v>
   <v>       3.28180109      -2.85591026      -0.01187386 </v>
   <v>      -0.41745279       0.04501043      -0.18063261 </v>
   <v>      -0.41712178       0.19552465      -0.47200470 </v>
   <v>      -0.14294942      -0.13075890      -0.22710251 </v>
   <v>       0.21363280       0.32671613      -0.15026681 </v>
   <v>      -0.59373649      -0.20019458      -0.47821473 </v>
   <v>      -1.16028233      -3.56754624      -1.99731160 </v>
   <v>      -0.00066458      -0.39638741      -0.10650277 </v>
   <v>      -0.38740808       0.36528170      -0.07354740 </v>
   <v>       1.37990961      -3.83358296      -1.67958669 </v>
   <v>      -0.08395930      -0.30481887      -0.14109435 </v>
   <v>       0.26187320      -0.50592979       0.43072752 </v>
   <v>      -0.37377849      -1.34508763      -1.14294098 </v>
   <v>       0.45632973       3.99992264       2.42079757 </v>
   <v>      -3.41355047       3.73237221       0.46905860 </v>
   <v>      -0.63920270       4.22893123       2.25576492 </v>
   <v>       0.30802014       3.93897097       2.21325388 </v>
   <v>       0.04929110       0.21889743       0.16430087 </v>
   <v>      -0.06850424       0.01984849       0.05150493 </v>
   <v>       0.23043646       0.63812309       0.12710133 </v>
  </varray>
  <energy>
   <i name="e_fr_energy">   -283.86298498 </i>
   <i name="e_wo_entrp">   -283.86146562 </i>
   <i name="e_0_energy">     -0.00455810 </i>
  </energy>
  <time name="totalsc"> 2403.76 2420.93</time>
 </calculation>
 <calculation>
  <scstep>
   <time name="dav">   51.72   52.15</time>
   <time name="total">   55.76   56.20</time>
   <energy>
    <i name="alphaZ">    477.09650995 </i>
    <i name="ewald"> 394179.13726797 </i>
    <i name="hartreedc">-427831.30639001 </i>
    <i name="XCdc">   1614.67485987 </i>
    <i name="pawpsdc">  38040.33542429 </i>
    <i name="pawaedc"> -38746.92945264 </i>
    <i name="eentropy">     -0.00700539 </i>
    <i name="bandstr">  -5962.06163526 </i>
    <i name="atom">  37952.93320877 </i>
    <i name="e_fr_energy">   -276.12721244 </i>
    <i name="e_wo_entrp">   -276.12020705 </i>
    <i name="e_0_energy">   -276.12487731 </i>
   </energy>
  </scstep>
  <scstep>
   <time name="diag">    8.95    8.96</time>
   <time name="diis">   30.54   30.93</time>
   <time name="orth">    0.49    0.49</time>
   <time name="total">   43.89   44.29</time>
   <energy>
    <i name="e_fr_energy">   -328.98274571 </i>
    <i name="e_wo_entrp">   -328.98088613 </i>
    <i name="e_0_energy">   -328.98212585 </i>
   </energy>
  </scstep>
  <scstep>
   <time name="diag">    8.93    8.98</time>
   <time name="diis">   26.70   26.75</time>
   <time name="orth">    0.49    0.49</time>
   <time name="total">   40.18   40.33</time>
   <energy>
    <i name="e_fr_energy">   -285.21374226 </i>
    <i name="e_wo_entrp">   -285.24977768 </i>
    <i name="e_0_energy">   -285.22575407 </i>
   </energy>
  </scstep>
  <scstep>
   <time name="diag">    9.00    9.03</time>
   <time name="diis">   27.22   27.55</time>
   <time name="orth">    0.49    0.49</time>
   <time name="total">   40.70   41.06</time>
   <energy>
    <i name="e_fr_energy">   -287.59146057 </i>
    <i name="e_wo_entrp">   -287.61384134 </i>
    <i name="e_0_energy">   -287.59892082 </i>
   </energy>
  </scstep>
  <scstep>
   <time name="diag">    8.92    8.94</time>
   <time name="diis">   27.18   27.60</time>
   <time name="orth">    0.49    0.49</time>
   <time name="total">   40.61   41.05</time>
   <energy>
    <i name="e_fr_energy">   -287.50097262 </i>
    <i name="e_wo_entrp">   -287.52296504 </i>
    <i name="e_0_energy">   -287.50830343 </i>
   </energy>
  </scstep>
  <scstep>
   <time name="diag">    8.96    8.99</time>
   <time name="diis">   25.84   25.89</time>
   <time name="orth">    0.50    0.52</time>
   <time name="total">   39.31   39.46</time>
   <energy>
    <i name="e_fr_energy">   -287.21055656 </i>
    <i name="e_wo_entrp">   -287.23476098 </i>
    <i name="e_0_energy">   -287.21862470 </i>
   </energy>
  </scstep>
  <scstep>
   <time name="diag">    8.94    8.97</time>
   <time name="diis">   26.61   27.05</time>
   <time name="orth">    0.49    0.49</time>
   <time name="total">   39.99   40.47</time>
   <energy>
    <i name="e_fr_energy">   -287.91268409 </i>
    <i name="e_wo_entrp">   -287.86959888 </i>
    <i name="e_0_energy">   -287.89832235 </i>
   </energy>
  </scstep>
  <scstep>
   <time name="diag">    8.88    8.90</time>
   <time name="diis">   26.54   26.85</time>
   <time name="orth">    0.49    0.49</time>
   <time name="total">   39.88   40.22</time>
   <energy>
    <i name="e_fr_energy">   -288.34943408 </i>
    <i name="e_wo_entrp">   -288.36024713 </i>
    <i name="e_0_energy">   -288.35303843 </i>
   </energy>
  </scstep>
  <scstep>
   <time name="diag">    8.89    8.91</time>
   <time name="diis">   24.80   24.85</time>
   <time name="orth">    0.49    0.49</time>
   <time name="total">   38.23   38.35</time>
   <energy>
    <i name="e_fr_energy">   -288.34940063 </i>
    <i name="e_wo_entrp">   -288.34853613 </i>
    <i name="e_0_energy">   -288.34911246 </i>
   </energy>
  </scstep>
  <scstep>
   <time name="diag">    8.96    8.99</time>
   <time name="diis">   26.81   27.03</time>
   <time name="orth">    0.49    0.49</time>
   <time name="total">   40.23   40.49</time>
   <energy>
    <i name="e_fr_energy">   -288.41593396 </i>
    <i name="e_wo_entrp">   -288.41174065 </i>
    <i name="e_0_energy">   -288.41453619 </i>
   </energy>
  </scstep>
  <scstep>
   <time name="diag">    8.89    8.91</time>
   <time name="diis">   26.66   27.04</time>
   <time name="orth">    0.49    0.49</time>
   <time name="total">   40.04   40.43</time>
   <energy>
    <i name="e_fr_energy">   -288.46968288 </i>
    <i name="e_wo_entrp">   -288.46205686 </i>
    <i name="e_0_energy">   -288.46714087 </i>
   </energy>
  </scstep>
  <scstep>
   <time name="diag">    8.91    8.93</time>
   <time name="diis">   23.77   23.80</time>
   <time name="orth">    0.49    0.49</time>
   <time name="total">   37.16   37.25</time>
   <energy>
    <i name="e_fr_energy">   -288.44156147 </i>
    <i name="e_wo_entrp">   -288.43295128 </i>
    <i name="e_0_energy">   -288.43869141 </i>
   </energy>
  </scstep>
  <scstep>
   <time name="diag">    8.92    8.96</time>
   <time name="diis">   23.35   23.68</time>
   <time name="orth">    0.49    0.49</time>
   <time name="total">   36.77   37.21</time>
   <energy>
    <i name="e_fr_energy">   -288.43735035 </i>
    <i name="e_wo_entrp">   -288.42911044 </i>
    <i name="e_0_energy">   -288.43460371 </i>
   </energy>
  </scstep>
  <scstep>
   <time name="diag">    8.92    8.93</time>
   <time name="diis">   24.09   24.20</time>
   <time name="orth">    0.50    0.50</time>
   <time name="total">   37.68   38.08</time>
   <energy>
    <i name="e_fr_energy">   -288.32920994 </i>
    <i name="e_wo_entrp">   -288.32380853 </i>
    <i name="e_0_energy">   -288.32740947 </i>
   </energy>
  </scstep>
  <scstep>
   <time name="diag">    8.87    8.90</time>
   <time name="diis">   23.81   23.85</time>
   <time name="orth">    0.48    0.48</time>
   <time name="total">   37.13   37.22</time>
   <energy>
    <i name="e_fr_energy">   -288.49980301 </i>
    <i name="e_wo_entrp">   -288.49469002 </i>
    <i name="e_0_energy">   -288.49809868 </i>
   </energy>
  </scstep>
  <scstep>
   <time name="diag">    8.94    8.98</time>
   <time name="diis">   25.05   25.28</time>
   <time name="orth">    0.48    0.48</time>
   <time name="total">   38.43   38.72</time>
   <energy>
    <i name="e_fr_energy">   -288.91593857 </i>
    <i name="e_wo_entrp">   -288.91345534 </i>
    <i name="e_0_energy">   -288.91511082 </i>
   </energy>
  </scstep>
  <scstep>
   <time name="diag">    8.88    8.89</time>
   <time name="diis">   24.57   24.64</time>
   <time name="orth">    0.48    0.48</time>
   <time name="total">   37.93   38.06</time>
   <energy>
    <i name="e_fr_energy">   -288.91722258 </i>
    <i name="e_wo_entrp">   -288.91700564 </i>
    <i name="e_0_energy">   -288.91715027 </i>
   </energy>
  </scstep>
  <scstep>
   <time name="diag">    9.15    9.43</time>
   <time name="diis">   25.33   25.37</time>
   <time name="orth">    0.49    0.49</time>
   <time name="total">   38.94   39.27</time>
   <energy>
    <i name="e_fr_energy">   -288.90690279 </i>
    <i name="e_wo_entrp">   -288.90693240 </i>
    <i name="e_0_energy">   -288.90691266 </i>
   </energy>
  </scstep>
  <scstep>
   <time name="diag">    8.88    8.89</time>
   <time name="diis">   24.54   24.80</time>
   <time name="orth">    0.49    0.49</time>
   <time name="total">   37.89   38.18</time>
   <energy>
    <i name="e_fr_energy">   -288.92551228 </i>
    <i name="e_wo_entrp">   -288.92817282 </i>
    <i name="e_0_energy">   -288.92639913 </i>
   </energy>
  </scstep>
  <scstep>
   <time name="diag">    8.89    8.92</time>
   <time name="diis">   24.35   24.43</time>
   <time name="orth">    0.48    0.49</time>
   <time name="total">   37.68   37.80</time>
   <energy>
    <i name="e_fr_energy">   -289.11843333 </i>
    <i name="e_wo_entrp">   -289.12157246 </i>
    <i name="e_0_energy">   -289.11947971 </i>
   </energy>
  </scstep>
  <scstep>
   <time name="diag">    9.08    9.38</time>
   <time name="diis">   25.16   25.21</time>
   <time name="orth">    0.49    0.49</time>
   <time name="total">   38.69   39.05</time>
   <energy>
    <i name="e_fr_energy">   -289.24942428 </i>
    <i name="e_wo_entrp">   -289.24612394 </i>
    <i name="e_0_energy">   -289.24832417 </i>
   </energy>
  </scstep>
  <scstep>
   <time name="diag">    8.90    8.91</time>
   <time name="diis">   25.28   25.64</time>
   <time name="orth">    0.49    0.49</time>
   <time name="total">   38.62   38.99</time>
   <energy>
    <i name="e_fr_energy">   -288.82938010 </i>
    <i name="e_wo_entrp">   -288.80357207 </i>
    <i name="e_0_energy">   -288.82077743 </i>
   </energy>
  </scstep>
  <scstep>
   <time name="diag">    8.83    8.85</time>
   <time name="diis">   30.57   30.66</time>
   <time name="orth">    0.49    0.49</time>
   <time name="total">   43.86   43.98</time>
   <energy>
    <i name="e_fr_energy">   -288.93326752 </i>
    <i name="e_wo_entrp">   -288.89164662 </i>
    <i name="e_0_energy">   -288.91939389 </i>
   </energy>
  </scstep>
  <scstep>
   <time name="diag">    9.17    9.51</time>
   <time name="diis">   25.45   25.50</time>
   <time name="orth">    0.49    0.49</time>
   <time name="total">   39.08   39.47</time>
   <energy>
    <i name="e_fr_energy">   -289.07904058 </i>
    <i name="e_wo_entrp">   -289.04828152 </i>
    <i name="e_0_energy">   -289.06878756 </i>
   </energy>
  </scstep>
  <scstep>
   <time name="diag">    8.84    8.86</time>
   <time name="diis">   25.81   26.42</time>
   <time name="orth">    0.49    0.49</time>
   <time name="total">   39.17   39.80</time>
   <energy>
    <i name="e_fr_energy">   -289.30633432 </i>
    <i name="e_wo_entrp">   -289.27999288 </i>
    <i name="e_0_energy">   -289.29755384 </i>
   </energy>
  </scstep>
  <scstep>
   <time name="diag">    8.96    8.98</time>
   <time name="diis">   25.09   25.14</time>
   <time name="orth">    0.50    0.53</time>
   <time name="total">   38.50   38.61</time>
   <energy>
    <i name="e_fr_energy">   -289.88465994 </i>
    <i name="e_wo_entrp">   -289.88917762 </i>
    <i name="e_0_energy">   -289.88616583 </i>
   </energy>
  </scstep>
  <scstep>
   <time name="diag">    9.28    9.65</time>
   <time name="diis">   24.72   24.77</time>
   <time name="orth">    0.49    0.49</time>
   <time name="total">   38.47   38.88</time>
   <energy>
    <i name="e_fr_energy">   -289.78892209 </i>
    <i name="e_wo_entrp">   -289.78419336 </i>
    <i name="e_0_energy">   -289.78734585 </i>
   </energy>
  </scstep>
  <scstep>
   <time name="diag">    8.87    8.88</time>
   <time name="diis">   26.31   26.67</time>
   <time name="orth">    0.49    0.49</time>
   <time name="total">   39.62   39.99</time>
   <energy>
    <i name="e_fr_energy">   -289.97907245 </i>
    <i name="e_wo_entrp">   -289.97602293 </i>
    <i name="e_0_energy">   -289.97805594 </i>
   </energy>
  </scstep>
  <scstep>
   <time name="diag">    8.86    8.88</time>
   <time name="diis">   25.69   25.74</time>
   <time name="orth">    0.48    0.49</time>
   <time name="total">   39.05   39.26</time>
   <energy>
    <i name="e_fr_energy">   -289.71612957 </i>
    <i name="e_wo_entrp">   -289.71145158 </i>
    <i name="e_0_energy">   -289.71457024 </i>
   </energy>
  </scstep>
  <scstep>
   <time name="diag">    9.01    9.26</time>
   <time name="diis">   25.33   25.54</time>
   <time name="orth">    0.48    0.48</time>
   <time name="total">   38.79   39.26</time>
   <energy>
    <i name="e_fr_energy">   -289.67957604 </i>
    <i name="e_wo_entrp">   -289.67778452 </i>
    <i name="e_0_energy">   -289.67897887 </i>
   </energy>
  </scstep>
  <scstep>
   <time name="diag">    8.89    8.90</time>
   <time name="diis">   25.17   25.57</time>
   <time name="orth">    0.49    0.49</time>
   <time name="total">   38.55   38.97</time>
   <energy>
    <i name="e_fr_energy">   -289.80968522 </i>
    <i name="e_wo_entrp">   -289.81777539 </i>
    <i name="e_0_energy">   -289.81238194 </i>
   </energy>
  </scstep>
  <scstep>
   <time name="diag">    8.91    8.92</time>
   <time name="diis">   25.17   25.23</time>
   <time name="orth">    0.49    0.50</time>
   <time name="total">   38.55   38.63</time>
   <energy>
    <i name="e_fr_energy">   -288.74456416 </i>
    <i name="e_wo_entrp">   -288.74691867 </i>
    <i name="e_0_energy">   -288.74534900 </i>
   </energy>
  </scstep>
  <scstep>
   <time name="diag">    8.89    8.96</time>
   <time name="diis">   26.07   26.38</time>
   <time name="orth">    0.49    0.49</time>
   <time name="total">   39.44   39.83</time>
   <energy>
    <i name="e_fr_energy">   -288.19169055 </i>
    <i name="e_wo_entrp">   -288.15035406 </i>
    <i name="e_0_energy">   -288.17791172 </i>
   </energy>
  </scstep>
  <scstep>
   <time name="diag">    8.90    8.90</time>
   <time name="diis">   26.21   26.58</time>
   <time name="orth">    0.49    0.49</time>
   <time name="total">   39.56   39.95</time>
   <energy>
    <i name="e_fr_energy">   -289.00605161 </i>
    <i name="e_wo_entrp">   -289.00934831 </i>
    <i name="e_0_energy">   -289.00715051 </i>
   </energy>
  </scstep>
  <scstep>
   <time name="diag">    8.87    8.88</time>
   <time name="diis">   25.82   25.88</time>
   <time name="orth">    0.49    0.49</time>
   <time name="total">   39.18   39.26</time>
   <energy>
    <i name="e_fr_energy">   -289.15147784 </i>
    <i name="e_wo_entrp">   -289.14762132 </i>
    <i name="e_0_energy">   -289.15019233 </i>
   </energy>
  </scstep>
  <scstep>
   <time name="diag">    8.99    9.05</time>
   <time name="diis">   26.69   27.02</time>
   <time name="orth">    0.49    0.49</time>
   <time name="total">   40.13   40.53</time>
   <energy>
    <i name="e_fr_energy">   -289.16668202 </i>
    <i name="e_wo_entrp">   -289.16623640 </i>
    <i name="e_0_energy">   -289.16653348 </i>
   </energy>
  </scstep>
  <scstep>
   <time name="diag">    8.85    8.86</time>
   <time name="diis">   24.63   24.95</time>
   <time name="orth">    0.58    0.76</time>
   <time name="total">   38.06   38.64</time>
   <energy>
    <i name="e_fr_energy">   -289.17238518 </i>
    <i name="e_wo_entrp">   -289.17760447 </i>
    <i name="e_0_energy">   -289.17412494 </i>
   </energy>
  </scstep>
  <scstep>
   <time name="diag">    8.95    8.97</time>
   <time name="diis">   25.45   25.52</time>
   <time name="orth">    0.49    0.49</time>
   <time name="total">   38.93   39.03</time>
   <energy>
    <i name="e_fr_energy">   -289.11184175 </i>
    <i name="e_wo_entrp">   -289.12268449 </i>
    <i name="e_0_energy">   -289.11545600 </i>
   </energy>
  </scstep>
  <scstep>
   <time name="diag">    8.92    8.98</time>
   <time name="diis">   25.34   25.65</time>
   <time name="orth">    0.49    0.49</time>
   <time name="total">   38.77   39.15</time>
   <energy>
    <i name="e_fr_energy">   -289.13937133 </i>
    <i name="e_wo_entrp">   -289.15309535 </i>
    <i name="e_0_energy">   -289.14394600 </i>
   </energy>
  </scstep>
  <scstep>
   <time name="diag">    8.95    8.96</time>
   <time name="diis">   25.25   25.45</time>
   <time name="orth">    0.50    0.50</time>
   <time name="total">   38.82   39.28</time>
   <energy>
    <i name="e_fr_energy">   -289.23516805 </i>
    <i name="e_wo_entrp">   -289.25005015 </i>
    <i name="e_0_energy">   -289.24012875 </i>
   </energy>
  </scstep>
  <scstep>
   <time name="diag">    8.85    8.86</time>
   <time name="diis">   25.09   25.13</time>
   <time name="orth">    0.49    0.49</time>
   <time name="total">   38.42   38.49</time>
   <energy>
    <i name="e_fr_energy">   -289.59151647 </i>
    <i name="e_wo_entrp">   -289.60088895 </i>
    <i name="e_0_energy">   -289.59464063 </i>
   </energy>
  </scstep>
  <scstep>
   <time name="diag">    8.91    9.02</time>
   <time name="diis">   25.40   25.75</time>
   <time name="orth">    0.50    0.50</time>
   <time name="total">   38.79   39.27</time>
   <energy>
    <i name="e_fr_energy">   -291.30751113 </i>
    <i name="e_wo_entrp">   -291.29093177 </i>
    <i name="e_0_energy">   -291.30198467 </i>
   </energy>
  </scstep>
  <scstep>
   <time name="diag">    8.85    8.86</time>
   <time name="diis">   26.32   26.43</time>
   <time name="orth">    0.49    0.49</time>
   <time name="total">   39.72   39.91</time>
   <energy>
    <i name="e_fr_energy">   -291.95049748 </i>
    <i name="e_wo_entrp">   -291.94341910 </i>
    <i name="e_0_energy">   -291.94813802 </i>
   </energy>
  </scstep>
  <scstep>
   <time name="diag">    9.12    9.25</time>
   <time name="diis">   25.88   25.92</time>
   <time name="orth">    0.48    0.49</time>
   <time name="total">   39.48   39.72</time>
   <energy>
    <i name="e_fr_energy">   -292.08520695 </i>
    <i name="e_wo_entrp">   -292.08497303 </i>
    <i name="e_0_energy">   -292.08512898 </i>
   </energy>
  </scstep>
  <scstep>
   <time name="diag">    8.92    8.96</time>
   <time name="diis">   26.90   27.17</time>
   <time name="orth">    0.48    0.49</time>
   <time name="total">   40.32   40.64</time>
   <energy>
    <i name="e_fr_energy">   -292.90830519 </i>
    <i name="e_wo_entrp">   -292.91364346 </i>
    <i name="e_0_energy">   -292.91008461 </i>
   </energy>
  </scstep>
  <scstep>
   <time name="diag">    8.88    8.89</time>
   <time name="diis">   29.08   29.19</time>
   <time name="orth">    0.62    0.63</time>
   <time name="total">   42.76   43.02</time>
   <energy>
    <i name="e_fr_energy">   -292.97690227 </i>
    <i name="e_wo_entrp">   -292.97492889 </i>
    <i name="e_0_energy">   -292.97624447 </i>
   </energy>
  </scstep>
  <scstep>
   <time name="diag">    8.75    8.76</time>
   <time name="diis">   25.38   25.44</time>
   <time name="orth">    0.48    0.48</time>
   <time name="total">   38.55   38.64</time>
   <energy>
    <i name="e_fr_energy">   -293.89188246 </i>
    <i name="e_wo_entrp">   -293.87957473 </i>
    <i name="e_0_energy">   -293.88777988 </i>
   </energy>
  </scstep>
  <scstep>
   <time name="diag">    8.78    8.81</time>
   <time name="diis">   25.43   25.75</time>
   <time name="orth">    0.48    0.48</time>
   <time name="total">   38.62   38.98</time>
   <energy>
    <i name="e_fr_energy">   -294.07551331 </i>
    <i name="e_wo_entrp">   -294.09942597 </i>
    <i name="e_0_energy">   -294.08348419 </i>
   </energy>
  </scstep>
  <scstep>
   <time name="diag">    8.75    8.77</time>
   <time name="diis">   23.00   23.08</time>
   <time name="orth">    0.49    0.49</time>
   <time name="total">   36.21   36.34</time>
   <energy>
    <i name="e_fr_energy">   -294.24633945 </i>
    <i name="e_wo_entrp">   -294.26114370 </i>
    <i name="e_0_energy">   -294.25127420 </i>
   </energy>
  </scstep>
  <scstep>
   <time name="diag">    9.02    9.37</time>
   <time name="diis">   22.94   23.14</time>
   <time name="orth">    0.48    0.48</time>
   <time name="total">   36.37   36.92</time>
   <energy>
    <i name="e_fr_energy">   -294.27163221 </i>
    <i name="e_wo_entrp">   -294.28592870 </i>
    <i name="e_0_energy">   -294.27639771 </i>
   </energy>
  </scstep>
  <scstep>
   <time name="diag">    8.75    8.79</time>
   <time name="diis">   24.61   25.00</time>
   <time name="orth">    0.48    0.48</time>
   <time name="total">   37.83   38.25</time>
   <energy>
    <i name="e_fr_energy">   -294.33924193 </i>
    <i name="e_wo_entrp">   -294.35496620 </i>
    <i name="e_0_energy">   -294.34448335 </i>
   </energy>
  </scstep>
  <scstep>
   <time name="diag">    8.88    8.90</time>
   <time name="diis">   24.90   24.95</time>
   <time name="orth">    0.48    0.48</time>
   <time name="total">   38.24   38.37</time>
   <energy>
    <i name="e_fr_energy">   -292.46803402 </i>
    <i name="e_wo_entrp">   -292.48654007 </i>
    <i name="e_0_energy">   -292.47420270 </i>
   </energy>
  </scstep>
  <scstep>
   <time name="diag">    9.25    9.39</time>
   <time name="diis">   26.35   26.57</time>
   <time name="orth">    0.49    0.49</time>
   <time name="total">   40.08   40.44</time>
   <energy>
    <i name="e_fr_energy">   -288.34351115 </i>
    <i name="e_wo_entrp">   -288.31487166 </i>
    <i name="e_0_energy">   -288.33396465 </i>
   </energy>
  </scstep>
  <scstep>
   <time name="diag">    8.89    8.93</time>
   <time name="diis">   26.16   26.51</time>
   <time name="orth">    0.48    0.49</time>
   <time name="total">   39.51   39.91</time>
   <energy>
    <i name="e_fr_energy">   -289.63234162 </i>
    <i name="e_wo_entrp">   -289.61203513 </i>
    <i name="e_0_energy">   -289.62557279 </i>
   </energy>
  </scstep>
  <scstep>
   <time name="diag">    8.87    8.90</time>
   <time name="diis">   24.93   24.98</time>
   <time name="orth">    0.49    0.49</time>
   <time name="total">   38.36   38.50</time>
   <energy>
    <i name="e_fr_energy">   -290.67966321 </i>
    <i name="e_wo_entrp">   -290.69097084 </i>
    <i name="e_0_energy">   -290.68343242 </i>
   </energy>
  </scstep>
  <scstep>
   <time name="diag">    9.00    9.04</time>
   <time name="diis">   25.79   25.98</time>
   <time name="orth">    0.48    0.48</time>
   <time name="total">   39.25   39.48</time>
   <energy>
    <i name="e_fr_energy">   -291.46234786 </i>
    <i name="e_wo_entrp">   -291.47463147 </i>
    <i name="e_0_energy">   -291.46644239 </i>
   </energy>
  </scstep>
  <scstep>
   <time name="diag">    8.84    8.89</time>
   <time name="diis">   26.19   26.57</time>
   <time name="orth">    0.49    0.49</time>
   <time name="total">   39.48   39.92</time>
   <energy>
    <i name="e_fr_energy">   -292.61158089 </i>
    <i name="e_wo_entrp">   -292.58669428 </i>
    <i name="e_0_energy">   -292.60328535 </i>
   </energy>
  </scstep>
  <scstep>
   <time name="diag">    8.86    8.88</time>
   <time name="diis">   25.96   26.00</time>
   <time name="orth">    0.48    0.48</time>
   <time name="total">   39.28   39.48</time>
   <energy>
    <i name="e_fr_energy">   -292.74272006 </i>
    <i name="e_wo_entrp">   -292.73950822 </i>
    <i name="e_0_energy">   -292.74164945 </i>
   </energy>
  </scstep>
  <scstep>
   <time name="diag">    8.99    9.04</time>
   <time name="diis">   26.01   26.30</time>
   <time name="orth">    0.49    0.49</time>
   <time name="total">   39.53   39.88</time>
   <energy>
    <i name="e_fr_energy">   -292.31571656 </i>
    <i name="e_wo_entrp">   -292.31852128 </i>
    <i name="e_0_energy">   -292.31665147 </i>
   </energy>
  </scstep>
  <scstep>
   <time name="diag">    8.96    8.97</time>
   <time name="diis">   26.19   26.58</time>
   <time name="orth">    0.49    0.49</time>
   <time name="total">   36.17   36.58</time>
   <energy>
    <i name="alphaZ">    477.09650995 </i>
    <i name="ewald"> 394179.13726797 </i>
    <i name="hartreedc">-427881.30343335 </i>
    <i name="XCdc">   1613.28049109 </i>
    <i name="pawpsdc">  38075.10586741 </i>
    <i name="pawaedc"> -38780.74721724 </i>
    <i name="eentropy">      0.00506777 </i>
    <i name="bandstr">  -5927.55411573 </i>
    <i name="atom">  37952.93320877 </i>
    <i name="e_fr_energy">   -292.04635336 </i>
    <i name="e_wo_entrp">   -292.05142112 </i>
    <i name="e_0_energy">   -292.04804261 </i>
   </energy>
  </scstep>
  <structure>
   <crystal>
    <varray name="basis" >
     <v>       2.87357350      -2.87357350       4.70833511 </v>
     <v>       5.74714699       0.00000000       0.00000000 </v>
     <v>       0.00000000      33.06569101      20.18052901 </v>
    </varray>
    <i name="volume">   1228.01926054 </i>
    <varray name="rec_basis" >
     <v>       0.00000000      -0.09444515       0.15474789 </v>
     <v>       0.17399938       0.04722258      -0.07737394 </v>
     <v>       0.00000000       0.02203507       0.01344836 </v>
    </varray>
   </crystal>
   <varray name="positions" >
    <v>       0.22067121       0.89240241       0.08901558 </v>
    <v>       0.66120187       0.17178240       0.21850501 </v>
    <v>       0.94927612       0.02809995       0.15233499 </v>
    <v>       0.37262885       0.31630996       0.28614315 </v>
    <v>       0.44927612       0.52809995       0.15233499 </v>
    <v>       0.89494477       0.30449115       0.28218968 </v>
    <v>       0.44927612       0.02809995       0.15233499 </v>
    <v>       0.89217808       0.80061094       0.28190762 </v>
    <v>       0.90282244       0.55132680       0.10484543 </v>
    <v>       0.35307092       0.82530982       0.23356508 </v>
    <v>       0.99076466       0.50870854       0.20095840 </v>
    <v>       0.42460038       0.79097825       0.33274896 </v>
    <v>       0.53851998       0.23347802       0.07318573 </v>
    <v>       0.03564114       0.49406795       0.35166479 </v>
    <v>       0.77543641       0.60747107       0.30890863 </v>
    <v>       0.87926422       0.06310591       0.05527763 </v>
    <v>       0.33724247       0.33619222       0.18281788 </v>
    <v>       0.58246139       0.21150732       0.12452493 </v>
    <v>       0.03505483       0.48696003       0.25305915 </v>
    <v>       0.68334349       0.69504959       0.37072828 </v>
    <v>       0.09516526       0.72856013       0.12156099 </v>
    <v>       0.54340236       0.45419684       0.25318146 </v>
    <v>       0.73452189       0.12751693       0.31170146 </v>
    <v>       0.85888103       0.57329750       0.05350623 </v>
    <v>       0.31081550       0.84369426       0.18072185 </v>
    <v>       0.56207820       0.72169891       0.12275353 </v>
    <v>       0.00262927       0.99751840       0.25242799 </v>
    <v>       0.79079053       0.33450905       0.18474055 </v>
    <v>       0.21509719       0.61937105       0.31562122 </v>
    <v>       0.34617716       0.60305419       0.05647018 </v>
    <v>       0.21465611       0.16518750       0.31491654 </v>
    <v>       0.79006830       0.88028568       0.18473910 </v>
    <v>       0.34617716       0.05624469       0.05647018 </v>
    <v>       0.53861715       0.01090756       0.25270033 </v>
    <v>       0.09516526       0.18175063       0.12156099 </v>
    <v>       0.17976676       0.35974819       0.39141306 </v>
    <v>       0.34047062       0.60391201       0.02782883 </v>
    <v>       0.92434681       0.68523651       0.03696881 </v>
    <v>       0.34363348       0.06399961       0.02783421 </v>
    <v>       0.88838126       0.05560908       0.02665597 </v>
    <v>       0.64453598       0.78044789       0.39447130 </v>
    <v>       0.75342009       0.10647589       0.33723654 </v>
    <v>       0.06991227       0.44035031       0.41379816 </v>
   </varray>
  </structure>
  <varray name="forces" >
   <v>       0.14470813      -1.29172175      -1.32924740 </v>
   <v>       0.01372750      -0.18454035       0.02229978 </v>
   <v>      -0.02767986       1.04965031       0.01085613 </v>
   <v>      -0.29540396      -0.58279103      -0.01273864 </v>
   <v>      -0.03861716       0.44666327       0.14821245 </v>
   <v>      -0.35469617      -0.46912940      -0.03654363 </v>
   <v>      -0.02605238       0.55120896       0.08029820 </v>
   <v>       0.21628712      -0.41854675      -0.34021921 </v>
   <v>      -0.00859901      -1.20461222      -0.44017004 </v>
   <v>      -0.03312012       0.05055562      -0.05530267 </v>
   <v>       0.00798493       0.08849566      -0.09498896 </v>
   <v>       0.09214722       0.07355107       0.12368581 </v>
   <v>      -0.01414312      -0.35559074       0.34944973 </v>
   <v>      -0.58952812      -0.83921506      -0.59033897 </v>
   <v>       0.08778945       0.44356112      -0.23175061 </v>
   <v>      -0.32419129      -3.66163229      -1.77320852 </v>
   <v>       0.16941767       0.17652058      -0.07088935 </v>
   <v>       0.42318669      -0.06745606       0.49270072 </v>
   <v>      -0.03921229       0.10276879       0.07509383 </v>
   <v>       1.10387347       2.00766558       0.80224525 </v>
   <v>      -0.97507865      -0.03445916       0.34863904 </v>
   <v>      -0.23116791       0.23659297      -0.01751005 </v>
   <v>      -0.05591744       0.83295929       0.54660088 </v>
   <v>       3.32433515      -3.16025813      -0.21946823 </v>
   <v>      -0.13208796       0.22146935      -0.26600332 </v>
   <v>      -0.38161870      -0.03851317      -0.35574624 </v>
   <v>       0.14202295       0.19510832      -0.01123393 </v>
   <v>       0.15573873       0.49455051      -0.01927756 </v>
   <v>       0.20358403       0.34645243       0.19678486 </v>
   <v>      -1.13218272      -4.19933289      -2.53454823 </v>
   <v>       0.24312479      -0.31023831       0.14734620 </v>
   <v>      -0.17761902       0.50970053      -0.10546307 </v>
   <v>       1.21904678      -4.24189567      -2.25829680 </v>
   <v>       0.14373571       0.16253431      -0.06307773 </v>
   <v>       1.13278208      -0.06829847       0.31909976 </v>
   <v>      -0.17173802       2.42321095       0.81535004 </v>
   <v>       0.44243268       3.86236598       2.42394304 </v>
   <v>      -3.29389258       3.73959406       0.46772267 </v>
   <v>      -0.51440555       4.02550577       2.22108668 </v>
   <v>       0.37469514       3.68738198       2.18168936 </v>
   <v>      -0.80227267      -1.68500540      -0.63061782 </v>
   <v>       0.09880948      -0.79689013      -0.59151504 </v>
   <v>      -0.12020503      -2.11794040       0.27505159 </v>
  </varray>
  <energy>
   <i name="e_fr_energy">   -292.04635336 </i>
   <i name="e_wo_entrp">   -292.04804261 </i>
   <i name="e_0_energy">      0.00506777 </i>
  </energy>
  <time name="totalsc"> 2380.82 2399.18</time>
 </calculation>
 <calculation>
  <scstep>
   <time name="dav">   50.51   51.01</time>
   <time name="total">   54.46   54.99</time>
   <energy>
    <i name="alphaZ">    477.09650995 </i>
    <i name="ewald"> 394179.31966320 </i>
    <i name="hartreedc">-427882.65941183 </i>
    <i name="XCdc">   1613.24994343 </i>
    <i name="pawpsdc">  38073.21510381 </i>
    <i name="pawaedc"> -38778.84471349 </i>
    <i name="eentropy">      0.00596778 </i>
    <i name="bandstr">  -5926.28447207 </i>
    <i name="atom">  37952.93320877 </i>
    <i name="e_fr_energy">   -291.96820045 </i>
    <i name="e_wo_entrp">   -291.97416823 </i>
    <i name="e_0_energy">   -291.97018971 </i>
   </energy>
  </scstep>
  <scstep>
   <time name="diag">    8.85    8.86</time>
   <time name="diis">   32.49   32.91</time>
   <time name="orth">    0.48    0.49</time>
   <time name="total">   45.59   46.03</time>
   <energy>
    <i name="e_fr_energy">   -371.04804276 </i>
    <i name="e_wo_entrp">   -371.02872872 </i>
    <i name="e_0_energy">   -371.04160475 </i>
   </energy>
  </scstep>
  <scstep>
   <time name="diag">    8.88    8.92</time>
   <time name="diis">   25.79   25.83</time>
   <time name="orth">    0.48    0.49</time>
   <time name="total">   39.07   39.15</time>
   <energy>
    <i name="e_fr_energy">   -302.13512299 </i>
    <i name="e_wo_entrp">   -302.13527144 </i>
    <i name="e_0_energy">   -302.13517247 </i>
   </energy>
  </scstep>
  <scstep>
   <time name="diag">    8.85    8.88</time>
   <time name="diis">   25.78   26.11</time>
   <time name="orth">    0.48    0.48</time>
   <time name="total">   39.06   39.47</time>
   <energy>
    <i name="e_fr_energy">   -287.65086087 </i>
    <i name="e_wo_entrp">   -287.65505732 </i>
    <i name="e_0_energy">   -287.65225969 </i>
   </energy>
  </scstep>
  <scstep>
   <time name="diag">    8.82    8.83</time>
   <time name="diis">   28.12   28.60</time>
   <time name="orth">    0.49    0.49</time>
   <time name="total">   41.39   41.88</time>
   <energy>
    <i name="e_fr_energy">   -288.68836673 </i>
    <i name="e_wo_entrp">   -288.65468180 </i>
    <i name="e_0_energy">   -288.67713842 </i>
   </energy>
  </scstep>
  <scstep>
   <time name="diag">    8.88    8.89</time>
   <time name="diis">   26.79   26.88</time>
   <time name="orth">    0.49    0.49</time>
   <time name="total">   40.17   40.33</time>
   <energy>
    <i name="e_fr_energy">   -289.70592737 </i>
    <i name="e_wo_entrp">   -289.67085885 </i>
    <i name="e_0_energy">   -289.69423786 </i>
   </energy>
  </scstep>
  <scstep>
   <time name="diag">    8.91    8.99</time>
   <time name="diis">   27.18   27.42</time>
   <time name="orth">    0.49    0.49</time>
   <time name="total">   40.52   40.85</time>
   <energy>
    <i name="e_fr_energy">   -290.25832961 </i>
    <i name="e_wo_entrp">   -290.25670188 </i>
    <i name="e_0_energy">   -290.25778704 </i>
   </energy>
  </scstep>
  <scstep>
   <time name="diag">    8.87    8.93</time>
   <time name="diis">   25.79   26.14</time>
   <time name="orth">    0.49    0.49</time>
   <time name="total">   39.11   39.53</time>
   <energy>
    <i name="e_fr_energy">   -290.31383127 </i>
    <i name="e_wo_entrp">   -290.30437161 </i>
    <i name="e_0_energy">   -290.31067805 </i>
   </energy>
  </scstep>
  <scstep>
   <time name="diag">    8.88    8.93</time>
   <time name="diis">   24.97   25.01</time>
   <time name="orth">    0.48    0.49</time>
   <time name="total">   38.31   38.43</time>
   <energy>
    <i name="e_fr_energy">   -290.17376042 </i>
    <i name="e_wo_entrp">   -290.17094203 </i>
    <i name="e_0_energy">   -290.17282096 </i>
   </energy>
  </scstep>
  <scstep>
   <time name="diag">    8.89    8.92</time>
   <time name="diis">   25.26   25.50</time>
   <time name="orth">    0.48    0.48</time>
   <time name="total">   38.58   38.92</time>
   <energy>
    <i name="e_fr_energy">   -289.56818195 </i>
    <i name="e_wo_entrp">   -289.54629606 </i>
    <i name="e_0_energy">   -289.56088665 </i>
   </energy>
  </scstep>
  <scstep>
   <time name="diag">    8.87    8.88</time>
   <time name="diis">   25.55   26.09</time>
   <time name="orth">    0.49    0.51</time>
   <time name="total">   38.85   39.43</time>
   <energy>
    <i name="e_fr_energy">   -289.78629084 </i>
    <i name="e_wo_entrp">   -289.79758443 </i>
    <i name="e_0_energy">   -289.79005537 </i>
   </energy>
  </scstep>
  <scstep>
   <time name="diag">    8.87    8.88</time>
   <time name="diis">   25.32   25.41</time>
   <time name="orth">    0.48    0.48</time>
   <time name="total">   38.64   38.76</time>
   <energy>
    <i name="e_fr_energy">   -289.94938112 </i>
    <i name="e_wo_entrp">   -289.93774151 </i>
    <i name="e_0_energy">   -289.94550125 </i>
   </energy>
  </scstep>
  <scstep>
   <time name="diag">    8.92    8.99</time>
   <time name="diis">   25.29   25.54</time>
   <time name="orth">    0.49    0.49</time>
   <time name="total">   38.67   39.01</time>
   <energy>
    <i name="e_fr_energy">   -290.10729354 </i>
    <i name="e_wo_entrp">   -290.08773545 </i>
    <i name="e_0_energy">   -290.10077418 </i>
   </energy>
  </scstep>
  <scstep>
   <time name="diag">    8.89    8.90</time>
   <time name="diis">   24.85   24.96</time>
   <time name="orth">    0.50    0.50</time>
   <time name="total">   38.41   38.84</time>
   <energy>
    <i name="e_fr_energy">   -290.45223968 </i>
    <i name="e_wo_entrp">   -290.44387237 </i>
    <i name="e_0_energy">   -290.44945058 </i>
   </energy>
  </scstep>
  <scstep>
   <time name="diag">    8.89    8.89</time>
   <time name="diis">   25.16   25.23</time>
   <time name="orth">    0.49    0.49</time>
   <time name="total">   38.49   38.58</time>
   <energy>
    <i name="e_fr_energy">   -290.62987419 </i>
    <i name="e_wo_entrp">   -290.60778272 </i>
    <i name="e_0_energy">   -290.62251037 </i>
   </energy>
  </scstep>
  <scstep>
   <time name="diag">    8.96    9.01</time>
   <time name="diis">   25.35   25.63</time>
   <time name="orth">    0.48    0.48</time>
   <time name="total">   38.75   39.10</time>
   <energy>
    <i name="e_fr_energy">   -291.02650215 </i>
    <i name="e_wo_entrp">   -291.01391448 </i>
    <i name="e_0_energy">   -291.02230626 </i>
   </energy>
  </scstep>
  <scstep>
   <time name="diag">    8.86    8.87</time>
   <time name="diis">   25.67   25.77</time>
   <time name="orth">    0.48    0.49</time>
   <time name="total">   39.06   39.19</time>
   <energy>
    <i name="e_fr_energy">   -291.13073661 </i>
    <i name="e_wo_entrp">   -291.10260933 </i>
    <i name="e_0_energy">   -291.12136085 </i>
   </energy>
  </scstep>
  <scstep>
   <time name="diag">    9.11    9.36</time>
   <time name="diis">   24.89   24.94</time>
   <time name="orth">    0.49    0.49</time>
   <time name="total">   38.50   38.82</time>
   <energy>
    <i name="e_fr_energy">   -291.47958089 </i>
    <i name="e_wo_entrp">   -291.45601296 </i>
    <i name="e_0_energy">   -291.47172491 </i>
   </energy>
  </scstep>
  <scstep>
   <time name="diag">    8.91    9.05</time>
   <time name="diis">   25.29   25.55</time>
   <time name="orth">    0.49    0.49</time>
   <time name="total">   38.69   39.11</time>
   <energy>
    <i name="e_fr_energy">   -291.46202594 </i>
    <i name="e_wo_entrp">   -291.43422592 </i>
    <i name="e_0_energy">   -291.45275927 </i>
   </energy>
  </scstep>
  <scstep>
   <time name="diag">    8.88    8.89</time>
   <time name="diis">   25.10   25.16</time>
   <time name="orth">    0.49    0.49</time>
   <time name="total">   38.46   38.56</time>
   <energy>
    <i name="e_fr_energy">   -291.71368905 </i>
    <i name="e_wo_entrp">   -291.70336518 </i>
    <i name="e_0_energy">   -291.71024776 </i>
   </energy>
  </scstep>
  <scstep>
   <time name="diag">    9.24    9.52</time>
   <time name="diis">   24.45   24.49</time>
   <time name="orth">    0.48    0.48</time>
   <time name="total">   38.12   38.45</time>
   <energy>
    <i name="e_fr_energy">   -291.89378154 </i>
    <i name="e_wo_entrp">   -291.88376257 </i>
    <i name="e_0_energy">   -291.89044188 </i>
   </energy>
  </scstep>
  <scstep>
   <time name="diag">    8.85    8.87</time>
   <time name="diis">   25.66   26.07</time>
   <time name="orth">    0.48    0.48</time>
   <time name="total">   38.99   39.44</time>
   <energy>
    <i name="e_fr_energy">   -291.94088258 </i>
    <i name="e_wo_entrp">   -291.92021014 </i>
    <i name="e_0_energy">   -291.93399177 </i>
   </energy>
  </scstep>
  <scstep>
   <time name="diag">    8.90    8.92</time>
   <time name="diis">   23.89   23.93</time>
   <time name="orth">    0.48    0.48</time>
   <time name="total">   37.24   37.35</time>
   <energy>
    <i name="e_fr_energy">   -292.04087438 </i>
    <i name="e_wo_entrp">   -292.01364802 </i>
    <i name="e_0_energy">   -292.03179893 </i>
   </energy>
  </scstep>
  <scstep>
   <time name="diag">    9.09    9.17</time>
   <time name="diis">   24.30   24.48</time>
   <time name="orth">    0.49    0.48</time>
   <time name="total">   37.86   38.12</time>
   <energy>
    <i name="e_fr_energy">   -292.11060419 </i>
    <i name="e_wo_entrp">   -292.08382117 </i>
    <i name="e_0_energy">   -292.10167652 </i>
   </energy>
  </scstep>
  <scstep>
   <time name="diag">    8.90    8.92</time>
   <time name="diis">   24.57   24.92</time>
   <time name="orth">    0.48    0.48</time>
   <time name="total">   37.91   38.30</time>
   <energy>
    <i name="e_fr_energy">   -292.21088469 </i>
    <i name="e_wo_entrp">   -292.18840835 </i>
    <i name="e_0_energy">   -292.20339257 </i>
   </energy>
  </scstep>
  <scstep>
   <time name="diag">    8.88    8.90</time>
   <time name="diis">   24.37   24.45</time>
   <time name="orth">    0.48    0.48</time>
   <time name="total">   37.73   37.85</time>
   <energy>
    <i name="e_fr_energy">   -292.32568606 </i>
    <i name="e_wo_entrp">   -292.30408054 </i>
    <i name="e_0_energy">   -292.31848422 </i>
   </energy>
  </scstep>
  <scstep>
   <time name="diag">    8.94    9.01</time>
   <time name="diis">   24.61   24.89</time>
   <time name="orth">    0.49    0.49</time>
   <time name="total">   38.05   38.42</time>
   <energy>
    <i name="e_fr_energy">   -292.35850232 </i>
    <i name="e_wo_entrp">   -292.33564484 </i>
    <i name="e_0_energy">   -292.35088316 </i>
   </energy>
  </scstep>
  <scstep>
   <time name="diag">    8.94    8.95</time>
   <time name="diis">   24.51   24.62</time>
   <time name="orth">    0.50    0.50</time>
   <time name="total">   38.13   38.43</time>
   <energy>
    <i name="e_fr_energy">   -292.38802449 </i>
    <i name="e_wo_entrp">   -292.36359409 </i>
    <i name="e_0_energy">   -292.37988102 </i>
   </energy>
  </scstep>
  <scstep>
   <time name="diag">    8.87    8.88</time>
   <time name="diis">   22.40   22.45</time>
   <time name="orth">    0.49    0.49</time>
   <time name="total">   35.73   35.93</time>
   <energy>
    <i name="e_fr_energy">   -292.43513249 </i>
    <i name="e_wo_entrp">   -292.41000077 </i>
    <i name="e_0_energy">   -292.42675525 </i>
   </energy>
  </scstep>
  <scstep>
   <time name="diag">    8.88    8.89</time>
   <time name="diis">   23.47   23.85</time>
   <time name="orth">    0.49    0.49</time>
   <time name="total">   36.83   37.23</time>
   <energy>
    <i name="e_fr_energy">   -292.45347746 </i>
    <i name="e_wo_entrp">   -292.42732003 </i>
    <i name="e_0_energy">   -292.44475832 </i>
   </energy>
  </scstep>
  <scstep>
   <time name="diag">    8.88    8.90</time>
   <time name="diis">   22.63   22.69</time>
   <time name="orth">    0.49    0.49</time>
   <time name="total">   35.98   36.10</time>
   <energy>
    <i name="e_fr_energy">   -292.46756278 </i>
    <i name="e_wo_entrp">   -292.44119082 </i>
    <i name="e_0_energy">   -292.45877213 </i>
   </energy>
  </scstep>
  <scstep>
   <time name="diag">    9.20    9.33</time>
   <time name="diis">   23.43   23.56</time>
   <time name="orth">    0.49    0.49</time>
   <time name="total">   37.11   37.37</time>
   <energy>
    <i name="e_fr_energy">   -292.47933363 </i>
    <i name="e_wo_entrp">   -292.45427377 </i>
    <i name="e_0_energy">   -292.47098035 </i>
   </energy>
  </scstep>
  <scstep>
   <time name="diag">    8.91    8.92</time>
   <time name="diis">   22.87   23.21</time>
   <time name="orth">    0.50    0.63</time>
   <time name="total">   36.28   36.75</time>
   <energy>
    <i name="e_fr_energy">   -292.49685470 </i>
    <i name="e_wo_entrp">   -292.47454586 </i>
    <i name="e_0_energy">   -292.48941842 </i>
   </energy>
  </scstep>
  <scstep>
   <time name="diag">    8.92    8.93</time>
   <time name="diis">   22.16   22.21</time>
   <time name="orth">    0.49    0.49</time>
   <time name="total">   35.55   35.62</time>
   <energy>
    <i name="e_fr_energy">   -292.50559514 </i>
    <i name="e_wo_entrp">   -292.48584009 </i>
    <i name="e_0_energy">   -292.49901012 </i>
   </energy>
  </scstep>
  <scstep>
   <time name="diag">    9.15    9.24</time>
   <time name="diis">   22.73   23.08</time>
   <time name="orth">    0.49    0.49</time>
   <time name="total">   36.39   36.84</time>
   <energy>
    <i name="e_fr_energy">   -292.50445859 </i>
    <i name="e_wo_entrp">   -292.48575798 </i>
    <i name="e_0_energy">   -292.49822505 </i>
   </energy>
  </scstep>
  <scstep>
   <time name="diag">    8.91    8.92</time>
   <time name="diis">   19.25   19.29</time>
   <time name="orth">    0.49    0.49</time>
   <time name="total">   32.66   32.77</time>
   <energy>
    <i name="e_fr_energy">   -292.50493635 </i>
    <i name="e_wo_entrp">   -292.48776507 </i>
    <i name="e_0_energy">   -292.49921259 </i>
   </energy>
  </scstep>
  <scstep>
   <time name="diag">    8.98    9.04</time>
   <time name="diis">   23.43   23.67</time>
   <time name="orth">    0.49    0.49</time>
   <time name="total">   36.88   37.19</time>
   <energy>
    <i name="e_fr_energy">   -292.50280890 </i>
    <i name="e_wo_entrp">   -292.48540862 </i>
    <i name="e_0_energy">   -292.49700881 </i>
   </energy>
  </scstep>
  <scstep>
   <time name="diag">    8.88    8.89</time>
   <time name="diis">   24.38   24.68</time>
   <time name="orth">    0.50    0.50</time>
   <time name="total">   37.74   38.07</time>
   <energy>
    <i name="e_fr_energy">   -292.50036588 </i>
    <i name="e_wo_entrp">   -292.48058022 </i>
    <i name="e_0_energy">   -292.49377066 </i>
   </energy>
  </scstep>
  <scstep>
   <time name="diag">    8.91    8.92</time>
   <time name="diis">   23.12   23.14</time>
   <time name="orth">    0.49    0.49</time>
   <time name="total">   36.50   36.56</time>
   <energy>
    <i name="e_fr_energy">   -292.50195402 </i>
    <i name="e_wo_entrp">   -292.47876448 </i>
    <i name="e_0_energy">   -292.49422417 </i>
   </energy>
  </scstep>
  <scstep>
   <time name="diag">    8.93    8.99</time>
   <time name="diis">   21.86   22.17</time>
   <time name="orth">    0.49    0.49</time>
   <time name="total">   35.29   35.66</time>
   <energy>
    <i name="e_fr_energy">   -292.50736441 </i>
    <i name="e_wo_entrp">   -292.48167341 </i>
    <i name="e_0_energy">   -292.49880074 </i>
   </energy>
  </scstep>
  <scstep>
   <time name="diag">    8.91    8.92</time>
   <time name="diis">   21.44   21.53</time>
   <time name="orth">    0.48    0.49</time>
   <time name="total">   34.81   34.92</time>
   <energy>
    <i name="e_fr_energy">   -292.51222630 </i>
    <i name="e_wo_entrp">   -292.48532731 </i>
    <i name="e_0_energy">   -292.50325997 </i>
   </energy>
  </scstep>
  <scstep>
   <time name="diag">    9.17    9.49</time>
   <time name="diis">   21.58   21.62</time>
   <time name="orth">    0.49    0.49</time>
   <time name="total">   35.21   35.57</time>
   <energy>
    <i name="e_fr_energy">   -292.51457780 </i>
    <i name="e_wo_entrp">   -292.48747119 </i>
    <i name="e_0_energy">   -292.50554227 </i>
   </energy>
  </scstep>
  <scstep>
   <time name="diag">    8.88    8.89</time>
   <time name="diis">   21.68   21.86</time>
   <time name="orth">    0.54    0.58</time>
   <time name="total">   35.18   35.52</time>
   <energy>
    <i name="e_fr_energy">   -292.51405082 </i>
    <i name="e_wo_entrp">   -292.48711152 </i>
    <i name="e_0_energy">   -292.50507105 </i>
   </energy>
  </scstep>
  <scstep>
   <time name="diag">    8.87    8.88</time>
   <time name="diis">   19.74   19.77</time>
   <time name="orth">    0.49    0.49</time>
   <time name="total">   33.08   33.13</time>
   <energy>
    <i name="e_fr_energy">   -292.51311278 </i>
    <i name="e_wo_entrp">   -292.48642863 </i>
    <i name="e_0_energy">   -292.50421806 </i>
   </energy>
  </scstep>
  <scstep>
   <time name="diag">    8.90    8.93</time>
   <time name="diis">   18.55   18.86</time>
   <time name="orth">    0.49    0.49</time>
   <time name="total">   31.92   32.28</time>
   <energy>
    <i name="e_fr_energy">   -292.51256860 </i>
    <i name="e_wo_entrp">   -292.48616638 </i>
    <i name="e_0_energy">   -292.50376786 </i>
   </energy>
  </scstep>
  <scstep>
   <time name="diag">    8.88    8.90</time>
   <time name="diis">   16.99   17.01</time>
   <time name="orth">    0.49    0.49</time>
   <time name="total">   30.37   30.42</time>
   <energy>
    <i name="e_fr_energy">   -292.51218258 </i>
    <i name="e_wo_entrp">   -292.48610805 </i>
    <i name="e_0_energy">   -292.50349107 </i>
   </energy>
  </scstep>
  <scstep>
   <time name="diag">    8.90    8.96</time>
   <time name="diis">   21.80   22.02</time>
   <time name="orth">    0.48    0.48</time>
   <time name="total">   35.18   35.47</time>
   <energy>
    <i name="e_fr_energy">   -292.51005246 </i>
    <i name="e_wo_entrp">   -292.48395084 </i>
    <i name="e_0_energy">   -292.50135192 </i>
   </energy>
  </scstep>
  <scstep>
   <time name="diag">    8.90    8.92</time>
   <time name="diis">   23.41   23.49</time>
   <time name="orth">    0.46    0.47</time>
   <time name="total">   36.74   36.86</time>
   <energy>
    <i name="e_fr_energy">   -292.50597694 </i>
    <i name="e_wo_entrp">   -292.47919693 </i>
    <i name="e_0_energy">   -292.49705027 </i>
   </energy>
  </scstep>
  <scstep>
   <time name="diag">    9.16    9.42</time>
   <time name="diis">   23.16   23.20</time>
   <time name="orth">    0.48    0.48</time>
   <time name="total">   36.79   37.09</time>
   <energy>
    <i name="e_fr_energy">   -292.50761036 </i>
    <i name="e_wo_entrp">   -292.48122810 </i>
    <i name="e_0_energy">   -292.49881627 </i>
   </energy>
  </scstep>
  <scstep>
   <time name="diag">    8.86    8.87</time>
   <time name="diis">   21.96   22.23</time>
   <time name="orth">    0.50    0.64</time>
   <time name="total">   35.30   35.73</time>
   <energy>
    <i name="e_fr_energy">   -292.51492075 </i>
    <i name="e_wo_entrp">   -292.49061044 </i>
    <i name="e_0_energy">   -292.50681731 </i>
   </energy>
  </scstep>
  <scstep>
   <time name="diag">    8.87    8.88</time>
   <time name="diis">   21.66   21.70</time>
   <time name="orth">    0.48    0.48</time>
   <time name="total">   34.98   35.05</time>
   <energy>
    <i name="e_fr_energy">   -292.52099698 </i>
    <i name="e_wo_entrp">   -292.49944231 </i>
    <i name="e_0_energy">   -292.51381209 </i>
   </energy>
  </scstep>
  <scstep>
   <time name="diag">    8.91    9.18</time>
   <time name="diis">   22.36   22.70</time>
   <time name="orth">    0.49    0.49</time>
   <time name="total">   35.78   36.41</time>
   <energy>
    <i name="e_fr_energy">   -292.52176094 </i>
    <i name="e_wo_entrp">   -292.50184712 </i>
    <i name="e_0_energy">   -292.51512300 </i>
   </energy>
  </scstep>
  <scstep>
   <time name="diag">    8.93    8.94</time>
   <time name="diis">   21.84   21.92</time>
   <time name="orth">    0.49    0.49</time>
   <time name="total">   35.26   35.36</time>
   <energy>
    <i name="e_fr_energy">   -292.52084484 </i>
    <i name="e_wo_entrp">   -292.50153480 </i>
    <i name="e_0_energy">   -292.51440816 </i>
   </energy>
  </scstep>
  <scstep>
   <time name="diag">    9.02    9.23</time>
   <time name="diis">   23.67   23.74</time>
   <time name="orth">    0.49    0.49</time>
   <time name="total">   37.20   37.49</time>
   <energy>
    <i name="e_fr_energy">   -292.51929890 </i>
    <i name="e_wo_entrp">   -292.49882294 </i>
    <i name="e_0_energy">   -292.51247358 </i>
   </energy>
  </scstep>
  <scstep>
   <time name="diag">    8.92    8.94</time>
   <time name="diis">   23.32   23.60</time>
   <time name="orth">    0.48    0.49</time>
   <time name="total">   36.71   37.02</time>
   <energy>
    <i name="e_fr_energy">   -292.51940043 </i>
    <i name="e_wo_entrp">   -292.49671335 </i>
    <i name="e_0_energy">   -292.51183807 </i>
   </energy>
  </scstep>
  <scstep>
   <time name="diag">    8.90    9.03</time>
   <time name="diis">   19.59   19.70</time>
   <time name="orth">    0.49    0.49</time>
   <time name="total">   32.99   33.24</time>
   <energy>
    <i name="e_fr_energy">   -292.52157634 </i>
    <i name="e_wo_entrp">   -292.49747206 </i>
    <i name="e_0_energy">   -292.51354158 </i>
   </energy>
  </scstep>
  <scstep>
   <time name="diag">    8.92    9.00</time>
   <time name="diis">   21.74   22.12</time>
   <time name="orth">    0.48    0.48</time>
   <time name="total">   35.11   35.58</time>
   <energy>
    <i name="e_fr_energy">   -292.52309940 </i>
    <i name="e_wo_entrp">   -292.49880448 </i>
    <i name="e_0_energy">   -292.51500109 </i>
   </energy>
  </scstep>
  <scstep>
   <time name="diag">    8.86    8.89</time>
   <time name="diis">   17.82   17.89</time>
   <time name="orth">    0.48    0.48</time>
   <time name="total">   31.19   31.31</time>
   <energy>
    <i name="e_fr_energy">   -292.52335539 </i>
    <i name="e_wo_entrp">   -292.49914195 </i>
    <i name="e_0_energy">   -292.51528424 </i>
   </energy>
  </scstep>
  <scstep>
   <time name="diag">    9.12    9.18</time>
   <time name="diis">   15.03   15.29</time>
   <time name="orth">    0.48    0.48</time>
   <time name="total">   25.17   25.49</time>
   <energy>
    <i name="alphaZ">    477.09650995 </i>
    <i name="ewald"> 394179.31966320 </i>
    <i name="hartreedc">-427955.54059815 </i>
    <i name="XCdc">   1612.60562852 </i>
    <i name="pawpsdc">  38112.10712588 </i>
    <i name="pawaedc"> -38818.10473200 </i>
    <i name="eentropy">     -0.02420326 </i>
    <i name="bandstr">  -5852.91595759 </i>
    <i name="atom">  37952.93320877 </i>
    <i name="e_fr_energy">   -292.52335469 </i>
    <i name="e_wo_entrp">   -292.49915143 </i>
    <i name="e_0_energy">   -292.51528693 </i>
   </energy>
  </scstep>
  <structure>
   <crystal>
    <varray name="basis" >
     <v>       2.87357350      -2.87357350       4.70833511 </v>
     <v>       5.74714699       0.00000000       0.00000000 </v>
     <v>       0.00000000      33.06569101      20.18052901 </v>
    </varray>
    <i name="volume">   1228.01926054 </i>
    <varray name="rec_basis" >
     <v>       0.00000000      -0.09444515       0.15474789 </v>
     <v>       0.17399938       0.04722258      -0.07737394 </v>
     <v>       0.00000000       0.02203507       0.01344836 </v>
    </varray>
   </crystal>
   <varray name="positions" >
    <v>       0.22067121       0.89240241       0.08901558 </v>
    <v>       0.66120505       0.17179141       0.21850135 </v>
    <v>       0.94927612       0.02809995       0.15233499 </v>
    <v>       0.37264531       0.31631668       0.28613755 </v>
    <v>       0.44927612       0.52809995       0.15233499 </v>
    <v>       0.89494273       0.30445964       0.28218315 </v>
    <v>       0.44927612       0.02809995       0.15233499 </v>
    <v>       0.89217873       0.80063442       0.28190461 </v>
    <v>       0.90282244       0.55132680       0.10484543 </v>
    <v>       0.35305973       0.82531962       0.23356166 </v>
    <v>       0.99078326       0.50869687       0.20095537 </v>
    <v>       0.42458628       0.79098186       0.33274272 </v>
    <v>       0.53851998       0.23347802       0.07318573 </v>
    <v>       0.03549482       0.49394985       0.35165289 </v>
    <v>       0.77544967       0.60747810       0.30891561 </v>
    <v>       0.87926422       0.06310591       0.05527763 </v>
    <v>       0.33724307       0.33617005       0.18281815 </v>
    <v>       0.58246139       0.21150732       0.12452493 </v>
    <v>       0.03506975       0.48694455       0.25306286 </v>
    <v>       0.68330283       0.69508302       0.37073667 </v>
    <v>       0.09516526       0.72856013       0.12156099 </v>
    <v>       0.54340027       0.45420654       0.25318529 </v>
    <v>       0.73451686       0.12752962       0.31170738 </v>
    <v>       0.85888103       0.57329750       0.05350623 </v>
    <v>       0.31083211       0.84372343       0.18072259 </v>
    <v>       0.56207820       0.72169891       0.12275353 </v>
    <v>       0.00264103       0.99752535       0.25243105 </v>
    <v>       0.79081845       0.33447591       0.18473788 </v>
    <v>       0.21512562       0.61941014       0.31562682 </v>
    <v>       0.34617716       0.60305419       0.05647018 </v>
    <v>       0.21464529       0.16519297       0.31492179 </v>
    <v>       0.79009197       0.88030862       0.18473546 </v>
    <v>       0.34617716       0.05624469       0.05647018 </v>
    <v>       0.53861356       0.01091690       0.25270477 </v>
    <v>       0.09516526       0.18175063       0.12156099 </v>
    <v>       0.17979247       0.35976890       0.39143629 </v>
    <v>       0.34047062       0.60391201       0.02782883 </v>
    <v>       0.92434681       0.68523651       0.03696881 </v>
    <v>       0.34363348       0.06399961       0.02783421 </v>
    <v>       0.88838126       0.05560908       0.02665597 </v>
    <v>       0.64453352       0.78044469       0.39446767 </v>
    <v>       0.75341694       0.10648361       0.33723596 </v>
    <v>       0.06993322       0.44031915       0.41379002 </v>
   </varray>
  </structure>
  <varray name="forces" >
   <v>       0.11031854      -1.69686690      -1.57253818 </v>
   <v>       0.01873474      -0.14088237       0.00061844 </v>
   <v>      -0.04665814       1.18085705       0.00253294 </v>
   <v>      -0.20388871      -0.94856019      -0.14573337 </v>
   <v>      -0.03708988       0.43226213       0.18227927 </v>
   <v>      -0.35001360      -0.69607359      -0.12156211 </v>
   <v>      -0.02482107       0.55504468       0.17174777 </v>
   <v>       0.10524013      -0.67338159      -0.34944092 </v>
   <v>      -0.01607120      -1.28074062      -0.84040888 </v>
   <v>      -0.02684286       0.01242021      -0.06410746 </v>
   <v>      -0.03416931      -0.06326930       0.07632854 </v>
   <v>      -0.01202351      -0.21944671      -0.21509918 </v>
   <v>      -0.00169478      -0.47914115       0.28406416 </v>
   <v>       0.02758428      -1.27682469      -2.92547654 </v>
   <v>       0.35866373       0.57599691       0.02329494 </v>
   <v>      -0.31439816      -3.63748152      -1.97021904 </v>
   <v>      -0.35437792      -0.18608062      -0.02688261 </v>
   <v>      -0.11729509       0.24996036       0.40327817 </v>
   <v>       0.06589193       0.44231281       0.17324999 </v>
   <v>       0.94744109       2.03295652       0.85759019 </v>
   <v>       0.36893135       0.33889894       0.47441642 </v>
   <v>      -0.22107126       0.39940221       0.10075333 </v>
   <v>      -0.11634379       0.89001833       0.72669616 </v>
   <v>       2.71965126      -2.57221413      -0.24520885 </v>
   <v>       0.35708617      -0.12615061      -0.13795935 </v>
   <v>       0.15889181       0.29527996      -0.38328628 </v>
   <v>       0.02311056       0.44264569       0.08894754 </v>
   <v>      -0.54369847      -0.38610140      -0.03102131 </v>
   <v>       0.54444193       0.16405724       0.44581494 </v>
   <v>      -0.94793523      -3.59554060      -2.16577702 </v>
   <v>      -0.07782541       0.10978928       0.28331663 </v>
   <v>       0.49073613      -0.36168594      -0.14607980 </v>
   <v>       1.05201510      -3.65888263      -1.94092379 </v>
   <v>       0.10319126       0.37353500       0.14255456 </v>
   <v>      -0.17860991       0.32693132       0.43573417 </v>
   <v>      -0.00638612       4.36131540       2.29942705 </v>
   <v>       0.56306408       3.80511630       2.31623696 </v>
   <v>      -2.90923956       3.10275858       0.45991635 </v>
   <v>      -0.65526192       3.94723785       2.09813356 </v>
   <v>       0.36444136       3.68318435       2.17814993 </v>
   <v>      -0.75050151      -1.61625743      -0.55189137 </v>
   <v>       0.06975893      -0.82278112      -0.59171399 </v>
   <v>      -0.50297700      -3.28361801       0.20024805 </v>
  </varray>
  <energy>
   <i name="e_fr_energy">   -292.52335469 </i>
   <i name="e_wo_entrp">   -292.51528693 </i>
   <i name="e_0_energy">     -0.02420326 </i>
  </energy>
  <time name="totalsc"> 2210.10 2226.90</time>
 </calculation>
 <calculation>
  <scstep>
   <time name="dav">   51.06   51.55</time>
   <time name="total">   55.02   55.53</time>
   <energy>
    <i name="alphaZ">    477.09650995 </i>
    <i name="ewald"> 394190.19590347 </i>
    <i name="hartreedc">-427964.75433204 </i>
    <i name="XCdc">   1612.70695327 </i>
    <i name="pawpsdc">  38112.10761174 </i>
    <i name="pawaedc"> -38818.10542930 </i>
    <i name="eentropy">     -0.02454431 </i>
    <i name="bandstr">  -5853.45622200 </i>
    <i name="atom">  37952.93320877 </i>
    <i name="e_fr_energy">   -291.30034046 </i>
    <i name="e_wo_entrp">   -291.27579615 </i>
    <i name="e_0_energy">   -291.29215902 </i>
   </energy>
  </scstep>
  <scstep>
   <time name="diag">    8.83    8.86</time>
   <time name="diis">   30.60   31.07</time>
   <time name="orth">    0.49    0.49</time>
   <time name="total">   43.89   44.39</time>
   <energy>
    <i name="e_fr_energy">   -292.89857724 </i>
    <i name="e_wo_entrp">   -292.87175505 </i>
    <i name="e_0_energy">   -292.88963651 </i>
   </energy>
  </scstep>
  <scstep>
   <time name="diag">    8.90    8.92</time>
   <time name="diis">   27.41   27.48</time>
   <time name="orth">    0.49    0.49</time>
   <time name="total">   40.75   40.86</time>
   <energy>
    <i name="e_fr_energy">   -293.06365119 </i>
    <i name="e_wo_entrp">   -293.07422481 </i>
    <i name="e_0_energy">   -293.06717573 </i>
   </energy>
  </scstep>
  <scstep>
   <time name="diag">    9.18    9.49</time>
   <time name="diis">   26.72   26.81</time>
   <time name="orth">    0.49    0.49</time>
   <time name="total">   40.36   40.76</time>
   <energy>
    <i name="e_fr_energy">   -292.95394497 </i>
    <i name="e_wo_entrp">   -292.94917235 </i>
    <i name="e_0_energy">   -292.95235410 </i>
   </energy>
  </scstep>
  <scstep>
   <time name="diag">    8.90    8.92</time>
   <time name="diis">   27.59   27.90</time>
   <time name="orth">    0.49    0.49</time>
   <time name="total">   40.95   41.29</time>
   <energy>
    <i name="e_fr_energy">   -292.98330888 </i>
    <i name="e_wo_entrp">   -292.96811394 </i>
    <i name="e_0_energy">   -292.97824390 </i>
   </energy>
  </scstep>
  <scstep>
   <time name="diag">    8.86    8.88</time>
   <time name="diis">   25.79   25.86</time>
   <time name="orth">    0.49    0.49</time>
   <time name="total">   39.15   39.26</time>
   <energy>
    <i name="e_fr_energy">   -292.93156099 </i>
    <i name="e_wo_entrp">   -292.90328596 </i>
    <i name="e_0_energy">   -292.92213598 </i>
   </energy>
  </scstep>
  <scstep>
   <time name="diag">    9.22    9.52</time>
   <time name="diis">   26.01   26.05</time>
   <time name="orth">    0.49    0.49</time>
   <time name="total">   39.67   40.01</time>
   <energy>
    <i name="e_fr_energy">   -292.98355738 </i>
    <i name="e_wo_entrp">   -292.97691723 </i>
    <i name="e_0_energy">   -292.98134400 </i>
   </energy>
  </scstep>
  <scstep>
   <time name="diag">    8.88    8.92</time>
   <time name="diis">   24.92   25.09</time>
   <time name="orth">    0.48    0.49</time>
   <time name="total">   38.25   38.46</time>
   <energy>
    <i name="e_fr_energy">   -293.01841968 </i>
    <i name="e_wo_entrp">   -293.02843854 </i>
    <i name="e_0_energy">   -293.02175930 </i>
   </energy>
  </scstep>
  <scstep>
   <time name="diag">    8.93    8.96</time>
   <time name="diis">   25.96   26.02</time>
   <time name="orth">    0.49    0.49</time>
   <time name="total">   39.36   39.47</time>
   <energy>
    <i name="e_fr_energy">   -293.00357454 </i>
    <i name="e_wo_entrp">   -293.01974398 </i>
    <i name="e_0_energy">   -293.00896435 </i>
   </energy>
  </scstep>
  <scstep>
   <time name="diag">    9.18    9.44</time>
   <time name="diis">   26.54   26.58</time>
   <time name="orth">    0.49    0.49</time>
   <time name="total">   40.18   40.48</time>
   <energy>
    <i name="e_fr_energy">   -292.94793369 </i>
    <i name="e_wo_entrp">   -292.95589694 </i>
    <i name="e_0_energy">   -292.95058811 </i>
   </energy>
  </scstep>
  <scstep>
   <time name="diag">    8.88    8.90</time>
   <time name="diis">   26.80   27.16</time>
   <time name="orth">    0.48    0.48</time>
   <time name="total">   40.12   40.50</time>
   <energy>
    <i name="e_fr_energy">   -292.91695996 </i>
    <i name="e_wo_entrp">   -292.90678778 </i>
    <i name="e_0_energy">   -292.91356923 </i>
   </energy>
  </scstep>
  <scstep>
   <time name="diag">    8.87    8.90</time>
   <time name="diis">   22.92   22.96</time>
   <time name="orth">    0.50    0.53</time>
   <time name="total">   36.26   36.36</time>
   <energy>
    <i name="e_fr_energy">   -292.94227472 </i>
    <i name="e_wo_entrp">   -292.92390236 </i>
    <i name="e_0_energy">   -292.93615060 </i>
   </energy>
  </scstep>
  <scstep>
   <time name="diag">    9.00    9.10</time>
   <time name="diis">   23.55   23.92</time>
   <time name="orth">    0.48    0.48</time>
   <time name="total">   36.98   37.45</time>
   <energy>
    <i name="e_fr_energy">   -292.95283371 </i>
    <i name="e_wo_entrp">   -292.93174482 </i>
    <i name="e_0_energy">   -292.94580408 </i>
   </energy>
  </scstep>
  <scstep>
   <time name="diag">    8.86    8.87</time>
   <time name="diis">   25.09   25.45</time>
   <time name="orth">    0.49    0.49</time>
   <time name="total">   38.42   38.79</time>
   <energy>
    <i name="e_fr_energy">   -292.95645210 </i>
    <i name="e_wo_entrp">   -292.93640894 </i>
    <i name="e_0_energy">   -292.94977105 </i>
   </energy>
  </scstep>
  <scstep>
   <time name="diag">    8.91    8.93</time>
   <time name="diis">   24.31   24.34</time>
   <time name="orth">    0.49    0.49</time>
   <time name="total">   37.70   37.77</time>
   <energy>
    <i name="e_fr_energy">   -292.95979243 </i>
    <i name="e_wo_entrp">   -292.94328677 </i>
    <i name="e_0_energy">   -292.95429054 </i>
   </energy>
  </scstep>
  <scstep>
   <time name="diag">    8.92    8.99</time>
   <time name="diis">   22.39   22.64</time>
   <time name="orth">    0.49    0.49</time>
   <time name="total">   35.78   36.09</time>
   <energy>
    <i name="e_fr_energy">   -292.95735813 </i>
    <i name="e_wo_entrp">   -292.94242033 </i>
    <i name="e_0_energy">   -292.95237886 </i>
   </energy>
  </scstep>
  <scstep>
   <time name="diag">    8.89    8.90</time>
   <time name="diis">   22.34   22.43</time>
   <time name="orth">    0.49    0.49</time>
   <time name="total">   35.73   35.85</time>
   <energy>
    <i name="e_fr_energy">   -292.95404817 </i>
    <i name="e_wo_entrp">   -292.93858220 </i>
    <i name="e_0_energy">   -292.94889285 </i>
   </energy>
  </scstep>
  <scstep>
   <time name="diag">    9.17    9.42</time>
   <time name="diis">   23.63   23.67</time>
   <time name="orth">    0.49    0.49</time>
   <time name="total">   37.29   37.59</time>
   <energy>
    <i name="e_fr_energy">   -292.95158651 </i>
    <i name="e_wo_entrp">   -292.93355344 </i>
    <i name="e_0_energy">   -292.94557549 </i>
   </energy>
  </scstep>
  <scstep>
   <time name="diag">    8.93    8.96</time>
   <time name="diis">   22.87   23.24</time>
   <time name="orth">    0.49    0.49</time>
   <time name="total">   36.26   36.66</time>
   <energy>
    <i name="e_fr_energy">   -292.95303802 </i>
    <i name="e_wo_entrp">   -292.93187389 </i>
    <i name="e_0_energy">   -292.94598331 </i>
   </energy>
  </scstep>
  <scstep>
   <time name="diag">    8.95    8.97</time>
   <time name="diis">   21.22   21.24</time>
   <time name="orth">    0.49    0.49</time>
   <time name="total">   34.70   34.77</time>
   <energy>
    <i name="e_fr_energy">   -292.95633582 </i>
    <i name="e_wo_entrp">   -292.93309346 </i>
    <i name="e_0_energy">   -292.94858837 </i>
   </energy>
  </scstep>
  <scstep>
   <time name="diag">    8.99    9.05</time>
   <time name="diis">   22.45   22.68</time>
   <time name="orth">    0.49    0.49</time>
   <time name="total">   35.96   36.27</time>
   <energy>
    <i name="e_fr_energy">   -292.95693079 </i>
    <i name="e_wo_entrp">   -292.93307984 </i>
    <i name="e_0_energy">   -292.94898047 </i>
   </energy>
  </scstep>
  <scstep>
   <time name="diag">    8.92    8.93</time>
   <time name="diis">   23.82   23.92</time>
   <time name="orth">    0.49    0.49</time>
   <time name="total">   37.32   37.46</time>
   <energy>
    <i name="e_fr_energy">   -292.95695121 </i>
    <i name="e_wo_entrp">   -292.93479089 </i>
    <i name="e_0_energy">   -292.94956443 </i>
   </energy>
  </scstep>
  <scstep>
   <time name="diag">    9.03    9.20</time>
   <time name="diis">   21.46   21.50</time>
   <time name="orth">    0.49    0.49</time>
   <time name="total">   35.05   35.37</time>
   <energy>
    <i name="e_fr_energy">   -292.95886477 </i>
    <i name="e_wo_entrp">   -292.93899601 </i>
    <i name="e_0_energy">   -292.95224185 </i>
   </energy>
  </scstep>
  <scstep>
   <time name="diag">    8.92    8.94</time>
   <time name="diis">   22.03   22.46</time>
   <time name="orth">    0.49    0.49</time>
   <time name="total">   35.44   35.91</time>
   <energy>
    <i name="e_fr_energy">   -292.95829688 </i>
    <i name="e_wo_entrp">   -292.93964635 </i>
    <i name="e_0_energy">   -292.95208004 </i>
   </energy>
  </scstep>
  <scstep>
   <time name="diag">    8.95    8.98</time>
   <time name="diis">   17.98   18.02</time>
   <time name="orth">    0.49    0.49</time>
   <time name="total">   31.42   31.50</time>
   <energy>
    <i name="e_fr_energy">   -292.95824966 </i>
    <i name="e_wo_entrp">   -292.94078492 </i>
    <i name="e_0_energy">   -292.95242808 </i>
   </energy>
  </scstep>
  <scstep>
   <time name="diag">    8.90    8.94</time>
   <time name="diis">   17.29   17.57</time>
   <time name="orth">    0.48    0.48</time>
   <time name="total">   30.64   30.98</time>
   <energy>
    <i name="e_fr_energy">   -292.95807060 </i>
    <i name="e_wo_entrp">   -292.94170958 </i>
    <i name="e_0_energy">   -292.95261693 </i>
   </energy>
  </scstep>
  <scstep>
   <time name="diag">    8.88    8.91</time>
   <time name="diis">   16.64   16.67</time>
   <time name="orth">    0.49    0.49</time>
   <time name="total">   29.97   30.04</time>
   <energy>
    <i name="e_fr_energy">   -292.95784072 </i>
    <i name="e_wo_entrp">   -292.94246606 </i>
    <i name="e_0_energy">   -292.95271583 </i>
   </energy>
  </scstep>
  <scstep>
   <time name="diag">    8.88    8.96</time>
   <time name="diis">   16.67   16.94</time>
   <time name="orth">    0.48    0.48</time>
   <time name="total">   30.03   30.39</time>
   <energy>
    <i name="e_fr_energy">   -292.95758556 </i>
    <i name="e_wo_entrp">   -292.94306884 </i>
    <i name="e_0_energy">   -292.95274666 </i>
   </energy>
  </scstep>
  <scstep>
   <time name="diag">    8.97    8.99</time>
   <time name="diis">   15.85   15.87</time>
   <time name="orth">    0.48    0.49</time>
   <time name="total">   29.28   29.33</time>
   <energy>
    <i name="e_fr_energy">   -292.95732867 </i>
    <i name="e_wo_entrp">   -292.94353926 </i>
    <i name="e_0_energy">   -292.95273220 </i>
   </energy>
  </scstep>
  <scstep>
   <time name="diag">    8.87    8.92</time>
   <time name="diis">   15.74   16.09</time>
   <time name="orth">    0.48    0.48</time>
   <time name="total">   29.09   29.49</time>
   <energy>
    <i name="e_fr_energy">   -292.95711177 </i>
    <i name="e_wo_entrp">   -292.94394087 </i>
    <i name="e_0_energy">   -292.95272147 </i>
   </energy>
  </scstep>
  <scstep>
   <time name="diag">    8.89    8.92</time>
   <time name="diis">   15.18   15.20</time>
   <time name="orth">    0.48    0.48</time>
   <time name="total">   28.53   28.59</time>
   <energy>
    <i name="e_fr_energy">   -292.95687340 </i>
    <i name="e_wo_entrp">   -292.94419881 </i>
    <i name="e_0_energy">   -292.95264854 </i>
   </energy>
  </scstep>
  <scstep>
   <time name="diag">    8.92    8.98</time>
   <time name="diis">   15.25   15.45</time>
   <time name="orth">    0.48    0.48</time>
   <time name="total">   28.63   28.90</time>
   <energy>
    <i name="e_fr_energy">   -292.95671800 </i>
    <i name="e_wo_entrp">   -292.94446240 </i>
    <i name="e_0_energy">   -292.95263280 </i>
   </energy>
  </scstep>
  <scstep>
   <time name="diag">    8.87    8.90</time>
   <time name="diis">   14.70   14.72</time>
   <time name="orth">    0.49    0.49</time>
   <time name="total">   28.03   28.12</time>
   <energy>
    <i name="e_fr_energy">   -292.95653460 </i>
    <i name="e_wo_entrp">   -292.94460581 </i>
    <i name="e_0_energy">   -292.95255834 </i>
   </energy>
  </scstep>
  <scstep>
   <time name="diag">    8.90    8.95</time>
   <time name="diis">   14.51   14.75</time>
   <time name="orth">    0.48    0.48</time>
   <time name="total">   27.90   28.19</time>
   <energy>
    <i name="e_fr_energy">   -292.95644074 </i>
    <i name="e_wo_entrp">   -292.94479244 </i>
    <i name="e_0_energy">   -292.95255798 </i>
   </energy>
  </scstep>
  <scstep>
   <time name="diag">    8.91    8.92</time>
   <time name="diis">   14.03   14.07</time>
   <time name="orth">    0.49    0.49</time>
   <time name="total">   27.42   27.47</time>
   <energy>
    <i name="e_fr_energy">   -292.95626945 </i>
    <i name="e_wo_entrp">   -292.94481635 </i>
    <i name="e_0_energy">   -292.95245175 </i>
   </energy>
  </scstep>
  <scstep>
   <time name="diag">    8.95    9.08</time>
   <time name="diis">   13.43   13.57</time>
   <time name="orth">    0.50    0.50</time>
   <time name="total">   23.41   23.69</time>
   <energy>
    <i name="alphaZ">    477.09650995 </i>
    <i name="ewald"> 394190.19590347 </i>
    <i name="hartreedc">-427920.33023820 </i>
    <i name="XCdc">   1612.78401010 </i>
    <i name="pawpsdc">  38070.10133544 </i>
    <i name="pawaedc"> -38775.84694487 </i>
    <i name="eentropy">     -0.01125491 </i>
    <i name="bandstr">  -5899.87880416 </i>
    <i name="atom">  37952.93320877 </i>
    <i name="e_fr_energy">   -292.95627440 </i>
    <i name="e_wo_entrp">   -292.94501949 </i>
    <i name="e_0_energy">   -292.95252277 </i>
   </energy>
  </scstep>
  <structure>
   <crystal>
    <varray name="basis" >
     <v>       2.87357350      -2.87357350       4.70833511 </v>
     <v>       5.74714699       0.00000000       0.00000000 </v>
     <v>       0.00000000      33.06569101      20.18052901 </v>
    </varray>
    <i name="volume">   1228.01926054 </i>
    <varray name="rec_basis" >
     <v>       0.00000000      -0.09444515       0.15474789 </v>
     <v>       0.17399938       0.04722258      -0.07737394 </v>
     <v>       0.00000000       0.02203507       0.01344836 </v>
    </varray>
   </crystal>
   <varray name="positions" >
    <v>       0.22067121       0.89240241       0.08901558 </v>
    <v>       0.66137529       0.17227383       0.21830570 </v>
    <v>       0.94927612       0.02809995       0.15233499 </v>
    <v>       0.37352682       0.31667612       0.28583757 </v>
    <v>       0.44927612       0.52809995       0.15233499 </v>
    <v>       0.89483349       0.30277252       0.28183380 </v>
    <v>       0.44927612       0.02809995       0.15233499 </v>
    <v>       0.89221345       0.80189194       0.28174343 </v>
    <v>       0.90282244       0.55132680       0.10484543 </v>
    <v>       0.35246049       0.82584418       0.23337818 </v>
    <v>       0.99177959       0.50807206       0.20079279 </v>
    <v>       0.42383140       0.79117529       0.33240874 </v>
    <v>       0.53851998       0.23347802       0.07318573 </v>
    <v>       0.02765906       0.48762511       0.35101560 </v>
    <v>       0.77615978       0.60785467       0.30928919 </v>
    <v>       0.87926422       0.06310591       0.05527763 </v>
    <v>       0.33727513       0.33498295       0.18283229 </v>
    <v>       0.58246139       0.21150732       0.12452493 </v>
    <v>       0.03586867       0.48611522       0.25326154 </v>
    <v>       0.68112512       0.69687281       0.37118616 </v>
    <v>       0.09516526       0.72856013       0.12156099 </v>
    <v>       0.54328822       0.45472594       0.25339011 </v>
    <v>       0.73424764       0.12820901       0.31202434 </v>
    <v>       0.85888103       0.57329750       0.05350623 </v>
    <v>       0.31172194       0.84528556       0.18076231 </v>
    <v>       0.56207820       0.72169891       0.12275353 </v>
    <v>       0.00327086       0.99789771       0.25259505 </v>
    <v>       0.79231359       0.33270123       0.18459480 </v>
    <v>       0.21664797       0.62150354       0.31592641 </v>
    <v>       0.34617716       0.60305419       0.05647018 </v>
    <v>       0.21406626       0.16548568       0.31520271 </v>
    <v>       0.79135970       0.88153734       0.18454038 </v>
    <v>       0.34617716       0.05624469       0.05647018 </v>
    <v>       0.53842139       0.01141664       0.25294279 </v>
    <v>       0.09516526       0.18175063       0.12156099 </v>
    <v>       0.18116936       0.36087751       0.39267996 </v>
    <v>       0.34047062       0.60391201       0.02782883 </v>
    <v>       0.92434681       0.68523651       0.03696881 </v>
    <v>       0.34363348       0.06399961       0.02783421 </v>
    <v>       0.88838126       0.05560908       0.02665597 </v>
    <v>       0.64440224       0.78027335       0.39427334 </v>
    <v>       0.75324851       0.10689718       0.33720474 </v>
    <v>       0.07105502       0.43865036       0.41335426 </v>
   </varray>
  </structure>
  <varray name="forces" >
   <v>       0.11134166      -1.75516806      -1.62361486 </v>
   <v>      -0.02539609      -0.00979059       0.01170025 </v>
   <v>      -0.02728097       0.95200145      -0.01202507 </v>
   <v>      -0.10070752      -0.39720572      -0.09750616 </v>
   <v>      -0.00274452       0.40401495       0.12927937 </v>
   <v>       0.03665568      -0.24194215       0.00077738 </v>
   <v>      -0.02890438       0.43123862       0.12324299 </v>
   <v>      -0.09147008      -0.33201330      -0.15617162 </v>
   <v>       0.00689066      -1.33030730      -0.85644505 </v>
   <v>      -0.00373591       0.03880154       0.04594747 </v>
   <v>      -0.00056697       0.03309558       0.03700101 </v>
   <v>       0.00781436      -0.03000043       0.02393824 </v>
   <v>      -0.01492929      -0.50308224       0.28552973 </v>
   <v>      -0.14987482      -0.11637659      -1.38625967 </v>
   <v>       0.21096381       0.18328257       0.06548308 </v>
   <v>      -0.30553351      -3.70158416      -1.99245599 </v>
   <v>      -0.24370373      -0.18013816       0.03139547 </v>
   <v>      -0.10684882       0.28695763       0.41000474 </v>
   <v>       0.09060297       0.28939995       0.04653597 </v>
   <v>       0.47597521       0.82496995       0.53070625 </v>
   <v>       0.38732895       0.40203945       0.52783077 </v>
   <v>      -0.19214462       0.21813152       0.04997813 </v>
   <v>      -0.09531083       0.27462617       0.32423561 </v>
   <v>       2.94964683      -2.81844539      -0.23174218 </v>
   <v>       0.21735430      -0.12167532      -0.13726833 </v>
   <v>       0.15283787       0.37377953      -0.37035045 </v>
   <v>      -0.04816349       0.24764718       0.00478676 </v>
   <v>      -0.40247016      -0.26142015      -0.02970381 </v>
   <v>       0.09184268       0.00810109       0.17749224 </v>
   <v>      -0.93230276      -3.59500918      -2.17522636 </v>
   <v>       0.13350205       0.01942134       0.16546273 </v>
   <v>       0.30665276      -0.23918269      -0.06920325 </v>
   <v>       1.03422174      -3.66996046      -1.95197063 </v>
   <v>       0.07238560       0.19450993       0.09487334 </v>
   <v>      -0.21361153       0.35163793       0.46588481 </v>
   <v>       0.09776395       1.62240085       0.76010016 </v>
   <v>       0.56337447       3.81776194       2.32312065 </v>
   <v>      -3.08949503       3.31111861       0.45901855 </v>
   <v>      -0.65533844       3.97508641       2.11065047 </v>
   <v>       0.36663859       3.74562428       2.21100307 </v>
   <v>      -0.36009476      -0.69494716      -0.20027991 </v>
   <v>       0.01841069      -0.37297040      -0.24395272 </v>
   <v>      -0.24157659      -1.63442900       0.11819683 </v>
  </varray>
  <energy>
   <i name="e_fr_energy">   -292.95627440 </i>
   <i name="e_wo_entrp">   -292.95252277 </i>
   <i name="e_0_energy">     -0.01125491 </i>
  </energy>
  <time name="totalsc"> 1296.88 1306.31</time>
 </calculation>
 <calculation>
  <scstep>
   <time name="dav">   50.71   51.10</time>
   <time name="total">   54.78   55.21</time>
   <energy>
    <i name="alphaZ">    477.09650995 </i>
    <i name="ewald"> 394193.51030930 </i>
    <i name="hartreedc">-427922.98698105 </i>
    <i name="XCdc">   1612.80423228 </i>
    <i name="pawpsdc">  38070.10572563 </i>
    <i name="pawaedc"> -38775.85033748 </i>
    <i name="eentropy">     -0.01192519 </i>
    <i name="bandstr">  -5900.49390036 </i>
    <i name="atom">  37952.93320877 </i>
    <i name="e_fr_energy">   -292.89315812 </i>
    <i name="e_wo_entrp">   -292.88123294 </i>
    <i name="e_0_energy">   -292.88918306 </i>
   </energy>
  </scstep>
  <scstep>
   <time name="diag">    8.92    8.93</time>
   <time name="diis">   29.58   29.70</time>
   <time name="orth">    0.49    0.49</time>
   <time name="total">   43.02   43.17</time>
   <energy>
    <i name="e_fr_energy">   -293.46363724 </i>
    <i name="e_wo_entrp">   -293.45298332 </i>
    <i name="e_0_energy">   -293.46008593 </i>
   </energy>
  </scstep>
  <scstep>
   <time name="diag">    9.07    9.32</time>
   <time name="diis">   26.14   26.19</time>
   <time name="orth">    0.49    0.49</time>
   <time name="total">   39.65   40.00</time>
   <energy>
    <i name="e_fr_energy">   -293.00446917 </i>
    <i name="e_wo_entrp">   -292.98800539 </i>
    <i name="e_0_energy">   -292.99898124 </i>
   </energy>
  </scstep>
  <scstep>
   <time name="diag">    8.88    8.90</time>
   <time name="diis">   27.26   27.69</time>
   <time name="orth">    0.48    0.49</time>
   <time name="total">   40.57   41.03</time>
   <energy>
    <i name="e_fr_energy">   -292.95718624 </i>
    <i name="e_wo_entrp">   -292.92707272 </i>
    <i name="e_0_energy">   -292.94714840 </i>
   </energy>
  </scstep>
  <scstep>
   <time name="diag">    8.86    8.87</time>
   <time name="diis">   26.96   27.07</time>
   <time name="orth">    0.49    0.49</time>
   <time name="total">   40.37   40.54</time>
   <energy>
    <i name="e_fr_energy">   -293.00565789 </i>
    <i name="e_wo_entrp">   -292.98976912 </i>
    <i name="e_0_energy">   -293.00036164 </i>
   </energy>
  </scstep>
  <scstep>
   <time name="diag">    8.96    9.04</time>
   <time name="diis">   23.60   23.88</time>
   <time name="orth">    0.49    0.49</time>
   <time name="total">   37.05   37.47</time>
   <energy>
    <i name="e_fr_energy">   -293.05255058 </i>
    <i name="e_wo_entrp">   -293.05301764 </i>
    <i name="e_0_energy">   -293.05270626 </i>
   </energy>
  </scstep>
  <scstep>
   <time name="diag">    8.86    8.88</time>
   <time name="diis">   23.76   24.05</time>
   <time name="orth">    0.49    0.49</time>
   <time name="total">   37.08   37.40</time>
   <energy>
    <i name="e_fr_energy">   -293.04807541 </i>
    <i name="e_wo_entrp">   -293.05667059 </i>
    <i name="e_0_energy">   -293.05094047 </i>
   </energy>
  </scstep>
  <scstep>
   <time name="diag">    8.87    8.88</time>
   <time name="diis">   23.90   24.05</time>
   <time name="orth">    0.48    0.48</time>
   <time name="total">   37.20   37.37</time>
   <energy>
    <i name="e_fr_energy">   -293.04142943 </i>
    <i name="e_wo_entrp">   -293.05341890 </i>
    <i name="e_0_energy">   -293.04542592 </i>
   </energy>
  </scstep>
  <scstep>
   <time name="diag">    9.12    9.35</time>
   <time name="diis">   25.00   25.04</time>
   <time name="orth">    0.48    0.48</time>
   <time name="total">   38.54   38.82</time>
   <energy>
    <i name="e_fr_energy">   -293.03633330 </i>
    <i name="e_wo_entrp">   -293.04888102 </i>
    <i name="e_0_energy">   -293.04051587 </i>
   </energy>
  </scstep>
  <scstep>
   <time name="diag">    8.86    8.87</time>
   <time name="diis">   25.97   26.31</time>
   <time name="orth">    0.49    0.49</time>
   <time name="total">   39.27   39.63</time>
   <energy>
    <i name="e_fr_energy">   -293.07734934 </i>
    <i name="e_wo_entrp">   -293.09636087 </i>
    <i name="e_0_energy">   -293.08368652 </i>
   </energy>
  </scstep>
  <scstep>
   <time name="diag">    8.89    8.91</time>
   <time name="diis">   24.72   24.75</time>
   <time name="orth">    0.49    0.49</time>
   <time name="total">   38.11   38.22</time>
   <energy>
    <i name="e_fr_energy">   -293.05828877 </i>
    <i name="e_wo_entrp">   -293.07715790 </i>
    <i name="e_0_energy">   -293.06457848 </i>
   </energy>
  </scstep>
  <scstep>
   <time name="diag">    8.94    8.99</time>
   <time name="diis">   26.38   26.76</time>
   <time name="orth">    0.49    0.49</time>
   <time name="total">   39.77   40.20</time>
   <energy>
    <i name="e_fr_energy">   -293.00047357 </i>
    <i name="e_wo_entrp">   -293.00862807 </i>
    <i name="e_0_energy">   -293.00319174 </i>
   </energy>
  </scstep>
  <scstep>
   <time name="diag">    8.86    8.87</time>
   <time name="diis">   27.10   27.55</time>
   <time name="orth">    0.49    0.49</time>
   <time name="total">   40.40   40.88</time>
   <energy>
    <i name="e_fr_energy">   -292.97757919 </i>
    <i name="e_wo_entrp">   -292.96962916 </i>
    <i name="e_0_energy">   -292.97492918 </i>
   </energy>
  </scstep>
  <scstep>
   <time name="diag">    8.91    8.94</time>
   <time name="diis">   24.03   24.07</time>
   <time name="orth">    0.49    0.49</time>
   <time name="total">   37.42   37.53</time>
   <energy>
    <i name="e_fr_energy">   -292.99809766 </i>
    <i name="e_wo_entrp">   -292.98124751 </i>
    <i name="e_0_energy">   -292.99248094 </i>
   </energy>
  </scstep>
  <scstep>
   <time name="diag">    8.98    9.01</time>
   <time name="diis">   24.51   24.78</time>
   <time name="orth">    0.49    0.50</time>
   <time name="total">   37.98   38.33</time>
   <energy>
    <i name="e_fr_energy">   -293.01435736 </i>
    <i name="e_wo_entrp">   -292.99134823 </i>
    <i name="e_0_energy">   -293.00668765 </i>
   </energy>
  </scstep>
  <scstep>
   <time name="diag">    8.92    8.93</time>
   <time name="diis">   23.30   23.40</time>
   <time name="orth">    0.50    0.50</time>
   <time name="total">   36.81   37.15</time>
   <energy>
    <i name="e_fr_energy">   -293.04413035 </i>
    <i name="e_wo_entrp">   -293.02475473 </i>
    <i name="e_0_energy">   -293.03767181 </i>
   </energy>
  </scstep>
  <scstep>
   <time name="diag">    8.84    8.85</time>
   <time name="diis">   22.73   22.77</time>
   <time name="orth">    0.49    0.50</time>
   <time name="total">   36.00   36.06</time>
   <energy>
    <i name="e_fr_energy">   -293.06252269 </i>
    <i name="e_wo_entrp">   -293.05547670 </i>
    <i name="e_0_energy">   -293.06017403 </i>
   </energy>
  </scstep>
  <scstep>
   <time name="diag">    8.89    8.95</time>
   <time name="diis">   23.04   23.33</time>
   <time name="orth">    0.49    0.49</time>
   <time name="total">   36.36   36.74</time>
   <energy>
    <i name="e_fr_energy">   -293.04480300 </i>
    <i name="e_wo_entrp">   -293.04213093 </i>
    <i name="e_0_energy">   -293.04391231 </i>
   </energy>
  </scstep>
  <scstep>
   <time name="diag">    8.87    8.88</time>
   <time name="diis">   24.48   24.56</time>
   <time name="orth">    0.48    0.48</time>
   <time name="total">   37.80   37.89</time>
   <energy>
    <i name="e_fr_energy">   -293.01101191 </i>
    <i name="e_wo_entrp">   -293.00282292 </i>
    <i name="e_0_energy">   -293.00828224 </i>
   </energy>
  </scstep>
  <scstep>
   <time name="diag">    9.26    9.56</time>
   <time name="diis">   24.37   24.41</time>
   <time name="orth">    0.48    0.49</time>
   <time name="total">   38.07   38.44</time>
   <energy>
    <i name="e_fr_energy">   -292.98154787 </i>
    <i name="e_wo_entrp">   -292.96236572 </i>
    <i name="e_0_energy">   -292.97515382 </i>
   </energy>
  </scstep>
  <scstep>
   <time name="diag">    8.86    8.87</time>
   <time name="diis">   24.94   25.34</time>
   <time name="orth">    0.49    0.49</time>
   <time name="total">   38.27   38.69</time>
   <energy>
    <i name="e_fr_energy">   -292.97572474 </i>
    <i name="e_wo_entrp">   -292.94962400 </i>
    <i name="e_0_energy">   -292.96702449 </i>
   </energy>
  </scstep>
  <scstep>
   <time name="diag">    8.92    8.94</time>
   <time name="diis">   23.37   23.41</time>
   <time name="orth">    0.49    0.49</time>
   <time name="total">   36.78   36.87</time>
   <energy>
    <i name="e_fr_energy">   -293.00470105 </i>
    <i name="e_wo_entrp">   -292.98299026 </i>
    <i name="e_0_energy">   -292.99746412 </i>
   </energy>
  </scstep>
  <scstep>
   <time name="diag">    8.95    9.07</time>
   <time name="diis">   23.02   23.29</time>
   <time name="orth">    0.49    0.49</time>
   <time name="total">   36.42   36.82</time>
   <energy>
    <i name="e_fr_energy">   -293.02315261 </i>
    <i name="e_wo_entrp">   -293.00861887 </i>
    <i name="e_0_energy">   -293.01830803 </i>
   </energy>
  </scstep>
  <scstep>
   <time name="diag">    8.87    8.88</time>
   <time name="diis">   22.68   22.78</time>
   <time name="orth">    0.49    0.49</time>
   <time name="total">   36.15   36.33</time>
   <energy>
    <i name="e_fr_energy">   -293.02470166 </i>
    <i name="e_wo_entrp">   -293.01571929 </i>
    <i name="e_0_energy">   -293.02170754 </i>
   </energy>
  </scstep>
  <scstep>
   <time name="diag">    8.97    9.03</time>
   <time name="diis">   22.45   22.49</time>
   <time name="orth">    0.49    0.49</time>
   <time name="total">   35.93   36.14</time>
   <energy>
    <i name="e_fr_energy">   -293.02928233 </i>
    <i name="e_wo_entrp">   -293.02648296 </i>
    <i name="e_0_energy">   -293.02834921 </i>
   </energy>
  </scstep>
  <scstep>
   <time name="diag">    8.93    8.95</time>
   <time name="diis">   21.79   22.03</time>
   <time name="orth">    0.49    0.49</time>
   <time name="total">   35.18   35.45</time>
   <energy>
    <i name="e_fr_energy">   -293.02913333 </i>
    <i name="e_wo_entrp">   -293.03095844 </i>
    <i name="e_0_energy">   -293.02974170 </i>
   </energy>
  </scstep>
  <scstep>
   <time name="diag">    8.89    8.91</time>
   <time name="diis">   20.63   20.67</time>
   <time name="orth">    0.48    0.48</time>
   <time name="total">   33.99   34.11</time>
   <energy>
    <i name="e_fr_energy">   -293.02798363 </i>
    <i name="e_wo_entrp">   -293.03281249 </i>
    <i name="e_0_energy">   -293.02959325 </i>
   </energy>
  </scstep>
  <scstep>
   <time name="diag">    8.95    9.02</time>
   <time name="diis">   21.38   21.71</time>
   <time name="orth">    0.48    0.48</time>
   <time name="total">   34.76   35.17</time>
   <energy>
    <i name="e_fr_energy">   -293.02454388 </i>
    <i name="e_wo_entrp">   -293.03052869 </i>
    <i name="e_0_energy">   -293.02653882 </i>
   </energy>
  </scstep>
  <scstep>
   <time name="diag">    8.85    8.86</time>
   <time name="diis">   21.70   21.75</time>
   <time name="orth">    0.49    0.49</time>
   <time name="total">   35.04   35.13</time>
   <energy>
    <i name="e_fr_energy">   -293.02060128 </i>
    <i name="e_wo_entrp">   -293.02636077 </i>
    <i name="e_0_energy">   -293.02252111 </i>
   </energy>
  </scstep>
  <scstep>
   <time name="diag">    9.15    9.39</time>
   <time name="diis">   23.34   23.38</time>
   <time name="orth">    0.49    0.49</time>
   <time name="total">   36.96   37.24</time>
   <energy>
    <i name="e_fr_energy">   -293.02606553 </i>
    <i name="e_wo_entrp">   -293.03328493 </i>
    <i name="e_0_energy">   -293.02847199 </i>
   </energy>
  </scstep>
  <scstep>
   <time name="diag">    8.89    8.92</time>
   <time name="diis">   24.76   25.10</time>
   <time name="orth">    0.49    0.49</time>
   <time name="total">   38.11   38.48</time>
   <energy>
    <i name="e_fr_energy">   -293.03551011 </i>
    <i name="e_wo_entrp">   -293.04596025 </i>
    <i name="e_0_energy">   -293.03899349 </i>
   </energy>
  </scstep>
  <scstep>
   <time name="diag">    8.90    8.91</time>
   <time name="diis">   23.81   23.85</time>
   <time name="orth">    0.49    0.49</time>
   <time name="total">   37.19   37.34</time>
   <energy>
    <i name="e_fr_energy">   -293.03943028 </i>
    <i name="e_wo_entrp">   -293.05240332 </i>
    <i name="e_0_energy">   -293.04375462 </i>
   </energy>
  </scstep>
  <scstep>
   <time name="diag">    8.94    9.01</time>
   <time name="diis">   19.66   19.93</time>
   <time name="orth">    0.49    0.49</time>
   <time name="total">   33.05   33.40</time>
   <energy>
    <i name="e_fr_energy">   -293.03470887 </i>
    <i name="e_wo_entrp">   -293.04799309 </i>
    <i name="e_0_energy">   -293.03913694 </i>
   </energy>
  </scstep>
  <scstep>
   <time name="diag">    8.87    8.88</time>
   <time name="diis">   24.05   24.20</time>
   <time name="orth">    0.49    0.49</time>
   <time name="total">   37.50   37.82</time>
   <energy>
    <i name="e_fr_energy">   -293.02213761 </i>
    <i name="e_wo_entrp">   -293.03286885 </i>
    <i name="e_0_energy">   -293.02571469 </i>
   </energy>
  </scstep>
  <scstep>
   <time name="diag">    8.87    8.90</time>
   <time name="diis">   20.75   20.80</time>
   <time name="orth">    0.49    0.49</time>
   <time name="total">   34.10   34.23</time>
   <energy>
    <i name="e_fr_energy">   -293.02147667 </i>
    <i name="e_wo_entrp">   -293.03067118 </i>
    <i name="e_0_energy">   -293.02454151 </i>
   </energy>
  </scstep>
  <scstep>
   <time name="diag">    8.89    8.92</time>
   <time name="diis">   18.09   18.52</time>
   <time name="orth">    0.49    0.49</time>
   <time name="total">   31.43   31.89</time>
   <energy>
    <i name="e_fr_energy">   -293.02544023 </i>
    <i name="e_wo_entrp">   -293.03468705 </i>
    <i name="e_0_energy">   -293.02852251 </i>
   </energy>
  </scstep>
  <scstep>
   <time name="diag">    8.89    8.91</time>
   <time name="diis">   23.20   23.23</time>
   <time name="orth">    0.49    0.49</time>
   <time name="total">   36.54   36.60</time>
   <energy>
    <i name="e_fr_energy">   -293.01946460 </i>
    <i name="e_wo_entrp">   -293.02710375 </i>
    <i name="e_0_energy">   -293.02201099 </i>
   </energy>
  </scstep>
  <scstep>
   <time name="diag">    8.96    9.03</time>
   <time name="diis">   23.91   24.13</time>
   <time name="orth">    0.49    0.49</time>
   <time name="total">   37.31   37.61</time>
   <energy>
    <i name="e_fr_energy">   -293.01402486 </i>
    <i name="e_wo_entrp">   -293.01911433 </i>
    <i name="e_0_energy">   -293.01572135 </i>
   </energy>
  </scstep>
  <scstep>
   <time name="diag">    8.84    8.85</time>
   <time name="diis">   23.16   23.23</time>
   <time name="orth">    0.50    0.51</time>
   <time name="total">   36.47   36.59</time>
   <energy>
    <i name="e_fr_energy">   -293.00799208 </i>
    <i name="e_wo_entrp">   -293.00939349 </i>
    <i name="e_0_energy">   -293.00845921 </i>
   </energy>
  </scstep>
  <scstep>
   <time name="diag">    9.07    9.39</time>
   <time name="diis">   23.70   23.76</time>
   <time name="orth">    0.49    0.49</time>
   <time name="total">   37.21   37.60</time>
   <energy>
    <i name="e_fr_energy">   -293.00106301 </i>
    <i name="e_wo_entrp">   -292.99689274 </i>
    <i name="e_0_energy">   -292.99967292 </i>
   </energy>
  </scstep>
  <scstep>
   <time name="diag">    8.83    8.86</time>
   <time name="diis">   24.77   25.11</time>
   <time name="orth">    0.49    0.49</time>
   <time name="total">   38.09   38.46</time>
   <energy>
    <i name="e_fr_energy">   -292.99705308 </i>
    <i name="e_wo_entrp">   -292.98483340 </i>
    <i name="e_0_energy">   -292.99297986 </i>
   </energy>
  </scstep>
  <scstep>
   <time name="diag">    8.92    8.95</time>
   <time name="diis">   22.26   22.30</time>
   <time name="orth">    0.49    0.49</time>
   <time name="total">   35.68   35.79</time>
   <energy>
    <i name="e_fr_energy">   -293.00599553 </i>
    <i name="e_wo_entrp">   -292.98783758 </i>
    <i name="e_0_energy">   -292.99994288 </i>
   </energy>
  </scstep>
  <scstep>
   <time name="diag">    8.97    9.03</time>
   <time name="diis">   22.41   22.69</time>
   <time name="orth">    0.49    0.49</time>
   <time name="total">   35.88   36.22</time>
   <energy>
    <i name="e_fr_energy">   -293.01372040 </i>
    <i name="e_wo_entrp">   -292.99247439 </i>
    <i name="e_0_energy">   -293.00663840 </i>
   </energy>
  </scstep>
  <scstep>
   <time name="diag">    8.89    8.90</time>
   <time name="diis">   21.93   22.05</time>
   <time name="orth">    0.50    0.50</time>
   <time name="total">   35.45   35.76</time>
   <energy>
    <i name="e_fr_energy">   -293.01632561 </i>
    <i name="e_wo_entrp">   -292.99364512 </i>
    <i name="e_0_energy">   -293.00876545 </i>
   </energy>
  </scstep>
  <scstep>
   <time name="diag">    8.88    8.89</time>
   <time name="diis">   21.01   21.05</time>
   <time name="orth">    0.49    0.49</time>
   <time name="total">   34.37   34.43</time>
   <energy>
    <i name="e_fr_energy">   -293.01684632 </i>
    <i name="e_wo_entrp">   -292.99339402 </i>
    <i name="e_0_energy">   -293.00902889 </i>
   </energy>
  </scstep>
  <scstep>
   <time name="diag">    8.89    8.91</time>
   <time name="diis">   21.24   21.52</time>
   <time name="orth">    0.49    0.49</time>
   <time name="total">   34.58   34.88</time>
   <energy>
    <i name="e_fr_energy">   -293.01642538 </i>
    <i name="e_wo_entrp">   -292.99259153 </i>
    <i name="e_0_energy">   -293.00848077 </i>
   </energy>
  </scstep>
  <scstep>
   <time name="diag">    8.76    8.79</time>
   <time name="diis">   22.43   22.49</time>
   <time name="orth">    0.48    0.49</time>
   <time name="total">   35.64   35.76</time>
   <energy>
    <i name="e_fr_energy">   -293.01523381 </i>
    <i name="e_wo_entrp">   -292.99158629 </i>
    <i name="e_0_energy">   -293.00735130 </i>
   </energy>
  </scstep>
  <scstep>
   <time name="diag">    8.79    8.84</time>
   <time name="diis">   22.25   22.59</time>
   <time name="orth">    0.48    0.48</time>
   <time name="total">   35.44   35.86</time>
   <energy>
    <i name="e_fr_energy">   -293.01561671 </i>
    <i name="e_wo_entrp">   -292.99296138 </i>
    <i name="e_0_energy">   -293.00806493 </i>
   </energy>
  </scstep>
  <scstep>
   <time name="diag">    8.73    8.74</time>
   <time name="diis">   20.38   20.45</time>
   <time name="orth">    0.49    0.49</time>
   <time name="total">   33.65   33.77</time>
   <energy>
    <i name="e_fr_energy">   -293.01703458 </i>
    <i name="e_wo_entrp">   -292.99582709 </i>
    <i name="e_0_energy">   -293.00996542 </i>
   </energy>
  </scstep>
  <scstep>
   <time name="diag">    9.19    9.42</time>
   <time name="diis">   19.49   19.52</time>
   <time name="orth">    0.49    0.49</time>
   <time name="total">   33.16   33.43</time>
   <energy>
    <i name="e_fr_energy">   -293.01776071 </i>
    <i name="e_wo_entrp">   -292.99771967 </i>
    <i name="e_0_energy">   -293.01108036 </i>
   </energy>
  </scstep>
  <scstep>
   <time name="diag">    8.90    8.91</time>
   <time name="diis">   19.52   19.66</time>
   <time name="orth">    0.58    0.61</time>
   <time name="total">   33.12   33.50</time>
   <energy>
    <i name="e_fr_energy">   -293.01759160 </i>
    <i name="e_wo_entrp">   -292.99814000 </i>
    <i name="e_0_energy">   -293.01110773 </i>
   </energy>
  </scstep>
  <scstep>
   <time name="diag">    8.91    8.92</time>
   <time name="diis">   16.78   16.82</time>
   <time name="orth">    0.48    0.49</time>
   <time name="total">   30.17   30.22</time>
   <energy>
    <i name="e_fr_energy">   -293.01733572 </i>
    <i name="e_wo_entrp">   -292.99808239 </i>
    <i name="e_0_energy">   -293.01091794 </i>
   </energy>
  </scstep>
  <scstep>
   <time name="diag">    8.87    8.90</time>
   <time name="diis">   15.18   15.27</time>
   <time name="orth">    0.50    0.50</time>
   <time name="total">   28.67   29.01</time>
   <energy>
    <i name="e_fr_energy">   -293.01750576 </i>
    <i name="e_wo_entrp">   -292.99871465 </i>
    <i name="e_0_energy">   -293.01124205 </i>
   </energy>
  </scstep>
  <scstep>
   <time name="diag">    8.86    8.86</time>
   <time name="diis">   15.39   15.43</time>
   <time name="orth">    0.49    0.49</time>
   <time name="total">   28.71   28.76</time>
   <energy>
    <i name="e_fr_energy">   -293.01735816 </i>
    <i name="e_wo_entrp">   -292.99895201 </i>
    <i name="e_0_energy">   -293.01122278 </i>
   </energy>
  </scstep>
  <scstep>
   <time name="diag">    8.87    8.88</time>
   <time name="diis">   15.04   15.15</time>
   <time name="orth">    0.49    0.49</time>
   <time name="total">   28.42   28.59</time>
   <energy>
    <i name="e_fr_energy">   -293.01726867 </i>
    <i name="e_wo_entrp">   -292.99918691 </i>
    <i name="e_0_energy">   -293.01124142 </i>
   </energy>
  </scstep>
  <scstep>
   <time name="diag">    8.99    9.13</time>
   <time name="diis">   14.76   14.80</time>
   <time name="orth">    0.49    0.49</time>
   <time name="total">   28.21   28.51</time>
   <energy>
    <i name="e_fr_energy">   -293.01716630 </i>
    <i name="e_wo_entrp">   -292.99936620 </i>
    <i name="e_0_energy">   -293.01123294 </i>
   </energy>
  </scstep>
  <scstep>
   <time name="diag">    8.85    8.87</time>
   <time name="diis">   14.52   14.58</time>
   <time name="orth">    0.48    0.49</time>
   <time name="total">   27.86   28.36</time>
   <energy>
    <i name="e_fr_energy">   -293.01708479 </i>
    <i name="e_wo_entrp">   -292.99953383 </i>
    <i name="e_0_energy">   -293.01123447 </i>
   </energy>
  </scstep>
  <scstep>
   <time name="diag">    9.05    9.63</time>
   <time name="diis">   14.77   14.80</time>
   <time name="orth">    0.49    0.49</time>
   <time name="total">   28.30   28.93</time>
   <energy>
    <i name="e_fr_energy">   -293.01717948 </i>
    <i name="e_wo_entrp">   -292.99998706 </i>
    <i name="e_0_energy">   -293.01144867 </i>
   </energy>
  </scstep>
  <scstep>
   <time name="diag">    8.84    8.85</time>
   <time name="diis">   14.64   14.73</time>
   <time name="orth">    0.48    0.48</time>
   <time name="total">   27.98   28.10</time>
   <energy>
    <i name="e_fr_energy">   -293.01706573 </i>
    <i name="e_wo_entrp">   -293.00020078 </i>
    <i name="e_0_energy">   -293.01144408 </i>
   </energy>
  </scstep>
  <scstep>
   <time name="diag">    9.10    9.29</time>
   <time name="diis">   14.38   14.41</time>
   <time name="orth">    0.48    0.48</time>
   <time name="total">   24.51   24.74</time>
   <energy>
    <i name="alphaZ">    477.09650995 </i>
    <i name="ewald"> 394193.51030930 </i>
    <i name="hartreedc">-427909.51963190 </i>
    <i name="XCdc">   1612.83121793 </i>
    <i name="pawpsdc">  38063.30181144 </i>
    <i name="pawaedc"> -38769.04229141 </i>
    <i name="eentropy">     -0.01659665 </i>
    <i name="bandstr">  -5914.11148107 </i>
    <i name="atom">  37952.93320877 </i>
    <i name="e_fr_energy">   -293.01694365 </i>
    <i name="e_wo_entrp">   -293.00034699 </i>
    <i name="e_0_energy">   -293.01141143 </i>
   </energy>
  </scstep>
  <structure>
   <crystal>
    <varray name="basis" >
     <v>       2.87357350      -2.87357350       4.70833511 </v>
     <v>       5.74714699       0.00000000       0.00000000 </v>
     <v>       0.00000000      33.06569101      20.18052901 </v>
    </varray>
    <i name="volume">   1228.01926054 </i>
    <varray name="rec_basis" >
     <v>       0.00000000      -0.09444515       0.15474789 </v>
     <v>       0.17399938       0.04722258      -0.07737394 </v>
     <v>       0.00000000       0.02203507       0.01344836 </v>
    </varray>
   </crystal>
   <varray name="positions" >
    <v>       0.22067121       0.89240241       0.08901558 </v>
    <v>       0.66142101       0.17240341       0.21825315 </v>
    <v>       0.94927612       0.02809995       0.15233499 </v>
    <v>       0.37376360       0.31677267       0.28575700 </v>
    <v>       0.44927612       0.52809995       0.15233499 </v>
    <v>       0.89480415       0.30231935       0.28173996 </v>
    <v>       0.44927612       0.02809995       0.15233499 </v>
    <v>       0.89222277       0.80222971       0.28170013 </v>
    <v>       0.90282244       0.55132680       0.10484543 </v>
    <v>       0.35229953       0.82598508       0.23332890 </v>
    <v>       0.99204721       0.50790424       0.20074912 </v>
    <v>       0.42362863       0.79122724       0.33231903 </v>
    <v>       0.53851998       0.23347802       0.07318573 </v>
    <v>       0.02555432       0.48592624       0.35084442 </v>
    <v>       0.77635052       0.60795581       0.30938954 </v>
    <v>       0.87926422       0.06310591       0.05527763 </v>
    <v>       0.33728374       0.33466409       0.18283609 </v>
    <v>       0.58246139       0.21150732       0.12452493 </v>
    <v>       0.03608327       0.48589245       0.25331490 </v>
    <v>       0.68054017       0.69735356       0.37130690 </v>
    <v>       0.09516526       0.72856013       0.12156099 </v>
    <v>       0.54325812       0.45486545       0.25344512 </v>
    <v>       0.73417532       0.12839149       0.31210948 </v>
    <v>       0.85888103       0.57329750       0.05350623 </v>
    <v>       0.31196095       0.84570515       0.18077298 </v>
    <v>       0.56207820       0.72169891       0.12275353 </v>
    <v>       0.00344003       0.99799773       0.25263911 </v>
    <v>       0.79271519       0.33222455       0.18455636 </v>
    <v>       0.21705688       0.62206584       0.31600688 </v>
    <v>       0.34617716       0.60305419       0.05647018 </v>
    <v>       0.21391073       0.16556430       0.31527817 </v>
    <v>       0.79170022       0.88186739       0.18448798 </v>
    <v>       0.34617716       0.05624469       0.05647018 </v>
    <v>       0.53836978       0.01155087       0.25300673 </v>
    <v>       0.09516526       0.18175063       0.12156099 </v>
    <v>       0.18153920       0.36117529       0.39301402 </v>
    <v>       0.34047062       0.60391201       0.02782883 </v>
    <v>       0.92434681       0.68523651       0.03696881 </v>
    <v>       0.34363348       0.06399961       0.02783421 </v>
    <v>       0.88838126       0.05560908       0.02665597 </v>
    <v>       0.64436697       0.78022733       0.39422114 </v>
    <v>       0.75320327       0.10700827       0.33719635 </v>
    <v>       0.07135634       0.43820211       0.41323722 </v>
   </varray>
  </structure>
  <varray name="forces" >
   <v>       0.11086228      -1.77536334      -1.62590231 </v>
   <v>      -0.03651933       0.01623887       0.01168855 </v>
   <v>      -0.02216586       0.89255503      -0.01649864 </v>
   <v>      -0.07879909      -0.24450382      -0.08533692 </v>
   <v>       0.00196335       0.39285464       0.11505229 </v>
   <v>       0.15925052      -0.10542781       0.03822391 </v>
   <v>      -0.02126884       0.40028826       0.11175829 </v>
   <v>      -0.16027071      -0.22830082      -0.09550616 </v>
   <v>      -0.00539149      -1.33407285      -0.86071916 </v>
   <v>       0.00276262       0.04407907       0.07542997 </v>
   <v>       0.00871071       0.05506051       0.02452210 </v>
   <v>       0.02342954       0.01612872       0.09725763 </v>
   <v>      -0.00475340      -0.51251192       0.26949571 </v>
   <v>      -0.09048417      -0.04270031      -0.93015036 </v>
   <v>       0.15724451       0.04943740      -0.04224024 </v>
   <v>      -0.30813124      -3.66213008      -1.97497403 </v>
   <v>      -0.21373900      -0.17823837       0.04827998 </v>
   <v>      -0.10285526       0.29702548       0.41220869 </v>
   <v>       0.09601922       0.24640826       0.01496410 </v>
   <v>       0.36853695       0.58870539       0.35227508 </v>
   <v>       0.38285506       0.41212753       0.53910355 </v>
   <v>      -0.18331338       0.16737914       0.03852079 </v>
   <v>      -0.08523416       0.10342081       0.20988994 </v>
   <v>       2.82370654      -2.68431522      -0.24256503 </v>
   <v>       0.18005003      -0.11726769      -0.13608530 </v>
   <v>       0.14771749       0.36906139      -0.36053575 </v>
   <v>      -0.06824378       0.19211917      -0.01778766 </v>
   <v>      -0.36219943      -0.22654926      -0.02728408 </v>
   <v>      -0.00728263      -0.05077179       0.08883321 </v>
   <v>      -0.93658662      -3.58273591      -2.16363612 </v>
   <v>       0.15307864      -0.04810172       0.11778936 </v>
   <v>       0.25534905      -0.20470969      -0.04797024 </v>
   <v>       1.03846451      -3.65304894      -1.94043208 </v>
   <v>       0.06560338       0.14690233       0.08570140 </v>
   <v>      -0.20216286       0.36791239       0.47121028 </v>
   <v>       0.06798062       1.03839317       0.53083106 </v>
   <v>       0.56446562       3.80950668       2.31903419 </v>
   <v>      -2.99545314       3.20004353       0.46152194 </v>
   <v>      -0.65573563       3.96015570       2.10383839 </v>
   <v>       0.36567302       3.71476858       2.19416298 </v>
   <v>      -0.25463338      -0.43990905      -0.12605255 </v>
   <v>       0.00333579      -0.24617965      -0.14419406 </v>
   <v>      -0.18183607      -1.14373381       0.10627732 </v>
  </varray>
  <energy>
   <i name="e_fr_energy">   -293.01694365 </i>
   <i name="e_wo_entrp">   -293.01141143 </i>
   <i name="e_0_energy">     -0.01659665 </i>
  </energy>
  <time name="totalsc"> 2163.79 2180.03</time>
 </calculation>
 <calculation>
  <scstep>
   <time name="dav">   49.77   50.27</time>
   <time name="total">   53.72   54.25</time>
   <energy>
    <i name="alphaZ">    477.09650995 </i>
    <i name="ewald"> 394196.47913336 </i>
    <i name="hartreedc">-427911.87212636 </i>
    <i name="XCdc">   1612.85074481 </i>
    <i name="pawpsdc">  38063.32448645 </i>
    <i name="pawaedc"> -38769.06308369 </i>
    <i name="eentropy">     -0.01691350 </i>
    <i name="bandstr">  -5914.69244978 </i>
    <i name="atom">  37952.93320877 </i>
    <i name="e_fr_energy">   -292.96049000 </i>
    <i name="e_wo_entrp">   -292.94357649 </i>
    <i name="e_0_energy">   -292.95485216 </i>
   </energy>
  </scstep>
  <scstep>
   <time name="diag">    8.86    8.90</time>
   <time name="diis">   30.31   30.64</time>
   <time name="orth">    0.49    0.50</time>
   <time name="total">   43.60   43.99</time>
   <energy>
    <i name="e_fr_energy">   -293.18167160 </i>
    <i name="e_wo_entrp">   -293.18942521 </i>
    <i name="e_0_energy">   -293.18425614 </i>
   </energy>
  </scstep>
  <scstep>
   <time name="diag">    8.85    8.86</time>
   <time name="diis">   25.86   25.92</time>
   <time name="orth">    0.49    0.51</time>
   <time name="total">   39.18   39.30</time>
   <energy>
    <i name="e_fr_energy">   -293.00365410 </i>
    <i name="e_wo_entrp">   -292.98004644 </i>
    <i name="e_0_energy">   -292.99578488 </i>
   </energy>
  </scstep>
  <scstep>
   <time name="diag">    9.17    9.45</time>
   <time name="diis">   25.66   25.71</time>
   <time name="orth">    0.48    0.48</time>
   <time name="total">   39.27   39.60</time>
   <energy>
    <i name="e_fr_energy">   -293.03961800 </i>
    <i name="e_wo_entrp">   -293.03374475 </i>
    <i name="e_0_energy">   -293.03766025 </i>
   </energy>
  </scstep>
  <scstep>
   <time name="diag">    8.88    8.89</time>
   <time name="diis">   25.03   25.40</time>
   <time name="orth">    0.49    0.49</time>
   <time name="total">   38.39   38.80</time>
   <energy>
    <i name="e_fr_energy">   -293.11234430 </i>
    <i name="e_wo_entrp">   -293.12508832 </i>
    <i name="e_0_energy">   -293.11659231 </i>
   </energy>
  </scstep>
  <scstep>
   <time name="diag">    8.89    8.91</time>
   <time name="diis">   24.19   24.26</time>
   <time name="orth">    0.49    0.49</time>
   <time name="total">   37.53   37.63</time>
   <energy>
    <i name="e_fr_energy">   -293.09508574 </i>
    <i name="e_wo_entrp">   -293.11340058 </i>
    <i name="e_0_energy">   -293.10119069 </i>
   </energy>
  </scstep>
  <scstep>
   <time name="diag">    9.26    9.51</time>
   <time name="diis">   25.61   25.64</time>
   <time name="orth">    0.49    0.49</time>
   <time name="total">   39.29   39.59</time>
   <energy>
    <i name="e_fr_energy">   -293.08533193 </i>
    <i name="e_wo_entrp">   -293.10495259 </i>
    <i name="e_0_energy">   -293.09187215 </i>
   </energy>
  </scstep>
  <scstep>
   <time name="diag">    8.88    8.90</time>
   <time name="diis">   25.34   25.80</time>
   <time name="orth">    0.49    0.51</time>
   <time name="total">   38.69   39.19</time>
   <energy>
    <i name="e_fr_energy">   -293.07132755 </i>
    <i name="e_wo_entrp">   -293.08940815 </i>
    <i name="e_0_energy">   -293.07735441 </i>
   </energy>
  </scstep>
  <scstep>
   <time name="diag">    8.90    8.92</time>
   <time name="diis">   26.49   26.58</time>
   <time name="orth">    0.49    0.49</time>
   <time name="total">   39.85   39.97</time>
   <energy>
    <i name="e_fr_energy">   -293.01556568 </i>
    <i name="e_wo_entrp">   -293.01734134 </i>
    <i name="e_0_energy">   -293.01615757 </i>
   </energy>
  </scstep>
  <scstep>
   <time name="diag">    9.27    9.57</time>
   <time name="diis">   24.86   24.91</time>
   <time name="orth">    0.49    0.49</time>
   <time name="total">   38.58   38.94</time>
   <energy>
    <i name="e_fr_energy">   -293.02072863 </i>
    <i name="e_wo_entrp">   -293.00895037 </i>
    <i name="e_0_energy">   -293.01680254 </i>
   </energy>
  </scstep>
  <scstep>
   <time name="diag">    8.89    8.90</time>
   <time name="diis">   24.27   24.52</time>
   <time name="orth">    0.49    0.49</time>
   <time name="total">   37.61   37.87</time>
   <energy>
    <i name="e_fr_energy">   -293.03989030 </i>
    <i name="e_wo_entrp">   -293.02375686 </i>
    <i name="e_0_energy">   -293.03451249 </i>
   </energy>
  </scstep>
  <scstep>
   <time name="diag">    8.91    8.93</time>
   <time name="diis">   24.92   24.96</time>
   <time name="orth">    0.48    0.49</time>
   <time name="total">   38.30   38.41</time>
   <energy>
    <i name="e_fr_energy">   -293.04411374 </i>
    <i name="e_wo_entrp">   -293.02597824 </i>
    <i name="e_0_energy">   -293.03806857 </i>
   </energy>
  </scstep>
  <scstep>
   <time name="diag">    8.91    8.95</time>
   <time name="diis">   25.37   25.73</time>
   <time name="orth">    0.48    0.48</time>
   <time name="total">   38.71   39.12</time>
   <energy>
    <i name="e_fr_energy">   -293.04567281 </i>
    <i name="e_wo_entrp">   -293.02615985 </i>
    <i name="e_0_energy">   -293.03916849 </i>
   </energy>
  </scstep>
  <scstep>
   <time name="diag">    8.87    8.88</time>
   <time name="diis">   23.16   23.30</time>
   <time name="orth">    0.49    0.49</time>
   <time name="total">   36.68   37.13</time>
   <energy>
    <i name="e_fr_energy">   -293.04678381 </i>
    <i name="e_wo_entrp">   -293.02592871 </i>
    <i name="e_0_energy">   -293.03983211 </i>
   </energy>
  </scstep>
  <scstep>
   <time name="diag">    8.89    8.90</time>
   <time name="diis">   21.54   21.57</time>
   <time name="orth">    0.48    0.49</time>
   <time name="total">   34.89   34.94</time>
   <energy>
    <i name="e_fr_energy">   -293.04713906 </i>
    <i name="e_wo_entrp">   -293.02534148 </i>
    <i name="e_0_energy">   -293.03987320 </i>
   </energy>
  </scstep>
  <scstep>
   <time name="diag">    8.93    8.98</time>
   <time name="diis">   19.32   19.62</time>
   <time name="orth">    0.49    0.49</time>
   <time name="total">   32.72   33.07</time>
   <energy>
    <i name="e_fr_energy">   -293.04682469 </i>
    <i name="e_wo_entrp">   -293.02451448 </i>
    <i name="e_0_energy">   -293.03938796 </i>
   </energy>
  </scstep>
  <scstep>
   <time name="diag">    8.91    8.93</time>
   <time name="diis">   20.27   20.30</time>
   <time name="orth">    0.49    0.49</time>
   <time name="total">   33.68   33.74</time>
   <energy>
    <i name="e_fr_energy">   -293.04776504 </i>
    <i name="e_wo_entrp">   -293.02497622 </i>
    <i name="e_0_energy">   -293.04016877 </i>
   </energy>
  </scstep>
  <scstep>
   <time name="diag">    8.92    8.99</time>
   <time name="diis">   21.88   22.15</time>
   <time name="orth">    0.48    0.49</time>
   <time name="total">   35.24   35.58</time>
   <energy>
    <i name="e_fr_energy">   -293.04592835 </i>
    <i name="e_wo_entrp">   -293.02278208 </i>
    <i name="e_0_energy">   -293.03821293 </i>
   </energy>
  </scstep>
  <scstep>
   <time name="diag">    8.87    8.88</time>
   <time name="diis">   16.14   16.17</time>
   <time name="orth">    0.48    0.49</time>
   <time name="total">   29.47   29.55</time>
   <energy>
    <i name="e_fr_energy">   -293.04626216 </i>
    <i name="e_wo_entrp">   -293.02303486 </i>
    <i name="e_0_energy">   -293.03851973 </i>
   </energy>
  </scstep>
  <scstep>
   <time name="diag">    9.01    9.14</time>
   <time name="diis">   22.64   22.80</time>
   <time name="orth">    0.48    0.49</time>
   <time name="total">   36.09   36.40</time>
   <energy>
    <i name="e_fr_energy">   -293.04473368 </i>
    <i name="e_wo_entrp">   -293.02142998 </i>
    <i name="e_0_energy">   -293.03696578 </i>
   </energy>
  </scstep>
  <scstep>
   <time name="diag">    8.87    8.89</time>
   <time name="diis">   19.70   19.79</time>
   <time name="orth">    0.49    0.49</time>
   <time name="total">   33.08   33.19</time>
   <energy>
    <i name="e_fr_energy">   -293.04427059 </i>
    <i name="e_wo_entrp">   -293.02117403 </i>
    <i name="e_0_energy">   -293.03657174 </i>
   </energy>
  </scstep>
  <scstep>
   <time name="diag">    9.03    9.28</time>
   <time name="diis">   23.63   23.70</time>
   <time name="orth">    0.48    0.48</time>
   <time name="total">   37.09   37.46</time>
   <energy>
    <i name="e_fr_energy">   -293.04378913 </i>
    <i name="e_wo_entrp">   -293.02197430 </i>
    <i name="e_0_energy">   -293.03651752 </i>
   </energy>
  </scstep>
  <scstep>
   <time name="diag">    8.86    8.88</time>
   <time name="diis">   22.68   23.08</time>
   <time name="orth">    0.48    0.49</time>
   <time name="total">   36.00   36.43</time>
   <energy>
    <i name="e_fr_energy">   -293.04728086 </i>
    <i name="e_wo_entrp">   -293.02853373 </i>
    <i name="e_0_energy">   -293.04103182 </i>
   </energy>
  </scstep>
  <scstep>
   <time name="diag">    8.86    8.88</time>
   <time name="diis">   21.66   21.71</time>
   <time name="orth">    0.49    0.49</time>
   <time name="total">   35.01   35.15</time>
   <energy>
    <i name="e_fr_energy">   -293.04920249 </i>
    <i name="e_wo_entrp">   -293.03329956 </i>
    <i name="e_0_energy">   -293.04390151 </i>
   </energy>
  </scstep>
  <scstep>
   <time name="diag">    8.99    9.02</time>
   <time name="diis">   21.94   22.16</time>
   <time name="orth">    0.49    0.49</time>
   <time name="total">   35.40   35.66</time>
   <energy>
    <i name="e_fr_energy">   -293.04806887 </i>
    <i name="e_wo_entrp">   -293.03369524 </i>
    <i name="e_0_energy">   -293.04327766 </i>
   </energy>
  </scstep>
  <scstep>
   <time name="diag">    8.87    8.88</time>
   <time name="diis">   18.82   18.88</time>
   <time name="orth">    0.48    0.49</time>
   <time name="total">   32.19   32.30</time>
   <energy>
    <i name="e_fr_energy">   -293.04812574 </i>
    <i name="e_wo_entrp">   -293.03520064 </i>
    <i name="e_0_energy">   -293.04381737 </i>
   </energy>
  </scstep>
  <scstep>
   <time name="diag">    9.09    9.28</time>
   <time name="diis">   19.39   19.42</time>
   <time name="orth">    0.49    0.49</time>
   <time name="total">   32.95   33.18</time>
   <energy>
    <i name="e_fr_energy">   -293.04717804 </i>
    <i name="e_wo_entrp">   -293.03512457 </i>
    <i name="e_0_energy">   -293.04316022 </i>
   </energy>
  </scstep>
  <scstep>
   <time name="diag">    8.89    8.90</time>
   <time name="diis">   16.20   16.29</time>
   <time name="orth">    0.49    0.49</time>
   <time name="total">   29.65   29.86</time>
   <energy>
    <i name="e_fr_energy">   -293.04727950 </i>
    <i name="e_wo_entrp">   -293.03613237 </i>
    <i name="e_0_energy">   -293.04356379 </i>
   </energy>
  </scstep>
  <scstep>
   <time name="diag">    8.94    9.07</time>
   <time name="diis">   16.37   16.40</time>
   <time name="orth">    0.49    0.49</time>
   <time name="total">   29.78   30.01</time>
   <energy>
    <i name="e_fr_energy">   -293.04645183 </i>
    <i name="e_wo_entrp">   -293.03574662 </i>
    <i name="e_0_energy">   -293.04288343 </i>
   </energy>
  </scstep>
  <scstep>
   <time name="diag">    8.89    8.90</time>
   <time name="diis">   15.02   15.12</time>
   <time name="orth">    0.49    0.49</time>
   <time name="total">   28.42   28.54</time>
   <energy>
    <i name="e_fr_energy">   -293.04643505 </i>
    <i name="e_wo_entrp">   -293.03616388 </i>
    <i name="e_0_energy">   -293.04301133 </i>
   </energy>
  </scstep>
  <scstep>
   <time name="diag">    9.00    9.22</time>
   <time name="diis">   14.87   14.91</time>
   <time name="orth">    0.48    0.49</time>
   <time name="total">   28.34   28.59</time>
   <energy>
    <i name="e_fr_energy">   -293.04597496 </i>
    <i name="e_wo_entrp">   -293.03588580 </i>
    <i name="e_0_energy">   -293.04261191 </i>
   </energy>
  </scstep>
  <scstep>
   <time name="diag">    8.89    8.90</time>
   <time name="diis">   14.70   14.79</time>
   <time name="orth">    0.49    0.49</time>
   <time name="total">   28.06   28.19</time>
   <energy>
    <i name="e_fr_energy">   -293.04542935 </i>
    <i name="e_wo_entrp">   -293.03521586 </i>
    <i name="e_0_energy">   -293.04202485 </i>
   </energy>
  </scstep>
  <scstep>
   <time name="diag">    9.20    9.51</time>
   <time name="diis">   14.86   14.89</time>
   <time name="orth">    0.49    0.49</time>
   <time name="total">   28.57   28.92</time>
   <energy>
    <i name="e_fr_energy">   -293.04485126 </i>
    <i name="e_wo_entrp">   -293.03416601 </i>
    <i name="e_0_energy">   -293.04128951 </i>
   </energy>
  </scstep>
  <scstep>
   <time name="diag">    8.92    8.93</time>
   <time name="diis">   15.82   15.90</time>
   <time name="orth">    0.49    0.49</time>
   <time name="total">   29.22   29.32</time>
   <energy>
    <i name="e_fr_energy">   -293.04436993 </i>
    <i name="e_wo_entrp">   -293.03284675 </i>
    <i name="e_0_energy">   -293.04052887 </i>
   </energy>
  </scstep>
  <scstep>
   <time name="diag">    9.39    9.72</time>
   <time name="diis">   15.47   15.50</time>
   <time name="orth">    0.49    0.49</time>
   <time name="total">   29.37   29.75</time>
   <energy>
    <i name="e_fr_energy">   -293.04491298 </i>
    <i name="e_wo_entrp">   -293.03279323 </i>
    <i name="e_0_energy">   -293.04087306 </i>
   </energy>
  </scstep>
  <scstep>
   <time name="diag">    8.93    8.94</time>
   <time name="diis">   15.12   15.27</time>
   <time name="orth">    0.48    0.48</time>
   <time name="total">   28.48   28.65</time>
   <energy>
    <i name="e_fr_energy">   -293.04539258 </i>
    <i name="e_wo_entrp">   -293.03290940 </i>
    <i name="e_0_energy">   -293.04123152 </i>
   </energy>
  </scstep>
  <scstep>
   <time name="diag">    9.17    9.52</time>
   <time name="diis">   15.27   15.29</time>
   <time name="orth">    0.49    0.49</time>
   <time name="total">   28.96   29.34</time>
   <energy>
    <i name="e_fr_energy">   -293.04515312 </i>
    <i name="e_wo_entrp">   -293.03206597 </i>
    <i name="e_0_energy">   -293.04079074 </i>
   </energy>
  </scstep>
  <scstep>
   <time name="diag">    8.93    8.94</time>
   <time name="diis">   20.50   20.57</time>
   <time name="orth">    0.49    0.49</time>
   <time name="total">   33.97   34.08</time>
   <energy>
    <i name="e_fr_energy">   -293.04438656 </i>
    <i name="e_wo_entrp">   -293.02987419 </i>
    <i name="e_0_energy">   -293.03954910 </i>
   </energy>
  </scstep>
  <scstep>
   <time name="diag">    9.20    9.44</time>
   <time name="diis">   19.05   19.10</time>
   <time name="orth">    0.49    0.49</time>
   <time name="total">   32.76   33.04</time>
   <energy>
    <i name="e_fr_energy">   -293.04492999 </i>
    <i name="e_wo_entrp">   -293.02881858 </i>
    <i name="e_0_energy">   -293.03955952 </i>
   </energy>
  </scstep>
  <scstep>
   <time name="diag">    8.94    8.95</time>
   <time name="diis">   18.04   18.21</time>
   <time name="orth">    0.51    0.51</time>
   <time name="total">   31.64   31.94</time>
   <energy>
    <i name="e_fr_energy">   -293.04595867 </i>
    <i name="e_wo_entrp">   -293.02848980 </i>
    <i name="e_0_energy">   -293.04013572 </i>
   </energy>
  </scstep>
  <scstep>
   <time name="diag">    8.93    8.96</time>
   <time name="diis">   17.76   17.80</time>
   <time name="orth">    0.49    0.49</time>
   <time name="total">   31.19   31.28</time>
   <energy>
    <i name="e_fr_energy">   -293.04684048 </i>
    <i name="e_wo_entrp">   -293.02828191 </i>
    <i name="e_0_energy">   -293.04065429 </i>
   </energy>
  </scstep>
  <scstep>
   <time name="diag">    8.92    8.93</time>
   <time name="diis">   17.29   17.37</time>
   <time name="orth">    0.50    0.50</time>
   <time name="total">   30.86   31.20</time>
   <energy>
    <i name="e_fr_energy">   -293.04742805 </i>
    <i name="e_wo_entrp">   -293.02799729 </i>
    <i name="e_0_energy">   -293.04095113 </i>
   </energy>
  </scstep>
  <scstep>
   <time name="diag">    8.90    8.91</time>
   <time name="diis">   17.11   17.14</time>
   <time name="orth">    0.48    0.48</time>
   <time name="total">   30.50   30.54</time>
   <energy>
    <i name="e_fr_energy">   -293.04775873 </i>
    <i name="e_wo_entrp">   -293.02773775 </i>
    <i name="e_0_energy">   -293.04108507 </i>
   </energy>
  </scstep>
  <scstep>
   <time name="diag">    8.90    8.97</time>
   <time name="diis">   16.46   16.57</time>
   <time name="orth">    0.50    0.52</time>
   <time name="total">   30.05   30.45</time>
   <energy>
    <i name="e_fr_energy">   -293.04782239 </i>
    <i name="e_wo_entrp">   -293.02746711 </i>
    <i name="e_0_energy">   -293.04103730 </i>
   </energy>
  </scstep>
  <scstep>
   <time name="diag">    8.90    8.92</time>
   <time name="diis">   15.35   15.38</time>
   <time name="orth">    0.48    0.49</time>
   <time name="total">   28.74   28.79</time>
   <energy>
    <i name="e_fr_energy">   -293.04776900 </i>
    <i name="e_wo_entrp">   -293.02724554 </i>
    <i name="e_0_energy">   -293.04092785 </i>
   </energy>
  </scstep>
  <scstep>
   <time name="diag">    8.91    8.92</time>
   <time name="diis">   14.76   14.84</time>
   <time name="orth">    0.50    0.50</time>
   <time name="total">   28.34   28.55</time>
   <energy>
    <i name="e_fr_energy">   -293.04771739 </i>
    <i name="e_wo_entrp">   -293.02712439 </i>
    <i name="e_0_energy">   -293.04085306 </i>
   </energy>
  </scstep>
  <scstep>
   <time name="diag">    8.76    8.79</time>
   <time name="diis">   13.58   13.63</time>
   <time name="orth">    0.48    0.48</time>
   <time name="total">   26.77   26.94</time>
   <energy>
    <i name="e_fr_energy">   -293.04768638 </i>
    <i name="e_wo_entrp">   -293.02707802 </i>
    <i name="e_0_energy">   -293.04081692 </i>
   </energy>
  </scstep>
  <scstep>
   <time name="diag">    8.76    8.78</time>
   <time name="diis">   12.65   12.75</time>
   <time name="orth">    0.48    0.48</time>
   <time name="total">   25.85   25.98</time>
   <energy>
    <i name="e_fr_energy">   -293.04767146 </i>
    <i name="e_wo_entrp">   -293.02707638 </i>
    <i name="e_0_energy">   -293.04080643 </i>
   </energy>
  </scstep>
  <scstep>
   <time name="diag">    9.12    9.29</time>
   <time name="diis">   12.63   12.65</time>
   <time name="orth">    0.48    0.48</time>
   <time name="total">   26.15   26.35</time>
   <energy>
    <i name="e_fr_energy">   -293.04765761 </i>
    <i name="e_wo_entrp">   -293.02711204 </i>
    <i name="e_0_energy">   -293.04080909 </i>
   </energy>
  </scstep>
  <scstep>
   <time name="diag">    8.76    8.78</time>
   <time name="diis">   13.43   13.45</time>
   <time name="orth">    0.48    0.48</time>
   <time name="total">   23.21   23.24</time>
   <energy>
    <i name="alphaZ">    477.09650995 </i>
    <i name="ewald"> 394196.47913336 </i>
    <i name="hartreedc">-427899.91306595 </i>
    <i name="XCdc">   1612.86665146 </i>
    <i name="pawpsdc">  38058.64266438 </i>
    <i name="pawaedc"> -38764.39570416 </i>
    <i name="eentropy">     -0.02044273 </i>
    <i name="bandstr">  -5926.73660466 </i>
    <i name="atom">  37952.93320877 </i>
    <i name="e_fr_energy">   -293.04764958 </i>
    <i name="e_wo_entrp">   -293.02720685 </i>
    <i name="e_0_energy">   -293.04083534 </i>
   </energy>
  </scstep>
  <structure>
   <crystal>
    <varray name="basis" >
     <v>       2.87357350      -2.87357350       4.70833511 </v>
     <v>       5.74714699       0.00000000       0.00000000 </v>
     <v>       0.00000000      33.06569101      20.18052901 </v>
    </varray>
    <i name="volume">   1228.01926054 </i>
    <varray name="rec_basis" >
     <v>       0.00000000      -0.09444515       0.15474789 </v>
     <v>       0.17399938       0.04722258      -0.07737394 </v>
     <v>       0.00000000       0.02203507       0.01344836 </v>
    </varray>
   </crystal>
   <varray name="positions" >
    <v>       0.22067121       0.89240241       0.08901558 </v>
    <v>       0.66146005       0.17251404       0.21820828 </v>
    <v>       0.94927612       0.02809995       0.15233499 </v>
    <v>       0.37396576       0.31685511       0.28568820 </v>
    <v>       0.44927612       0.52809995       0.15233499 </v>
    <v>       0.89477910       0.30193244       0.28165984 </v>
    <v>       0.44927612       0.02809995       0.15233499 </v>
    <v>       0.89223074       0.80251810       0.28166316 </v>
    <v>       0.90282244       0.55132680       0.10484543 </v>
    <v>       0.35216210       0.82610538       0.23328683 </v>
    <v>       0.99227570       0.50776095       0.20071184 </v>
    <v>       0.42345551       0.79127160       0.33224244 </v>
    <v>       0.53851998       0.23347802       0.07318573 </v>
    <v>       0.02375732       0.48447577       0.35069827 </v>
    <v>       0.77651338       0.60804217       0.30947522 </v>
    <v>       0.87926422       0.06310591       0.05527763 </v>
    <v>       0.33729109       0.33439184       0.18283934 </v>
    <v>       0.58246139       0.21150732       0.12452493 </v>
    <v>       0.03626649       0.48570226       0.25336047 </v>
    <v>       0.68004075       0.69776402       0.37140998 </v>
    <v>       0.09516526       0.72856013       0.12156099 </v>
    <v>       0.54323242       0.45498456       0.25349209 </v>
    <v>       0.73411358       0.12854730       0.31218217 </v>
    <v>       0.85888103       0.57329750       0.05350623 </v>
    <v>       0.31216501       0.84606340       0.18078208 </v>
    <v>       0.56207820       0.72169891       0.12275353 </v>
    <v>       0.00358447       0.99808312       0.25267672 </v>
    <v>       0.79305807       0.33181755       0.18452355 </v>
    <v>       0.21740601       0.62254593       0.31607559 </v>
    <v>       0.34617716       0.60305419       0.05647018 </v>
    <v>       0.21377793       0.16563143       0.31534259 </v>
    <v>       0.79199096       0.88214917       0.18444325 </v>
    <v>       0.34617716       0.05624469       0.05647018 </v>
    <v>       0.53832571       0.01166548       0.25306131 </v>
    <v>       0.09516526       0.18175063       0.12156099 </v>
    <v>       0.18185496       0.36142954       0.39329924 </v>
    <v>       0.34047062       0.60391201       0.02782883 </v>
    <v>       0.92434681       0.68523651       0.03696881 </v>
    <v>       0.34363348       0.06399961       0.02783421 </v>
    <v>       0.88838126       0.05560908       0.02665597 </v>
    <v>       0.64433686       0.78018804       0.39417657 </v>
    <v>       0.75316464       0.10710311       0.33718919 </v>
    <v>       0.07161361       0.43781940       0.41313728 </v>
   </varray>
  </structure>
  <varray name="forces" >
   <v>       0.11234644      -1.79667953      -1.62981751 </v>
   <v>      -0.04554799       0.03881914       0.01188576 </v>
   <v>      -0.01663849       0.84140147      -0.02023674 </v>
   <v>      -0.06382845      -0.11141909      -0.07484919 </v>
   <v>       0.00561828       0.38304370       0.10358071 </v>
   <v>       0.26969870       0.01577435       0.07202669 </v>
   <v>      -0.01356909       0.37406949       0.10214147 </v>
   <v>      -0.22224015      -0.13799725      -0.04311948 </v>
   <v>      -0.01734303      -1.33936730      -0.86898243 </v>
   <v>       0.00890845       0.04810077       0.10163128 </v>
   <v>       0.01636792       0.07351560       0.01365512 </v>
   <v>       0.04174599       0.05333987       0.16273758 </v>
   <v>       0.00239020      -0.52670282       0.25674772 </v>
   <v>      -0.02495019      -0.01364036      -0.52853102 </v>
   <v>       0.11077350      -0.07807311      -0.16931025 </v>
   <v>      -0.30976568      -3.61318938      -1.95361847 </v>
   <v>      -0.18837149      -0.17626909       0.06265333 </v>
   <v>      -0.09888049       0.30485937       0.41363683 </v>
   <v>       0.09980197       0.21012353      -0.01221111 </v>
   <v>       0.28216654       0.40173875       0.18463430 </v>
   <v>       0.37675265       0.42021481       0.54868707 </v>
   <v>      -0.17482341       0.12279937       0.02828637 </v>
   <v>      -0.07587790      -0.04409594       0.11054890 </v>
   <v>       2.67332725      -2.52651781      -0.25323410 </v>
   <v>       0.14895580      -0.11346240      -0.13429793 </v>
   <v>       0.14254709       0.36353178      -0.35016112 </v>
   <v>      -0.08527059       0.14424939      -0.03591817 </v>
   <v>      -0.32728734      -0.19732433      -0.02518338 </v>
   <v>      -0.09128941      -0.10511514       0.00814953 </v>
   <v>      -0.94165381      -3.57156614      -2.15072322 </v>
   <v>       0.15809249      -0.12299004       0.07554547 </v>
   <v>       0.21312996      -0.17493390      -0.02917973 </v>
   <v>       1.04443094      -3.63247050      -1.92639781 </v>
   <v>       0.05808938       0.10404022       0.07626704 </v>
   <v>      -0.19131980       0.38439041       0.47711624 </v>
   <v>       0.03509638       0.55867368       0.37850069 </v>
   <v>       0.56552162       3.80211282       2.31523996 </v>
   <v>      -2.88250309       3.07272849       0.46216772 </v>
   <v>      -0.65569101       3.94335475       2.09559023 </v>
   <v>       0.36484426       3.67992731       2.17544365 </v>
   <v>      -0.16320547      -0.21840061      -0.06674962 </v>
   <v>      -0.00981816      -0.13601858      -0.05687771 </v>
   <v>      -0.13073078      -0.70457576       0.09252533 </v>
  </varray>
  <energy>
   <i name="e_fr_energy">   -293.04764958 </i>
   <i name="e_wo_entrp">   -293.04083534 </i>
   <i name="e_0_energy">     -0.02044273 </i>
  </energy>
  <time name="totalsc"> 1694.08 1706.43</time>
 </calculation>
 <calculation>
  <scstep>
   <time name="dav">   49.90   50.10</time>
   <time name="total">   54.02   54.34</time>
   <energy>
    <i name="alphaZ">    477.09650995 </i>
    <i name="ewald"> 394198.01241622 </i>
    <i name="hartreedc">-427901.12247388 </i>
    <i name="XCdc">   1612.87619913 </i>
    <i name="pawpsdc">  38058.63907446 </i>
    <i name="pawaedc"> -38764.39119264 </i>
    <i name="eentropy">     -0.02064155 </i>
    <i name="bandstr">  -5927.05686278 </i>
    <i name="atom">  37952.93320877 </i>
    <i name="e_fr_energy">   -293.03376230 </i>
    <i name="e_wo_entrp">   -293.01312075 </i>
    <i name="e_0_energy">   -293.02688179 </i>
   </energy>
  </scstep>
  <scstep>
   <time name="diag">    8.95    8.98</time>
   <time name="diis">   30.01   30.07</time>
   <time name="orth">    0.49    0.49</time>
   <time name="total">   43.43   43.58</time>
   <energy>
    <i name="e_fr_energy">   -293.06156697 </i>
    <i name="e_wo_entrp">   -293.04870194 </i>
    <i name="e_0_energy">   -293.05727863 </i>
   </energy>
  </scstep>
  <scstep>
   <time name="diag">    8.95    9.00</time>
   <time name="diis">   25.65   26.06</time>
   <time name="orth">    0.49    0.49</time>
   <time name="total">   39.05   39.54</time>
   <energy>
    <i name="e_fr_energy">   -293.05074409 </i>
    <i name="e_wo_entrp">   -293.03525770 </i>
    <i name="e_0_energy">   -293.04558196 </i>
   </energy>
  </scstep>
  <scstep>
   <time name="diag">    8.87    8.88</time>
   <time name="diis">   25.97   26.12</time>
   <time name="orth">    0.50    0.50</time>
   <time name="total">   39.56   39.96</time>
   <energy>
    <i name="e_fr_energy">   -293.05705075 </i>
    <i name="e_wo_entrp">   -293.03622330 </i>
    <i name="e_0_energy">   -293.05010827 </i>
   </energy>
  </scstep>
  <scstep>
   <time name="diag">    8.89    8.90</time>
   <time name="diis">   24.59   24.66</time>
   <time name="orth">    0.49    0.49</time>
   <time name="total">   37.95   38.05</time>
   <energy>
    <i name="e_fr_energy">   -293.05375814 </i>
    <i name="e_wo_entrp">   -293.03141509 </i>
    <i name="e_0_energy">   -293.04631045 </i>
   </energy>
  </scstep>
  <scstep>
   <time name="diag">    8.88    8.91</time>
   <time name="diis">   24.87   25.17</time>
   <time name="orth">    0.48    0.48</time>
   <time name="total">   38.13   38.46</time>
   <energy>
    <i name="e_fr_energy">   -293.05297480 </i>
    <i name="e_wo_entrp">   -293.03251352 </i>
    <i name="e_0_energy">   -293.04615438 </i>
   </energy>
  </scstep>
  <scstep>
   <time name="diag">    8.76    8.77</time>
   <time name="diis">   21.43   21.50</time>
   <time name="orth">    0.49    0.49</time>
   <time name="total">   34.65   34.76</time>
   <energy>
    <i name="e_fr_energy">   -293.05523294 </i>
    <i name="e_wo_entrp">   -293.03687061 </i>
    <i name="e_0_energy">   -293.04911216 </i>
   </energy>
  </scstep>
  <scstep>
   <time name="diag">    9.32    9.54</time>
   <time name="diis">   23.32   23.35</time>
   <time name="orth">    0.49    0.49</time>
   <time name="total">   37.29   37.56</time>
   <energy>
    <i name="e_fr_energy">   -293.05466592 </i>
    <i name="e_wo_entrp">   -293.03618803 </i>
    <i name="e_0_energy">   -293.04850662 </i>
   </energy>
  </scstep>
  <scstep>
   <time name="diag">    8.87    8.91</time>
   <time name="diis">   23.72   24.04</time>
   <time name="orth">    0.49    0.49</time>
   <time name="total">   37.04   37.41</time>
   <energy>
    <i name="e_fr_energy">   -293.05525587 </i>
    <i name="e_wo_entrp">   -293.03508003 </i>
    <i name="e_0_energy">   -293.04853059 </i>
   </energy>
  </scstep>
  <scstep>
   <time name="diag">    8.88    8.90</time>
   <time name="diis">   21.81   21.88</time>
   <time name="orth">    0.49    0.50</time>
   <time name="total">   35.15   35.26</time>
   <energy>
    <i name="e_fr_energy">   -293.05530242 </i>
    <i name="e_wo_entrp">   -293.03422580 </i>
    <i name="e_0_energy">   -293.04827688 </i>
   </energy>
  </scstep>
  <scstep>
   <time name="diag">    8.90    9.15</time>
   <time name="diis">   19.94   20.30</time>
   <time name="orth">    0.48    0.51</time>
   <time name="total">   33.29   33.92</time>
   <energy>
    <i name="e_fr_energy">   -293.05484474 </i>
    <i name="e_wo_entrp">   -293.03343204 </i>
    <i name="e_0_energy">   -293.04770718 </i>
   </energy>
  </scstep>
  <scstep>
   <time name="diag">    8.94    8.95</time>
   <time name="diis">   15.89   15.93</time>
   <time name="orth">    0.49    0.49</time>
   <time name="total">   29.29   29.42</time>
   <energy>
    <i name="e_fr_energy">   -293.05485582 </i>
    <i name="e_wo_entrp">   -293.03318963 </i>
    <i name="e_0_energy">   -293.04763375 </i>
   </energy>
  </scstep>
  <scstep>
   <time name="diag">    8.94    8.98</time>
   <time name="diis">   20.42   20.63</time>
   <time name="orth">    0.48    0.49</time>
   <time name="total">   33.83   34.09</time>
   <energy>
    <i name="e_fr_energy">   -293.05405040 </i>
    <i name="e_wo_entrp">   -293.03237169 </i>
    <i name="e_0_energy">   -293.04682416 </i>
   </energy>
  </scstep>
  <scstep>
   <time name="diag">    8.89    8.90</time>
   <time name="diis">   23.01   23.13</time>
   <time name="orth">    0.49    0.49</time>
   <time name="total">   36.41   36.54</time>
   <energy>
    <i name="e_fr_energy">   -293.05334592 </i>
    <i name="e_wo_entrp">   -293.03244737 </i>
    <i name="e_0_energy">   -293.04637973 </i>
   </energy>
  </scstep>
  <scstep>
   <time name="diag">    9.14    9.45</time>
   <time name="diis">   21.82   21.86</time>
   <time name="orth">    0.48    0.49</time>
   <time name="total">   35.42   35.78</time>
   <energy>
    <i name="e_fr_energy">   -293.05451980 </i>
    <i name="e_wo_entrp">   -293.03539676 </i>
    <i name="e_0_energy">   -293.04814545 </i>
   </energy>
  </scstep>
  <scstep>
   <time name="diag">    8.89    8.91</time>
   <time name="diis">   20.14   20.50</time>
   <time name="orth">    0.49    0.49</time>
   <time name="total">   33.47   33.88</time>
   <energy>
    <i name="e_fr_energy">   -293.05572297 </i>
    <i name="e_wo_entrp">   -293.03838551 </i>
    <i name="e_0_energy">   -293.04994382 </i>
   </energy>
  </scstep>
  <scstep>
   <time name="diag">    8.85    8.87</time>
   <time name="diis">   19.57   19.63</time>
   <time name="orth">    0.48    0.49</time>
   <time name="total">   32.85   32.94</time>
   <energy>
    <i name="e_fr_energy">   -293.05577375 </i>
    <i name="e_wo_entrp">   -293.03980770 </i>
    <i name="e_0_energy">   -293.05045173 </i>
   </energy>
  </scstep>
  <scstep>
   <time name="diag">    8.90    9.00</time>
   <time name="diis">   17.87   18.15</time>
   <time name="orth">    0.48    0.49</time>
   <time name="total">   31.22   31.62</time>
   <energy>
    <i name="e_fr_energy">   -293.05576145 </i>
    <i name="e_wo_entrp">   -293.04108451 </i>
    <i name="e_0_energy">   -293.05086914 </i>
   </energy>
  </scstep>
  <scstep>
   <time name="diag">    8.87    8.88</time>
   <time name="diis">   18.06   18.09</time>
   <time name="orth">    0.48    0.50</time>
   <time name="total">   31.39   31.46</time>
   <energy>
    <i name="e_fr_energy">   -293.05521475 </i>
    <i name="e_wo_entrp">   -293.04142541 </i>
    <i name="e_0_energy">   -293.05061831 </i>
   </energy>
  </scstep>
  <scstep>
   <time name="diag">    8.91    9.02</time>
   <time name="diis">   16.44   16.64</time>
   <time name="orth">    0.49    0.49</time>
   <time name="total">   29.84   30.19</time>
   <energy>
    <i name="e_fr_energy">   -293.05501463 </i>
    <i name="e_wo_entrp">   -293.04199458 </i>
    <i name="e_0_energy">   -293.05067462 </i>
   </energy>
  </scstep>
  <scstep>
   <time name="diag">    8.87    8.88</time>
   <time name="diis">   16.06   16.08</time>
   <time name="orth">    0.49    0.49</time>
   <time name="total">   29.40   29.45</time>
   <energy>
    <i name="e_fr_energy">   -293.05453039 </i>
    <i name="e_wo_entrp">   -293.04198376 </i>
    <i name="e_0_energy">   -293.05034818 </i>
   </energy>
  </scstep>
  <scstep>
   <time name="diag">    8.97    9.07</time>
   <time name="diis">   15.58   15.85</time>
   <time name="orth">    0.49    0.49</time>
   <time name="total">   29.02   29.39</time>
   <energy>
    <i name="e_fr_energy">   -293.05426955 </i>
    <i name="e_wo_entrp">   -293.04203658 </i>
    <i name="e_0_energy">   -293.05019190 </i>
   </energy>
  </scstep>
  <scstep>
   <time name="diag">    8.90    8.93</time>
   <time name="diis">   14.41   14.44</time>
   <time name="orth">    0.49    0.49</time>
   <time name="total">   27.78   27.85</time>
   <energy>
    <i name="e_fr_energy">   -293.05416238 </i>
    <i name="e_wo_entrp">   -293.04219525 </i>
    <i name="e_0_energy">   -293.05017334 </i>
   </energy>
  </scstep>
  <scstep>
   <time name="diag">    8.87    8.93</time>
   <time name="diis">   14.64   14.88</time>
   <time name="orth">    0.48    0.48</time>
   <time name="total">   27.95   28.25</time>
   <energy>
    <i name="e_fr_energy">   -293.05392390 </i>
    <i name="e_wo_entrp">   -293.04208032 </i>
    <i name="e_0_energy">   -293.04997604 </i>
   </energy>
  </scstep>
  <scstep>
   <time name="diag">    8.86    8.88</time>
   <time name="diis">   13.50   13.52</time>
   <time name="orth">    0.48    0.49</time>
   <time name="total">   26.84   26.89</time>
   <energy>
    <i name="e_fr_energy">   -293.05369681 </i>
    <i name="e_wo_entrp">   -293.04182901 </i>
    <i name="e_0_energy">   -293.04974088 </i>
   </energy>
  </scstep>
  <scstep>
   <time name="diag">    8.88    8.93</time>
   <time name="diis">   17.00   17.35</time>
   <time name="orth">    0.48    0.49</time>
   <time name="total">   30.33   30.73</time>
   <energy>
    <i name="e_fr_energy">   -293.05286157 </i>
    <i name="e_wo_entrp">   -293.04037503 </i>
    <i name="e_0_energy">   -293.04869939 </i>
   </energy>
  </scstep>
  <scstep>
   <time name="diag">    8.86    8.88</time>
   <time name="diis">   21.74   21.77</time>
   <time name="orth">    0.48    0.49</time>
   <time name="total">   35.07   35.13</time>
   <energy>
    <i name="e_fr_energy">   -293.05188056 </i>
    <i name="e_wo_entrp">   -293.03785840 </i>
    <i name="e_0_energy">   -293.04720651 </i>
   </energy>
  </scstep>
  <scstep>
   <time name="diag">    9.07    9.11</time>
   <time name="diis">   19.71   20.04</time>
   <time name="orth">    0.49    0.49</time>
   <time name="total">   33.23   33.62</time>
   <energy>
    <i name="e_fr_energy">   -293.05230428 </i>
    <i name="e_wo_entrp">   -293.03655164 </i>
    <i name="e_0_energy">   -293.04705340 </i>
   </energy>
  </scstep>
  <scstep>
   <time name="diag">    8.85    8.86</time>
   <time name="diis">   18.75   18.83</time>
   <time name="orth">    0.48    0.49</time>
   <time name="total">   32.16   32.31</time>
   <energy>
    <i name="e_fr_energy">   -293.05323906 </i>
    <i name="e_wo_entrp">   -293.03580070 </i>
    <i name="e_0_energy">   -293.04742627 </i>
   </energy>
  </scstep>
  <scstep>
   <time name="diag">    8.92    8.98</time>
   <time name="diis">   18.73   19.04</time>
   <time name="orth">    0.49    0.49</time>
   <time name="total">   32.10   32.47</time>
   <energy>
    <i name="e_fr_energy">   -293.05434654 </i>
    <i name="e_wo_entrp">   -293.03541475 </i>
    <i name="e_0_energy">   -293.04803594 </i>
   </energy>
  </scstep>
  <scstep>
   <time name="diag">    8.85    8.86</time>
   <time name="diis">   18.42   18.50</time>
   <time name="orth">    0.47    0.47</time>
   <time name="total">   31.71   31.81</time>
   <energy>
    <i name="e_fr_energy">   -293.05520011 </i>
    <i name="e_wo_entrp">   -293.03509609 </i>
    <i name="e_0_energy">   -293.04849877 </i>
   </energy>
  </scstep>
  <scstep>
   <time name="diag">    9.22    9.46</time>
   <time name="diis">   18.47   18.50</time>
   <time name="orth">    0.49    0.49</time>
   <time name="total">   32.15   32.45</time>
   <energy>
    <i name="e_fr_energy">   -293.05543569 </i>
    <i name="e_wo_entrp">   -293.03450915 </i>
    <i name="e_0_energy">   -293.04846018 </i>
   </energy>
  </scstep>
  <scstep>
   <time name="diag">    8.87    8.87</time>
   <time name="diis">   17.86   17.94</time>
   <time name="orth">    0.50    0.50</time>
   <time name="total">   31.24   31.36</time>
   <energy>
    <i name="e_fr_energy">   -293.05533510 </i>
    <i name="e_wo_entrp">   -293.03384708 </i>
    <i name="e_0_energy">   -293.04817242 </i>
   </energy>
  </scstep>
  <scstep>
   <time name="diag">    9.26    9.48</time>
   <time name="diis">   16.99   17.01</time>
   <time name="orth">    0.48    0.49</time>
   <time name="total">   30.72   30.97</time>
   <energy>
    <i name="e_fr_energy">   -293.05521115 </i>
    <i name="e_wo_entrp">   -293.03331449 </i>
    <i name="e_0_energy">   -293.04791226 </i>
   </energy>
  </scstep>
  <scstep>
   <time name="diag">    8.88    8.89</time>
   <time name="diis">   16.41   16.48</time>
   <time name="orth">    0.49    0.49</time>
   <time name="total">   29.82   29.92</time>
   <energy>
    <i name="e_fr_energy">   -293.05506325 </i>
    <i name="e_wo_entrp">   -293.03285591 </i>
    <i name="e_0_energy">   -293.04766081 </i>
   </energy>
  </scstep>
  <scstep>
   <time name="diag">    9.15    9.39</time>
   <time name="diis">   16.14   16.17</time>
   <time name="orth">    0.48    0.49</time>
   <time name="total">   29.76   30.05</time>
   <energy>
    <i name="e_fr_energy">   -293.05486867 </i>
    <i name="e_wo_entrp">   -293.03242492 </i>
    <i name="e_0_energy">   -293.04738742 </i>
   </energy>
  </scstep>
  <scstep>
   <time name="diag">    8.88    8.89</time>
   <time name="diis">   15.85   15.92</time>
   <time name="orth">    0.48    0.49</time>
   <time name="total">   29.25   29.35</time>
   <energy>
    <i name="e_fr_energy">   -293.05461327 </i>
    <i name="e_wo_entrp">   -293.03199293 </i>
    <i name="e_0_energy">   -293.04707315 </i>
   </energy>
  </scstep>
  <scstep>
   <time name="diag">    9.10    9.39</time>
   <time name="diis">   15.54   15.57</time>
   <time name="orth">    0.49    0.49</time>
   <time name="total">   29.13   29.45</time>
   <energy>
    <i name="e_fr_energy">   -293.05436814 </i>
    <i name="e_wo_entrp">   -293.03161874 </i>
    <i name="e_0_energy">   -293.04678500 </i>
   </energy>
  </scstep>
  <scstep>
   <time name="diag">    8.90    8.90</time>
   <time name="diis">   15.26   15.36</time>
   <time name="orth">    0.48    0.49</time>
   <time name="total">   28.82   28.96</time>
   <energy>
    <i name="e_fr_energy">   -293.05409107 </i>
    <i name="e_wo_entrp">   -293.03124581 </i>
    <i name="e_0_energy">   -293.04647598 </i>
   </energy>
  </scstep>
  <scstep>
   <time name="diag">    9.12    9.34</time>
   <time name="diis">   15.04   15.07</time>
   <time name="orth">    0.49    0.49</time>
   <time name="total">   28.64   28.91</time>
   <energy>
    <i name="e_fr_energy">   -293.05388991 </i>
    <i name="e_wo_entrp">   -293.03097843 </i>
    <i name="e_0_energy">   -293.04625275 </i>
   </energy>
  </scstep>
  <scstep>
   <time name="diag">    8.90    8.91</time>
   <time name="diis">   14.95   15.02</time>
   <time name="orth">    0.48    0.48</time>
   <time name="total">   28.31   28.39</time>
   <energy>
    <i name="e_fr_energy">   -293.05355955 </i>
    <i name="e_wo_entrp">   -293.03059083 </i>
    <i name="e_0_energy">   -293.04590331 </i>
   </energy>
  </scstep>
  <scstep>
   <time name="diag">    9.12    9.42</time>
   <time name="diis">   14.37   14.39</time>
   <time name="orth">    0.48    0.49</time>
   <time name="total">   27.94   28.27</time>
   <energy>
    <i name="e_fr_energy">   -293.05336606 </i>
    <i name="e_wo_entrp">   -293.03036562 </i>
    <i name="e_0_energy">   -293.04569925 </i>
   </energy>
  </scstep>
  <scstep>
   <time name="diag">    8.84    8.85</time>
   <time name="diis">   14.42   14.45</time>
   <time name="orth">    0.48    0.48</time>
   <time name="total">   27.71   27.83</time>
   <energy>
    <i name="e_fr_energy">   -293.05306905 </i>
    <i name="e_wo_entrp">   -293.03003603 </i>
    <i name="e_0_energy">   -293.04539138 </i>
   </energy>
  </scstep>
  <scstep>
   <time name="diag">    8.96    9.02</time>
   <time name="diis">   16.17   16.51</time>
   <time name="orth">    0.49    0.49</time>
   <time name="total">   29.59   30.00</time>
   <energy>
    <i name="e_fr_energy">   -293.05210922 </i>
    <i name="e_wo_entrp">   -293.02901857 </i>
    <i name="e_0_energy">   -293.04441234 </i>
   </energy>
  </scstep>
  <scstep>
   <time name="diag">    8.84    8.85</time>
   <time name="diis">   19.95   20.05</time>
   <time name="orth">    0.49    0.49</time>
   <time name="total">   33.25   33.37</time>
   <energy>
    <i name="e_fr_energy">   -293.05110343 </i>
    <i name="e_wo_entrp">   -293.02808539 </i>
    <i name="e_0_energy">   -293.04343075 </i>
   </energy>
  </scstep>
  <scstep>
   <time name="diag">    9.20    9.53</time>
   <time name="diis">   18.96   18.99</time>
   <time name="orth">    0.49    0.49</time>
   <time name="total">   32.62   33.02</time>
   <energy>
    <i name="e_fr_energy">   -293.05135419 </i>
    <i name="e_wo_entrp">   -293.02877499 </i>
    <i name="e_0_energy">   -293.04382779 </i>
   </energy>
  </scstep>
  <scstep>
   <time name="diag">    8.84    8.85</time>
   <time name="diis">   18.31   18.54</time>
   <time name="orth">    0.48    0.48</time>
   <time name="total">   31.65   31.90</time>
   <energy>
    <i name="e_fr_energy">   -293.05235248 </i>
    <i name="e_wo_entrp">   -293.03057552 </i>
    <i name="e_0_energy">   -293.04509349 </i>
   </energy>
  </scstep>
  <scstep>
   <time name="diag">    9.08    9.36</time>
   <time name="diis">   18.53   18.57</time>
   <time name="orth">    0.48    0.48</time>
   <time name="total">   32.07   32.40</time>
   <energy>
    <i name="e_fr_energy">   -293.05354897 </i>
    <i name="e_wo_entrp">   -293.03285247 </i>
    <i name="e_0_energy">   -293.04665014 </i>
   </energy>
  </scstep>
  <scstep>
   <time name="diag">    8.86    8.89</time>
   <time name="diis">   18.47   18.61</time>
   <time name="orth">    0.50    0.50</time>
   <time name="total">   32.08   32.51</time>
   <energy>
    <i name="e_fr_energy">   -293.05461599 </i>
    <i name="e_wo_entrp">   -293.03510166 </i>
    <i name="e_0_energy">   -293.04811121 </i>
   </energy>
  </scstep>
  <scstep>
   <time name="diag">    8.90    8.91</time>
   <time name="diis">   18.41   18.44</time>
   <time name="orth">    0.49    0.49</time>
   <time name="total">   31.79   31.83</time>
   <energy>
    <i name="e_fr_energy">   -293.05524742 </i>
    <i name="e_wo_entrp">   -293.03676362 </i>
    <i name="e_0_energy">   -293.04908616 </i>
   </energy>
  </scstep>
  <scstep>
   <time name="diag">    8.92    8.94</time>
   <time name="diis">   18.26   18.60</time>
   <time name="orth">    0.49    0.49</time>
   <time name="total">   31.66   32.04</time>
   <energy>
    <i name="e_fr_energy">   -293.05531879 </i>
    <i name="e_wo_entrp">   -293.03758667 </i>
    <i name="e_0_energy">   -293.04940809 </i>
   </energy>
  </scstep>
  <scstep>
   <time name="diag">    8.91    8.95</time>
   <time name="diis">   16.74   16.76</time>
   <time name="orth">    0.49    0.49</time>
   <time name="total">   30.11   30.18</time>
   <energy>
    <i name="e_fr_energy">   -293.05519087 </i>
    <i name="e_wo_entrp">   -293.03796262 </i>
    <i name="e_0_energy">   -293.04944812 </i>
   </energy>
  </scstep>
  <scstep>
   <time name="diag">    8.86    8.88</time>
   <time name="diis">   15.75   16.09</time>
   <time name="orth">    0.49    0.50</time>
   <time name="total">   29.08   29.46</time>
   <energy>
    <i name="e_fr_energy">   -293.05504873 </i>
    <i name="e_wo_entrp">   -293.03815491 </i>
    <i name="e_0_energy">   -293.04941746 </i>
   </energy>
  </scstep>
  <scstep>
   <time name="diag">    8.86    8.87</time>
   <time name="diis">   14.81   14.87</time>
   <time name="orth">    0.49    0.49</time>
   <time name="total">   28.13   28.20</time>
   <energy>
    <i name="e_fr_energy">   -293.05495376 </i>
    <i name="e_wo_entrp">   -293.03832086 </i>
    <i name="e_0_energy">   -293.04940946 </i>
   </energy>
  </scstep>
  <scstep>
   <time name="diag">    8.84    8.88</time>
   <time name="diis">   14.88   14.96</time>
   <time name="orth">    0.50    0.50</time>
   <time name="total">   28.43   28.79</time>
   <energy>
    <i name="e_fr_energy">   -293.05488466 </i>
    <i name="e_wo_entrp">   -293.03848175 </i>
    <i name="e_0_energy">   -293.04941702 </i>
   </energy>
  </scstep>
  <scstep>
   <time name="diag">    8.87    8.88</time>
   <time name="diis">   14.33   14.39</time>
   <time name="orth">    0.48    0.49</time>
   <time name="total">   27.67   27.75</time>
   <energy>
    <i name="e_fr_energy">   -293.05481871 </i>
    <i name="e_wo_entrp">   -293.03861837 </i>
    <i name="e_0_energy">   -293.04941860 </i>
   </energy>
  </scstep>
  <scstep>
   <time name="diag">    8.87    8.89</time>
   <time name="diis">   14.10   14.21</time>
   <time name="orth">    0.48    0.49</time>
   <time name="total">   27.52   27.67</time>
   <energy>
    <i name="e_fr_energy">   -293.05478154 </i>
    <i name="e_wo_entrp">   -293.03878494 </i>
    <i name="e_0_energy">   -293.04944934 </i>
   </energy>
  </scstep>
  <scstep>
   <time name="diag">    9.10    9.33</time>
   <time name="diis">   14.11   14.13</time>
   <time name="orth">    0.48    0.48</time>
   <time name="total">   27.69   27.95</time>
   <energy>
    <i name="e_fr_energy">   -293.05471842 </i>
    <i name="e_wo_entrp">   -293.03890156 </i>
    <i name="e_0_energy">   -293.04944613 </i>
   </energy>
  </scstep>
  <scstep>
   <time name="diag">    8.87    8.89</time>
   <time name="diis">   13.54   13.62</time>
   <time name="orth">    0.48    0.48</time>
   <time name="total">   26.88   26.98</time>
   <energy>
    <i name="e_fr_energy">   -293.05466755 </i>
    <i name="e_wo_entrp">   -293.03901277 </i>
    <i name="e_0_energy">   -293.04944929 </i>
   </energy>
  </scstep>
  <scstep>
   <time name="diag">    9.22    9.45</time>
   <time name="diis">   13.45   13.48</time>
   <time name="orth">    0.48    0.48</time>
   <time name="total">   23.68   23.96</time>
   <energy>
    <i name="alphaZ">    477.09650995 </i>
    <i name="ewald"> 394198.01241622 </i>
    <i name="hartreedc">-427895.73804948 </i>
    <i name="XCdc">   1612.89338338 </i>
    <i name="pawpsdc">  38057.01817781 </i>
    <i name="pawaedc"> -38762.73174129 </i>
    <i name="eentropy">     -0.01551456 </i>
    <i name="bandstr">  -5932.52300586 </i>
    <i name="atom">  37952.93320877 </i>
    <i name="e_fr_energy">   -293.05461504 </i>
    <i name="e_wo_entrp">   -293.03910049 </i>
    <i name="e_0_energy">   -293.04944353 </i>
   </energy>
  </scstep>
  <structure>
   <crystal>
    <varray name="basis" >
     <v>       2.87357350      -2.87357350       4.70833511 </v>
     <v>       5.74714699       0.00000000       0.00000000 </v>
     <v>       0.00000000      33.06569101      20.18052901 </v>
    </varray>
    <i name="volume">   1228.01926054 </i>
    <varray name="rec_basis" >
     <v>       0.00000000      -0.09444515       0.15474789 </v>
     <v>       0.17399938       0.04722258      -0.07737394 </v>
     <v>       0.00000000       0.02203507       0.01344836 </v>
    </varray>
   </crystal>
   <varray name="positions" >
    <v>       0.22067121       0.89240241       0.08901558 </v>
    <v>       0.66147957       0.17256936       0.21818585 </v>
    <v>       0.94927612       0.02809995       0.15233499 </v>
    <v>       0.37406684       0.31689632       0.28565380 </v>
    <v>       0.44927612       0.52809995       0.15233499 </v>
    <v>       0.89476657       0.30173898       0.28161978 </v>
    <v>       0.44927612       0.02809995       0.15233499 </v>
    <v>       0.89223472       0.80266230       0.28164468 </v>
    <v>       0.90282244       0.55132680       0.10484543 </v>
    <v>       0.35209339       0.82616553       0.23326579 </v>
    <v>       0.99238995       0.50768930       0.20069320 </v>
    <v>       0.42336895       0.79129378       0.33220414 </v>
    <v>       0.53851998       0.23347802       0.07318573 </v>
    <v>       0.02285882       0.48375053       0.35062520 </v>
    <v>       0.77659480       0.60808535       0.30951806 </v>
    <v>       0.87926422       0.06310591       0.05527763 </v>
    <v>       0.33729477       0.33425572       0.18284096 </v>
    <v>       0.58246139       0.21150732       0.12452493 </v>
    <v>       0.03635810       0.48560716       0.25338325 </v>
    <v>       0.67979104       0.69796925       0.37146152 </v>
    <v>       0.09516526       0.72856013       0.12156099 </v>
    <v>       0.54321957       0.45504412       0.25351558 </v>
    <v>       0.73408271       0.12862520       0.31221852 </v>
    <v>       0.85888103       0.57329750       0.05350623 </v>
    <v>       0.31226705       0.84624252       0.18078664 </v>
    <v>       0.56207820       0.72169891       0.12275353 </v>
    <v>       0.00365669       0.99812582       0.25269552 </v>
    <v>       0.79322951       0.33161406       0.18450714 </v>
    <v>       0.21758057       0.62278597       0.31610994 </v>
    <v>       0.34617716       0.60305419       0.05647018 </v>
    <v>       0.21371154       0.16566500       0.31537480 </v>
    <v>       0.79213632       0.88229007       0.18442088 </v>
    <v>       0.34617716       0.05624469       0.05647018 </v>
    <v>       0.53830367       0.01172279       0.25308861 </v>
    <v>       0.09516526       0.18175063       0.12156099 </v>
    <v>       0.18201285       0.36155666       0.39344185 </v>
    <v>       0.34047062       0.60391201       0.02782883 </v>
    <v>       0.92434681       0.68523651       0.03696881 </v>
    <v>       0.34363348       0.06399961       0.02783421 </v>
    <v>       0.88838126       0.05560908       0.02665597 </v>
    <v>       0.64432181       0.78016839       0.39415429 </v>
    <v>       0.75314533       0.10715054       0.33718561 </v>
    <v>       0.07174224       0.43762804       0.41308732 </v>
   </varray>
  </structure>
  <varray name="forces" >
   <v>       0.11269499      -1.80201525      -1.64107286 </v>
   <v>      -0.05077256       0.05442269       0.01350076 </v>
   <v>      -0.01420346       0.81088339      -0.02187834 </v>
   <v>      -0.04757677      -0.05446034      -0.06860498 </v>
   <v>       0.01153192       0.38062188       0.09677576 </v>
   <v>       0.30107920       0.05758908       0.08285743 </v>
   <v>      -0.01756389       0.35757958       0.09535458 </v>
   <v>      -0.23689210      -0.10543551      -0.02437009 </v>
   <v>      -0.00559765      -1.35058313      -0.87099838 </v>
   <v>       0.01078628       0.05213447       0.11358242 </v>
   <v>       0.01954629       0.08506589       0.00880704 </v>
   <v>       0.04092530       0.07725671       0.18891734 </v>
   <v>      -0.00456879      -0.52721631       0.26290432 </v>
   <v>      -0.04852813       0.19056293      -0.43500555 </v>
   <v>       0.10361301      -0.10458290      -0.11982192 </v>
   <v>      -0.30651753      -3.64697385      -1.96748398 </v>
   <v>      -0.17710444      -0.17610379       0.06915572 </v>
   <v>      -0.09885586       0.30859166       0.41431752 </v>
   <v>       0.10238872       0.19360676      -0.02645788 </v>
   <v>       0.19450832       0.16980807       0.17449482 </v>
   <v>       0.38293807       0.43119742       0.55647596 </v>
   <v>      -0.17068442       0.10319836       0.02274341 </v>
   <v>      -0.07215750      -0.12038462       0.05902425 </v>
   <v>       2.79389416      -2.65199788      -0.24394452 </v>
   <v>       0.13359449      -0.11199207      -0.13456697 </v>
   <v>       0.14325655       0.38340812      -0.35200903 </v>
   <v>      -0.09582919       0.11950938      -0.04571875 </v>
   <v>      -0.31054332      -0.18268662      -0.02588286 </v>
   <v>      -0.14928892      -0.12077572      -0.02043762 </v>
   <v>      -0.93612850      -3.57759761      -2.15842219 </v>
   <v>       0.20245876      -0.10143911       0.06523161 </v>
   <v>       0.19198521      -0.16013206      -0.02180104 </v>
   <v>       1.03742965      -3.64353745      -1.93363758 </v>
   <v>       0.05288383       0.08441407       0.07142282 </v>
   <v>      -0.20439071       0.38299121       0.48164768 </v>
   <v>       0.01355150       0.07984528       0.23414835 </v>
   <v>       0.56477627       3.80887689       2.31885767 </v>
   <v>      -2.97562475       3.17843918       0.46143870 </v>
   <v>      -0.65566624       3.95729716       2.10183322 </v>
   <v>       0.36571690       3.70885522       2.19091563 </v>
   <v>      -0.09731774      -0.07350704       0.00313754 </v>
   <v>      -0.01756988      -0.07755500      -0.01215268 </v>
   <v>      -0.08617705      -0.38717914       0.03672271 </v>
  </varray>
  <energy>
   <i name="e_fr_energy">   -293.05461504 </i>
   <i name="e_wo_entrp">   -293.04944353 </i>
   <i name="e_0_energy">     -0.01551456 </i>
  </energy>
  <time name="totalsc"> 1937.55 1952.05</time>
 </calculation>
 <calculation>
  <scstep>
   <time name="dav">   49.95   50.36</time>
   <time name="total">   53.92   54.34</time>
   <energy>
    <i name="alphaZ">    477.09650995 </i>
    <i name="ewald"> 394198.79140455 </i>
    <i name="hartreedc">-427896.34467079 </i>
    <i name="XCdc">   1612.89816730 </i>
    <i name="pawpsdc">  38057.01823501 </i>
    <i name="pawaedc"> -38762.73106048 </i>
    <i name="eentropy">     -0.01560482 </i>
    <i name="bandstr">  -5932.69718687 </i>
    <i name="atom">  37952.93320877 </i>
    <i name="e_fr_energy">   -293.05099737 </i>
    <i name="e_wo_entrp">   -293.03539255 </i>
    <i name="e_0_energy">   -293.04579577 </i>
   </energy>
  </scstep>
  <scstep>
   <time name="diag">    8.90    8.92</time>
   <time name="diis">   28.29   28.63</time>
   <time name="orth">    0.48    0.49</time>
   <time name="total">   41.63   42.03</time>
   <energy>
    <i name="e_fr_energy">   -293.16036760 </i>
    <i name="e_wo_entrp">   -293.16275625 </i>
    <i name="e_0_energy">   -293.16116382 </i>
   </energy>
  </scstep>
  <scstep>
   <time name="diag">    8.87    8.88</time>
   <time name="diis">   25.40   25.63</time>
   <time name="orth">    0.49    0.49</time>
   <time name="total">   38.74   38.99</time>
   <energy>
    <i name="e_fr_energy">   -293.04921616 </i>
    <i name="e_wo_entrp">   -293.03505209 </i>
    <i name="e_0_energy">   -293.04449480 </i>
   </energy>
  </scstep>
  <scstep>
   <time name="diag">    9.09    9.38</time>
   <time name="diis">   29.19   29.23</time>
   <time name="orth">    0.49    0.49</time>
   <time name="total">   42.75   43.13</time>
   <energy>
    <i name="e_fr_energy">   -293.01833819 </i>
    <i name="e_wo_entrp">   -292.99461948 </i>
    <i name="e_0_energy">   -293.01043196 </i>
   </energy>
  </scstep>
  <scstep>
   <time name="diag">    8.88    8.90</time>
   <time name="diis">   25.50   25.85</time>
   <time name="orth">    0.49    0.49</time>
   <time name="total">   38.82   39.20</time>
   <energy>
    <i name="e_fr_energy">   -293.03010230 </i>
    <i name="e_wo_entrp">   -293.00603213 </i>
    <i name="e_0_energy">   -293.02207891 </i>
   </energy>
  </scstep>
  <scstep>
   <time name="diag">    8.82    8.83</time>
   <time name="diis">   23.16   23.24</time>
   <time name="orth">    0.47    0.48</time>
   <time name="total">   36.41   36.52</time>
   <energy>
    <i name="e_fr_energy">   -293.04996503 </i>
    <i name="e_wo_entrp">   -293.03035142 </i>
    <i name="e_0_energy">   -293.04342716 </i>
   </energy>
  </scstep>
  <scstep>
   <time name="diag">    9.18    9.49</time>
   <time name="diis">   22.52   22.74</time>
   <time name="orth">    0.49    0.49</time>
   <time name="total">   36.13   36.66</time>
   <energy>
    <i name="e_fr_energy">   -293.06308492 </i>
    <i name="e_wo_entrp">   -293.05029724 </i>
    <i name="e_0_energy">   -293.05882236 </i>
   </energy>
  </scstep>
  <scstep>
   <time name="diag">    8.85    8.86</time>
   <time name="diis">   22.69   23.02</time>
   <time name="orth">    0.48    0.48</time>
   <time name="total">   35.97   36.32</time>
   <energy>
    <i name="e_fr_energy">   -293.06759879 </i>
    <i name="e_wo_entrp">   -293.06145547 </i>
    <i name="e_0_energy">   -293.06555101 </i>
   </energy>
  </scstep>
  <scstep>
   <time name="diag">    8.85    8.86</time>
   <time name="diis">   22.07   22.12</time>
   <time name="orth">    0.49    0.49</time>
   <time name="total">   35.35   35.42</time>
   <energy>
    <i name="e_fr_energy">   -293.06816876 </i>
    <i name="e_wo_entrp">   -293.06725883 </i>
    <i name="e_0_energy">   -293.06786545 </i>
   </energy>
  </scstep>
  <scstep>
   <time name="diag">    8.88    8.96</time>
   <time name="diis">   22.16   22.46</time>
   <time name="orth">    0.49    0.49</time>
   <time name="total">   35.52   35.91</time>
   <energy>
    <i name="e_fr_energy">   -293.06942660 </i>
    <i name="e_wo_entrp">   -293.07297177 </i>
    <i name="e_0_energy">   -293.07060832 </i>
   </energy>
  </scstep>
  <scstep>
   <time name="diag">    8.88    8.89</time>
   <time name="diis">   23.09   23.16</time>
   <time name="orth">    0.48    0.49</time>
   <time name="total">   36.46   36.55</time>
   <energy>
    <i name="e_fr_energy">   -293.06178664 </i>
    <i name="e_wo_entrp">   -293.06618571 </i>
    <i name="e_0_energy">   -293.06325300 </i>
   </energy>
  </scstep>
  <scstep>
   <time name="diag">    9.33    9.69</time>
   <time name="diis">   22.96   23.01</time>
   <time name="orth">    0.48    0.49</time>
   <time name="total">   36.74   37.16</time>
   <energy>
    <i name="e_fr_energy">   -293.05804880 </i>
    <i name="e_wo_entrp">   -293.06204909 </i>
    <i name="e_0_energy">   -293.05938223 </i>
   </energy>
  </scstep>
  <scstep>
   <time name="diag">    8.88    8.90</time>
   <time name="diis">   23.79   24.22</time>
   <time name="orth">    0.49    0.49</time>
   <time name="total">   37.11   37.57</time>
   <energy>
    <i name="e_fr_energy">   -293.05444389 </i>
    <i name="e_wo_entrp">   -293.05685160 </i>
    <i name="e_0_energy">   -293.05524646 </i>
   </energy>
  </scstep>
  <scstep>
   <time name="diag">    8.87    8.88</time>
   <time name="diis">   24.10   24.13</time>
   <time name="orth">    0.49    0.49</time>
   <time name="total">   37.41   37.48</time>
   <energy>
    <i name="e_fr_energy">   -293.04610320 </i>
    <i name="e_wo_entrp">   -293.04362505 </i>
    <i name="e_0_energy">   -293.04527715 </i>
   </energy>
  </scstep>
  <scstep>
   <time name="diag">    8.93    9.00</time>
   <time name="diis">   23.93   24.24</time>
   <time name="orth">    0.49    0.49</time>
   <time name="total">   37.30   37.70</time>
   <energy>
    <i name="e_fr_energy">   -293.04362798 </i>
    <i name="e_wo_entrp">   -293.03483840 </i>
    <i name="e_0_energy">   -293.04069812 </i>
   </energy>
  </scstep>
  <scstep>
   <time name="diag">    8.84    8.85</time>
   <time name="diis">   22.73   22.88</time>
   <time name="orth">    0.50    0.50</time>
   <time name="total">   36.08   36.26</time>
   <energy>
    <i name="e_fr_energy">   -293.04730730 </i>
    <i name="e_wo_entrp">   -293.03247900 </i>
    <i name="e_0_energy">   -293.04236453 </i>
   </energy>
  </scstep>
  <scstep>
   <time name="diag">    9.12    9.39</time>
   <time name="diis">   21.79   21.83</time>
   <time name="orth">    0.48    0.48</time>
   <time name="total">   35.34   35.66</time>
   <energy>
    <i name="e_fr_energy">   -293.05465926 </i>
    <i name="e_wo_entrp">   -293.03554525 </i>
    <i name="e_0_energy">   -293.04828792 </i>
   </energy>
  </scstep>
  <scstep>
   <time name="diag">    8.84    8.88</time>
   <time name="diis">   22.23   22.72</time>
   <time name="orth">    0.48    0.49</time>
   <time name="total">   35.50   36.04</time>
   <energy>
    <i name="e_fr_energy">   -293.05958629 </i>
    <i name="e_wo_entrp">   -293.03827302 </i>
    <i name="e_0_energy">   -293.05248187 </i>
   </energy>
  </scstep>
  <scstep>
   <time name="diag">    8.88    8.89</time>
   <time name="diis">   21.88   21.92</time>
   <time name="orth">    0.48    0.49</time>
   <time name="total">   35.22   35.30</time>
   <energy>
    <i name="e_fr_energy">   -293.05899284 </i>
    <i name="e_wo_entrp">   -293.03671701 </i>
    <i name="e_0_energy">   -293.05156756 </i>
   </energy>
  </scstep>
  <scstep>
   <time name="diag">    8.90    8.97</time>
   <time name="diis">   23.28   23.44</time>
   <time name="orth">    0.48    0.49</time>
   <time name="total">   36.62   36.87</time>
   <energy>
    <i name="e_fr_energy">   -293.05458319 </i>
    <i name="e_wo_entrp">   -293.03191398 </i>
    <i name="e_0_energy">   -293.04702679 </i>
   </energy>
  </scstep>
  <scstep>
   <time name="diag">    8.85    8.86</time>
   <time name="diis">   24.85   24.98</time>
   <time name="orth">    0.50    0.50</time>
   <time name="total">   38.39   38.72</time>
   <energy>
    <i name="e_fr_energy">   -293.05182529 </i>
    <i name="e_wo_entrp">   -293.03162801 </i>
    <i name="e_0_energy">   -293.04509286 </i>
   </energy>
  </scstep>
  <scstep>
   <time name="diag">    8.84    8.85</time>
   <time name="diis">   22.08   22.11</time>
   <time name="orth">    0.48    0.49</time>
   <time name="total">   35.39   35.45</time>
   <energy>
    <i name="e_fr_energy">   -293.05849497 </i>
    <i name="e_wo_entrp">   -293.04215727 </i>
    <i name="e_0_energy">   -293.05304907 </i>
   </energy>
  </scstep>
  <scstep>
   <time name="diag">    8.89    8.93</time>
   <time name="diis">   22.45   22.76</time>
   <time name="orth">    0.49    0.49</time>
   <time name="total">   35.79   36.13</time>
   <energy>
    <i name="e_fr_energy">   -293.05860381 </i>
    <i name="e_wo_entrp">   -293.04439213 </i>
    <i name="e_0_energy">   -293.05386658 </i>
   </energy>
  </scstep>
  <scstep>
   <time name="diag">    8.84    8.87</time>
   <time name="diis">   21.72   21.75</time>
   <time name="orth">    0.49    0.49</time>
   <time name="total">   35.05   35.17</time>
   <energy>
    <i name="e_fr_energy">   -293.05721713 </i>
    <i name="e_wo_entrp">   -293.04384134 </i>
    <i name="e_0_energy">   -293.05275853 </i>
   </energy>
  </scstep>
  <scstep>
   <time name="diag">    8.95    9.03</time>
   <time name="diis">   21.90   22.20</time>
   <time name="orth">    0.49    0.49</time>
   <time name="total">   35.31   35.71</time>
   <energy>
    <i name="e_fr_energy">   -293.05583533 </i>
    <i name="e_wo_entrp">   -293.04225156 </i>
    <i name="e_0_energy">   -293.05130740 </i>
   </energy>
  </scstep>
  <scstep>
   <time name="diag">    8.89    8.90</time>
   <time name="diis">   22.96   23.13</time>
   <time name="orth">    0.49    0.49</time>
   <time name="total">   36.60   37.03</time>
   <energy>
    <i name="e_fr_energy">   -293.05456417 </i>
    <i name="e_wo_entrp">   -293.03955876 </i>
    <i name="e_0_energy">   -293.04956236 </i>
   </energy>
  </scstep>
  <scstep>
   <time name="diag">    8.89    8.90</time>
   <time name="diis">   21.70   21.73</time>
   <time name="orth">    0.48    0.49</time>
   <time name="total">   35.10   35.18</time>
   <energy>
    <i name="e_fr_energy">   -293.05477890 </i>
    <i name="e_wo_entrp">   -293.03770178 </i>
    <i name="e_0_energy">   -293.04908652 </i>
   </energy>
  </scstep>
  <scstep>
   <time name="diag">    8.89    8.91</time>
   <time name="diis">   19.56   19.85</time>
   <time name="orth">    0.49    0.49</time>
   <time name="total">   32.92   33.22</time>
   <energy>
    <i name="e_fr_energy">   -293.05627639 </i>
    <i name="e_wo_entrp">   -293.03746736 </i>
    <i name="e_0_energy">   -293.05000671 </i>
   </energy>
  </scstep>
  <scstep>
   <time name="diag">    8.92    8.95</time>
   <time name="diis">   20.01   20.03</time>
   <time name="orth">    0.48    0.48</time>
   <time name="total">   33.40   33.46</time>
   <energy>
    <i name="e_fr_energy">   -293.05712148 </i>
    <i name="e_wo_entrp">   -293.03724859 </i>
    <i name="e_0_energy">   -293.05049718 </i>
   </energy>
  </scstep>
  <scstep>
   <time name="diag">    8.98    9.03</time>
   <time name="diis">   21.21   21.53</time>
   <time name="orth">    0.49    0.49</time>
   <time name="total">   34.65   35.03</time>
   <energy>
    <i name="e_fr_energy">   -293.05690143 </i>
    <i name="e_wo_entrp">   -293.03661870 </i>
    <i name="e_0_energy">   -293.05014052 </i>
   </energy>
  </scstep>
  <scstep>
   <time name="diag">    8.88    8.88</time>
   <time name="diis">   21.03   21.09</time>
   <time name="orth">    0.47    0.47</time>
   <time name="total">   34.35   34.44</time>
   <energy>
    <i name="e_fr_energy">   -293.05647841 </i>
    <i name="e_wo_entrp">   -293.03643809 </i>
    <i name="e_0_energy">   -293.04979831 </i>
   </energy>
  </scstep>
  <scstep>
   <time name="diag">    9.29    9.57</time>
   <time name="diis">   17.69   17.71</time>
   <time name="orth">    0.49    0.49</time>
   <time name="total">   31.46   31.79</time>
   <energy>
    <i name="e_fr_energy">   -293.05661273 </i>
    <i name="e_wo_entrp">   -293.03726373 </i>
    <i name="e_0_energy">   -293.05016307 </i>
   </energy>
  </scstep>
  <scstep>
   <time name="diag">    8.89    8.90</time>
   <time name="diis">   16.32   16.38</time>
   <time name="orth">    0.49    0.49</time>
   <time name="total">   29.71   29.81</time>
   <energy>
    <i name="e_fr_energy">   -293.05693040 </i>
    <i name="e_wo_entrp">   -293.03824401 </i>
    <i name="e_0_energy">   -293.05070161 </i>
   </energy>
  </scstep>
  <scstep>
   <time name="diag">    9.19    9.39</time>
   <time name="diis">   16.21   16.24</time>
   <time name="orth">    0.49    0.49</time>
   <time name="total">   29.88   30.13</time>
   <energy>
    <i name="e_fr_energy">   -293.05700078 </i>
    <i name="e_wo_entrp">   -293.03871086 </i>
    <i name="e_0_energy">   -293.05090414 </i>
   </energy>
  </scstep>
  <scstep>
   <time name="diag">    8.91    8.92</time>
   <time name="diis">   15.18   15.23</time>
   <time name="orth">    0.49    0.49</time>
   <time name="total">   28.53   28.60</time>
   <energy>
    <i name="e_fr_energy">   -293.05695723 </i>
    <i name="e_wo_entrp">   -293.03887977 </i>
    <i name="e_0_energy">   -293.05093141 </i>
   </energy>
  </scstep>
  <scstep>
   <time name="diag">    9.32    9.62</time>
   <time name="diis">   14.50   14.52</time>
   <time name="orth">    0.49    0.49</time>
   <time name="total">   28.25   28.59</time>
   <energy>
    <i name="e_fr_energy">   -293.05690339 </i>
    <i name="e_wo_entrp">   -293.03890571 </i>
    <i name="e_0_energy">   -293.05090416 </i>
   </energy>
  </scstep>
  <scstep>
   <time name="diag">    8.85    8.86</time>
   <time name="diis">   13.55   13.57</time>
   <time name="orth">    0.48    0.49</time>
   <time name="total">   26.86   26.96</time>
   <energy>
    <i name="e_fr_energy">   -293.05686897 </i>
    <i name="e_wo_entrp">   -293.03885056 </i>
    <i name="e_0_energy">   -293.05086284 </i>
   </energy>
  </scstep>
  <scstep>
   <time name="diag">    8.95    9.01</time>
   <time name="diis">   13.55   13.93</time>
   <time name="orth">    0.49    0.49</time>
   <time name="total">   26.94   27.41</time>
   <energy>
    <i name="e_fr_energy">   -293.05685269 </i>
    <i name="e_wo_entrp">   -293.03870904 </i>
    <i name="e_0_energy">   -293.05080480 </i>
   </energy>
  </scstep>
  <scstep>
   <time name="diag">    8.84    8.90</time>
   <time name="diis">   14.02   14.04</time>
   <time name="orth">    0.48    0.49</time>
   <time name="total">   27.30   27.39</time>
   <energy>
    <i name="e_fr_energy">   -293.05687346 </i>
    <i name="e_wo_entrp">   -293.03853452 </i>
    <i name="e_0_energy">   -293.05076048 </i>
   </energy>
  </scstep>
  <scstep>
   <time name="diag">    8.81    8.97</time>
   <time name="diis">   14.70   15.01</time>
   <time name="orth">    0.49    0.49</time>
   <time name="total">   28.02   28.50</time>
   <energy>
    <i name="e_fr_energy">   -293.05692768 </i>
    <i name="e_wo_entrp">   -293.03842137 </i>
    <i name="e_0_energy">   -293.05075891 </i>
   </energy>
  </scstep>
  <scstep>
   <time name="diag">    8.95    9.00</time>
   <time name="diis">   14.35   14.38</time>
   <time name="orth">    0.49    0.49</time>
   <time name="total">   27.79   27.88</time>
   <energy>
    <i name="e_fr_energy">   -293.05697326 </i>
    <i name="e_wo_entrp">   -293.03840521 </i>
    <i name="e_0_energy">   -293.05078391 </i>
   </energy>
  </scstep>
  <scstep>
   <time name="diag">    8.95    9.05</time>
   <time name="diis">   13.19   13.45</time>
   <time name="orth">    0.48    0.48</time>
   <time name="total">   26.60   26.99</time>
   <energy>
    <i name="e_fr_energy">   -293.05699473 </i>
    <i name="e_wo_entrp">   -293.03842531 </i>
    <i name="e_0_energy">   -293.05080492 </i>
   </energy>
  </scstep>
  <scstep>
   <time name="diag">    8.92    8.95</time>
   <time name="diis">   11.89   11.90</time>
   <time name="orth">    0.48    0.48</time>
   <time name="total">   25.27   25.31</time>
   <energy>
    <i name="e_fr_energy">   -293.05700486 </i>
    <i name="e_wo_entrp">   -293.03843711 </i>
    <i name="e_0_energy">   -293.05081561 </i>
   </energy>
  </scstep>
  <scstep>
   <time name="diag">    8.85    8.86</time>
   <time name="diis">   12.63   12.71</time>
   <time name="orth">    0.48    0.51</time>
   <time name="total">   26.03   26.16</time>
   <energy>
    <i name="e_fr_energy">   -293.05701772 </i>
    <i name="e_wo_entrp">   -293.03842931 </i>
    <i name="e_0_energy">   -293.05082158 </i>
   </energy>
  </scstep>
  <scstep>
   <time name="diag">    9.18    9.44</time>
   <time name="diis">   12.70   12.73</time>
   <time name="orth">    0.49    0.49</time>
   <time name="total">   26.39   26.69</time>
   <energy>
    <i name="e_fr_energy">   -293.05703210 </i>
    <i name="e_wo_entrp">   -293.03841091 </i>
    <i name="e_0_energy">   -293.05082504 </i>
   </energy>
  </scstep>
  <scstep>
   <time name="diag">    8.91    8.92</time>
   <time name="diis">   12.91   12.99</time>
   <time name="orth">    0.49    0.49</time>
   <time name="total">   26.31   26.41</time>
   <energy>
    <i name="e_fr_energy">   -293.05704437 </i>
    <i name="e_wo_entrp">   -293.03836251 </i>
    <i name="e_0_energy">   -293.05081708 </i>
   </energy>
  </scstep>
  <scstep>
   <time name="diag">    9.26    9.57</time>
   <time name="diis">   13.51   13.53</time>
   <time name="orth">    0.49    0.50</time>
   <time name="total">   27.29   27.64</time>
   <energy>
    <i name="e_fr_energy">   -293.05705698 </i>
    <i name="e_wo_entrp">   -293.03829038 </i>
    <i name="e_0_energy">   -293.05080145 </i>
   </energy>
  </scstep>
  <scstep>
   <time name="diag">    8.92    8.93</time>
   <time name="diis">   13.52   13.58</time>
   <time name="orth">    0.49    0.49</time>
   <time name="total">   26.95   27.03</time>
   <energy>
    <i name="e_fr_energy">   -293.05706730 </i>
    <i name="e_wo_entrp">   -293.03821695 </i>
    <i name="e_0_energy">   -293.05078385 </i>
   </energy>
  </scstep>
  <scstep>
   <time name="diag">    8.96    9.00</time>
   <time name="diis">   13.82   14.13</time>
   <time name="orth">    0.49    0.49</time>
   <time name="total">   23.80   24.16</time>
   <energy>
    <i name="alphaZ">    477.09650995 </i>
    <i name="ewald"> 394198.79140455 </i>
    <i name="hartreedc">-427893.40769477 </i>
    <i name="XCdc">   1612.90227454 </i>
    <i name="pawpsdc">  38056.15281058 </i>
    <i name="pawaedc"> -38761.88328595 </i>
    <i name="eentropy">     -0.01889855 </i>
    <i name="bandstr">  -5935.62340351 </i>
    <i name="atom">  37952.93320877 </i>
    <i name="e_fr_energy">   -293.05707439 </i>
    <i name="e_wo_entrp">   -293.03817583 </i>
    <i name="e_0_energy">   -293.05077487 </i>
   </energy>
  </scstep>
  <structure>
   <crystal>
    <varray name="basis" >
     <v>       2.87357350      -2.87357350       4.70833511 </v>
     <v>       5.74714699       0.00000000       0.00000000 </v>
     <v>       0.00000000      33.06569101      20.18052901 </v>
    </varray>
    <i name="volume">   1228.01926054 </i>
    <varray name="rec_basis" >
     <v>       0.00000000      -0.09444515       0.15474789 </v>
     <v>       0.17399938       0.04722258      -0.07737394 </v>
     <v>       0.00000000       0.02203507       0.01344836 </v>
    </varray>
   </crystal>
   <varray name="positions" >
    <v>       0.22067121       0.89240241       0.08901558 </v>
    <v>       0.66148933       0.17259701       0.21817463 </v>
    <v>       0.94927612       0.02809995       0.15233499 </v>
    <v>       0.37411738       0.31691693       0.28563661 </v>
    <v>       0.44927612       0.52809995       0.15233499 </v>
    <v>       0.89476031       0.30164225       0.28159975 </v>
    <v>       0.44927612       0.02809995       0.15233499 </v>
    <v>       0.89223671       0.80273440       0.28163544 </v>
    <v>       0.90282244       0.55132680       0.10484543 </v>
    <v>       0.35205903       0.82619560       0.23325527 </v>
    <v>       0.99244707       0.50765348       0.20068387 </v>
    <v>       0.42332567       0.79130487       0.33218500 </v>
    <v>       0.53851998       0.23347802       0.07318573 </v>
    <v>       0.02240957       0.48338791       0.35058866 </v>
    <v>       0.77663552       0.60810694       0.30953948 </v>
    <v>       0.87926422       0.06310591       0.05527763 </v>
    <v>       0.33729661       0.33418766       0.18284177 </v>
    <v>       0.58246139       0.21150732       0.12452493 </v>
    <v>       0.03640390       0.48555961       0.25339464 </v>
    <v>       0.67966618       0.69807187       0.37148729 </v>
    <v>       0.09516526       0.72856013       0.12156099 </v>
    <v>       0.54321315       0.45507390       0.25352732 </v>
    <v>       0.73406727       0.12866416       0.31223669 </v>
    <v>       0.85888103       0.57329750       0.05350623 </v>
    <v>       0.31231806       0.84633209       0.18078892 </v>
    <v>       0.56207820       0.72169891       0.12275353 </v>
    <v>       0.00369280       0.99814717       0.25270493 </v>
    <v>       0.79331523       0.33151231       0.18449894 </v>
    <v>       0.21766785       0.62290599       0.31612712 </v>
    <v>       0.34617716       0.60305419       0.05647018 </v>
    <v>       0.21367834       0.16568178       0.31539091 </v>
    <v>       0.79220901       0.88236051       0.18440969 </v>
    <v>       0.34617716       0.05624469       0.05647018 </v>
    <v>       0.53829265       0.01175144       0.25310225 </v>
    <v>       0.09516526       0.18175063       0.12156099 </v>
    <v>       0.18209179       0.36162022       0.39351315 </v>
    <v>       0.34047062       0.60391201       0.02782883 </v>
    <v>       0.92434681       0.68523651       0.03696881 </v>
    <v>       0.34363348       0.06399961       0.02783421 </v>
    <v>       0.88838126       0.05560908       0.02665597 </v>
    <v>       0.64431428       0.78015857       0.39414315 </v>
    <v>       0.75313567       0.10717425       0.33718382 </v>
    <v>       0.07180656       0.43753236       0.41306233 </v>
   </varray>
  </structure>
  <varray name="forces" >
   <v>       0.11274105      -1.80847475      -1.63802973 </v>
   <v>      -0.05239355       0.05763475       0.01292474 </v>
   <v>      -0.01277886       0.79934222      -0.02288328 </v>
   <v>      -0.04720726      -0.01939638      -0.06642549 </v>
   <v>       0.01103705       0.37715866       0.09420391 </v>
   <v>       0.33625936       0.09375686       0.09277829 </v>
   <v>      -0.01293422       0.35206085       0.09352933 </v>
   <v>      -0.25737740      -0.07950125      -0.01019592 </v>
   <v>      -0.01513761      -1.34734867      -0.87247984 </v>
   <v>       0.01247480       0.05256413       0.12035567 </v>
   <v>       0.02153413       0.08849740       0.00567247 </v>
   <v>       0.05006255       0.08408745       0.20761137 </v>
   <v>       0.00155016      -0.53170761       0.25497687 </v>
   <v>      -0.01195571       0.13119924      -0.30190505 </v>
   <v>       0.08820172      -0.14816085      -0.19260408 </v>
   <v>      -0.30865601      -3.61634061      -1.95425155 </v>
   <v>      -0.17016420      -0.17581090       0.07370348 </v>
   <v>      -0.09728648       0.31079066       0.41485183 </v>
   <v>       0.10252205       0.18468513      -0.03277322 </v>
   <v>       0.18675101       0.16613364       0.10689115 </v>
   <v>       0.37854584       0.43083665       0.55775428 </v>
   <v>      -0.16784049       0.09153062       0.02045300 </v>
   <v>      -0.06872721      -0.15726288       0.03414914 </v>
   <v>       2.68876500      -2.54289221      -0.25251220 </v>
   <v>       0.12525847      -0.11080139      -0.13413693 </v>
   <v>       0.14106292       0.37398779      -0.34706545 </v>
   <v>      -0.09949799       0.10669219      -0.04993675 </v>
   <v>      -0.30096687      -0.17459968      -0.02446721 </v>
   <v>      -0.16521212      -0.13660843      -0.04326449 </v>
   <v>      -0.94012850      -3.57026405      -2.15047774 </v>
   <v>       0.18746961      -0.14044890       0.05134589 </v>
   <v>       0.18228164      -0.15261452      -0.01654635 </v>
   <v>       1.04229195      -3.63145043      -1.92592090 </v>
   <v>       0.05247910       0.07392542       0.06999214 </v>
   <v>      -0.19510363       0.39037831       0.48239001 </v>
   <v>       0.00204676       0.03030071       0.22937613 </v>
   <v>       0.56556628       3.80304328       2.31581084 </v>
   <v>      -2.89575762       3.08765549       0.46230656 </v>
   <v>      -0.65575688       3.94538906       2.09636015 </v>
   <v>       0.36499947       3.68465686       2.17788532 </v>
   <v>      -0.07960577      -0.02597532       0.00551391 </v>
   <v>      -0.02066554      -0.05004720       0.01011126 </v>
   <v>      -0.07874702      -0.29660134       0.04492842 </v>
  </varray>
  <energy>
   <i name="e_fr_energy">   -293.05707439 </i>
   <i name="e_wo_entrp">   -293.05077487 </i>
   <i name="e_0_energy">     -0.01889855 </i>
  </energy>
  <time name="totalsc"> 1660.94 1673.71</time>
 </calculation>
 <calculation>
  <scstep>
   <time name="dav">   51.05   51.48</time>
   <time name="total">   55.05   55.50</time>
   <energy>
    <i name="alphaZ">    477.09650995 </i>
    <i name="ewald"> 394199.18399949 </i>
    <i name="hartreedc">-427893.71832455 </i>
    <i name="XCdc">   1612.90476876 </i>
    <i name="pawpsdc">  38056.15719292 </i>
    <i name="pawaedc"> -38761.88754991 </i>
    <i name="eentropy">     -0.01899272 </i>
    <i name="bandstr">  -5935.70701426 </i>
    <i name="atom">  37952.93320877 </i>
    <i name="e_fr_energy">   -293.05620155 </i>
    <i name="e_wo_entrp">   -293.03720882 </i>
    <i name="e_0_energy">   -293.04987064 </i>
   </energy>
  </scstep>
  <scstep>
   <time name="diag">    8.94    8.96</time>
   <time name="diis">   29.63   30.04</time>
   <time name="orth">    0.49    0.49</time>
   <time name="total">   43.04   43.47</time>
   <energy>
    <i name="e_fr_energy">   -293.05778328 </i>
    <i name="e_wo_entrp">   -293.04006160 </i>
    <i name="e_0_energy">   -293.05187605 </i>
   </energy>
  </scstep>
  <scstep>
   <time name="diag">    8.95    8.97</time>
   <time name="diis">   23.65   23.69</time>
   <time name="orth">    0.49    0.49</time>
   <time name="total">   37.12   37.42</time>
   <energy>
    <i name="e_fr_energy">   -293.05726419 </i>
    <i name="e_wo_entrp">   -293.03898507 </i>
    <i name="e_0_energy">   -293.05117115 </i>
   </energy>
  </scstep>
  <scstep>
   <time name="diag">    8.93    8.96</time>
   <time name="diis">   22.03   22.42</time>
   <time name="orth">    0.49    0.49</time>
   <time name="total">   35.40   35.84</time>
   <energy>
    <i name="e_fr_energy">   -293.05763149 </i>
    <i name="e_wo_entrp">   -293.03839926 </i>
    <i name="e_0_energy">   -293.05122075 </i>
   </energy>
  </scstep>
  <scstep>
   <time name="diag">    8.85    8.86</time>
   <time name="diis">   21.66   21.77</time>
   <time name="orth">    0.49    0.49</time>
   <time name="total">   35.01   35.13</time>
   <energy>
    <i name="e_fr_energy">   -293.05746841 </i>
    <i name="e_wo_entrp">   -293.03828730 </i>
    <i name="e_0_energy">   -293.05107471 </i>
   </energy>
  </scstep>
  <scstep>
   <time name="diag">    9.24    9.49</time>
   <time name="diis">   17.51   17.54</time>
   <time name="orth">    0.48    0.48</time>
   <time name="total">   31.19   31.49</time>
   <energy>
    <i name="e_fr_energy">   -293.05751784 </i>
    <i name="e_wo_entrp">   -293.03887317 </i>
    <i name="e_0_energy">   -293.05130295 </i>
   </energy>
  </scstep>
  <scstep>
   <time name="diag">    8.86    8.87</time>
   <time name="diis">   16.54   16.66</time>
   <time name="orth">    0.48    0.48</time>
   <time name="total">   30.02   30.41</time>
   <energy>
    <i name="e_fr_energy">   -293.05756307 </i>
    <i name="e_wo_entrp">   -293.03917625 </i>
    <i name="e_0_energy">   -293.05143413 </i>
   </energy>
  </scstep>
  <scstep>
   <time name="diag">    8.83    8.84</time>
   <time name="diis">   19.43   19.56</time>
   <time name="orth">    0.48    0.48</time>
   <time name="total">   32.67   32.83</time>
   <energy>
    <i name="e_fr_energy">   -293.05750531 </i>
    <i name="e_wo_entrp">   -293.03877223 </i>
    <i name="e_0_energy">   -293.05126095 </i>
   </energy>
  </scstep>
  <scstep>
   <time name="diag">    8.84    8.87</time>
   <time name="diis">   15.65   15.71</time>
   <time name="orth">    0.49    0.49</time>
   <time name="total">   29.12   29.53</time>
   <energy>
    <i name="e_fr_energy">   -293.05759066 </i>
    <i name="e_wo_entrp">   -293.03841535 </i>
    <i name="e_0_energy">   -293.05119889 </i>
   </energy>
  </scstep>
  <scstep>
   <time name="diag">    8.86    8.87</time>
   <time name="diis">   15.82   15.85</time>
   <time name="orth">    0.49    0.49</time>
   <time name="total">   29.13   29.17</time>
   <energy>
    <i name="e_fr_energy">   -293.05752247 </i>
    <i name="e_wo_entrp">   -293.03816526 </i>
    <i name="e_0_energy">   -293.05107007 </i>
   </energy>
  </scstep>
  <scstep>
   <time name="diag">    8.88    8.96</time>
   <time name="diis">   14.62   14.73</time>
   <time name="orth">    0.49    0.49</time>
   <time name="total">   28.21   28.59</time>
   <energy>
    <i name="e_fr_energy">   -293.05747970 </i>
    <i name="e_wo_entrp">   -293.03806708 </i>
    <i name="e_0_energy">   -293.05100882 </i>
   </energy>
  </scstep>
  <scstep>
   <time name="diag">    8.86    8.87</time>
   <time name="diis">   13.14   13.17</time>
   <time name="orth">    0.49    0.49</time>
   <time name="total">   23.02   23.06</time>
   <energy>
    <i name="alphaZ">    477.09650995 </i>
    <i name="ewald"> 394199.18399949 </i>
    <i name="hartreedc">-427892.46261027 </i>
    <i name="XCdc">   1612.90802175 </i>
    <i name="pawpsdc">  38055.78708278 </i>
    <i name="pawaedc"> -38761.52071746 </i>
    <i name="eentropy">     -0.01950411 </i>
    <i name="bandstr">  -5936.96348003 </i>
    <i name="atom">  37952.93320877 </i>
    <i name="e_fr_energy">   -293.05748913 </i>
    <i name="e_wo_entrp">   -293.03798502 </i>
    <i name="e_0_energy">   -293.05098776 </i>
   </energy>
  </scstep>
  <structure>
   <crystal>
    <varray name="basis" >
     <v>       2.87357350      -2.87357350       4.70833511 </v>
     <v>       5.74714699       0.00000000       0.00000000 </v>
     <v>       0.00000000      33.06569101      20.18052901 </v>
    </varray>
    <i name="volume">   1228.01926054 </i>
    <varray name="rec_basis" >
     <v>       0.00000000      -0.09444515       0.15474789 </v>
     <v>       0.17399938       0.04722258      -0.07737394 </v>
     <v>       0.00000000       0.02203507       0.01344836 </v>
    </varray>
   </crystal>
   <varray name="positions" >
    <v>       0.22067121       0.89240241       0.08901558 </v>
    <v>       0.66149421       0.17261084       0.21816902 </v>
    <v>       0.94927612       0.02809995       0.15233499 </v>
    <v>       0.37414265       0.31692724       0.28562801 </v>
    <v>       0.44927612       0.52809995       0.15233499 </v>
    <v>       0.89475718       0.30159389       0.28158974 </v>
    <v>       0.44927612       0.02809995       0.15233499 </v>
    <v>       0.89223770       0.80277045       0.28163082 </v>
    <v>       0.90282244       0.55132680       0.10484543 </v>
    <v>       0.35204185       0.82621064       0.23325001 </v>
    <v>       0.99247563       0.50763557       0.20067921 </v>
    <v>       0.42330403       0.79131042       0.33217542 </v>
    <v>       0.53851998       0.23347802       0.07318573 </v>
    <v>       0.02218495       0.48320660       0.35057039 </v>
    <v>       0.77665587       0.60811774       0.30955019 </v>
    <v>       0.87926422       0.06310591       0.05527763 </v>
    <v>       0.33729753       0.33415363       0.18284217 </v>
    <v>       0.58246139       0.21150732       0.12452493 </v>
    <v>       0.03642680       0.48553584       0.25340033 </v>
    <v>       0.67960376       0.69812318       0.37150018 </v>
    <v>       0.09516526       0.72856013       0.12156099 </v>
    <v>       0.54320993       0.45508879       0.25353319 </v>
    <v>       0.73405955       0.12868363       0.31224578 </v>
    <v>       0.85888103       0.57329750       0.05350623 </v>
    <v>       0.31234357       0.84637687       0.18079005 </v>
    <v>       0.56207820       0.72169891       0.12275353 </v>
    <v>       0.00371086       0.99815784       0.25270963 </v>
    <v>       0.79335810       0.33146144       0.18449484 </v>
    <v>       0.21771149       0.62296600       0.31613571 </v>
    <v>       0.34617716       0.60305419       0.05647018 </v>
    <v>       0.21366174       0.16569017       0.31539896 </v>
    <v>       0.79224535       0.88239574       0.18440410 </v>
    <v>       0.34617716       0.05624469       0.05647018 </v>
    <v>       0.53828715       0.01176576       0.25310908 </v>
    <v>       0.09516526       0.18175063       0.12156099 </v>
    <v>       0.18213126       0.36165200       0.39354880 </v>
    <v>       0.34047062       0.60391201       0.02782883 </v>
    <v>       0.92434681       0.68523651       0.03696881 </v>
    <v>       0.34363348       0.06399961       0.02783421 </v>
    <v>       0.88838126       0.05560908       0.02665597 </v>
    <v>       0.64431052       0.78015365       0.39413758 </v>
    <v>       0.75313084       0.10718610       0.33718292 </v>
    <v>       0.07183871       0.43748452       0.41304984 </v>
   </varray>
  </structure>
  <varray name="forces" >
   <v>       0.11273653      -1.81108240      -1.63776114 </v>
   <v>      -0.05368721       0.06037354       0.01280613 </v>
   <v>      -0.01203803       0.79317605      -0.02330758 </v>
   <v>      -0.04588074      -0.00317900      -0.06524888 </v>
   <v>       0.01125271       0.37588867       0.09280936 </v>
   <v>       0.35067830       0.10945935       0.09691037 </v>
   <v>      -0.01153414       0.34887480       0.09261120 </v>
   <v>      -0.26548735      -0.06766254      -0.00404063 </v>
   <v>      -0.01748512      -1.34746412      -0.87340424 </v>
   <v>       0.01323299       0.05282037       0.12324890 </v>
   <v>       0.02228502       0.09053437       0.00420354 </v>
   <v>       0.05315850       0.08793482       0.21570372 </v>
   <v>       0.00296542      -0.53344019       0.25294717 </v>
   <v>      -0.00086482       0.12580450      -0.24881153 </v>
   <v>       0.08204008      -0.16438653      -0.21402831 </v>
   <v>      -0.30908480      -3.60809594      -1.95058501 </v>
   <v>      -0.16684175      -0.17580218       0.07524336 </v>
   <v>      -0.09672454       0.31169694       0.41498338 </v>
   <v>       0.10294804       0.17970542      -0.03620698 </v>
   <v>       0.17705419       0.14723358       0.08262827 </v>
   <v>       0.37725082       0.43127783       0.55858999 </v>
   <v>      -0.16691996       0.08584243       0.01881990 </v>
   <v>      -0.06768658      -0.17488023       0.02165314 </v>
   <v>       2.66123210      -2.51442539      -0.25440483 </v>
   <v>       0.12152940      -0.11043410      -0.13429297 </v>
   <v>       0.14030535       0.37208327      -0.34545508 </v>
   <v>      -0.10159485       0.10016825      -0.05167880 </v>
   <v>      -0.29617096      -0.17092060      -0.02412679 </v>
   <v>      -0.17477297      -0.14389605      -0.05346033 </v>
   <v>      -0.94114859      -3.56799594      -2.14818698 </v>
   <v>       0.18582684      -0.15208108       0.04599708 </v>
   <v>       0.17783849      -0.14892205      -0.01448127 </v>
   <v>       1.04355802      -3.62797703      -1.92378859 </v>
   <v>       0.05170081       0.06861253       0.06930038 </v>
   <v>      -0.19285728       0.39268437       0.48289063 </v>
   <v>      -0.00346173      -0.02420776       0.21869586 </v>
   <v>       0.56580023       3.80151362       2.31501025 </v>
   <v>      -2.87478883       3.06425787       0.46241175 </v>
   <v>      -0.65580729       3.94234137       2.09497437 </v>
   <v>       0.36479920       3.67855421       2.17461569 </v>
   <v>      -0.06828178       0.00189362       0.01170439 </v>
   <v>      -0.02235904      -0.03588216       0.02136778 </v>
   <v>      -0.07271466      -0.23999651       0.04314332 </v>
  </varray>
  <energy>
   <i name="e_fr_energy">   -293.05748913 </i>
   <i name="e_wo_entrp">   -293.05098776 </i>
   <i name="e_0_energy">     -0.01950411 </i>
  </energy>
  <time name="totalsc">  430.32  433.86</time>
 </calculation>
 <calculation>
  <scstep>
   <time name="dav">   50.66   51.06</time>
   <time name="total">   54.62   55.04</time>
   <energy>
    <i name="alphaZ">    477.09650995 </i>
    <i name="ewald"> 394199.38107404 </i>
    <i name="hartreedc">-427892.63351164 </i>
    <i name="XCdc">   1612.90991845 </i>
    <i name="pawpsdc">  38055.81171355 </i>
    <i name="pawaedc"> -38761.54414540 </i>
    <i name="eentropy">     -0.01948153 </i>
    <i name="bandstr">  -5936.99250046 </i>
    <i name="atom">  37952.93320877 </i>
    <i name="e_fr_energy">   -293.05721427 </i>
    <i name="e_wo_entrp">   -293.03773274 </i>
    <i name="e_0_energy">   -293.05072043 </i>
   </energy>
  </scstep>
  <scstep>
   <time name="diag">    8.90    9.00</time>
   <time name="diis">   28.22   28.59</time>
   <time name="orth">    0.49    0.49</time>
   <time name="total">   41.55   42.03</time>
   <energy>
    <i name="e_fr_energy">   -293.06446658 </i>
    <i name="e_wo_entrp">   -293.05200145 </i>
    <i name="e_0_energy">   -293.06031154 </i>
   </energy>
  </scstep>
  <scstep>
   <time name="diag">    8.87    8.88</time>
   <time name="diis">   23.99   24.10</time>
   <time name="orth">    0.49    0.49</time>
   <time name="total">   37.66   38.02</time>
   <energy>
    <i name="e_fr_energy">   -293.05792469 </i>
    <i name="e_wo_entrp">   -293.04653265 </i>
    <i name="e_0_energy">   -293.05412734 </i>
   </energy>
  </scstep>
  <scstep>
   <time name="diag">    8.85    8.89</time>
   <time name="diis">   25.38   25.42</time>
   <time name="orth">    0.48    0.50</time>
   <time name="total">   38.67   38.81</time>
   <energy>
    <i name="e_fr_energy">   -293.05521074 </i>
    <i name="e_wo_entrp">   -293.04273691 </i>
    <i name="e_0_energy">   -293.05105280 </i>
   </energy>
  </scstep>
  <scstep>
   <time name="diag">    8.90    9.02</time>
   <time name="diis">   25.01   25.33</time>
   <time name="orth">    0.49    0.49</time>
   <time name="total">   38.33   38.77</time>
   <energy>
    <i name="e_fr_energy">   -293.05425804 </i>
    <i name="e_wo_entrp">   -293.03956891 </i>
    <i name="e_0_energy">   -293.04936167 </i>
   </energy>
  </scstep>
  <scstep>
   <time name="diag">    8.85    8.87</time>
   <time name="diis">   22.99   23.06</time>
   <time name="orth">    0.49    0.49</time>
   <time name="total">   36.35   36.47</time>
   <energy>
    <i name="e_fr_energy">   -293.05533181 </i>
    <i name="e_wo_entrp">   -293.03744046 </i>
    <i name="e_0_energy">   -293.04936803 </i>
   </energy>
  </scstep>
  <scstep>
   <time name="diag">    9.07    9.28</time>
   <time name="diis">   21.53   21.56</time>
   <time name="orth">    0.49    0.49</time>
   <time name="total">   35.05   35.29</time>
   <energy>
    <i name="e_fr_energy">   -293.05819364 </i>
    <i name="e_wo_entrp">   -293.03838299 </i>
    <i name="e_0_energy">   -293.05159009 </i>
   </energy>
  </scstep>
  <scstep>
   <time name="diag">    8.89    8.90</time>
   <time name="diis">   21.85   22.23</time>
   <time name="orth">    0.49    0.49</time>
   <time name="total">   35.21   35.61</time>
   <energy>
    <i name="e_fr_energy">   -293.05820515 </i>
    <i name="e_wo_entrp">   -293.03749559 </i>
    <i name="e_0_energy">   -293.05130196 </i>
   </energy>
  </scstep>
  <scstep>
   <time name="diag">    8.91    8.93</time>
   <time name="diis">   18.79   18.82</time>
   <time name="orth">    0.49    0.49</time>
   <time name="total">   32.16   32.22</time>
   <energy>
    <i name="e_fr_energy">   -293.05818361 </i>
    <i name="e_wo_entrp">   -293.03691508 </i>
    <i name="e_0_energy">   -293.05109410 </i>
   </energy>
  </scstep>
  <scstep>
   <time name="diag">    8.90    8.99</time>
   <time name="diis">   21.03   21.43</time>
   <time name="orth">    0.49    0.49</time>
   <time name="total">   34.39   34.87</time>
   <energy>
    <i name="e_fr_energy">   -293.05752798 </i>
    <i name="e_wo_entrp">   -293.03595934 </i>
    <i name="e_0_energy">   -293.05033843 </i>
   </energy>
  </scstep>
  <scstep>
   <time name="diag">    8.90    8.92</time>
   <time name="diis">   16.92   16.96</time>
   <time name="orth">    0.49    0.49</time>
   <time name="total">   30.29   30.37</time>
   <energy>
    <i name="e_fr_energy">   -293.05695654 </i>
    <i name="e_wo_entrp">   -293.03526240 </i>
    <i name="e_0_energy">   -293.04972516 </i>
   </energy>
  </scstep>
  <scstep>
   <time name="diag">    8.89    8.96</time>
   <time name="diis">   15.05   15.20</time>
   <time name="orth">    0.48    0.49</time>
   <time name="total">   28.38   28.61</time>
   <energy>
    <i name="e_fr_energy">   -293.05678976 </i>
    <i name="e_wo_entrp">   -293.03505306 </i>
    <i name="e_0_energy">   -293.04954419 </i>
   </energy>
  </scstep>
  <scstep>
   <time name="diag">    8.87    8.89</time>
   <time name="diis">   14.41   14.43</time>
   <time name="orth">    0.48    0.48</time>
   <time name="total">   27.71   27.77</time>
   <energy>
    <i name="e_fr_energy">   -293.05660555 </i>
    <i name="e_wo_entrp">   -293.03485642 </i>
    <i name="e_0_energy">   -293.04935584 </i>
   </energy>
  </scstep>
  <scstep>
   <time name="diag">    8.90    8.95</time>
   <time name="diis">   15.61   15.90</time>
   <time name="orth">    0.48    0.49</time>
   <time name="total">   28.96   29.30</time>
   <energy>
    <i name="e_fr_energy">   -293.05624634 </i>
    <i name="e_wo_entrp">   -293.03457649 </i>
    <i name="e_0_energy">   -293.04902305 </i>
   </energy>
  </scstep>
  <scstep>
   <time name="diag">    8.87    8.92</time>
   <time name="diis">   21.18   21.21</time>
   <time name="orth">    0.48    0.49</time>
   <time name="total">   34.50   34.60</time>
   <energy>
    <i name="e_fr_energy">   -293.05564140 </i>
    <i name="e_wo_entrp">   -293.03438613 </i>
    <i name="e_0_energy">   -293.04855631 </i>
   </energy>
  </scstep>
  <scstep>
   <time name="diag">    8.84    9.01</time>
   <time name="diis">   22.35   22.63</time>
   <time name="orth">    0.48    0.48</time>
   <time name="total">   35.64   36.08</time>
   <energy>
    <i name="e_fr_energy">   -293.05590430 </i>
    <i name="e_wo_entrp">   -293.03579178 </i>
    <i name="e_0_energy">   -293.04920013 </i>
   </energy>
  </scstep>
  <scstep>
   <time name="diag">    8.85    8.87</time>
   <time name="diis">   19.51   19.61</time>
   <time name="orth">    0.48    0.48</time>
   <time name="total">   32.79   32.91</time>
   <energy>
    <i name="e_fr_energy">   -293.05730652 </i>
    <i name="e_wo_entrp">   -293.03879930 </i>
    <i name="e_0_energy">   -293.05113745 </i>
   </energy>
  </scstep>
  <scstep>
   <time name="diag">    9.22    9.47</time>
   <time name="diis">   19.52   19.58</time>
   <time name="orth">    0.48    0.49</time>
   <time name="total">   33.18   33.51</time>
   <energy>
    <i name="e_fr_energy">   -293.05811629 </i>
    <i name="e_wo_entrp">   -293.04094896 </i>
    <i name="e_0_energy">   -293.05239385 </i>
   </energy>
  </scstep>
  <scstep>
   <time name="diag">    8.86    8.87</time>
   <time name="diis">   19.81   19.95</time>
   <time name="orth">    0.49    0.49</time>
   <time name="total">   33.21   33.40</time>
   <energy>
    <i name="e_fr_energy">   -293.05794355 </i>
    <i name="e_wo_entrp">   -293.04154955 </i>
    <i name="e_0_energy">   -293.05247888 </i>
   </energy>
  </scstep>
  <scstep>
   <time name="diag">    9.00    9.12</time>
   <time name="diis">   18.36   18.40</time>
   <time name="orth">    0.48    0.49</time>
   <time name="total">   31.83   32.08</time>
   <energy>
    <i name="e_fr_energy">   -293.05757129 </i>
    <i name="e_wo_entrp">   -293.04146204 </i>
    <i name="e_0_energy">   -293.05220154 </i>
   </energy>
  </scstep>
  <scstep>
   <time name="diag">    8.87    8.88</time>
   <time name="diis">   21.60   21.89</time>
   <time name="orth">    0.48    0.49</time>
   <time name="total">   34.91   35.22</time>
   <energy>
    <i name="e_fr_energy">   -293.05702626 </i>
    <i name="e_wo_entrp">   -293.04047338 </i>
    <i name="e_0_energy">   -293.05150864 </i>
   </energy>
  </scstep>
  <scstep>
   <time name="diag">    8.85    8.87</time>
   <time name="diis">   18.74   18.77</time>
   <time name="orth">    0.49    0.49</time>
   <time name="total">   32.06   32.18</time>
   <energy>
    <i name="e_fr_energy">   -293.05698383 </i>
    <i name="e_wo_entrp">   -293.03952249 </i>
    <i name="e_0_energy">   -293.05116338 </i>
   </energy>
  </scstep>
  <scstep>
   <time name="diag">    8.92    9.01</time>
   <time name="diis">   16.76   17.02</time>
   <time name="orth">    0.48    0.48</time>
   <time name="total">   30.11   30.47</time>
   <energy>
    <i name="e_fr_energy">   -293.05737896 </i>
    <i name="e_wo_entrp">   -293.03921175 </i>
    <i name="e_0_energy">   -293.05132323 </i>
   </energy>
  </scstep>
  <scstep>
   <time name="diag">    8.85    8.87</time>
   <time name="diis">   16.45   16.52</time>
   <time name="orth">    0.48    0.48</time>
   <time name="total">   29.74   29.84</time>
   <energy>
    <i name="e_fr_energy">   -293.05759544 </i>
    <i name="e_wo_entrp">   -293.03901446 </i>
    <i name="e_0_energy">   -293.05140178 </i>
   </energy>
  </scstep>
  <scstep>
   <time name="diag">    8.87    8.93</time>
   <time name="diis">   15.97   16.31</time>
   <time name="orth">    0.49    0.49</time>
   <time name="total">   29.28   29.68</time>
   <energy>
    <i name="e_fr_energy">   -293.05765555 </i>
    <i name="e_wo_entrp">   -293.03888738 </i>
    <i name="e_0_energy">   -293.05139949 </i>
   </energy>
  </scstep>
  <scstep>
   <time name="diag">    8.85    8.87</time>
   <time name="diis">   14.80   14.83</time>
   <time name="orth">    0.49    0.49</time>
   <time name="total">   24.68   24.72</time>
   <energy>
    <i name="alphaZ">    477.09650995 </i>
    <i name="ewald"> 394199.38107404 </i>
    <i name="hartreedc">-427891.88576255 </i>
    <i name="XCdc">   1612.91105810 </i>
    <i name="pawpsdc">  38055.64455643 </i>
    <i name="pawaedc"> -38761.37254440 </i>
    <i name="eentropy">     -0.01879274 </i>
    <i name="bandstr">  -5937.74695797 </i>
    <i name="atom">  37952.93320877 </i>
    <i name="e_fr_energy">   -293.05765035 </i>
    <i name="e_wo_entrp">   -293.03885762 </i>
    <i name="e_0_energy">   -293.05138611 </i>
   </energy>
  </scstep>
  <structure>
   <crystal>
    <varray name="basis" >
     <v>       2.87357350      -2.87357350       4.70833511 </v>
     <v>       5.74714699       0.00000000       0.00000000 </v>
     <v>       0.00000000      33.06569101      20.18052901 </v>
    </varray>
    <i name="volume">   1228.01926054 </i>
    <varray name="rec_basis" >
     <v>       0.00000000      -0.09444515       0.15474789 </v>
     <v>       0.17399938       0.04722258      -0.07737394 </v>
     <v>       0.00000000       0.02203507       0.01344836 </v>
    </varray>
   </crystal>
   <varray name="positions" >
    <v>       0.22067121       0.89240241       0.08901558 </v>
    <v>       0.66149665       0.17261776       0.21816622 </v>
    <v>       0.94927612       0.02809995       0.15233499 </v>
    <v>       0.37415528       0.31693239       0.28562371 </v>
    <v>       0.44927612       0.52809995       0.15233499 </v>
    <v>       0.89475562       0.30156971       0.28158473 </v>
    <v>       0.44927612       0.02809995       0.15233499 </v>
    <v>       0.89223820       0.80278847       0.28162851 </v>
    <v>       0.90282244       0.55132680       0.10484543 </v>
    <v>       0.35203326       0.82621816       0.23324738 </v>
    <v>       0.99248991       0.50762661       0.20067688 </v>
    <v>       0.42329321       0.79131319       0.33217063 </v>
    <v>       0.53851998       0.23347802       0.07318573 </v>
    <v>       0.02207263       0.48311595       0.35056125 </v>
    <v>       0.77666605       0.60812313       0.30955554 </v>
    <v>       0.87926422       0.06310591       0.05527763 </v>
    <v>       0.33729799       0.33413662       0.18284238 </v>
    <v>       0.58246139       0.21150732       0.12452493 </v>
    <v>       0.03643826       0.48552395       0.25340318 </v>
    <v>       0.67957254       0.69814883       0.37150662 </v>
    <v>       0.09516526       0.72856013       0.12156099 </v>
    <v>       0.54320833       0.45509623       0.25353613 </v>
    <v>       0.73405569       0.12869337       0.31225032 </v>
    <v>       0.85888103       0.57329750       0.05350623 </v>
    <v>       0.31235633       0.84639926       0.18079062 </v>
    <v>       0.56207820       0.72169891       0.12275353 </v>
    <v>       0.00371989       0.99816318       0.25271198 </v>
    <v>       0.79337953       0.33143600       0.18449279 </v>
    <v>       0.21773331       0.62299601       0.31614000 </v>
    <v>       0.34617716       0.60305419       0.05647018 </v>
    <v>       0.21365344       0.16569437       0.31540299 </v>
    <v>       0.79226352       0.88241335       0.18440131 </v>
    <v>       0.34617716       0.05624469       0.05647018 </v>
    <v>       0.53828439       0.01177293       0.25311249 </v>
    <v>       0.09516526       0.18175063       0.12156099 </v>
    <v>       0.18215099       0.36166789       0.39356663 </v>
    <v>       0.34047062       0.60391201       0.02782883 </v>
    <v>       0.92434681       0.68523651       0.03696881 </v>
    <v>       0.34363348       0.06399961       0.02783421 </v>
    <v>       0.88838126       0.05560908       0.02665597 </v>
    <v>       0.64430864       0.78015120       0.39413479 </v>
    <v>       0.75312843       0.10719203       0.33718247 </v>
    <v>       0.07185479       0.43746060       0.41304360 </v>
   </varray>
  </structure>
  <varray name="forces" >
   <v>       0.11278920      -1.81144596      -1.63960188 </v>
   <v>      -0.05425760       0.06302767       0.01336415 </v>
   <v>      -0.01173001       0.78935555      -0.02352724 </v>
   <v>      -0.04347645       0.00373609      -0.06446730 </v>
   <v>       0.01209673       0.37571803       0.09185954 </v>
   <v>       0.35360541       0.11382274       0.09807697 </v>
   <v>      -0.01233853       0.34681157       0.09177187 </v>
   <v>      -0.26669500      -0.06410544      -0.00182075 </v>
   <v>      -0.01527049      -1.34896024      -0.87361848 </v>
   <v>       0.01332683       0.05353555       0.12495894 </v>
   <v>       0.02262617       0.09230261       0.00379833 </v>
   <v>       0.05260971       0.09129338       0.21872409 </v>
   <v>       0.00172978      -0.53327843       0.25401843 </v>
   <v>      -0.00550200       0.15921442      -0.24194157 </v>
   <v>       0.08146055      -0.16600794      -0.20261305 </v>
   <v>      -0.30853061      -3.61453774      -1.95338418 </v>
   <v>      -0.16540005      -0.17570474       0.07601905 </v>
   <v>      -0.09682166       0.31218062       0.41506937 </v>
   <v>       0.10294940       0.17803443      -0.03766971 </v>
   <v>       0.16380188       0.11167487       0.08410581 </v>
   <v>       0.37852499       0.43296188       0.55984319 </v>
   <v>      -0.16658196       0.08357747       0.01833281 </v>
   <v>      -0.06737316      -0.18453555       0.01505770 </v>
   <v>       2.68442501      -2.53831258      -0.25278359 </v>
   <v>       0.11981801      -0.11021661      -0.13398989 </v>
   <v>       0.14051625       0.37555289      -0.34608009 </v>
   <v>      -0.10302442       0.09693126      -0.05292861 </v>
   <v>      -0.29408341      -0.16936252      -0.02415628 </v>
   <v>      -0.18266719      -0.14536217      -0.05693432 </v>
   <v>      -0.94011125      -3.56952889      -2.14983835 </v>
   <v>       0.19364318      -0.14681952       0.04506308 </v>
   <v>       0.17492279      -0.14703838      -0.01359649 </v>
   <v>       1.04219362      -3.63035549      -1.92524410 </v>
   <v>       0.05082464       0.06611435       0.06849453 </v>
   <v>      -0.19522425       0.39209876       0.48358551 </v>
   <v>      -0.00638457      -0.09703704       0.19809801 </v>
   <v>       0.56561095       3.80279297       2.31566399 </v>
   <v>      -2.89261510       3.08417389       0.46225616 </v>
   <v>      -0.65578664       3.94489970       2.09606357 </v>
   <v>       0.36496633       3.68376676       2.17735323 </v>
   <v>      -0.05895712       0.02178386       0.02236118 </v>
   <v>      -0.02340279      -0.02847872       0.02695157 </v>
   <v>      -0.06620717      -0.19427334       0.03330482 </v>
  </varray>
  <energy>
   <i name="e_fr_energy">   -293.05765035 </i>
   <i name="e_wo_entrp">   -293.05138611 </i>
   <i name="e_0_energy">     -0.01879274 </i>
  </energy>
  <time name="totalsc">  902.60  909.38</time>
 </calculation>
 <calculation>
  <scstep>
   <time name="dav">   50.50   51.04</time>
   <time name="total">   54.57   55.17</time>
   <energy>
    <i name="alphaZ">    477.09650995 </i>
    <i name="ewald"> 394167.43389205 </i>
    <i name="hartreedc">-427859.24308161 </i>
    <i name="XCdc">   1612.97689644 </i>
    <i name="pawpsdc">  38055.66286367 </i>
    <i name="pawaedc"> -38761.38898740 </i>
    <i name="eentropy">     -0.01962587 </i>
    <i name="bandstr">  -5938.35672282 </i>
    <i name="atom">  37952.93320877 </i>
    <i name="e_fr_energy">   -292.90504682 </i>
    <i name="e_wo_entrp">   -292.88542095 </i>
    <i name="e_0_energy">   -292.89850486 </i>
   </energy>
  </scstep>
  <scstep>
   <time name="diag">    9.04    9.17</time>
   <time name="diis">   29.84   29.94</time>
   <time name="orth">    0.48    0.48</time>
   <time name="total">   43.28   43.51</time>
   <energy>
    <i name="e_fr_energy">   -293.07971311 </i>
    <i name="e_wo_entrp">   -293.05623159 </i>
    <i name="e_0_energy">   -293.07188594 </i>
   </energy>
  </scstep>
  <scstep>
   <time name="diag">    8.84    8.86</time>
   <time name="diis">   26.48   27.00</time>
   <time name="orth">    0.49    0.49</time>
   <time name="total">   39.80   40.36</time>
   <energy>
    <i name="e_fr_energy">   -293.11372161 </i>
    <i name="e_wo_entrp">   -293.10910478 </i>
    <i name="e_0_energy">   -293.11218266 </i>
   </energy>
  </scstep>
  <scstep>
   <time name="diag">    8.91    8.93</time>
   <time name="diis">   26.23   26.30</time>
   <time name="orth">    0.49    0.49</time>
   <time name="total">   39.62   39.73</time>
   <energy>
    <i name="e_fr_energy">   -293.08402296 </i>
    <i name="e_wo_entrp">   -293.07794500 </i>
    <i name="e_0_energy">   -293.08199697 </i>
   </energy>
  </scstep>
  <scstep>
   <time name="diag">    9.09    9.28</time>
   <time name="diis">   27.19   27.26</time>
   <time name="orth">    0.49    0.49</time>
   <time name="total">   40.78   41.06</time>
   <energy>
    <i name="e_fr_energy">   -293.06490276 </i>
    <i name="e_wo_entrp">   -293.04698295 </i>
    <i name="e_0_energy">   -293.05892949 </i>
   </energy>
  </scstep>
  <scstep>
   <time name="diag">    8.88    8.91</time>
   <time name="diis">   24.41   24.68</time>
   <time name="orth">    0.49    0.49</time>
   <time name="total">   37.72   38.02</time>
   <energy>
    <i name="e_fr_energy">   -293.08390268 </i>
    <i name="e_wo_entrp">   -293.06061975 </i>
    <i name="e_0_energy">   -293.07614170 </i>
   </energy>
  </scstep>
  <scstep>
   <time name="diag">    8.88    8.92</time>
   <time name="diis">   24.79   24.89</time>
   <time name="orth">    0.49    0.49</time>
   <time name="total">   38.12   38.27</time>
   <energy>
    <i name="e_fr_energy">   -293.08155543 </i>
    <i name="e_wo_entrp">   -293.05672956 </i>
    <i name="e_0_energy">   -293.07328014 </i>
   </energy>
  </scstep>
  <scstep>
   <time name="diag">    9.13    9.33</time>
   <time name="diis">   25.83   25.94</time>
   <time name="orth">    0.48    0.49</time>
   <time name="total">   39.39   39.71</time>
   <energy>
    <i name="e_fr_energy">   -293.08765668 </i>
    <i name="e_wo_entrp">   -293.07323776 </i>
    <i name="e_0_energy">   -293.08285038 </i>
   </energy>
  </scstep>
  <scstep>
   <time name="diag">    8.87    8.89</time>
   <time name="diis">   25.04   25.36</time>
   <time name="orth">    0.49    0.49</time>
   <time name="total">   38.35   38.70</time>
   <energy>
    <i name="e_fr_energy">   -293.09653122 </i>
    <i name="e_wo_entrp">   -293.09022867 </i>
    <i name="e_0_energy">   -293.09443037 </i>
   </energy>
  </scstep>
  <scstep>
   <time name="diag">    8.85    8.90</time>
   <time name="diis">   24.20   24.23</time>
   <time name="orth">    0.49    0.49</time>
   <time name="total">   37.54   37.68</time>
   <energy>
    <i name="e_fr_energy">   -293.08170291 </i>
    <i name="e_wo_entrp">   -293.07578031 </i>
    <i name="e_0_energy">   -293.07972871 </i>
   </energy>
  </scstep>
  <scstep>
   <time name="diag">    8.88    8.92</time>
   <time name="diis">   25.02   25.30</time>
   <time name="orth">    0.49    0.49</time>
   <time name="total">   38.36   38.69</time>
   <energy>
    <i name="e_fr_energy">   -293.07049838 </i>
    <i name="e_wo_entrp">   -293.05962775 </i>
    <i name="e_0_energy">   -293.06687484 </i>
   </energy>
  </scstep>
  <scstep>
   <time name="diag">    8.85    8.86</time>
   <time name="diis">   23.88   24.10</time>
   <time name="orth">    0.56    0.58</time>
   <time name="total">   37.38   37.82</time>
   <energy>
    <i name="e_fr_energy">   -293.07093483 </i>
    <i name="e_wo_entrp">   -293.05407481 </i>
    <i name="e_0_energy">   -293.06531483 </i>
   </energy>
  </scstep>
  <scstep>
   <time name="diag">    8.85    8.86</time>
   <time name="diis">   22.17   22.22</time>
   <time name="orth">    0.48    0.49</time>
   <time name="total">   35.47   35.53</time>
   <energy>
    <i name="e_fr_energy">   -293.07782302 </i>
    <i name="e_wo_entrp">   -293.05613041 </i>
    <i name="e_0_energy">   -293.07059215 </i>
   </energy>
  </scstep>
  <scstep>
   <time name="diag">    8.90    8.96</time>
   <time name="diis">   22.42   22.69</time>
   <time name="orth">    0.48    0.48</time>
   <time name="total">   35.78   36.14</time>
   <energy>
    <i name="e_fr_energy">   -293.08349721 </i>
    <i name="e_wo_entrp">   -293.05956386 </i>
    <i name="e_0_energy">   -293.07551943 </i>
   </energy>
  </scstep>
  <scstep>
   <time name="diag">    8.86    8.87</time>
   <time name="diis">   22.06   22.28</time>
   <time name="orth">    0.48    0.48</time>
   <time name="total">   35.36   35.61</time>
   <energy>
    <i name="e_fr_energy">   -293.08259580 </i>
    <i name="e_wo_entrp">   -293.05786490 </i>
    <i name="e_0_energy">   -293.07435216 </i>
   </energy>
  </scstep>
  <scstep>
   <time name="diag">    9.26    9.45</time>
   <time name="diis">   20.57   20.68</time>
   <time name="orth">    0.48    0.49</time>
   <time name="total">   34.25   34.56</time>
   <energy>
    <i name="e_fr_energy">   -293.08316732 </i>
    <i name="e_wo_entrp">   -293.05822260 </i>
    <i name="e_0_energy">   -293.07485241 </i>
   </energy>
  </scstep>
  <scstep>
   <time name="diag">    8.85    8.86</time>
   <time name="diis">   22.16   22.32</time>
   <time name="orth">    0.50    0.50</time>
   <time name="total">   35.62   36.02</time>
   <energy>
    <i name="e_fr_energy">   -293.08112529 </i>
    <i name="e_wo_entrp">   -293.05606687 </i>
    <i name="e_0_energy">   -293.07277249 </i>
   </energy>
  </scstep>
  <scstep>
   <time name="diag">    8.85    8.87</time>
   <time name="diis">   19.95   20.00</time>
   <time name="orth">    0.49    0.49</time>
   <time name="total">   33.22   33.32</time>
   <energy>
    <i name="e_fr_energy">   -293.08271849 </i>
    <i name="e_wo_entrp">   -293.05807845 </i>
    <i name="e_0_energy">   -293.07450514 </i>
   </energy>
  </scstep>
  <scstep>
   <time name="diag">    8.84    8.86</time>
   <time name="diis">   18.81   19.22</time>
   <time name="orth">    0.48    0.48</time>
   <time name="total">   32.09   32.52</time>
   <energy>
    <i name="e_fr_energy">   -293.08282854 </i>
    <i name="e_wo_entrp">   -293.05884607 </i>
    <i name="e_0_energy">   -293.07483438 </i>
   </energy>
  </scstep>
  <scstep>
   <time name="diag">    8.86    8.89</time>
   <time name="diis">   18.73   18.75</time>
   <time name="orth">    0.49    0.50</time>
   <time name="total">   32.02   32.08</time>
   <energy>
    <i name="e_fr_energy">   -293.08215197 </i>
    <i name="e_wo_entrp">   -293.05898752 </i>
    <i name="e_0_energy">   -293.07443049 </i>
   </energy>
  </scstep>
  <scstep>
   <time name="diag">    8.88    8.94</time>
   <time name="diis">   18.40   18.67</time>
   <time name="orth">    0.49    0.49</time>
   <time name="total">   31.74   32.08</time>
   <energy>
    <i name="e_fr_energy">   -293.08140734 </i>
    <i name="e_wo_entrp">   -293.05913621 </i>
    <i name="e_0_energy">   -293.07398363 </i>
   </energy>
  </scstep>
  <scstep>
   <time name="diag">    8.90    8.93</time>
   <time name="diis">   17.70   17.73</time>
   <time name="orth">    0.49    0.49</time>
   <time name="total">   31.06   31.12</time>
   <energy>
    <i name="e_fr_energy">   -293.08065674 </i>
    <i name="e_wo_entrp">   -293.05925612 </i>
    <i name="e_0_energy">   -293.07352320 </i>
   </energy>
  </scstep>
  <scstep>
   <time name="diag">    8.97    9.06</time>
   <time name="diis">   17.43   17.75</time>
   <time name="orth">    0.48    0.48</time>
   <time name="total">   30.83   31.24</time>
   <energy>
    <i name="e_fr_energy">   -293.07990970 </i>
    <i name="e_wo_entrp">   -293.05928311 </i>
    <i name="e_0_energy">   -293.07303417 </i>
   </energy>
  </scstep>
  <scstep>
   <time name="diag">    8.89    8.92</time>
   <time name="diis">   16.40   16.43</time>
   <time name="orth">    0.48    0.49</time>
   <time name="total">   29.73   29.80</time>
   <energy>
    <i name="e_fr_energy">   -293.07927107 </i>
    <i name="e_wo_entrp">   -293.05929986 </i>
    <i name="e_0_energy">   -293.07261400 </i>
   </energy>
  </scstep>
  <scstep>
   <time name="diag">    8.90    8.94</time>
   <time name="diis">   16.03   16.33</time>
   <time name="orth">    0.48    0.49</time>
   <time name="total">   29.37   29.73</time>
   <energy>
    <i name="e_fr_energy">   -293.07869520 </i>
    <i name="e_wo_entrp">   -293.05924176 </i>
    <i name="e_0_energy">   -293.07221072 </i>
   </energy>
  </scstep>
  <scstep>
   <time name="diag">    8.86    8.88</time>
   <time name="diis">   15.20   15.24</time>
   <time name="orth">    0.48    0.49</time>
   <time name="total">   28.49   28.57</time>
   <energy>
    <i name="e_fr_energy">   -293.07825720 </i>
    <i name="e_wo_entrp">   -293.05920573 </i>
    <i name="e_0_energy">   -293.07190671 </i>
   </energy>
  </scstep>
  <scstep>
   <time name="diag">    8.88    8.95</time>
   <time name="diis">   15.20   15.49</time>
   <time name="orth">    0.49    0.49</time>
   <time name="total">   28.52   28.90</time>
   <energy>
    <i name="e_fr_energy">   -293.07788853 </i>
    <i name="e_wo_entrp">   -293.05913200 </i>
    <i name="e_0_energy">   -293.07163635 </i>
   </energy>
  </scstep>
  <scstep>
   <time name="diag">    8.85    8.90</time>
   <time name="diis">   14.42   14.43</time>
   <time name="orth">    0.49    0.50</time>
   <time name="total">   27.71   27.79</time>
   <energy>
    <i name="e_fr_energy">   -293.07763709 </i>
    <i name="e_wo_entrp">   -293.05910030 </i>
    <i name="e_0_energy">   -293.07145816 </i>
   </energy>
  </scstep>
  <scstep>
   <time name="diag">    8.89    8.94</time>
   <time name="diis">   14.24   14.48</time>
   <time name="orth">    0.48    0.48</time>
   <time name="total">   27.57   27.87</time>
   <energy>
    <i name="e_fr_energy">   -293.07741407 </i>
    <i name="e_wo_entrp">   -293.05902730 </i>
    <i name="e_0_energy">   -293.07128515 </i>
   </energy>
  </scstep>
  <scstep>
   <time name="diag">    8.89    8.92</time>
   <time name="diis">   13.27   13.29</time>
   <time name="orth">    0.48    0.49</time>
   <time name="total">   26.58   26.64</time>
   <energy>
    <i name="e_fr_energy">   -293.07728651 </i>
    <i name="e_wo_entrp">   -293.05901091 </i>
    <i name="e_0_energy">   -293.07119464 </i>
   </energy>
  </scstep>
  <scstep>
   <time name="diag">    8.86    8.87</time>
   <time name="diis">   12.97   13.06</time>
   <time name="orth">    0.50    0.51</time>
   <time name="total">   26.40   26.58</time>
   <energy>
    <i name="e_fr_energy">   -293.07713685 </i>
    <i name="e_wo_entrp">   -293.05892449 </i>
    <i name="e_0_energy">   -293.07106606 </i>
   </energy>
  </scstep>
  <scstep>
   <time name="diag">    9.00    9.04</time>
   <time name="diis">   12.02   12.05</time>
   <time name="orth">    0.48    0.48</time>
   <time name="total">   25.45   25.56</time>
   <energy>
    <i name="e_fr_energy">   -293.07695118 </i>
    <i name="e_wo_entrp">   -293.05874864 </i>
    <i name="e_0_energy">   -293.07088366 </i>
   </energy>
  </scstep>
  <scstep>
   <time name="diag">    8.83    8.84</time>
   <time name="diis">   11.65   11.72</time>
   <time name="orth">    0.48    0.49</time>
   <time name="total">   25.04   25.16</time>
   <energy>
    <i name="e_fr_energy">   -293.07667152 </i>
    <i name="e_wo_entrp">   -293.05840988 </i>
    <i name="e_0_energy">   -293.07058431 </i>
   </energy>
  </scstep>
  <scstep>
   <time name="diag">    9.15    9.27</time>
   <time name="diis">   10.61   10.78</time>
   <time name="orth">    0.49    0.49</time>
   <time name="total">   20.78   21.07</time>
   <energy>
    <i name="alphaZ">    477.09650995 </i>
    <i name="ewald"> 394167.43389205 </i>
    <i name="hartreedc">-427867.54195061 </i>
    <i name="XCdc">   1612.97513904 </i>
    <i name="pawpsdc">  38075.57985842 </i>
    <i name="pawaedc"> -38781.41821985 </i>
    <i name="eentropy">     -0.01830099 </i>
    <i name="bandstr">  -5930.11681396 </i>
    <i name="atom">  37952.93320877 </i>
    <i name="e_fr_energy">   -293.07667717 </i>
    <i name="e_wo_entrp">   -293.05837619 </i>
    <i name="e_0_energy">   -293.07057685 </i>
   </energy>
  </scstep>
  <structure>
   <crystal>
    <varray name="basis" >
     <v>       2.87357350      -2.87357350       4.70833511 </v>
     <v>       5.74714699       0.00000000       0.00000000 </v>
     <v>       0.00000000      33.06569101      20.18052901 </v>
    </varray>
    <i name="volume">   1228.01926054 </i>
    <varray name="rec_basis" >
     <v>       0.00000000      -0.09444515       0.15474789 </v>
     <v>       0.17399938       0.04722258      -0.07737394 </v>
     <v>       0.00000000       0.02203507       0.01344836 </v>
    </varray>
   </crystal>
   <varray name="positions" >
    <v>       0.22067121       0.89240241       0.08901558 </v>
    <v>       0.66132540       0.17226820       0.21825103 </v>
    <v>       0.94927612       0.02809995       0.15233499 </v>
    <v>       0.37364698       0.31679518       0.28563040 </v>
    <v>       0.44927612       0.52809995       0.15233499 </v>
    <v>       0.89494032       0.30407187       0.28177587 </v>
    <v>       0.44927612       0.02809995       0.15233499 </v>
    <v>       0.89245716       0.80072695       0.28159283 </v>
    <v>       0.90282244       0.55132680       0.10484543 </v>
    <v>       0.35265954       0.82596692       0.23338064 </v>
    <v>       0.99205249       0.50801322       0.20077759 </v>
    <v>       0.42436195       0.79115556       0.33240343 </v>
    <v>       0.53851998       0.23347802       0.07318573 </v>
    <v>       0.02101066       0.48487458       0.35064979 </v>
    <v>       0.77597216       0.60892791       0.30926257 </v>
    <v>       0.87926422       0.06310591       0.05527763 </v>
    <v>       0.33839074       0.33262184       0.18273044 </v>
    <v>       0.58246139       0.21150732       0.12452493 </v>
    <v>       0.03546390       0.48675697       0.25351077 </v>
    <v>       0.67993687       0.69898236       0.37159003 </v>
    <v>       0.09516526       0.72856013       0.12156099 </v>
    <v>       0.54302661       0.45400893       0.25359160 </v>
    <v>       0.73485307       0.12777406       0.31206176 </v>
    <v>       0.85888103       0.57329750       0.05350623 </v>
    <v>       0.31184715       0.84721231       0.18062211 </v>
    <v>       0.56207820       0.72169891       0.12275353 </v>
    <v>       0.00297132       0.99775934       0.25274680 </v>
    <v>       0.79366895       0.32943918       0.18435356 </v>
    <v>       0.21773555       0.62141324       0.31594952 </v>
    <v>       0.34617716       0.60305419       0.05647018 </v>
    <v>       0.21453088       0.16655830       0.31526662 </v>
    <v>       0.79256268       0.88321087       0.18429302 </v>
    <v>       0.34617716       0.05624469       0.05647018 </v>
    <v>       0.53847655       0.01196901       0.25317506 </v>
    <v>       0.09516526       0.18175063       0.12156099 </v>
    <v>       0.18352096       0.36071806       0.39343341 </v>
    <v>       0.34047062       0.60391201       0.02782883 </v>
    <v>       0.92434681       0.68523651       0.03696881 </v>
    <v>       0.34363348       0.06399961       0.02783421 </v>
    <v>       0.88838126       0.05560908       0.02665597 </v>
    <v>       0.64437910       0.77974850       0.39418898 </v>
    <v>       0.75341454       0.10685083       0.33717608 </v>
    <v>       0.07262518       0.43676669       0.41294917 </v>
   </varray>
  </structure>
  <varray name="forces" >
   <v>       0.11680719      -1.78700445      -1.60093964 </v>
   <v>      -0.03956293       0.00154539       0.04696200 </v>
   <v>      -0.02007460       0.78286867      -0.02270193 </v>
   <v>      -0.05339513      -0.08633594       0.02449763 </v>
   <v>      -0.00940755       0.35244382       0.10179843 </v>
   <v>      -0.13070638      -0.06638604       0.02921531 </v>
   <v>       0.00360943       0.29624651       0.09575372 </v>
   <v>       0.14622880      -0.06599162      -0.02530639 </v>
   <v>      -0.05329926      -1.33336237      -0.88729012 </v>
   <v>      -0.00187463       0.04779710       0.04448380 </v>
   <v>      -0.01027603       0.00823744      -0.01899971 </v>
   <v>       0.04467341       0.05967831       0.02908195 </v>
   <v>       0.01636407      -0.55124539       0.24142133 </v>
   <v>       0.13211729      -0.52327790       0.07305884 </v>
   <v>       0.03704368       0.07388831      -0.47845599 </v>
   <v>      -0.31359596      -3.44845567      -1.88800839 </v>
   <v>      -0.08829381      -0.01425643       0.00400277 </v>
   <v>      -0.08055860       0.27691855       0.38839884 </v>
   <v>       0.01014449       0.00627403      -0.05533745 </v>
   <v>       0.22452991       0.38055348      -0.18179218 </v>
   <v>       0.31374287       0.35982157       0.52432017 </v>
   <v>      -0.07079647       0.05084865      -0.01544011 </v>
   <v>      -0.04491757       0.09632450       0.23419528 </v>
   <v>       2.17877335      -2.00790313      -0.23897168 </v>
   <v>       0.05927323      -0.00981455      -0.04049016 </v>
   <v>       0.11385781       0.28747454      -0.32896090 </v>
   <v>       0.03298907       0.12998374       0.00375411 </v>
   <v>      -0.10190143      -0.09576601       0.02918220 </v>
   <v>       0.07657828      -0.07625944       0.03271206 </v>
   <v>      -0.97624282      -3.53080713      -2.10321935 </v>
   <v>      -0.09446909      -0.20452404       0.05888346 </v>
   <v>       0.04071544      -0.09544883       0.02646326 </v>
   <v>       1.08761248      -3.57711172      -1.89135539 </v>
   <v>      -0.01727299       0.04641235       0.01974342 </v>
   <v>      -0.12902701       0.37255980       0.45074336 </v>
   <v>       0.01808881       0.80984079       0.39809547 </v>
   <v>       0.56963370       3.76204534       2.29154521 </v>
   <v>      -2.49568682       2.66263187       0.44796808 </v>
   <v>      -0.65699238       3.88299659       2.06834634 </v>
   <v>       0.36015668       3.56259781       2.11452035 </v>
   <v>      -0.04616099       0.07725451      -0.04958642 </v>
   <v>      -0.00243757      -0.27701089      -0.16400647 </v>
   <v>      -0.14598998      -0.63628213       0.21171490 </v>
  </varray>
  <energy>
   <i name="e_fr_energy">   -293.07667717 </i>
   <i name="e_wo_entrp">   -293.07057685 </i>
   <i name="e_0_energy">     -0.01830099 </i>
  </energy>
  <time name="totalsc"> 1169.33 1178.05</time>
 </calculation>
 <calculation>
  <scstep>
   <time name="dav">   51.57   52.04</time>
   <time name="total">   55.58   56.07</time>
   <energy>
    <i name="alphaZ">    477.09650995 </i>
    <i name="ewald"> 394164.83299603 </i>
    <i name="hartreedc">-427864.87221045 </i>
    <i name="XCdc">   1612.98029246 </i>
    <i name="pawpsdc">  38075.57520836 </i>
    <i name="pawaedc"> -38781.41361487 </i>
    <i name="eentropy">     -0.01833085 </i>
    <i name="bandstr">  -5930.18974171 </i>
    <i name="atom">  37952.93320877 </i>
    <i name="e_fr_energy">   -293.07568230 </i>
    <i name="e_wo_entrp">   -293.05735145 </i>
    <i name="e_0_energy">   -293.06957202 </i>
   </energy>
  </scstep>
  <scstep>
   <time name="diag">    8.93    8.98</time>
   <time name="diis">   26.44   26.72</time>
   <time name="orth">    0.49    0.49</time>
   <time name="total">   39.80   40.13</time>
   <energy>
    <i name="e_fr_energy">   -293.92327211 </i>
    <i name="e_wo_entrp">   -293.93002335 </i>
    <i name="e_0_energy">   -293.92552252 </i>
   </energy>
  </scstep>
  <scstep>
   <time name="diag">    8.90    8.92</time>
   <time name="diis">   27.30   27.35</time>
   <time name="orth">    0.48    0.48</time>
   <time name="total">   40.67   40.86</time>
   <energy>
    <i name="e_fr_energy">   -293.54863112 </i>
    <i name="e_wo_entrp">   -293.57129117 </i>
    <i name="e_0_energy">   -293.55618447 </i>
   </energy>
  </scstep>
  <scstep>
   <time name="diag">    8.93    8.98</time>
   <time name="diis">   26.84   27.09</time>
   <time name="orth">    0.49    0.49</time>
   <time name="total">   40.19   40.49</time>
   <energy>
    <i name="e_fr_energy">   -293.27811570 </i>
    <i name="e_wo_entrp">   -293.30205272 </i>
    <i name="e_0_energy">   -293.28609471 </i>
   </energy>
  </scstep>
  <scstep>
   <time name="diag">    8.83    8.88</time>
   <time name="diis">   29.51   29.88</time>
   <time name="orth">    0.49    0.49</time>
   <time name="total">   42.77   43.20</time>
   <energy>
    <i name="e_fr_energy">   -293.16530836 </i>
    <i name="e_wo_entrp">   -293.18676230 </i>
    <i name="e_0_energy">   -293.17245967 </i>
   </energy>
  </scstep>
  <scstep>
   <time name="diag">    8.84    8.88</time>
   <time name="diis">   29.11   29.19</time>
   <time name="orth">    0.48    0.48</time>
   <time name="total">   42.41   42.54</time>
   <energy>
    <i name="e_fr_energy">   -293.11026082 </i>
    <i name="e_wo_entrp">   -293.12867062 </i>
    <i name="e_0_energy">   -293.11639742 </i>
   </energy>
  </scstep>
  <scstep>
   <time name="diag">    9.05    9.31</time>
   <time name="diis">   26.66   26.95</time>
   <time name="orth">    0.48    0.48</time>
   <time name="total">   40.16   40.72</time>
   <energy>
    <i name="e_fr_energy">   -293.03269872 </i>
    <i name="e_wo_entrp">   -293.02747114 </i>
    <i name="e_0_energy">   -293.03095620 </i>
   </energy>
  </scstep>
  <scstep>
   <time name="diag">    8.86    8.88</time>
   <time name="diis">   25.38   25.68</time>
   <time name="orth">    0.48    0.51</time>
   <time name="total">   38.69   39.06</time>
   <energy>
    <i name="e_fr_energy">   -293.06053254 </i>
    <i name="e_wo_entrp">   -293.04019089 </i>
    <i name="e_0_energy">   -293.05375199 </i>
   </energy>
  </scstep>
  <scstep>
   <time name="diag">    8.84    8.86</time>
   <time name="diis">   24.01   24.07</time>
   <time name="orth">    0.48    0.48</time>
   <time name="total">   37.31   37.40</time>
   <energy>
    <i name="e_fr_energy">   -293.08181446 </i>
    <i name="e_wo_entrp">   -293.05805022 </i>
    <i name="e_0_energy">   -293.07389305 </i>
   </energy>
  </scstep>
  <scstep>
   <time name="diag">    9.26    9.58</time>
   <time name="diis">   24.32   24.36</time>
   <time name="orth">    0.48    0.48</time>
   <time name="total">   38.00   38.37</time>
   <energy>
    <i name="e_fr_energy">   -293.07957310 </i>
    <i name="e_wo_entrp">   -293.05652661 </i>
    <i name="e_0_energy">   -293.07189094 </i>
   </energy>
  </scstep>
  <scstep>
   <time name="diag">    8.86    8.87</time>
   <time name="diis">   24.29   24.67</time>
   <time name="orth">    0.48    0.48</time>
   <time name="total">   37.57   37.97</time>
   <energy>
    <i name="e_fr_energy">   -293.08043048 </i>
    <i name="e_wo_entrp">   -293.05894918 </i>
    <i name="e_0_energy">   -293.07327004 </i>
   </energy>
  </scstep>
  <scstep>
   <time name="diag">    8.88    8.90</time>
   <time name="diis">   21.05   21.07</time>
   <time name="orth">    0.48    0.48</time>
   <time name="total">   34.36   34.41</time>
   <energy>
    <i name="e_fr_energy">   -293.08102371 </i>
    <i name="e_wo_entrp">   -293.06050289 </i>
    <i name="e_0_energy">   -293.07418344 </i>
   </energy>
  </scstep>
  <scstep>
   <time name="diag">    8.89    8.97</time>
   <time name="diis">   23.44   23.80</time>
   <time name="orth">    0.48    0.49</time>
   <time name="total">   36.76   37.20</time>
   <energy>
    <i name="e_fr_energy">   -293.08033343 </i>
    <i name="e_wo_entrp">   -293.05854675 </i>
    <i name="e_0_energy">   -293.07307120 </i>
   </energy>
  </scstep>
  <scstep>
   <time name="diag">    8.85    8.87</time>
   <time name="diis">   22.54   22.66</time>
   <time name="orth">    0.49    0.49</time>
   <time name="total">   35.87   36.03</time>
   <energy>
    <i name="e_fr_energy">   -293.08202147 </i>
    <i name="e_wo_entrp">   -293.05846412 </i>
    <i name="e_0_energy">   -293.07416902 </i>
   </energy>
  </scstep>
  <scstep>
   <time name="diag">    9.08    9.42</time>
   <time name="diis">   22.57   22.61</time>
   <time name="orth">    0.48    0.49</time>
   <time name="total">   36.10   36.48</time>
   <energy>
    <i name="e_fr_energy">   -293.08123215 </i>
    <i name="e_wo_entrp">   -293.05701653 </i>
    <i name="e_0_energy">   -293.07316028 </i>
   </energy>
  </scstep>
  <scstep>
   <time name="diag">    8.88    8.91</time>
   <time name="diis">   23.12   23.43</time>
   <time name="orth">    0.48    0.48</time>
   <time name="total">   36.44   36.78</time>
   <energy>
    <i name="e_fr_energy">   -293.07944993 </i>
    <i name="e_wo_entrp">   -293.05553887 </i>
    <i name="e_0_energy">   -293.07147958 </i>
   </energy>
  </scstep>
  <scstep>
   <time name="diag">    8.86    8.88</time>
   <time name="diis">   23.31   23.35</time>
   <time name="orth">    0.48    0.49</time>
   <time name="total">   36.60   36.67</time>
   <energy>
    <i name="e_fr_energy">   -293.07954420 </i>
    <i name="e_wo_entrp">   -293.05696942 </i>
    <i name="e_0_energy">   -293.07201927 </i>
   </energy>
  </scstep>
  <scstep>
   <time name="diag">    8.88    8.91</time>
   <time name="diis">   21.39   21.75</time>
   <time name="orth">    0.48    0.48</time>
   <time name="total">   34.69   35.13</time>
   <energy>
    <i name="e_fr_energy">   -293.08113480 </i>
    <i name="e_wo_entrp">   -293.06045644 </i>
    <i name="e_0_energy">   -293.07424201 </i>
   </energy>
  </scstep>
  <scstep>
   <time name="diag">    8.80    8.81</time>
   <time name="diis">   20.19   20.28</time>
   <time name="orth">    0.49    0.49</time>
   <time name="total">   33.47   33.61</time>
   <energy>
    <i name="e_fr_energy">   -293.08151688 </i>
    <i name="e_wo_entrp">   -293.06231763 </i>
    <i name="e_0_energy">   -293.07511713 </i>
   </energy>
  </scstep>
  <scstep>
   <time name="diag">    9.21    9.44</time>
   <time name="diis">   21.22   21.26</time>
   <time name="orth">    0.48    0.48</time>
   <time name="total">   34.87   35.13</time>
   <energy>
    <i name="e_fr_energy">   -293.08069913 </i>
    <i name="e_wo_entrp">   -293.06208291 </i>
    <i name="e_0_energy">   -293.07449373 </i>
   </energy>
  </scstep>
  <scstep>
   <time name="diag">    8.81    8.82</time>
   <time name="diis">   23.49   23.85</time>
   <time name="orth">    0.48    0.48</time>
   <time name="total">   36.73   37.11</time>
   <energy>
    <i name="e_fr_energy">   -293.07936568 </i>
    <i name="e_wo_entrp">   -293.05982036 </i>
    <i name="e_0_energy">   -293.07285057 </i>
   </energy>
  </scstep>
  <scstep>
   <time name="diag">    8.83    8.90</time>
   <time name="diis">   22.20   22.24</time>
   <time name="orth">    0.48    0.48</time>
   <time name="total">   35.45   35.59</time>
   <energy>
    <i name="e_fr_energy">   -293.07964744 </i>
    <i name="e_wo_entrp">   -293.05835436 </i>
    <i name="e_0_energy">   -293.07254974 </i>
   </energy>
  </scstep>
  <scstep>
   <time name="diag">    8.90    8.97</time>
   <time name="diis">   19.78   20.16</time>
   <time name="orth">    0.49    0.49</time>
   <time name="total">   33.18   33.65</time>
   <energy>
    <i name="e_fr_energy">   -293.08111401 </i>
    <i name="e_wo_entrp">   -293.05824894 </i>
    <i name="e_0_energy">   -293.07349232 </i>
   </energy>
  </scstep>
  <scstep>
   <time name="diag">    8.92    8.94</time>
   <time name="diis">   20.11   20.14</time>
   <time name="orth">    0.52    0.55</time>
   <time name="total">   33.52   33.61</time>
   <energy>
    <i name="e_fr_energy">   -293.08167857 </i>
    <i name="e_wo_entrp">   -293.05787550 </i>
    <i name="e_0_energy">   -293.07374421 </i>
   </energy>
  </scstep>
  <scstep>
   <time name="diag">    9.17    9.39</time>
   <time name="diis">   20.38   20.49</time>
   <time name="orth">    0.49    0.49</time>
   <time name="total">   34.02   34.36</time>
   <energy>
    <i name="e_fr_energy">   -293.08115717 </i>
    <i name="e_wo_entrp">   -293.05690435 </i>
    <i name="e_0_energy">   -293.07307290 </i>
   </energy>
  </scstep>
  <scstep>
   <time name="diag">    8.88    8.89</time>
   <time name="diis">   16.97   17.06</time>
   <time name="orth">    0.49    0.49</time>
   <time name="total">   30.38   30.51</time>
   <energy>
    <i name="e_fr_energy">   -293.08119223 </i>
    <i name="e_wo_entrp">   -293.05660384 </i>
    <i name="e_0_energy">   -293.07299610 </i>
   </energy>
  </scstep>
  <scstep>
   <time name="diag">    9.03    9.28</time>
   <time name="diis">   16.74   16.76</time>
   <time name="orth">    0.49    0.50</time>
   <time name="total">   30.26   30.55</time>
   <energy>
    <i name="e_fr_energy">   -293.08098635 </i>
    <i name="e_wo_entrp">   -293.05613936 </i>
    <i name="e_0_energy">   -293.07270402 </i>
   </energy>
  </scstep>
  <scstep>
   <time name="diag">    8.93    8.95</time>
   <time name="diis">   16.43   16.50</time>
   <time name="orth">    0.48    0.49</time>
   <time name="total">   29.87   30.00</time>
   <energy>
    <i name="e_fr_energy">   -293.08075369 </i>
    <i name="e_wo_entrp">   -293.05572692 </i>
    <i name="e_0_energy">   -293.07241143 </i>
   </energy>
  </scstep>
  <scstep>
   <time name="diag">    9.06    9.17</time>
   <time name="diis">   16.06   16.08</time>
   <time name="orth">    0.48    0.49</time>
   <time name="total">   29.56   29.71</time>
   <energy>
    <i name="e_fr_energy">   -293.08051322 </i>
    <i name="e_wo_entrp">   -293.05536415 </i>
    <i name="e_0_energy">   -293.07213020 </i>
   </energy>
  </scstep>
  <scstep>
   <time name="diag">    8.87    8.88</time>
   <time name="diis">   15.75   15.85</time>
   <time name="orth">    0.48    0.48</time>
   <time name="total">   29.09   29.24</time>
   <energy>
    <i name="e_fr_energy">   -293.08020048 </i>
    <i name="e_wo_entrp">   -293.05497232 </i>
    <i name="e_0_energy">   -293.07179109 </i>
   </energy>
  </scstep>
  <scstep>
   <time name="diag">    9.33    9.63</time>
   <time name="diis">   15.55   15.59</time>
   <time name="orth">    0.49    0.49</time>
   <time name="total">   29.37   29.73</time>
   <energy>
    <i name="e_fr_energy">   -293.07995982 </i>
    <i name="e_wo_entrp">   -293.05468921 </i>
    <i name="e_0_energy">   -293.07153628 </i>
   </energy>
  </scstep>
  <scstep>
   <time name="diag">    8.92    8.93</time>
   <time name="diis">   15.36   15.48</time>
   <time name="orth">    0.48    0.48</time>
   <time name="total">   28.71   28.86</time>
   <energy>
    <i name="e_fr_energy">   -293.07963251 </i>
    <i name="e_wo_entrp">   -293.05433874 </i>
    <i name="e_0_energy">   -293.07120125 </i>
   </energy>
  </scstep>
  <scstep>
   <time name="diag">    9.19    9.53</time>
   <time name="diis">   15.13   15.16</time>
   <time name="orth">    0.49    0.49</time>
   <time name="total">   28.84   29.22</time>
   <energy>
    <i name="e_fr_energy">   -293.07943492 </i>
    <i name="e_wo_entrp">   -293.05414361 </i>
    <i name="e_0_energy">   -293.07100448 </i>
   </energy>
  </scstep>
  <scstep>
   <time name="diag">    8.92    8.93</time>
   <time name="diis">   15.01   15.10</time>
   <time name="orth">    0.49    0.49</time>
   <time name="total">   28.42   28.54</time>
   <energy>
    <i name="e_fr_energy">   -293.07912447 </i>
    <i name="e_wo_entrp">   -293.05383833 </i>
    <i name="e_0_energy">   -293.07069575 </i>
   </energy>
  </scstep>
  <scstep>
   <time name="diag">    9.19    9.50</time>
   <time name="diis">   14.65   14.68</time>
   <time name="orth">    0.49    0.49</time>
   <time name="total">   28.32   28.67</time>
   <energy>
    <i name="e_fr_energy">   -293.07896809 </i>
    <i name="e_wo_entrp">   -293.05370649 </i>
    <i name="e_0_energy">   -293.07054756 </i>
   </energy>
  </scstep>
  <scstep>
   <time name="diag">    8.92    8.93</time>
   <time name="diis">   14.74   14.80</time>
   <time name="orth">    0.49    0.49</time>
   <time name="total">   28.18   28.29</time>
   <energy>
    <i name="e_fr_energy">   -293.07869621 </i>
    <i name="e_wo_entrp">   -293.05345251 </i>
    <i name="e_0_energy">   -293.07028165 </i>
   </energy>
  </scstep>
  <scstep>
   <time name="diag">    9.02    9.10</time>
   <time name="diis">   14.45   14.70</time>
   <time name="orth">    0.49    0.50</time>
   <time name="total">   28.00   28.35</time>
   <energy>
    <i name="e_fr_energy">   -293.07857670 </i>
    <i name="e_wo_entrp">   -293.05336584 </i>
    <i name="e_0_energy">   -293.07017308 </i>
   </energy>
  </scstep>
  <scstep>
   <time name="diag">    8.92    8.93</time>
   <time name="diis">   14.43   14.45</time>
   <time name="orth">    0.49    0.50</time>
   <time name="total">   27.85   27.90</time>
   <energy>
    <i name="e_fr_energy">   -293.07834471 </i>
    <i name="e_wo_entrp">   -293.05315484 </i>
    <i name="e_0_energy">   -293.06994809 </i>
   </energy>
  </scstep>
  <scstep>
   <time name="diag">    8.91    8.96</time>
   <time name="diis">   14.01   14.18</time>
   <time name="orth">    0.49    0.49</time>
   <time name="total">   27.43   27.67</time>
   <energy>
    <i name="e_fr_energy">   -293.07826393 </i>
    <i name="e_wo_entrp">   -293.05310798 </i>
    <i name="e_0_energy">   -293.06987861 </i>
   </energy>
  </scstep>
  <scstep>
   <time name="diag">    8.87    8.89</time>
   <time name="diis">   14.13   14.16</time>
   <time name="orth">    0.48    0.48</time>
   <time name="total">   27.46   27.51</time>
   <energy>
    <i name="e_fr_energy">   -293.07806549 </i>
    <i name="e_wo_entrp">   -293.05292859 </i>
    <i name="e_0_energy">   -293.06968653 </i>
   </energy>
  </scstep>
  <scstep>
   <time name="diag">    8.89    8.93</time>
   <time name="diis">   13.54   13.82</time>
   <time name="orth">    0.49    0.49</time>
   <time name="total">   26.91   27.22</time>
   <energy>
    <i name="e_fr_energy">   -293.07803733 </i>
    <i name="e_wo_entrp">   -293.05293462 </i>
    <i name="e_0_energy">   -293.06966976 </i>
   </energy>
  </scstep>
  <scstep>
   <time name="diag">    8.86    8.88</time>
   <time name="diis">   13.80   13.82</time>
   <time name="orth">    0.48    0.49</time>
   <time name="total">   27.12   27.17</time>
   <energy>
    <i name="e_fr_energy">   -293.07785121 </i>
    <i name="e_wo_entrp">   -293.05276249 </i>
    <i name="e_0_energy">   -293.06948830 </i>
   </energy>
  </scstep>
  <scstep>
   <time name="diag">    8.85    8.88</time>
   <time name="diis">   12.64   12.88</time>
   <time name="orth">    0.50    0.51</time>
   <time name="total">   26.23   26.65</time>
   <energy>
    <i name="e_fr_energy">   -293.07782495 </i>
    <i name="e_wo_entrp">   -293.05276321 </i>
    <i name="e_0_energy">   -293.06947104 </i>
   </energy>
  </scstep>
  <scstep>
   <time name="diag">    8.88    8.89</time>
   <time name="diis">   13.24   13.26</time>
   <time name="orth">    0.49    0.49</time>
   <time name="total">   26.60   26.72</time>
   <energy>
    <i name="e_fr_energy">   -293.07768647 </i>
    <i name="e_wo_entrp">   -293.05263501 </i>
    <i name="e_0_energy">   -293.06933598 </i>
   </energy>
  </scstep>
  <scstep>
   <time name="diag">    8.88    8.90</time>
   <time name="diis">   11.82   11.91</time>
   <time name="orth">    0.49    0.49</time>
   <time name="total">   25.19   25.29</time>
   <energy>
    <i name="e_fr_energy">   -293.07763100 </i>
    <i name="e_wo_entrp">   -293.05259366 </i>
    <i name="e_0_energy">   -293.06928522 </i>
   </energy>
  </scstep>
  <scstep>
   <time name="diag">    9.31    9.66</time>
   <time name="diis">   12.06   12.08</time>
   <time name="orth">    0.49    0.50</time>
   <time name="total">   25.86   26.27</time>
   <energy>
    <i name="e_fr_energy">   -293.07756818 </i>
    <i name="e_wo_entrp">   -293.05253945 </i>
    <i name="e_0_energy">   -293.06922527 </i>
   </energy>
  </scstep>
  <scstep>
   <time name="diag">    8.69    8.71</time>
   <time name="diis">   13.12   13.14</time>
   <time name="orth">    0.48    0.48</time>
   <time name="total">   26.22   26.30</time>
   <energy>
    <i name="e_fr_energy">   -293.07700532 </i>
    <i name="e_wo_entrp">   -293.05190318 </i>
    <i name="e_0_energy">   -293.06863794 </i>
   </energy>
  </scstep>
  <scstep>
   <time name="diag">    8.91    9.17</time>
   <time name="diis">   13.30   13.63</time>
   <time name="orth">    0.49    0.49</time>
   <time name="total">   26.71   27.30</time>
   <energy>
    <i name="e_fr_energy">   -293.07695669 </i>
    <i name="e_wo_entrp">   -293.05180648 </i>
    <i name="e_0_energy">   -293.06857328 </i>
   </energy>
  </scstep>
  <scstep>
   <time name="diag">    8.96    9.00</time>
   <time name="diis">   13.95   13.97</time>
   <time name="orth">    0.49    0.49</time>
   <time name="total">   27.41   27.47</time>
   <energy>
    <i name="e_fr_energy">   -293.07682148 </i>
    <i name="e_wo_entrp">   -293.05160591 </i>
    <i name="e_0_energy">   -293.06841629 </i>
   </energy>
  </scstep>
  <scstep>
   <time name="diag">    8.93    8.98</time>
   <time name="diis">   14.93   15.22</time>
   <time name="orth">    0.49    0.49</time>
   <time name="total">   28.34   28.69</time>
   <energy>
    <i name="e_fr_energy">   -293.07657755 </i>
    <i name="e_wo_entrp">   -293.05127134 </i>
    <i name="e_0_energy">   -293.06814215 </i>
   </energy>
  </scstep>
  <scstep>
   <time name="diag">    8.92    8.94</time>
   <time name="diis">   15.12   15.14</time>
   <time name="orth">    0.48    0.49</time>
   <time name="total">   28.54   28.72</time>
   <energy>
    <i name="e_fr_energy">   -293.07644391 </i>
    <i name="e_wo_entrp">   -293.05105833 </i>
    <i name="e_0_energy">   -293.06798205 </i>
   </energy>
  </scstep>
  <scstep>
   <time name="diag">    8.97    9.02</time>
   <time name="diis">   16.10   16.37</time>
   <time name="orth">    0.48    0.48</time>
   <time name="total">   29.50   29.82</time>
   <energy>
    <i name="e_fr_energy">   -293.07632742 </i>
    <i name="e_wo_entrp">   -293.05089327 </i>
    <i name="e_0_energy">   -293.06784937 </i>
   </energy>
  </scstep>
  <scstep>
   <time name="diag">    8.80    8.82</time>
   <time name="diis">   17.05   17.07</time>
   <time name="orth">    0.48    0.48</time>
   <time name="total">   30.30   30.35</time>
   <energy>
    <i name="e_fr_energy">   -293.07649955 </i>
    <i name="e_wo_entrp">   -293.05111989 </i>
    <i name="e_0_energy">   -293.06803966 </i>
   </energy>
  </scstep>
  <scstep>
   <time name="diag">    8.87    9.04</time>
   <time name="diis">   17.39   17.81</time>
   <time name="orth">    0.48    0.48</time>
   <time name="total">   30.71   31.30</time>
   <energy>
    <i name="e_fr_energy">   -293.07708229 </i>
    <i name="e_wo_entrp">   -293.05190763 </i>
    <i name="e_0_energy">   -293.06869074 </i>
   </energy>
  </scstep>
  <scstep>
   <time name="diag">    8.85    8.87</time>
   <time name="diis">   17.28   17.30</time>
   <time name="orth">    0.49    0.49</time>
   <time name="total">   30.58   30.63</time>
   <energy>
    <i name="e_fr_energy">   -293.07808703 </i>
    <i name="e_wo_entrp">   -293.05322087 </i>
    <i name="e_0_energy">   -293.06979831 </i>
   </energy>
  </scstep>
  <scstep>
   <time name="diag">    8.90    9.01</time>
   <time name="diis">   17.43   17.76</time>
   <time name="orth">    0.48    0.48</time>
   <time name="total">   30.78   31.22</time>
   <energy>
    <i name="e_fr_energy">   -293.07910925 </i>
    <i name="e_wo_entrp">   -293.05450680 </i>
    <i name="e_0_energy">   -293.07090844 </i>
   </energy>
  </scstep>
  <scstep>
   <time name="diag">    8.85    8.88</time>
   <time name="diis">   16.72   16.74</time>
   <time name="orth">    0.48    0.49</time>
   <time name="total">   30.03   30.11</time>
   <energy>
    <i name="e_fr_energy">   -293.07987375 </i>
    <i name="e_wo_entrp">   -293.05538966 </i>
    <i name="e_0_energy">   -293.07171239 </i>
   </energy>
  </scstep>
  <scstep>
   <time name="diag">    8.85    8.90</time>
   <time name="diis">   15.54   15.79</time>
   <time name="orth">    0.49    0.49</time>
   <time name="total">   28.86   29.16</time>
   <energy>
    <i name="e_fr_energy">   -293.08030642 </i>
    <i name="e_wo_entrp">   -293.05581024 </i>
    <i name="e_0_energy">   -293.07214103 </i>
   </energy>
  </scstep>
  <scstep>
   <time name="diag">    8.88    8.89</time>
   <time name="diis">   17.36   17.38</time>
   <time name="orth">    0.49    0.49</time>
   <time name="total">   30.71   30.75</time>
   <energy>
    <i name="e_fr_energy">   -293.08105846 </i>
    <i name="e_wo_entrp">   -293.05637913 </i>
    <i name="e_0_energy">   -293.07283201 </i>
   </energy>
  </scstep>
  <scstep>
   <time name="diag">    8.91    8.99</time>
   <time name="diis">   15.82   16.11</time>
   <time name="orth">    0.49    0.49</time>
   <time name="total">   25.75   26.12</time>
   <energy>
    <i name="alphaZ">    477.09650995 </i>
    <i name="ewald"> 394164.83299603 </i>
    <i name="hartreedc">-427866.74245104 </i>
    <i name="XCdc">   1612.98721347 </i>
    <i name="pawpsdc">  38077.70380335 </i>
    <i name="pawaedc"> -38783.49508715 </i>
    <i name="eentropy">     -0.02490159 </i>
    <i name="bandstr">  -5928.37256432 </i>
    <i name="atom">  37952.93320877 </i>
    <i name="e_fr_energy">   -293.08127252 </i>
    <i name="e_wo_entrp">   -293.05637093 </i>
    <i name="e_0_energy">   -293.07297199 </i>
   </energy>
  </scstep>
  <structure>
   <crystal>
    <varray name="basis" >
     <v>       2.87357350      -2.87357350       4.70833511 </v>
     <v>       5.74714699       0.00000000       0.00000000 </v>
     <v>       0.00000000      33.06569101      20.18052901 </v>
    </varray>
    <i name="volume">   1228.01926054 </i>
    <varray name="rec_basis" >
     <v>       0.00000000      -0.09444515       0.15474789 </v>
     <v>       0.17399938       0.04722258      -0.07737394 </v>
     <v>       0.00000000       0.02203507       0.01344836 </v>
    </varray>
   </crystal>
   <varray name="positions" >
    <v>       0.22067121       0.89240241       0.08901558 </v>
    <v>       0.66131128       0.17223937       0.21825803 </v>
    <v>       0.94927612       0.02809995       0.15233499 </v>
    <v>       0.37360506       0.31678386       0.28563095 </v>
    <v>       0.44927612       0.52809995       0.15233499 </v>
    <v>       0.89495555       0.30427825       0.28179164 </v>
    <v>       0.44927612       0.02809995       0.15233499 </v>
    <v>       0.89247522       0.80055692       0.28158989 </v>
    <v>       0.90282244       0.55132680       0.10484543 </v>
    <v>       0.35271120       0.82594620       0.23339164 </v>
    <v>       0.99201641       0.50804510       0.20078590 </v>
    <v>       0.42445010       0.79114256       0.33242263 </v>
    <v>       0.53851998       0.23347802       0.07318573 </v>
    <v>       0.02092307       0.48501963       0.35065709 </v>
    <v>       0.77591493       0.60899428       0.30923840 </v>
    <v>       0.87926422       0.06310591       0.05527763 </v>
    <v>       0.33848087       0.33249690       0.18272120 </v>
    <v>       0.58246139       0.21150732       0.12452493 </v>
    <v>       0.03538354       0.48685866       0.25351965 </v>
    <v>       0.67996692       0.69905111       0.37159691 </v>
    <v>       0.09516526       0.72856013       0.12156099 </v>
    <v>       0.54301162       0.45391925       0.25359617 </v>
    <v>       0.73491884       0.12769823       0.31204621 </v>
    <v>       0.85888103       0.57329750       0.05350623 </v>
    <v>       0.31180515       0.84727937       0.18060821 </v>
    <v>       0.56207820       0.72169891       0.12275353 </v>
    <v>       0.00290958       0.99772603       0.25274967 </v>
    <v>       0.79369282       0.32927448       0.18434208 </v>
    <v>       0.21773574       0.62128269       0.31593381 </v>
    <v>       0.34617716       0.60305419       0.05647018 </v>
    <v>       0.21460325       0.16662956       0.31525538 </v>
    <v>       0.79258735       0.88327665       0.18428409 </v>
    <v>       0.34617716       0.05624469       0.05647018 </v>
    <v>       0.53849240       0.01198519       0.25318022 </v>
    <v>       0.09516526       0.18175063       0.12156099 </v>
    <v>       0.18363395       0.36063972       0.39342242 </v>
    <v>       0.34047062       0.60391201       0.02782883 </v>
    <v>       0.92434681       0.68523651       0.03696881 </v>
    <v>       0.34363348       0.06399961       0.02783421 </v>
    <v>       0.88838126       0.05560908       0.02665597 </v>
    <v>       0.64438492       0.77971528       0.39419345 </v>
    <v>       0.75343814       0.10682269       0.33717555 </v>
    <v>       0.07268873       0.43670945       0.41294138 </v>
   </varray>
  </structure>
  <varray name="forces" >
   <v>       0.11445905      -1.76934256      -1.61114819 </v>
   <v>      -0.04004952       0.00187683       0.05110739 </v>
   <v>      -0.02761148       0.75846111      -0.02166024 </v>
   <v>      -0.03235547      -0.11261823       0.03367187 </v>
   <v>      -0.00238593       0.35190342       0.09740254 </v>
   <v>      -0.23043497      -0.12866629       0.00894152 </v>
   <v>      -0.01476141       0.27976196       0.08990256 </v>
   <v>       0.22216379      -0.09928588      -0.04692522 </v>
   <v>      -0.03450431      -1.32820712      -0.86150274 </v>
   <v>      -0.00541224       0.04946038       0.03517326 </v>
   <v>      -0.01471617       0.00407840      -0.02125504 </v>
   <v>       0.01508829       0.07086533      -0.00288474 </v>
   <v>       0.01020270      -0.51835879       0.25471887 </v>
   <v>       0.02192671      -0.15909536      -0.11650342 </v>
   <v>       0.06935835       0.18423182      -0.23610322 </v>
   <v>      -0.31396950      -3.57536663      -1.94019101 </v>
   <v>      -0.08562395       0.00023120      -0.00268356 </v>
   <v>      -0.08236666       0.27843160       0.38895720 </v>
   <v>       0.00206721      -0.00265684      -0.05685291 </v>
   <v>       0.12790860       0.08853776      -0.04327415 </v>
   <v>       0.34978298       0.38640446       0.53947547 </v>
   <v>      -0.06334316       0.05389268      -0.01651109 </v>
   <v>      -0.04629674       0.11727348       0.25075232 </v>
   <v>       2.54347044      -2.38794164      -0.25538780 </v>
   <v>       0.05420315      -0.00027439      -0.03317700 </v>
   <v>       0.12255707       0.32745676      -0.34157626 </v>
   <v>       0.04060733       0.13396806       0.00761602 </v>
   <v>      -0.08931826      -0.08783432       0.03346350 </v>
   <v>       0.06159641      -0.04335742       0.06205511 </v>
   <v>      -0.95231425      -3.56593428      -2.14133435 </v>
   <v>      -0.02044974      -0.07554659       0.07950585 </v>
   <v>       0.02868953      -0.09049191       0.02756202 </v>
   <v>       1.05697394      -3.62311954      -1.91970380 </v>
   <v>      -0.02964869       0.04837221       0.01551683 </v>
   <v>      -0.15912086       0.35905816       0.45568803 </v>
   <v>       0.01545622       0.29992935       0.24100065 </v>
   <v>       0.56639847       3.79147841       2.30955618 </v>
   <v>      -2.78001185       2.95840646       0.46102769 </v>
   <v>      -0.65624618       3.92623749       2.08890566 </v>
   <v>       0.36334134       3.64743918       2.15820719 </v>
   <v>       0.00199311       0.16367780       0.04287183 </v>
   <v>      -0.00264722      -0.29302670      -0.17878632 </v>
   <v>      -0.10465617      -0.42030980       0.11438151 </v>
  </varray>
  <energy>
   <i name="e_fr_energy">   -293.08127252 </i>
   <i name="e_wo_entrp">   -293.07297199 </i>
   <i name="e_0_energy">     -0.02490159 </i>
  </energy>
  <time name="totalsc"> 1960.85 1976.28</time>
 </calculation>
 <calculation>
  <scstep>
   <time name="dav">   45.05   45.47</time>
   <time name="total">   49.05   49.49</time>
   <energy>
    <i name="alphaZ">    477.09650995 </i>
    <i name="ewald"> 394142.71067886 </i>
    <i name="hartreedc">-427842.81400219 </i>
    <i name="XCdc">   1613.06421043 </i>
    <i name="pawpsdc">  38077.68313853 </i>
    <i name="pawaedc"> -38783.47758978 </i>
    <i name="eentropy">     -0.02515715 </i>
    <i name="bandstr">  -5930.19924736 </i>
    <i name="atom">  37952.93320877 </i>
    <i name="e_fr_energy">   -293.02824994 </i>
    <i name="e_wo_entrp">   -293.00309278 </i>
    <i name="e_0_energy">   -293.01986422 </i>
   </energy>
  </scstep>
  <scstep>
   <time name="diag">    8.91    8.93</time>
   <time name="diis">   30.21   30.36</time>
   <time name="orth">    0.50    0.50</time>
   <time name="total">   43.73   44.10</time>
   <energy>
    <i name="e_fr_energy">   -293.43539794 </i>
    <i name="e_wo_entrp">   -293.45746366 </i>
    <i name="e_0_energy">   -293.44275318 </i>
   </energy>
  </scstep>
  <scstep>
   <time name="diag">    8.86    8.87</time>
   <time name="diis">   25.58   25.65</time>
   <time name="orth">    0.48    0.49</time>
   <time name="total">   38.86   39.00</time>
   <energy>
    <i name="e_fr_energy">   -293.23968232 </i>
    <i name="e_wo_entrp">   -293.25720816 </i>
    <i name="e_0_energy">   -293.24552427 </i>
   </energy>
  </scstep>
  <scstep>
   <time name="diag">    8.86    8.91</time>
   <time name="diis">   26.09   26.38</time>
   <time name="orth">    0.48    0.49</time>
   <time name="total">   39.39   39.73</time>
   <energy>
    <i name="e_fr_energy">   -293.08157313 </i>
    <i name="e_wo_entrp">   -293.09018059 </i>
    <i name="e_0_energy">   -293.08444228 </i>
   </energy>
  </scstep>
  <scstep>
   <time name="diag">    8.85    8.87</time>
   <time name="diis">   27.11   27.23</time>
   <time name="orth">    0.49    0.49</time>
   <time name="total">   40.62   41.07</time>
   <energy>
    <i name="e_fr_energy">   -293.04728072 </i>
    <i name="e_wo_entrp">   -293.02475248 </i>
    <i name="e_0_energy">   -293.03977131 </i>
   </energy>
  </scstep>
  <scstep>
   <time name="diag">    8.86    8.87</time>
   <time name="diis">   25.01   25.05</time>
   <time name="orth">    0.49    0.49</time>
   <time name="total">   38.32   38.37</time>
   <energy>
    <i name="e_fr_energy">   -293.09716801 </i>
    <i name="e_wo_entrp">   -293.07133994 </i>
    <i name="e_0_energy">   -293.08855865 </i>
   </energy>
  </scstep>
  <scstep>
   <time name="diag">    8.87    8.92</time>
   <time name="diis">   25.53   25.77</time>
   <time name="orth">    0.49    0.50</time>
   <time name="total">   38.85   39.16</time>
   <energy>
    <i name="e_fr_energy">   -293.07821623 </i>
    <i name="e_wo_entrp">   -293.05136936 </i>
    <i name="e_0_energy">   -293.06926727 </i>
   </energy>
  </scstep>
  <scstep>
   <time name="diag">    8.86    8.87</time>
   <time name="diis">   27.29   27.42</time>
   <time name="orth">    0.49    0.49</time>
   <time name="total">   40.67   40.96</time>
   <energy>
    <i name="e_fr_energy">   -293.07277922 </i>
    <i name="e_wo_entrp">   -293.04854044 </i>
    <i name="e_0_energy">   -293.06469963 </i>
   </energy>
  </scstep>
  <scstep>
   <time name="diag">    8.85    8.86</time>
   <time name="diis">   23.76   23.80</time>
   <time name="orth">    0.48    0.48</time>
   <time name="total">   37.06   37.13</time>
   <energy>
    <i name="e_fr_energy">   -293.09118905 </i>
    <i name="e_wo_entrp">   -293.07476536 </i>
    <i name="e_0_energy">   -293.08571449 </i>
   </energy>
  </scstep>
  <scstep>
   <time name="diag">    8.90    9.08</time>
   <time name="diis">   24.73   25.06</time>
   <time name="orth">    0.48    0.49</time>
   <time name="total">   38.09   38.63</time>
   <energy>
    <i name="e_fr_energy">   -293.08609124 </i>
    <i name="e_wo_entrp">   -293.07105025 </i>
    <i name="e_0_energy">   -293.08107758 </i>
   </energy>
  </scstep>
  <scstep>
   <time name="diag">    8.86    8.87</time>
   <time name="diis">   25.05   25.20</time>
   <time name="orth">    0.49    0.49</time>
   <time name="total">   38.38   38.57</time>
   <energy>
    <i name="e_fr_energy">   -293.07854226 </i>
    <i name="e_wo_entrp">   -293.05978241 </i>
    <i name="e_0_energy">   -293.07228897 </i>
   </energy>
  </scstep>
  <scstep>
   <time name="diag">    9.17    9.35</time>
   <time name="diis">   25.15   25.19</time>
   <time name="orth">    0.49    0.49</time>
   <time name="total">   38.77   38.99</time>
   <energy>
    <i name="e_fr_energy">   -293.08318131 </i>
    <i name="e_wo_entrp">   -293.05914978 </i>
    <i name="e_0_energy">   -293.07517080 </i>
   </energy>
  </scstep>
  <scstep>
   <time name="diag">    8.88    8.90</time>
   <time name="diis">   22.49   22.74</time>
   <time name="orth">    0.49    0.49</time>
   <time name="total">   35.84   36.11</time>
   <energy>
    <i name="e_fr_energy">   -293.09110923 </i>
    <i name="e_wo_entrp">   -293.06572015 </i>
    <i name="e_0_energy">   -293.08264620 </i>
   </energy>
  </scstep>
  <scstep>
   <time name="diag">    8.90    8.92</time>
   <time name="diis">   22.89   22.93</time>
   <time name="orth">    0.49    0.49</time>
   <time name="total">   36.29   36.38</time>
   <energy>
    <i name="e_fr_energy">   -293.08647883 </i>
    <i name="e_wo_entrp">   -293.06084949 </i>
    <i name="e_0_energy">   -293.07793572 </i>
   </energy>
  </scstep>
  <scstep>
   <time name="diag">    8.94    9.02</time>
   <time name="diis">   22.04   22.23</time>
   <time name="orth">    0.49    0.49</time>
   <time name="total">   35.47   35.80</time>
   <energy>
    <i name="e_fr_energy">   -293.08726413 </i>
    <i name="e_wo_entrp">   -293.06221926 </i>
    <i name="e_0_energy">   -293.07891584 </i>
   </energy>
  </scstep>
  <scstep>
   <time name="diag">    8.89    8.90</time>
   <time name="diis">   23.50   23.61</time>
   <time name="orth">    0.49    0.49</time>
   <time name="total">   36.96   37.21</time>
   <energy>
    <i name="e_fr_energy">   -293.08213242 </i>
    <i name="e_wo_entrp">   -293.05699549 </i>
    <i name="e_0_energy">   -293.07375345 </i>
   </energy>
  </scstep>
  <scstep>
   <time name="diag">    8.86    8.92</time>
   <time name="diis">   21.50   21.58</time>
   <time name="orth">    0.48    0.48</time>
   <time name="total">   34.82   34.98</time>
   <energy>
    <i name="e_fr_energy">   -293.07967799 </i>
    <i name="e_wo_entrp">   -293.05428629 </i>
    <i name="e_0_energy">   -293.07121409 </i>
   </energy>
  </scstep>
  <scstep>
   <time name="diag">    8.83    8.85</time>
   <time name="diis">   21.19   21.66</time>
   <time name="orth">    0.49    0.49</time>
   <time name="total">   34.48   34.99</time>
   <energy>
    <i name="e_fr_energy">   -293.07911210 </i>
    <i name="e_wo_entrp">   -293.05349749 </i>
    <i name="e_0_energy">   -293.07057390 </i>
   </energy>
  </scstep>
  <scstep>
   <time name="diag">    8.89    8.93</time>
   <time name="diis">   24.20   24.24</time>
   <time name="orth">    0.49    0.49</time>
   <time name="total">   37.56   37.67</time>
   <energy>
    <i name="e_fr_energy">   -293.07366839 </i>
    <i name="e_wo_entrp">   -293.04795943 </i>
    <i name="e_0_energy">   -293.06509874 </i>
   </energy>
  </scstep>
  <scstep>
   <time name="diag">    8.89    8.92</time>
   <time name="diis">   22.96   23.20</time>
   <time name="orth">    0.49    0.49</time>
   <time name="total">   36.28   36.57</time>
   <energy>
    <i name="e_fr_energy">   -293.08051237 </i>
    <i name="e_wo_entrp">   -293.05755351 </i>
    <i name="e_0_energy">   -293.07285941 </i>
   </energy>
  </scstep>
  <scstep>
   <time name="diag">    8.86    8.87</time>
   <time name="diis">   22.01   22.15</time>
   <time name="orth">    0.48    0.48</time>
   <time name="total">   35.38   35.62</time>
   <energy>
    <i name="e_fr_energy">   -293.08637704 </i>
    <i name="e_wo_entrp">   -293.06636289 </i>
    <i name="e_0_energy">   -293.07970565 </i>
   </energy>
  </scstep>
  <scstep>
   <time name="diag">    8.95    9.09</time>
   <time name="diis">   22.41   22.44</time>
   <time name="orth">    0.48    0.49</time>
   <time name="total">   35.79   36.01</time>
   <energy>
    <i name="e_fr_energy">   -293.08567011 </i>
    <i name="e_wo_entrp">   -293.06699349 </i>
    <i name="e_0_energy">   -293.07944457 </i>
   </energy>
  </scstep>
  <scstep>
   <time name="diag">    8.88    8.91</time>
   <time name="diis">   23.99   24.36</time>
   <time name="orth">    0.48    0.48</time>
   <time name="total">   37.29   37.68</time>
   <energy>
    <i name="e_fr_energy">   -293.08299651 </i>
    <i name="e_wo_entrp">   -293.06336059 </i>
    <i name="e_0_energy">   -293.07645120 </i>
   </energy>
  </scstep>
  <scstep>
   <time name="diag">    8.83    8.86</time>
   <time name="diis">   22.58   22.63</time>
   <time name="orth">    0.48    0.52</time>
   <time name="total">   35.88   36.03</time>
   <energy>
    <i name="e_fr_energy">   -293.08283445 </i>
    <i name="e_wo_entrp">   -293.06148686 </i>
    <i name="e_0_energy">   -293.07571858 </i>
   </energy>
  </scstep>
  <scstep>
   <time name="diag">    8.92    8.97</time>
   <time name="diis">   18.77   19.05</time>
   <time name="orth">    0.48    0.48</time>
   <time name="total">   32.10   32.44</time>
   <energy>
    <i name="e_fr_energy">   -293.08407566 </i>
    <i name="e_wo_entrp">   -293.06160152 </i>
    <i name="e_0_energy">   -293.07658428 </i>
   </energy>
  </scstep>
  <scstep>
   <time name="diag">    8.81    8.83</time>
   <time name="diis">   18.48   18.55</time>
   <time name="orth">    0.49    0.49</time>
   <time name="total">   31.76   31.87</time>
   <energy>
    <i name="e_fr_energy">   -293.08470588 </i>
    <i name="e_wo_entrp">   -293.06153379 </i>
    <i name="e_0_energy">   -293.07698185 </i>
   </energy>
  </scstep>
  <scstep>
   <time name="diag">    9.08    9.36</time>
   <time name="diis">   18.38   18.41</time>
   <time name="orth">    0.48    0.49</time>
   <time name="total">   31.90   32.22</time>
   <energy>
    <i name="e_fr_energy">   -293.08486969 </i>
    <i name="e_wo_entrp">   -293.06137686 </i>
    <i name="e_0_energy">   -293.07703875 </i>
   </energy>
  </scstep>
  <scstep>
   <time name="diag">    8.84    8.85</time>
   <time name="diis">   18.27   18.34</time>
   <time name="orth">    0.49    0.49</time>
   <time name="total">   31.66   31.77</time>
   <energy>
    <i name="e_fr_energy">   -293.08475259 </i>
    <i name="e_wo_entrp">   -293.06129588 </i>
    <i name="e_0_energy">   -293.07693369 </i>
   </energy>
  </scstep>
  <scstep>
   <time name="diag">    9.29    9.64</time>
   <time name="diis">   21.48   21.52</time>
   <time name="orth">    0.49    0.49</time>
   <time name="total">   35.27   35.67</time>
   <energy>
    <i name="e_fr_energy">   -293.08473722 </i>
    <i name="e_wo_entrp">   -293.06186865 </i>
    <i name="e_0_energy">   -293.07711436 </i>
   </energy>
  </scstep>
  <scstep>
   <time name="diag">    8.93    8.98</time>
   <time name="diis">   16.18   16.35</time>
   <time name="orth">    0.49    0.51</time>
   <time name="total">   29.63   29.92</time>
   <energy>
    <i name="e_fr_energy">   -293.08496432 </i>
    <i name="e_wo_entrp">   -293.06275898 </i>
    <i name="e_0_energy">   -293.07756254 </i>
   </energy>
  </scstep>
  <scstep>
   <time name="diag">    8.92    8.93</time>
   <time name="diis">   19.37   19.41</time>
   <time name="orth">    0.49    0.49</time>
   <time name="total">   32.79   32.85</time>
   <energy>
    <i name="e_fr_energy">   -293.08478606 </i>
    <i name="e_wo_entrp">   -293.06254405 </i>
    <i name="e_0_energy">   -293.07737205 </i>
   </energy>
  </scstep>
  <scstep>
   <time name="diag">    8.94    8.96</time>
   <time name="diis">   16.18   16.41</time>
   <time name="orth">    0.50    0.50</time>
   <time name="total">   29.63   29.89</time>
   <energy>
    <i name="e_fr_energy">   -293.08475326 </i>
    <i name="e_wo_entrp">   -293.06216027 </i>
    <i name="e_0_energy">   -293.07722226 </i>
   </energy>
  </scstep>
  <scstep>
   <time name="diag">    8.97    9.00</time>
   <time name="diis">   17.19   17.22</time>
   <time name="orth">    0.49    0.49</time>
   <time name="total">   30.68   30.76</time>
   <energy>
    <i name="e_fr_energy">   -293.08494877 </i>
    <i name="e_wo_entrp">   -293.06172714 </i>
    <i name="e_0_energy">   -293.07720823 </i>
   </energy>
  </scstep>
  <scstep>
   <time name="diag">    8.93    8.94</time>
   <time name="diis">   16.34   16.55</time>
   <time name="orth">    0.49    0.49</time>
   <time name="total">   29.72   29.95</time>
   <energy>
    <i name="e_fr_energy">   -293.08522643 </i>
    <i name="e_wo_entrp">   -293.06142150 </i>
    <i name="e_0_energy">   -293.07729145 </i>
   </energy>
  </scstep>
  <scstep>
   <time name="diag">    8.86    8.89</time>
   <time name="diis">   16.29   16.31</time>
   <time name="orth">    0.48    0.49</time>
   <time name="total">   29.62   29.68</time>
   <energy>
    <i name="e_fr_energy">   -293.08518632 </i>
    <i name="e_wo_entrp">   -293.06102328 </i>
    <i name="e_0_energy">   -293.07713197 </i>
   </energy>
  </scstep>
  <scstep>
   <time name="diag">    8.86    8.90</time>
   <time name="diis">   16.53   17.04</time>
   <time name="orth">    0.48    0.48</time>
   <time name="total">   29.83   30.39</time>
   <energy>
    <i name="e_fr_energy">   -293.08496318 </i>
    <i name="e_wo_entrp">   -293.06065757 </i>
    <i name="e_0_energy">   -293.07686131 </i>
   </energy>
  </scstep>
  <scstep>
   <time name="diag">    8.84    8.86</time>
   <time name="diis">   14.97   14.99</time>
   <time name="orth">    0.48    0.48</time>
   <time name="total">   28.24   28.32</time>
   <energy>
    <i name="e_fr_energy">   -293.08479808 </i>
    <i name="e_wo_entrp">   -293.06047679 </i>
    <i name="e_0_energy">   -293.07669098 </i>
   </energy>
  </scstep>
  <scstep>
   <time name="diag">    8.82    8.84</time>
   <time name="diis">   13.81   13.87</time>
   <time name="orth">    0.50    0.50</time>
   <time name="total">   27.32   27.74</time>
   <energy>
    <i name="e_fr_energy">   -293.08475609 </i>
    <i name="e_wo_entrp">   -293.06045445 </i>
    <i name="e_0_energy">   -293.07665554 </i>
   </energy>
  </scstep>
  <scstep>
   <time name="diag">    8.83    8.84</time>
   <time name="diis">   13.42   13.44</time>
   <time name="orth">    0.48    0.48</time>
   <time name="total">   26.67   26.71</time>
   <energy>
    <i name="e_fr_energy">   -293.08470599 </i>
    <i name="e_wo_entrp">   -293.06048129 </i>
    <i name="e_0_energy">   -293.07663109 </i>
   </energy>
  </scstep>
  <scstep>
   <time name="diag">    8.81    8.83</time>
   <time name="diis">   13.91   14.00</time>
   <time name="orth">    0.50    0.52</time>
   <time name="total">   27.25   27.37</time>
   <energy>
    <i name="e_fr_energy">   -293.08472556 </i>
    <i name="e_wo_entrp">   -293.06061557 </i>
    <i name="e_0_energy">   -293.07668890 </i>
   </energy>
  </scstep>
  <scstep>
   <time name="diag">    9.05    9.18</time>
   <time name="diis">   14.40   14.43</time>
   <time name="orth">    0.48    0.49</time>
   <time name="total">   27.93   28.10</time>
   <energy>
    <i name="e_fr_energy">   -293.08476091 </i>
    <i name="e_wo_entrp">   -293.06082469 </i>
    <i name="e_0_energy">   -293.07678217 </i>
   </energy>
  </scstep>
  <scstep>
   <time name="diag">    8.85    8.86</time>
   <time name="diis">   14.75   14.88</time>
   <time name="orth">    0.48    0.48</time>
   <time name="total">   28.07   28.23</time>
   <energy>
    <i name="e_fr_energy">   -293.08485620 </i>
    <i name="e_wo_entrp">   -293.06117188 </i>
    <i name="e_0_energy">   -293.07696143 </i>
   </energy>
  </scstep>
  <scstep>
   <time name="diag">    9.18    9.47</time>
   <time name="diis">   14.90   14.97</time>
   <time name="orth">    0.48    0.48</time>
   <time name="total">   28.53   28.90</time>
   <energy>
    <i name="e_fr_energy">   -293.08500327 </i>
    <i name="e_wo_entrp">   -293.06163583 </i>
    <i name="e_0_energy">   -293.07721412 </i>
   </energy>
  </scstep>
  <scstep>
   <time name="diag">    8.85    8.86</time>
   <time name="diis">   14.96   15.02</time>
   <time name="orth">    0.52    0.58</time>
   <time name="total">   28.32   28.46</time>
   <energy>
    <i name="e_fr_energy">   -293.08517518 </i>
    <i name="e_wo_entrp">   -293.06210919 </i>
    <i name="e_0_energy">   -293.07748652 </i>
   </energy>
  </scstep>
  <scstep>
   <time name="diag">    9.01    9.07</time>
   <time name="diis">   15.09   15.36</time>
   <time name="orth">    0.49    0.50</time>
   <time name="total">   28.61   28.96</time>
   <energy>
    <i name="e_fr_energy">   -293.08528843 </i>
    <i name="e_wo_entrp">   -293.06245957 </i>
    <i name="e_0_energy">   -293.07767881 </i>
   </energy>
  </scstep>
  <scstep>
   <time name="diag">    8.92    8.93</time>
   <time name="diis">   14.98   15.01</time>
   <time name="orth">    0.49    0.49</time>
   <time name="total">   28.44   28.54</time>
   <energy>
    <i name="e_fr_energy">   -293.08531606 </i>
    <i name="e_wo_entrp">   -293.06257575 </i>
    <i name="e_0_energy">   -293.07773596 </i>
   </energy>
  </scstep>
  <scstep>
   <time name="diag">    8.89    8.94</time>
   <time name="diis">   14.68   14.84</time>
   <time name="orth">    0.49    0.49</time>
   <time name="total">   24.58   24.79</time>
   <energy>
    <i name="alphaZ">    477.09650995 </i>
    <i name="ewald"> 394142.71067886 </i>
    <i name="hartreedc">-427838.30743628 </i>
    <i name="XCdc">   1613.12883424 </i>
    <i name="pawpsdc">  38090.18624844 </i>
    <i name="pawaedc"> -38795.95866296 </i>
    <i name="eentropy">     -0.02279625 </i>
    <i name="bandstr">  -5934.85190908 </i>
    <i name="atom">  37952.93320877 </i>
    <i name="e_fr_energy">   -293.08532431 </i>
    <i name="e_wo_entrp">   -293.06252806 </i>
    <i name="e_0_energy">   -293.07772556 </i>
   </energy>
  </scstep>
  <structure>
   <crystal>
    <varray name="basis" >
     <v>       2.87357350      -2.87357350       4.70833511 </v>
     <v>       5.74714699       0.00000000       0.00000000 </v>
     <v>       0.00000000      33.06569101      20.18052901 </v>
    </varray>
    <i name="volume">   1228.01926054 </i>
    <varray name="rec_basis" >
     <v>       0.00000000      -0.09444515       0.15474789 </v>
     <v>       0.17399938       0.04722258      -0.07737394 </v>
     <v>       0.00000000       0.02203507       0.01344836 </v>
    </varray>
   </crystal>
   <varray name="positions" >
    <v>       0.22067121       0.89240241       0.08901558 </v>
    <v>       0.66144826       0.17171342       0.21832814 </v>
    <v>       0.94927612       0.02809995       0.15233499 </v>
    <v>       0.37379671       0.31629592       0.28557334 </v>
    <v>       0.44927612       0.52809995       0.15233499 </v>
    <v>       0.89546986       0.30427747       0.28181776 </v>
    <v>       0.44927612       0.02809995       0.15233499 </v>
    <v>       0.89266330       0.80052694       0.28148437 </v>
    <v>       0.90282244       0.55132680       0.10484543 </v>
    <v>       0.35308937       0.82576369       0.23351444 </v>
    <v>       0.99165738       0.50824223       0.20083702 </v>
    <v>       0.42483951       0.79124075       0.33260060 </v>
    <v>       0.53851998       0.23347802       0.07318573 </v>
    <v>       0.02023054       0.48617688       0.35055372 </v>
    <v>       0.77388937       0.61063170       0.30909919 </v>
    <v>       0.87926422       0.06310591       0.05527763 </v>
    <v>       0.33908673       0.33119440       0.18265685 </v>
    <v>       0.58246139       0.21150732       0.12452493 </v>
    <v>       0.03457284       0.48769745       0.25355569 </v>
    <v>       0.67971757       0.70042483       0.37168560 </v>
    <v>       0.09516526       0.72856013       0.12156099 </v>
    <v>       0.54267729       0.45308535       0.25365682 </v>
    <v>       0.73620978       0.12651399       0.31211965 </v>
    <v>       0.85888103       0.57329750       0.05350623 </v>
    <v>       0.31136208       0.84810274       0.18049905 </v>
    <v>       0.56207820       0.72169891       0.12275353 </v>
    <v>       0.00213821       0.99788472       0.25286185 </v>
    <v>       0.79426460       0.32746892       0.18421825 </v>
    <v>       0.21815158       0.62050308       0.31582224 </v>
    <v>       0.34617716       0.60305419       0.05647018 </v>
    <v>       0.21568868       0.16671716       0.31516010 </v>
    <v>       0.79314460       0.88368569       0.18417361 </v>
    <v>       0.34617716       0.05624469       0.05647018 </v>
    <v>       0.53853567       0.01197294       0.25325425 </v>
    <v>       0.09516526       0.18175063       0.12156099 </v>
    <v>       0.18468151       0.36004729       0.39364507 </v>
    <v>       0.34047062       0.60391201       0.02782883 </v>
    <v>       0.92434681       0.68523651       0.03696881 </v>
    <v>       0.34363348       0.06399961       0.02783421 </v>
    <v>       0.88838126       0.05560908       0.02665597 </v>
    <v>       0.64415776       0.77963116       0.39435076 </v>
    <v>       0.75360048       0.10661532       0.33690373 </v>
    <v>       0.07486235       0.43489659       0.41265413 </v>
   </varray>
  </structure>
  <varray name="forces" >
   <v>       0.11638475      -1.74225665      -1.61125848 </v>
   <v>      -0.02779367      -0.04880635       0.02824140 </v>
   <v>      -0.04400468       0.68949793      -0.01960964 </v>
   <v>       0.00843358      -0.07224953       0.07820490 </v>
   <v>      -0.01280751       0.35144042       0.09396861 </v>
   <v>      -0.24595002      -0.03484010      -0.01765755 </v>
   <v>      -0.02867790       0.22312906       0.07872392 </v>
   <v>       0.22664510       0.05263463      -0.03205797 </v>
   <v>      -0.02435900      -1.32662976      -0.84858094 </v>
   <v>      -0.02457127       0.03584737      -0.01584345 </v>
   <v>      -0.03918435      -0.04566447      -0.03192417 </v>
   <v>      -0.01743588       0.09515986      -0.08259439 </v>
   <v>       0.00394649      -0.50165557       0.26825049 </v>
   <v>      -0.04850067       0.08425306       0.00366098 </v>
   <v>       0.02642925       0.16589563      -0.05688639 </v>
   <v>      -0.31257816      -3.62472061      -1.96262489 </v>
   <v>      -0.01165731       0.09484157      -0.03512924 </v>
   <v>      -0.07284488       0.26202398       0.37317931 </v>
   <v>      -0.04708844      -0.09480695      -0.06867953 </v>
   <v>       0.06787734      -0.08166399       0.02014947 </v>
   <v>       0.34897061       0.37429510       0.53891394 </v>
   <v>       0.00288412      -0.00467193      -0.03476010 </v>
   <v>       0.03798536      -0.43436535      -0.17750163 </v>
   <v>       2.70103412      -2.55029752      -0.24906421 </v>
   <v>      -0.00849984       0.07444074       0.04399058 </v>
   <v>       0.11437184       0.33389822      -0.34424557 </v>
   <v>       0.08975597      -0.01139977       0.03956388 </v>
   <v>       0.04706457       0.00396858       0.06095154 </v>
   <v>       0.11147094      -0.00790131       0.09085613 </v>
   <v>      -0.94640879      -3.58302890      -2.15693778 </v>
   <v>      -0.03783299       0.02082042       0.04913603 </v>
   <v>      -0.07212754      -0.02410529       0.05194417 </v>
   <v>       1.04875839      -3.64490382      -1.93198808 </v>
   <v>      -0.07602311      -0.00089152      -0.01486900 </v>
   <v>      -0.16127234       0.32849624       0.44367973 </v>
   <v>      -0.07277934      -0.97162074       0.10339577 </v>
   <v>       0.56485397       3.80211556       2.31581667 </v>
   <v>      -2.90017181       3.09033092       0.46164215 </v>
   <v>      -0.65589740       3.94431866       2.09749857 </v>
   <v>       0.36454188       3.68292881       2.17674416 </v>
   <v>       0.03266395       0.21752635       0.08810348 </v>
   <v>      -0.05268268       0.24046466       0.22918268 </v>
   <v>       0.02707736       0.63815240      -0.04358552 </v>
  </varray>
  <energy>
   <i name="e_fr_energy">   -293.08532431 </i>
   <i name="e_wo_entrp">   -293.07772556 </i>
   <i name="e_0_energy">     -0.02279625 </i>
  </energy>
  <time name="totalsc"> 1613.71 1625.21</time>
 </calculation>
 <calculation>
  <scstep>
   <time name="dav">   45.97   46.36</time>
   <time name="total">   49.98   50.39</time>
   <energy>
    <i name="alphaZ">    477.09650995 </i>
    <i name="ewald"> 394152.23811151 </i>
    <i name="hartreedc">-427848.59125898 </i>
    <i name="XCdc">   1613.09463185 </i>
    <i name="pawpsdc">  38090.15574625 </i>
    <i name="pawaedc"> -38795.93051092 </i>
    <i name="eentropy">     -0.02168675 </i>
    <i name="bandstr">  -5934.05219464 </i>
    <i name="atom">  37952.93320877 </i>
    <i name="e_fr_energy">   -293.07744295 </i>
    <i name="e_wo_entrp">   -293.05575620 </i>
    <i name="e_0_energy">   -293.07021403 </i>
   </energy>
  </scstep>
  <scstep>
   <time name="diag">    8.92    8.93</time>
   <time name="diis">   30.69   31.00</time>
   <time name="orth">    0.49    0.49</time>
   <time name="total">   44.06   44.38</time>
   <energy>
    <i name="e_fr_energy">   -293.10196784 </i>
    <i name="e_wo_entrp">   -293.07784834 </i>
    <i name="e_0_energy">   -293.09392801 </i>
   </energy>
  </scstep>
  <scstep>
   <time name="diag">    8.87    8.90</time>
   <time name="diis">   25.33   25.37</time>
   <time name="orth">    0.49    0.49</time>
   <time name="total">   38.69   38.81</time>
   <energy>
    <i name="e_fr_energy">   -293.08403492 </i>
    <i name="e_wo_entrp">   -293.05804295 </i>
    <i name="e_0_energy">   -293.07537093 </i>
   </energy>
  </scstep>
  <scstep>
   <time name="diag">    8.94    8.98</time>
   <time name="diis">   26.56   26.85</time>
   <time name="orth">    0.49    0.49</time>
   <time name="total">   39.96   40.29</time>
   <energy>
    <i name="e_fr_energy">   -293.08352323 </i>
    <i name="e_wo_entrp">   -293.06321425 </i>
    <i name="e_0_energy">   -293.07675357 </i>
   </energy>
  </scstep>
  <scstep>
   <time name="diag">    8.90    8.91</time>
   <time name="diis">   25.21   25.53</time>
   <time name="orth">    0.49    0.49</time>
   <time name="total">   38.54   38.87</time>
   <energy>
    <i name="e_fr_energy">   -293.09147656 </i>
    <i name="e_wo_entrp">   -293.07333062 </i>
    <i name="e_0_energy">   -293.08542792 </i>
   </energy>
  </scstep>
  <scstep>
   <time name="diag">    8.86    8.88</time>
   <time name="diis">   24.29   24.37</time>
   <time name="orth">    0.48    0.48</time>
   <time name="total">   37.60   37.70</time>
   <energy>
    <i name="e_fr_energy">   -293.08832575 </i>
    <i name="e_wo_entrp">   -293.06992377 </i>
    <i name="e_0_energy">   -293.08219176 </i>
   </energy>
  </scstep>
  <scstep>
   <time name="diag">    8.98    9.07</time>
   <time name="diis">   26.09   26.49</time>
   <time name="orth">    0.48    0.48</time>
   <time name="total">   39.45   39.94</time>
   <energy>
    <i name="e_fr_energy">   -293.08621173 </i>
    <i name="e_wo_entrp">   -293.06426533 </i>
    <i name="e_0_energy">   -293.07889626 </i>
   </energy>
  </scstep>
  <scstep>
   <time name="diag">    8.73    8.74</time>
   <time name="diis">   23.20   23.29</time>
   <time name="orth">    0.50    0.50</time>
   <time name="total">   36.63   36.96</time>
   <energy>
    <i name="e_fr_energy">   -293.09171118 </i>
    <i name="e_wo_entrp">   -293.06722275 </i>
    <i name="e_0_energy">   -293.08354837 </i>
   </energy>
  </scstep>
  <scstep>
   <time name="diag">    8.88    8.89</time>
   <time name="diis">   23.53   23.58</time>
   <time name="orth">    0.49    0.50</time>
   <time name="total">   36.86   36.95</time>
   <energy>
    <i name="e_fr_energy">   -293.08959890 </i>
    <i name="e_wo_entrp">   -293.06436968 </i>
    <i name="e_0_energy">   -293.08118916 </i>
   </energy>
  </scstep>
  <scstep>
   <time name="diag">    8.96    9.22</time>
   <time name="diis">   23.96   24.21</time>
   <time name="orth">    0.48    0.49</time>
   <time name="total">   37.37   37.89</time>
   <energy>
    <i name="e_fr_energy">   -293.08606581 </i>
    <i name="e_wo_entrp">   -293.06152701 </i>
    <i name="e_0_energy">   -293.07788621 </i>
   </energy>
  </scstep>
  <scstep>
   <time name="diag">    8.87    8.88</time>
   <time name="diis">   23.24   23.31</time>
   <time name="orth">    0.49    0.49</time>
   <time name="total">   36.52   36.61</time>
   <energy>
    <i name="e_fr_energy">   -293.08793974 </i>
    <i name="e_wo_entrp">   -293.06567196 </i>
    <i name="e_0_energy">   -293.08051715 </i>
   </energy>
  </scstep>
  <scstep>
   <time name="diag">    9.06    9.35</time>
   <time name="diis">   21.50   21.55</time>
   <time name="orth">    0.49    0.49</time>
   <time name="total">   34.99   35.33</time>
   <energy>
    <i name="e_fr_energy">   -293.09002641 </i>
    <i name="e_wo_entrp">   -293.06956567 </i>
    <i name="e_0_energy">   -293.08320616 </i>
   </energy>
  </scstep>
  <scstep>
   <time name="diag">    8.86    8.88</time>
   <time name="diis">   21.57   21.77</time>
   <time name="orth">    0.55    0.63</time>
   <time name="total">   34.95   35.35</time>
   <energy>
    <i name="e_fr_energy">   -293.08947486 </i>
    <i name="e_wo_entrp">   -293.06987411 </i>
    <i name="e_0_energy">   -293.08294128 </i>
   </energy>
  </scstep>
  <scstep>
   <time name="diag">    8.84    8.85</time>
   <time name="diis">   17.82   17.86</time>
   <time name="orth">    0.48    0.49</time>
   <time name="total">   31.09   31.15</time>
   <energy>
    <i name="e_fr_energy">   -293.08934581 </i>
    <i name="e_wo_entrp">   -293.07060184 </i>
    <i name="e_0_energy">   -293.08309782 </i>
   </energy>
  </scstep>
  <scstep>
   <time name="diag">    8.87    8.89</time>
   <time name="diis">   18.57   18.94</time>
   <time name="orth">    0.48    0.49</time>
   <time name="total">   31.87   32.28</time>
   <energy>
    <i name="e_fr_energy">   -293.08868371 </i>
    <i name="e_wo_entrp">   -293.07032722 </i>
    <i name="e_0_energy">   -293.08256488 </i>
   </energy>
  </scstep>
  <scstep>
   <time name="diag">    8.86    8.89</time>
   <time name="diis">   15.16   15.19</time>
   <time name="orth">    0.49    0.49</time>
   <time name="total">   25.04   25.10</time>
   <energy>
    <i name="alphaZ">    477.09650995 </i>
    <i name="ewald"> 394152.23811151 </i>
    <i name="hartreedc">-427850.22061092 </i>
    <i name="XCdc">   1613.06951854 </i>
    <i name="pawpsdc">  38084.80959570 </i>
    <i name="pawaedc"> -38790.55468745 </i>
    <i name="eentropy">     -0.01788717 </i>
    <i name="bandstr">  -5932.44244278 </i>
    <i name="atom">  37952.93320877 </i>
    <i name="e_fr_energy">   -293.08868385 </i>
    <i name="e_wo_entrp">   -293.07079668 </i>
    <i name="e_0_energy">   -293.08272146 </i>
   </energy>
  </scstep>
  <structure>
   <crystal>
    <varray name="basis" >
     <v>       2.87357350      -2.87357350       4.70833511 </v>
     <v>       5.74714699       0.00000000       0.00000000 </v>
     <v>       0.00000000      33.06569101      20.18052901 </v>
    </varray>
    <i name="volume">   1228.01926054 </i>
    <varray name="rec_basis" >
     <v>       0.00000000      -0.09444515       0.15474789 </v>
     <v>       0.17399938       0.04722258      -0.07737394 </v>
     <v>       0.00000000       0.02203507       0.01344836 </v>
    </varray>
   </crystal>
   <varray name="positions" >
    <v>       0.22067121       0.89240241       0.08901558 </v>
    <v>       0.66138909       0.17194060       0.21829785 </v>
    <v>       0.94927612       0.02809995       0.15233499 </v>
    <v>       0.37371393       0.31650668       0.28559823 </v>
    <v>       0.44927612       0.52809995       0.15233499 </v>
    <v>       0.89524771       0.30427780       0.28180648 </v>
    <v>       0.44927612       0.02809995       0.15233499 </v>
    <v>       0.89258207       0.80053989       0.28152995 </v>
    <v>       0.90282244       0.55132680       0.10484543 </v>
    <v>       0.35292603       0.82584252       0.23346140 </v>
    <v>       0.99181246       0.50815709       0.20081494 </v>
    <v>       0.42467131       0.79119834       0.33252373 </v>
    <v>       0.53851998       0.23347802       0.07318573 </v>
    <v>       0.02052967       0.48567702       0.35059837 </v>
    <v>       0.77476428       0.60992444       0.30915932 </v>
    <v>       0.87926422       0.06310591       0.05527763 </v>
    <v>       0.33882503       0.33175700       0.18268464 </v>
    <v>       0.58246139       0.21150732       0.12452493 </v>
    <v>       0.03492301       0.48733515       0.25354012 </v>
    <v>       0.67982528       0.69983147       0.37164729 </v>
    <v>       0.09516526       0.72856013       0.12156099 </v>
    <v>       0.54282170       0.45344554       0.25363062 </v>
    <v>       0.73565218       0.12702551       0.31208793 </v>
    <v>       0.85888103       0.57329750       0.05350623 </v>
    <v>       0.31155346       0.84774710       0.18054620 </v>
    <v>       0.56207820       0.72169891       0.12275353 </v>
    <v>       0.00247139       0.99781618       0.25281340 </v>
    <v>       0.79401763       0.32824881       0.18427173 </v>
    <v>       0.21797196       0.62083982       0.31587044 </v>
    <v>       0.34617716       0.60305419       0.05647018 </v>
    <v>       0.21521984       0.16667932       0.31520125 </v>
    <v>       0.79290391       0.88350901       0.18422133 </v>
    <v>       0.34617716       0.05624469       0.05647018 </v>
    <v>       0.53851698       0.01197823       0.25322228 </v>
    <v>       0.09516526       0.18175063       0.12156099 </v>
    <v>       0.18422903       0.36030318       0.39354890 </v>
    <v>       0.34047062       0.60391201       0.02782883 </v>
    <v>       0.92434681       0.68523651       0.03696881 </v>
    <v>       0.34363348       0.06399961       0.02783421 </v>
    <v>       0.88838126       0.05560908       0.02665597 </v>
    <v>       0.64425588       0.77966750       0.39428281 </v>
    <v>       0.75353036       0.10670489       0.33702114 </v>
    <v>       0.07392348       0.43567963       0.41277820 </v>
   </varray>
  </structure>
  <varray name="forces" >
   <v>       0.11553201      -1.74812710      -1.62147751 </v>
   <v>      -0.03414113      -0.01922917       0.04069546 </v>
   <v>      -0.03741577       0.71549731      -0.02008264 </v>
   <v>      -0.00002020      -0.09556593       0.06052758 </v>
   <v>      -0.00430225       0.35490910       0.09491233 </v>
   <v>      -0.26477314      -0.09432539      -0.01145480 </v>
   <v>      -0.03117828       0.24462474       0.08176591 </v>
   <v>       0.24177639      -0.02577413      -0.04475294 </v>
   <v>      -0.01067854      -1.33473434      -0.85141497 </v>
   <v>      -0.01737962       0.04449664       0.00593084 </v>
   <v>      -0.02966622      -0.02087757      -0.02595296 </v>
   <v>      -0.01522587       0.09268297      -0.05473194 </v>
   <v>      -0.00416124      -0.50169675       0.27571733 </v>
   <v>      -0.07554792       0.17260526      -0.14683648 </v>
   <v>       0.05907257       0.21348562      -0.01505805 </v>
   <v>      -0.30931948      -3.66284512      -1.97782494 </v>
   <v>      -0.04432861       0.05306827      -0.02279190 </v>
   <v>      -0.07878638       0.26906615       0.37982593 </v>
   <v>      -0.02473989      -0.05344512      -0.06514893 </v>
   <v>       0.05043448      -0.15165165       0.06778988 </v>
   <v>       0.36032252       0.38803524       0.54323290 </v>
   <v>      -0.02724554       0.02134334      -0.02713423 </v>
   <v>      -0.00137780      -0.18989427       0.00987324 </v>
   <v>       2.82814787      -2.68524466      -0.24128299 </v>
   <v>       0.01949335       0.04119815       0.00950332 </v>
   <v>       0.12148305       0.35543426      -0.35004105 </v>
   <v>       0.06611758       0.05208797       0.02525946 </v>
   <v>      -0.01366051      -0.03768958       0.04672750 </v>
   <v>       0.07297276      -0.01428350       0.08951066 </v>
   <v>      -0.93966871      -3.58999416      -2.16629105 </v>
   <v>       0.01672700       0.03761352       0.07152888 </v>
   <v>      -0.02822340      -0.05550559       0.03926921 </v>
   <v>       1.04042512      -3.65744853      -1.94097153 </v>
   <v>      -0.05879185       0.01967399      -0.00286457 </v>
   <v>      -0.18001902       0.33173863       0.45111822 </v>
   <v>      -0.03192371      -0.65530103       0.07403025 </v>
   <v>       0.56388686       3.81012975       2.31991888 </v>
   <v>      -2.99833002       3.20237519       0.46091679 </v>
   <v>      -0.65590650       3.95981080       2.10423793 </v>
   <v>       0.36536915       3.71437626       2.19354559 </v>
   <v>       0.03886606       0.22863914       0.11072070 </v>
   <v>      -0.03170981       0.00516834       0.04865353 </v>
   <v>      -0.01210537       0.26557298      -0.01909885 </v>
  </varray>
  <energy>
   <i name="e_fr_energy">   -293.08868385 </i>
   <i name="e_wo_entrp">   -293.08272146 </i>
   <i name="e_0_energy">     -0.01788717 </i>
  </energy>
  <time name="totalsc">  614.94  619.60</time>
 </calculation>
 <calculation>
  <scstep>
   <time name="dav">   47.65   47.93</time>
   <time name="total">   51.64   51.93</time>
   <energy>
    <i name="alphaZ">    477.09650995 </i>
    <i name="ewald"> 394158.70971412 </i>
    <i name="hartreedc">-427856.75209122 </i>
    <i name="XCdc">   1613.07094678 </i>
    <i name="pawpsdc">  38084.78476866 </i>
    <i name="pawaedc"> -38790.53012254 </i>
    <i name="eentropy">     -0.01640722 </i>
    <i name="bandstr">  -5932.34804865 </i>
    <i name="atom">  37952.93320877 </i>
    <i name="e_fr_energy">   -293.05152136 </i>
    <i name="e_wo_entrp">   -293.03511414 </i>
    <i name="e_0_energy">   -293.04605229 </i>
   </energy>
  </scstep>
  <scstep>
   <time name="diag">    8.97    9.10</time>
   <time name="diis">   30.51   30.86</time>
   <time name="orth">    0.49    0.49</time>
   <time name="total">   43.95   44.44</time>
   <energy>
    <i name="e_fr_energy">   -293.34505428 </i>
    <i name="e_wo_entrp">   -293.34524836 </i>
    <i name="e_0_energy">   -293.34511898 </i>
   </energy>
  </scstep>
  <scstep>
   <time name="diag">    8.93    8.95</time>
   <time name="diis">   26.41   26.74</time>
   <time name="orth">    0.48    0.48</time>
   <time name="total">   39.76   40.12</time>
   <energy>
    <i name="e_fr_energy">   -293.11554059 </i>
    <i name="e_wo_entrp">   -293.10777752 </i>
    <i name="e_0_energy">   -293.11295290 </i>
   </energy>
  </scstep>
  <scstep>
   <time name="diag">    8.86    8.88</time>
   <time name="diis">   26.60   26.64</time>
   <time name="orth">    0.49    0.49</time>
   <time name="total">   39.89   39.98</time>
   <energy>
    <i name="e_fr_energy">   -293.04915344 </i>
    <i name="e_wo_entrp">   -293.02442558 </i>
    <i name="e_0_energy">   -293.04091082 </i>
   </energy>
  </scstep>
  <scstep>
   <time name="diag">    9.01    9.19</time>
   <time name="diis">   27.41   27.59</time>
   <time name="orth">    0.48    0.48</time>
   <time name="total">   40.85   41.21</time>
   <energy>
    <i name="e_fr_energy">   -293.06548819 </i>
    <i name="e_wo_entrp">   -293.04443237 </i>
    <i name="e_0_energy">   -293.05846958 </i>
   </energy>
  </scstep>
  <scstep>
   <time name="diag">    8.87    8.89</time>
   <time name="diis">   24.43   24.72</time>
   <time name="orth">    0.48    0.48</time>
   <time name="total">   37.73   38.04</time>
   <energy>
    <i name="e_fr_energy">   -293.11944659 </i>
    <i name="e_wo_entrp">   -293.11167645 </i>
    <i name="e_0_energy">   -293.11685655 </i>
   </energy>
  </scstep>
  <scstep>
   <time name="diag">    8.92    9.16</time>
   <time name="diis">   23.69   23.76</time>
   <time name="orth">    0.48    0.48</time>
   <time name="total">   37.06   37.40</time>
   <energy>
    <i name="e_fr_energy">   -293.12085646 </i>
    <i name="e_wo_entrp">   -293.12144154 </i>
    <i name="e_0_energy">   -293.12105148 </i>
   </energy>
  </scstep>
  <scstep>
   <time name="diag">    8.90    8.94</time>
   <time name="diis">   23.50   23.71</time>
   <time name="orth">    0.48    0.48</time>
   <time name="total">   36.84   37.09</time>
   <energy>
    <i name="e_fr_energy">   -293.12207064 </i>
    <i name="e_wo_entrp">   -293.12886779 </i>
    <i name="e_0_energy">   -293.12433636 </i>
   </energy>
  </scstep>
  <scstep>
   <time name="diag">    8.84    8.85</time>
   <time name="diis">   25.44   25.61</time>
   <time name="orth">    0.51    0.53</time>
   <time name="total">   38.88   39.26</time>
   <energy>
    <i name="e_fr_energy">   -293.08963946 </i>
    <i name="e_wo_entrp">   -293.09138457 </i>
    <i name="e_0_energy">   -293.09022116 </i>
   </energy>
  </scstep>
  <scstep>
   <time name="diag">    8.86    8.87</time>
   <time name="diis">   26.24   26.28</time>
   <time name="orth">    0.49    0.49</time>
   <time name="total">   39.57   39.65</time>
   <energy>
    <i name="e_fr_energy">   -293.07064065 </i>
    <i name="e_wo_entrp">   -293.05995227 </i>
    <i name="e_0_energy">   -293.06707785 </i>
   </energy>
  </scstep>
  <scstep>
   <time name="diag">    8.85    8.88</time>
   <time name="diis">   23.99   24.29</time>
   <time name="orth">    0.49    0.49</time>
   <time name="total">   37.28   37.61</time>
   <energy>
    <i name="e_fr_energy">   -293.08305462 </i>
    <i name="e_wo_entrp">   -293.06316776 </i>
    <i name="e_0_energy">   -293.07642567 </i>
   </energy>
  </scstep>
  <scstep>
   <time name="diag">    8.86    8.87</time>
   <time name="diis">   23.65   23.75</time>
   <time name="orth">    0.50    0.51</time>
   <time name="total">   37.02   37.16</time>
   <energy>
    <i name="e_fr_energy">   -293.09933297 </i>
    <i name="e_wo_entrp">   -293.07504557 </i>
    <i name="e_0_energy">   -293.09123717 </i>
   </energy>
  </scstep>
  <scstep>
   <time name="diag">    9.14    9.44</time>
   <time name="diis">   23.82   23.85</time>
   <time name="orth">    0.49    0.49</time>
   <time name="total">   37.45   37.78</time>
   <energy>
    <i name="e_fr_energy">   -293.10318683 </i>
    <i name="e_wo_entrp">   -293.07821939 </i>
    <i name="e_0_energy">   -293.09486435 </i>
   </energy>
  </scstep>
  <scstep>
   <time name="diag">    8.88    8.90</time>
   <time name="diis">   24.45   24.95</time>
   <time name="orth">    0.49    0.49</time>
   <time name="total">   37.79   38.33</time>
   <energy>
    <i name="e_fr_energy">   -293.09322457 </i>
    <i name="e_wo_entrp">   -293.06770501 </i>
    <i name="e_0_energy">   -293.08471805 </i>
   </energy>
  </scstep>
  <scstep>
   <time name="diag">    8.90    8.93</time>
   <time name="diis">   24.55   24.66</time>
   <time name="orth">    0.47    0.47</time>
   <time name="total">   37.86   38.00</time>
   <energy>
    <i name="e_fr_energy">   -293.08934224 </i>
    <i name="e_wo_entrp">   -293.06531613 </i>
    <i name="e_0_energy">   -293.08133354 </i>
   </energy>
  </scstep>
  <scstep>
   <time name="diag">    9.17    9.45</time>
   <time name="diis">   22.02   22.06</time>
   <time name="orth">    0.48    0.48</time>
   <time name="total">   35.61   35.94</time>
   <energy>
    <i name="e_fr_energy">   -293.09635616 </i>
    <i name="e_wo_entrp">   -293.07471117 </i>
    <i name="e_0_energy">   -293.08914116 </i>
   </energy>
  </scstep>
  <scstep>
   <time name="diag">    8.84    8.86</time>
   <time name="diis">   23.35   23.76</time>
   <time name="orth">    0.48    0.48</time>
   <time name="total">   36.62   37.05</time>
   <energy>
    <i name="e_fr_energy">   -293.09699457 </i>
    <i name="e_wo_entrp">   -293.07533450 </i>
    <i name="e_0_energy">   -293.08977455 </i>
   </energy>
  </scstep>
  <scstep>
   <time name="diag">    8.85    8.86</time>
   <time name="diis">   23.10   23.14</time>
   <time name="orth">    0.48    0.48</time>
   <time name="total">   36.36   36.42</time>
   <energy>
    <i name="e_fr_energy">   -293.09713402 </i>
    <i name="e_wo_entrp">   -293.07406313 </i>
    <i name="e_0_energy">   -293.08944373 </i>
   </energy>
  </scstep>
  <scstep>
   <time name="diag">    8.90    8.96</time>
   <time name="diis">   19.78   20.03</time>
   <time name="orth">    0.48    0.48</time>
   <time name="total">   33.10   33.42</time>
   <energy>
    <i name="e_fr_energy">   -293.09809323 </i>
    <i name="e_wo_entrp">   -293.07394016 </i>
    <i name="e_0_energy">   -293.09004221 </i>
   </energy>
  </scstep>
  <scstep>
   <time name="diag">    8.86    8.90</time>
   <time name="diis">   21.19   21.23</time>
   <time name="orth">    0.48    0.48</time>
   <time name="total">   34.50   34.62</time>
   <energy>
    <i name="e_fr_energy">   -293.09750624 </i>
    <i name="e_wo_entrp">   -293.07289295 </i>
    <i name="e_0_energy">   -293.08930181 </i>
   </energy>
  </scstep>
  <scstep>
   <time name="diag">    8.99    9.04</time>
   <time name="diis">   18.91   19.15</time>
   <time name="orth">    0.49    0.49</time>
   <time name="total">   32.36   32.65</time>
   <energy>
    <i name="e_fr_energy">   -293.09688805 </i>
    <i name="e_wo_entrp">   -293.07208436 </i>
    <i name="e_0_energy">   -293.08862015 </i>
   </energy>
  </scstep>
  <scstep>
   <time name="diag">    8.90    8.91</time>
   <time name="diis">   16.61   16.72</time>
   <time name="orth">    0.48    0.48</time>
   <time name="total">   29.96   30.09</time>
   <energy>
    <i name="e_fr_energy">   -293.09743512 </i>
    <i name="e_wo_entrp">   -293.07241376 </i>
    <i name="e_0_energy">   -293.08909466 </i>
   </energy>
  </scstep>
  <scstep>
   <time name="diag">    9.03    9.25</time>
   <time name="diis">   17.31   17.35</time>
   <time name="orth">    0.48    0.48</time>
   <time name="total">   30.77   31.04</time>
   <energy>
    <i name="e_fr_energy">   -293.09659860 </i>
    <i name="e_wo_entrp">   -293.07143225 </i>
    <i name="e_0_energy">   -293.08820982 </i>
   </energy>
  </scstep>
  <scstep>
   <time name="diag">    8.86    8.87</time>
   <time name="diis">   15.62   15.67</time>
   <time name="orth">    0.49    0.49</time>
   <time name="total">   28.94   29.01</time>
   <energy>
    <i name="e_fr_energy">   -293.09655740 </i>
    <i name="e_wo_entrp">   -293.07132255 </i>
    <i name="e_0_energy">   -293.08814578 </i>
   </energy>
  </scstep>
  <scstep>
   <time name="diag">    9.20    9.43</time>
   <time name="diis">   16.25   16.28</time>
   <time name="orth">    0.48    0.48</time>
   <time name="total">   29.90   30.18</time>
   <energy>
    <i name="e_fr_energy">   -293.09591142 </i>
    <i name="e_wo_entrp">   -293.07061566 </i>
    <i name="e_0_energy">   -293.08747950 </i>
   </energy>
  </scstep>
  <scstep>
   <time name="diag">    8.86    8.87</time>
   <time name="diis">   15.04   15.12</time>
   <time name="orth">    0.50    0.54</time>
   <time name="total">   28.38   28.52</time>
   <energy>
    <i name="e_fr_energy">   -293.09620591 </i>
    <i name="e_wo_entrp">   -293.07090457 </i>
    <i name="e_0_energy">   -293.08777213 </i>
   </energy>
  </scstep>
  <scstep>
   <time name="diag">    9.18    9.36</time>
   <time name="diis">   16.48   16.64</time>
   <time name="orth">    0.48    0.49</time>
   <time name="total">   30.13   30.50</time>
   <energy>
    <i name="e_fr_energy">   -293.09517347 </i>
    <i name="e_wo_entrp">   -293.06982059 </i>
    <i name="e_0_energy">   -293.08672251 </i>
   </energy>
  </scstep>
  <scstep>
   <time name="diag">    8.86    8.88</time>
   <time name="diis">   16.22   16.24</time>
   <time name="orth">    0.51    0.54</time>
   <time name="total">   29.56   29.63</time>
   <energy>
    <i name="e_fr_energy">   -293.09425856 </i>
    <i name="e_wo_entrp">   -293.06888253 </i>
    <i name="e_0_energy">   -293.08579988 </i>
   </energy>
  </scstep>
  <scstep>
   <time name="diag">    9.28    9.58</time>
   <time name="diis">   15.33   15.44</time>
   <time name="orth">    0.49    0.49</time>
   <time name="total">   29.08   29.50</time>
   <energy>
    <i name="e_fr_energy">   -293.09393844 </i>
    <i name="e_wo_entrp">   -293.06861737 </i>
    <i name="e_0_energy">   -293.08549808 </i>
   </energy>
  </scstep>
  <scstep>
   <time name="diag">    8.89    8.90</time>
   <time name="diis">   22.28   22.41</time>
   <time name="orth">    0.48    0.48</time>
   <time name="total">   35.68   35.84</time>
   <energy>
    <i name="e_fr_energy">   -293.09322113 </i>
    <i name="e_wo_entrp">   -293.06821471 </i>
    <i name="e_0_energy">   -293.08488565 </i>
   </energy>
  </scstep>
  <scstep>
   <time name="diag">    9.25    9.48</time>
   <time name="diis">   21.11   21.15</time>
   <time name="orth">    0.48    0.49</time>
   <time name="total">   34.83   35.10</time>
   <energy>
    <i name="e_fr_energy">   -293.09417610 </i>
    <i name="e_wo_entrp">   -293.07004171 </i>
    <i name="e_0_energy">   -293.08613131 </i>
   </energy>
  </scstep>
  <scstep>
   <time name="diag">    8.87    8.89</time>
   <time name="diis">   20.21   20.44</time>
   <time name="orth">    0.49    0.56</time>
   <time name="total">   33.54   33.86</time>
   <energy>
    <i name="e_fr_energy">   -293.09589722 </i>
    <i name="e_wo_entrp">   -293.07306683 </i>
    <i name="e_0_energy">   -293.08828709 </i>
   </energy>
  </scstep>
  <scstep>
   <time name="diag">    8.87    8.90</time>
   <time name="diis">   19.27   19.30</time>
   <time name="orth">    0.49    0.49</time>
   <time name="total">   32.62   32.71</time>
   <energy>
    <i name="e_fr_energy">   -293.09731041 </i>
    <i name="e_wo_entrp">   -293.07587032 </i>
    <i name="e_0_energy">   -293.09016371 </i>
   </energy>
  </scstep>
  <scstep>
   <time name="diag">    8.94    9.18</time>
   <time name="diis">   19.64   19.90</time>
   <time name="orth">    0.49    0.49</time>
   <time name="total">   33.04   33.55</time>
   <energy>
    <i name="e_fr_energy">   -293.09768294 </i>
    <i name="e_wo_entrp">   -293.07733985 </i>
    <i name="e_0_energy">   -293.09090191 </i>
   </energy>
  </scstep>
  <scstep>
   <time name="diag">    8.89    8.91</time>
   <time name="diis">   18.94   18.96</time>
   <time name="orth">    0.49    0.49</time>
   <time name="total">   32.29   32.35</time>
   <energy>
    <i name="e_fr_energy">   -293.09737693 </i>
    <i name="e_wo_entrp">   -293.07769866 </i>
    <i name="e_0_energy">   -293.09081751 </i>
   </energy>
  </scstep>
  <scstep>
   <time name="diag">    8.90    8.99</time>
   <time name="diis">   18.86   19.16</time>
   <time name="orth">    0.49    0.49</time>
   <time name="total">   32.24   32.65</time>
   <energy>
    <i name="e_fr_energy">   -293.09682799 </i>
    <i name="e_wo_entrp">   -293.07730418 </i>
    <i name="e_0_energy">   -293.09032005 </i>
   </energy>
  </scstep>
  <scstep>
   <time name="diag">    8.84    8.85</time>
   <time name="diis">   21.84   21.92</time>
   <time name="orth">    0.49    0.49</time>
   <time name="total">   35.13   35.24</time>
   <energy>
    <i name="e_fr_energy">   -293.09609101 </i>
    <i name="e_wo_entrp">   -293.07582472 </i>
    <i name="e_0_energy">   -293.08933558 </i>
   </energy>
  </scstep>
  <scstep>
   <time name="diag">    9.17    9.41</time>
   <time name="diis">   16.28   16.30</time>
   <time name="orth">    0.48    0.48</time>
   <time name="total">   29.90   30.17</time>
   <energy>
    <i name="e_fr_energy">   -293.09638764 </i>
    <i name="e_wo_entrp">   -293.07538969 </i>
    <i name="e_0_energy">   -293.08938832 </i>
   </energy>
  </scstep>
  <scstep>
   <time name="diag">    8.85    8.87</time>
   <time name="diis">   16.04   16.10</time>
   <time name="orth">    0.48    0.49</time>
   <time name="total">   29.34   29.42</time>
   <energy>
    <i name="e_fr_energy">   -293.09677058 </i>
    <i name="e_wo_entrp">   -293.07530644 </i>
    <i name="e_0_energy">   -293.08961586 </i>
   </energy>
  </scstep>
  <scstep>
   <time name="diag">    9.43    9.71</time>
   <time name="diis">   15.62   15.67</time>
   <time name="orth">    0.49    0.49</time>
   <time name="total">   29.55   29.88</time>
   <energy>
    <i name="e_fr_energy">   -293.09695648 </i>
    <i name="e_wo_entrp">   -293.07516942 </i>
    <i name="e_0_energy">   -293.08969413 </i>
   </energy>
  </scstep>
  <scstep>
   <time name="diag">    8.91    8.93</time>
   <time name="diis">   15.30   15.36</time>
   <time name="orth">    0.49    0.49</time>
   <time name="total">   28.72   28.93</time>
   <energy>
    <i name="e_fr_energy">   -293.09707602 </i>
    <i name="e_wo_entrp">   -293.07515396 </i>
    <i name="e_0_energy">   -293.08976867 </i>
   </energy>
  </scstep>
  <scstep>
   <time name="diag">    9.26    9.42</time>
   <time name="diis">   14.65   14.80</time>
   <time name="orth">    0.50    0.50</time>
   <time name="total">   28.42   28.74</time>
   <energy>
    <i name="e_fr_energy">   -293.09710129 </i>
    <i name="e_wo_entrp">   -293.07500944 </i>
    <i name="e_0_energy">   -293.08973734 </i>
   </energy>
  </scstep>
  <scstep>
   <time name="diag">    8.92    8.93</time>
   <time name="diis">   14.84   14.88</time>
   <time name="orth">    0.49    0.49</time>
   <time name="total">   28.24   28.29</time>
   <energy>
    <i name="e_fr_energy">   -293.09713993 </i>
    <i name="e_wo_entrp">   -293.07494896 </i>
    <i name="e_0_energy">   -293.08974294 </i>
   </energy>
  </scstep>
  <scstep>
   <time name="diag">    8.91    8.94</time>
   <time name="diis">   14.37   14.68</time>
   <time name="orth">    0.49    0.49</time>
   <time name="total">   27.79   28.18</time>
   <energy>
    <i name="e_fr_energy">   -293.09715938 </i>
    <i name="e_wo_entrp">   -293.07494680 </i>
    <i name="e_0_energy">   -293.08975518 </i>
   </energy>
  </scstep>
  <scstep>
   <time name="diag">    8.92    8.94</time>
   <time name="diis">   13.02   13.04</time>
   <time name="orth">    0.49    0.49</time>
   <time name="total">   22.96   23.01</time>
   <energy>
    <i name="alphaZ">    477.09650995 </i>
    <i name="ewald"> 394158.70971412 </i>
    <i name="hartreedc">-427856.24208477 </i>
    <i name="XCdc">   1613.05321731 </i>
    <i name="pawpsdc">  38084.32833743 </i>
    <i name="pawaedc"> -38790.10671605 </i>
    <i name="eentropy">     -0.02223064 </i>
    <i name="bandstr">  -5932.84711982 </i>
    <i name="atom">  37952.93320877 </i>
    <i name="e_fr_energy">   -293.09716372 </i>
    <i name="e_wo_entrp">   -293.07493307 </i>
    <i name="e_0_energy">   -293.08975350 </i>
   </energy>
  </scstep>
  <structure>
   <crystal>
    <varray name="basis" >
     <v>       2.87357350      -2.87357350       4.70833511 </v>
     <v>       5.74714699       0.00000000       0.00000000 </v>
     <v>       0.00000000      33.06569101      20.18052901 </v>
    </varray>
    <i name="volume">   1228.01926054 </i>
    <varray name="rec_basis" >
     <v>       0.00000000      -0.09444515       0.15474789 </v>
     <v>       0.17399938       0.04722258      -0.07737394 </v>
     <v>       0.00000000       0.02203507       0.01344836 </v>
    </varray>
   </crystal>
   <varray name="positions" >
    <v>       0.22067121       0.89240241       0.08901558 </v>
    <v>       0.66161599       0.17144373       0.21834269 </v>
    <v>       0.94927612       0.02809995       0.15233499 </v>
    <v>       0.37415595       0.31604706       0.28554032 </v>
    <v>       0.44927612       0.52809995       0.15233499 </v>
    <v>       0.89568686       0.30339903       0.28178286 </v>
    <v>       0.44927612       0.02809995       0.15233499 </v>
    <v>       0.89261702       0.80130574       0.28144505 </v>
    <v>       0.90282244       0.55132680       0.10484543 </v>
    <v>       0.35309797       0.82570704       0.23355486 </v>
    <v>       0.99155787       0.50820377       0.20083172 </v>
    <v>       0.42460346       0.79136357       0.33265511 </v>
    <v>       0.53851998       0.23347802       0.07318573 </v>
    <v>       0.01941786       0.48649371       0.35056784 </v>
    <v>       0.77313401       0.61130145       0.30915428 </v>
    <v>       0.87926422       0.06310591       0.05527763 </v>
    <v>       0.33904253       0.33090367       0.18266076 </v>
    <v>       0.58246139       0.21150732       0.12452493 </v>
    <v>       0.03434074       0.48781380       0.25352571 </v>
    <v>       0.68011262       0.70060294       0.37165825 </v>
    <v>       0.09516526       0.72856013       0.12156099 </v>
    <v>       0.54250834       0.45290933       0.25366938 </v>
    <v>       0.73678191       0.12612863       0.31206093 </v>
    <v>       0.85888103       0.57329750       0.05350623 </v>
    <v>       0.31124108       0.84832944       0.18049812 </v>
    <v>       0.56207820       0.72169891       0.12275353 </v>
    <v>       0.00198424       0.99812522       0.25290796 </v>
    <v>       0.79455640       0.32701284       0.18419282 </v>
    <v>       0.21849391       0.62045572       0.31581829 </v>
    <v>       0.34617716       0.60305419       0.05647018 </v>
    <v>       0.21601318       0.16671762       0.31517497 </v>
    <v>       0.79344319       0.88357082       0.18414182 </v>
    <v>       0.34617716       0.05624469       0.05647018 </v>
    <v>       0.53850258       0.01181013       0.25327430 </v>
    <v>       0.09516526       0.18175063       0.12156099 </v>
    <v>       0.18616411       0.35919559       0.39344647 </v>
    <v>       0.34047062       0.60391201       0.02782883 </v>
    <v>       0.92434681       0.68523651       0.03696881 </v>
    <v>       0.34363348       0.06399961       0.02783421 </v>
    <v>       0.88838126       0.05560908       0.02665597 </v>
    <v>       0.64403877       0.77977544       0.39449400 </v>
    <v>       0.75375370       0.10641881       0.33686937 </v>
    <v>       0.07474974       0.43478752       0.41270245 </v>
   </varray>
  </structure>
  <varray name="forces" >
   <v>       0.11661894      -1.74548621      -1.61466440 </v>
   <v>      -0.02561573      -0.07449065      -0.00421772 </v>
   <v>      -0.04939330       0.65672274      -0.01876215 </v>
   <v>       0.01730662      -0.00404159       0.04940971 </v>
   <v>      -0.01791908       0.35910954       0.08942897 </v>
   <v>      -0.02627686       0.07035644      -0.00042020 </v>
   <v>      -0.03183197       0.21485994       0.07238598 </v>
   <v>       0.03250772       0.11278882       0.00070253 </v>
   <v>      -0.02435271      -1.32972974      -0.84959677 </v>
   <v>      -0.03014619       0.01682663      -0.02258025 </v>
   <v>      -0.04207021      -0.05615379      -0.03211748 </v>
   <v>      -0.01582596       0.09195660      -0.08673093 </v>
   <v>       0.00396202      -0.50376690       0.26743979 </v>
   <v>      -0.04465765      -0.00652720       0.01014285 </v>
   <v>      -0.01133367       0.03214565      -0.03350915 </v>
   <v>      -0.31221319      -3.62226072      -1.96139122 </v>
   <v>       0.01033437       0.09420558      -0.02630710 </v>
   <v>      -0.07045259       0.26463274       0.37309410 </v>
   <v>      -0.04593538      -0.06340777      -0.06048477 </v>
   <v>       0.18009961       0.22502364       0.10609570 </v>
   <v>       0.34916438       0.37631477       0.54289343 </v>
   <v>       0.01197267      -0.02768792      -0.03271452 </v>
   <v>       0.05073053      -0.37427824      -0.15883260 </v>
   <v>       2.69668068      -2.54645528      -0.24983423 </v>
   <v>      -0.02452838       0.08481102       0.06242737 </v>
   <v>       0.11218971       0.33794783      -0.34167362 </v>
   <v>       0.07686339      -0.09602488       0.03853961 </v>
   <v>       0.06555739       0.03865414       0.05889148 </v>
   <v>       0.09124806      -0.01044343       0.07057041 </v>
   <v>      -0.94635919      -3.58254490      -2.15626885 </v>
   <v>      -0.02853915       0.02164603       0.02491565 </v>
   <v>      -0.08207031       0.00398508       0.05419630 </v>
   <v>       1.04837542      -3.64361455      -1.93111510 </v>
   <v>      -0.07456043      -0.01775561      -0.01459871 </v>
   <v>      -0.16101997       0.32919701       0.44486590 </v>
   <v>       0.00161649      -0.30622192       0.01789082 </v>
   <v>       0.56485144       3.80224508       2.31581510 </v>
   <v>      -2.89727198       3.08774698       0.46165112 </v>
   <v>      -0.65595008       3.94414712       2.09727460 </v>
   <v>       0.36443282       3.68208024       2.17614056 </v>
   <v>      -0.07349500      -0.04573262      -0.00062552 </v>
   <v>      -0.05238811       0.20969264       0.20843790 </v>
   <v>      -0.05030518      -0.00047231       0.05323542 </v>
  </varray>
  <energy>
   <i name="e_fr_energy">   -293.09716372 </i>
   <i name="e_wo_entrp">   -293.08975350 </i>
   <i name="e_0_energy">     -0.02223064 </i>
  </energy>
  <time name="totalsc"> 1554.80 1566.37</time>
 </calculation>
 <calculation>
  <scstep>
   <time name="dav">   48.08   48.33</time>
   <time name="total">   52.15   52.49</time>
   <energy>
    <i name="alphaZ">    477.09650995 </i>
    <i name="ewald"> 394159.54970768 </i>
    <i name="hartreedc">-427857.15090097 </i>
    <i name="XCdc">   1613.05420541 </i>
    <i name="pawpsdc">  38084.32544950 </i>
    <i name="pawaedc"> -38790.10259345 </i>
    <i name="eentropy">     -0.02209744 </i>
    <i name="bandstr">  -5932.78001377 </i>
    <i name="atom">  37952.93320877 </i>
    <i name="e_fr_energy">   -293.09652431 </i>
    <i name="e_wo_entrp">   -293.07442687 </i>
    <i name="e_0_energy">   -293.08915849 </i>
   </energy>
  </scstep>
  <scstep>
   <time name="diag">    9.26    9.55</time>
   <time name="diis">   29.59   29.65</time>
   <time name="orth">    0.49    0.49</time>
   <time name="total">   43.35   43.82</time>
   <energy>
    <i name="e_fr_energy">   -293.09802582 </i>
    <i name="e_wo_entrp">   -293.07445029 </i>
    <i name="e_0_energy">   -293.09016731 </i>
   </energy>
  </scstep>
  <scstep>
   <time name="diag">    8.91    8.98</time>
   <time name="diis">   24.69   24.94</time>
   <time name="orth">    0.48    0.48</time>
   <time name="total">   38.05   38.37</time>
   <energy>
    <i name="e_fr_energy">   -293.09684591 </i>
    <i name="e_wo_entrp">   -293.07332506 </i>
    <i name="e_0_energy">   -293.08900562 </i>
   </energy>
  </scstep>
  <scstep>
   <time name="diag">    8.84    8.86</time>
   <time name="diis">   23.85   23.92</time>
   <time name="orth">    0.49    0.49</time>
   <time name="total">   37.12   37.22</time>
   <energy>
    <i name="e_fr_energy">   -293.09710141 </i>
    <i name="e_wo_entrp">   -293.07561394 </i>
    <i name="e_0_energy">   -293.08993892 </i>
   </energy>
  </scstep>
  <scstep>
   <time name="diag">    9.02    9.36</time>
   <time name="diis">   22.36   22.40</time>
   <time name="orth">    0.48    0.48</time>
   <time name="total">   35.79   36.18</time>
   <energy>
    <i name="e_fr_energy">   -293.09747739 </i>
    <i name="e_wo_entrp">   -293.07657213 </i>
    <i name="e_0_energy">   -293.09050897 </i>
   </energy>
  </scstep>
  <scstep>
   <time name="diag">    8.83    8.89</time>
   <time name="diis">   22.10   22.31</time>
   <time name="orth">    0.56    0.64</time>
   <time name="total">   35.44   35.83</time>
   <energy>
    <i name="e_fr_energy">   -293.09697342 </i>
    <i name="e_wo_entrp">   -293.07576075 </i>
    <i name="e_0_energy">   -293.08990253 </i>
   </energy>
  </scstep>
  <scstep>
   <time name="diag">    8.84    8.85</time>
   <time name="diis">   23.10   23.17</time>
   <time name="orth">    0.48    0.49</time>
   <time name="total">   36.37   36.46</time>
   <energy>
    <i name="e_fr_energy">   -293.09695420 </i>
    <i name="e_wo_entrp">   -293.07469150 </i>
    <i name="e_0_energy">   -293.08953330 </i>
   </energy>
  </scstep>
  <scstep>
   <time name="diag">    8.89    8.93</time>
   <time name="diis">   18.20   18.48</time>
   <time name="orth">    0.49    0.49</time>
   <time name="total">   31.51   31.85</time>
   <energy>
    <i name="e_fr_energy">   -293.09752611 </i>
    <i name="e_wo_entrp">   -293.07440026 </i>
    <i name="e_0_energy">   -293.08981750 </i>
   </energy>
  </scstep>
  <scstep>
   <time name="diag">    8.84    8.86</time>
   <time name="diis">   19.85   19.93</time>
   <time name="orth">    0.48    0.48</time>
   <time name="total">   33.16   33.27</time>
   <energy>
    <i name="e_fr_energy">   -293.09732743 </i>
    <i name="e_wo_entrp">   -293.07391000 </i>
    <i name="e_0_energy">   -293.08952162 </i>
   </energy>
  </scstep>
  <scstep>
   <time name="diag">    8.91    8.99</time>
   <time name="diis">   20.34   20.74</time>
   <time name="orth">    0.49    0.56</time>
   <time name="total">   33.71   34.26</time>
   <energy>
    <i name="e_fr_energy">   -293.09695756 </i>
    <i name="e_wo_entrp">   -293.07374470 </i>
    <i name="e_0_energy">   -293.08921994 </i>
   </energy>
  </scstep>
  <scstep>
   <time name="diag">    8.88    8.90</time>
   <time name="diis">   20.43   20.49</time>
   <time name="orth">    0.49    0.49</time>
   <time name="total">   33.79   33.88</time>
   <energy>
    <i name="e_fr_energy">   -293.09697288 </i>
    <i name="e_wo_entrp">   -293.07448708 </i>
    <i name="e_0_energy">   -293.08947761 </i>
   </energy>
  </scstep>
  <scstep>
   <time name="diag">    9.17    9.44</time>
   <time name="diis">   16.83   16.85</time>
   <time name="orth">    0.49    0.49</time>
   <time name="total">   30.46   30.78</time>
   <energy>
    <i name="e_fr_energy">   -293.09731625 </i>
    <i name="e_wo_entrp">   -293.07540749 </i>
    <i name="e_0_energy">   -293.09001333 </i>
   </energy>
  </scstep>
  <scstep>
   <time name="diag">    8.88    8.89</time>
   <time name="diis">   17.22   17.36</time>
   <time name="orth">    0.49    0.49</time>
   <time name="total">   30.55   30.71</time>
   <energy>
    <i name="e_fr_energy">   -293.09729854 </i>
    <i name="e_wo_entrp">   -293.07559642 </i>
    <i name="e_0_energy">   -293.09006450 </i>
   </energy>
  </scstep>
  <scstep>
   <time name="diag">    9.20    9.47</time>
   <time name="diis">   15.66   15.73</time>
   <time name="orth">    0.48    0.49</time>
   <time name="total">   29.31   29.66</time>
   <energy>
    <i name="e_fr_energy">   -293.09720228 </i>
    <i name="e_wo_entrp">   -293.07540512 </i>
    <i name="e_0_energy">   -293.08993656 </i>
   </energy>
  </scstep>
  <scstep>
   <time name="diag">    8.83    8.84</time>
   <time name="diis">   15.81   15.90</time>
   <time name="orth">    0.48    0.48</time>
   <time name="total">   29.10   29.23</time>
   <energy>
    <i name="e_fr_energy">   -293.09718869 </i>
    <i name="e_wo_entrp">   -293.07501435 </i>
    <i name="e_0_energy">   -293.08979724 </i>
   </energy>
  </scstep>
  <scstep>
   <time name="diag">    9.16    9.50</time>
   <time name="diis">   15.10   15.17</time>
   <time name="orth">    0.49    0.49</time>
   <time name="total">   28.73   29.17</time>
   <energy>
    <i name="e_fr_energy">   -293.09731078 </i>
    <i name="e_wo_entrp">   -293.07468564 </i>
    <i name="e_0_energy">   -293.08976907 </i>
   </energy>
  </scstep>
  <scstep>
   <time name="diag">    8.85    8.86</time>
   <time name="diis">   15.39   15.55</time>
   <time name="orth">    0.49    0.49</time>
   <time name="total">   28.70   28.87</time>
   <energy>
    <i name="e_fr_energy">   -293.09732209 </i>
    <i name="e_wo_entrp">   -293.07445034 </i>
    <i name="e_0_energy">   -293.08969817 </i>
   </energy>
  </scstep>
  <scstep>
   <time name="diag">    9.38    9.64</time>
   <time name="diis">   15.13   15.16</time>
   <time name="orth">    0.49    0.49</time>
   <time name="total">   28.96   29.25</time>
   <energy>
    <i name="e_fr_energy">   -293.09724389 </i>
    <i name="e_wo_entrp">   -293.07431434 </i>
    <i name="e_0_energy">   -293.08960070 </i>
   </energy>
  </scstep>
  <scstep>
   <time name="diag">    8.86    8.87</time>
   <time name="diis">   14.06   14.09</time>
   <time name="orth">    0.49    0.49</time>
   <time name="total">   27.40   27.47</time>
   <energy>
    <i name="e_fr_energy">   -293.09720349 </i>
    <i name="e_wo_entrp">   -293.07430198 </i>
    <i name="e_0_energy">   -293.08956965 </i>
   </energy>
  </scstep>
  <scstep>
   <time name="diag">    8.91    8.94</time>
   <time name="diis">   13.40   13.67</time>
   <time name="orth">    0.49    0.49</time>
   <time name="total">   23.34   23.64</time>
   <energy>
    <i name="alphaZ">    477.09650995 </i>
    <i name="ewald"> 394159.54970768 </i>
    <i name="hartreedc">-427857.19944104 </i>
    <i name="XCdc">   1613.05384099 </i>
    <i name="pawpsdc">  38084.37479024 </i>
    <i name="pawaedc"> -38790.15402582 </i>
    <i name="eentropy">     -0.02283012 </i>
    <i name="bandstr">  -5932.72895608 </i>
    <i name="atom">  37952.93320877 </i>
    <i name="e_fr_energy">   -293.09719544 </i>
    <i name="e_wo_entrp">   -293.07436532 </i>
    <i name="e_0_energy">   -293.08958540 </i>
   </energy>
  </scstep>
  <structure>
   <crystal>
    <varray name="basis" >
     <v>       2.87357350      -2.87357350       4.70833511 </v>
     <v>       5.74714699       0.00000000       0.00000000 </v>
     <v>       0.00000000      33.06569101      20.18052901 </v>
    </varray>
    <i name="volume">   1228.01926054 </i>
    <varray name="rec_basis" >
     <v>       0.00000000      -0.09444515       0.15474789 </v>
     <v>       0.17399938       0.04722258      -0.07737394 </v>
     <v>       0.00000000       0.02203507       0.01344836 </v>
    </varray>
   </crystal>
   <varray name="positions" >
    <v>       0.22067121       0.89240241       0.08901558 </v>
    <v>       0.66164511       0.17137998       0.21834845 </v>
    <v>       0.94927612       0.02809995       0.15233499 </v>
    <v>       0.37421267       0.31598808       0.28553289 </v>
    <v>       0.44927612       0.52809995       0.15233499 </v>
    <v>       0.89574321       0.30328627       0.28177983 </v>
    <v>       0.44927612       0.02809995       0.15233499 </v>
    <v>       0.89262150       0.80140402       0.28143416 </v>
    <v>       0.90282244       0.55132680       0.10484543 </v>
    <v>       0.35312004       0.82568965       0.23356686 </v>
    <v>       0.99152520       0.50820976       0.20083388 </v>
    <v>       0.42459476       0.79138477       0.33267197 </v>
    <v>       0.53851998       0.23347802       0.07318573 </v>
    <v>       0.01927519       0.48659851       0.35056393 </v>
    <v>       0.77292482       0.61147814       0.30915363 </v>
    <v>       0.87926422       0.06310591       0.05527763 </v>
    <v>       0.33907044       0.33079418       0.18265769 </v>
    <v>       0.58246139       0.21150732       0.12452493 </v>
    <v>       0.03426602       0.48787522       0.25352386 </v>
    <v>       0.68014949       0.70070194       0.37165965 </v>
    <v>       0.09516526       0.72856013       0.12156099 </v>
    <v>       0.54246813       0.45284052       0.25367436 </v>
    <v>       0.73692688       0.12601354       0.31205746 </v>
    <v>       0.85888103       0.57329750       0.05350623 </v>
    <v>       0.31120099       0.84840417       0.18049195 </v>
    <v>       0.56207820       0.72169891       0.12275353 </v>
    <v>       0.00192173       0.99816487       0.25292009 </v>
    <v>       0.79462554       0.32685425       0.18418270 </v>
    <v>       0.21856088       0.62040643       0.31581160 </v>
    <v>       0.34617716       0.60305419       0.05647018 </v>
    <v>       0.21611498       0.16672253       0.31517160 </v>
    <v>       0.79351239       0.88357876       0.18413162 </v>
    <v>       0.34617716       0.05624469       0.05647018 </v>
    <v>       0.53850073       0.01178856       0.25328098 </v>
    <v>       0.09516526       0.18175063       0.12156099 </v>
    <v>       0.18641241       0.35905347       0.39343333 </v>
    <v>       0.34047062       0.60391201       0.02782883 </v>
    <v>       0.92434681       0.68523651       0.03696881 </v>
    <v>       0.34363348       0.06399961       0.02783421 </v>
    <v>       0.88838126       0.05560908       0.02665597 </v>
    <v>       0.64401091       0.77978929       0.39452110 </v>
    <v>       0.75378236       0.10638211       0.33684989 </v>
    <v>       0.07485577       0.43467305       0.41269273 </v>
   </varray>
  </structure>
  <varray name="forces" >
   <v>       0.11663184      -1.74504506      -1.61302290 </v>
   <v>      -0.02461117      -0.08096952      -0.00962278 </v>
   <v>      -0.05097679       0.65017388      -0.01852073 </v>
   <v>       0.01928213       0.00826188       0.04800007 </v>
   <v>      -0.01993833       0.35973163       0.08887409 </v>
   <v>       0.00550563       0.09226075       0.00162712 </v>
   <v>      -0.03155122       0.21141332       0.07148293 </v>
   <v>       0.00453902       0.13153694       0.00682062 </v>
   <v>      -0.02680480      -1.32911114      -0.84953671 </v>
   <v>      -0.03175183       0.01364827      -0.02610067 </v>
   <v>      -0.04359595      -0.06040710      -0.03287855 </v>
   <v>      -0.01534239       0.09145578      -0.09064913 </v>
   <v>       0.00530911      -0.50398301       0.26598592 </v>
   <v>      -0.03854267      -0.03654227       0.03271474 </v>
   <v>      -0.02156820       0.00719816      -0.04026916 </v>
   <v>      -0.31277617      -3.61603121      -1.95891659 </v>
   <v>       0.01790089       0.09941957      -0.02684191 </v>
   <v>      -0.06932956       0.26389457       0.37212889 </v>
   <v>      -0.04892808      -0.06445860      -0.05966250 </v>
   <v>       0.19840327       0.27950534       0.10778233 </v>
   <v>       0.34694148       0.37388895       0.54223424 </v>
   <v>       0.01715496      -0.03440067      -0.03349060 </v>
   <v>       0.05740959      -0.39731197      -0.18107082 </v>
   <v>       2.67415989      -2.52249776      -0.25071978 </v>
   <v>      -0.03008035       0.09009079       0.06930288 </v>
   <v>       0.11081560       0.33432452      -0.34039914 </v>
   <v>       0.07846529      -0.11567993       0.04004772 </v>
   <v>       0.07561095       0.04715939       0.05991469 </v>
   <v>       0.09469476      -0.01093374       0.06813885 </v>
   <v>      -0.94770803      -3.58094533      -2.15446118 </v>
   <v>      -0.03675500       0.01684410       0.01888485 </v>
   <v>      -0.08911675       0.01130900       0.05561973 </v>
   <v>       1.05001296      -3.64133278      -1.92976309 </v>
   <v>      -0.07623310      -0.02258231      -0.01638118 </v>
   <v>      -0.15754997       0.32885425       0.44358534 </v>
   <v>       0.00595357      -0.25013271       0.01646956 </v>
   <v>       0.56504934       3.80044401       2.31481118 </v>
   <v>      -2.87985566       3.06796715       0.46158913 </v>
   <v>      -0.65602072       3.94123236       2.09602501 </v>
   <v>       0.36422848       3.67678254       2.17329846 </v>
   <v>      -0.08807195      -0.08194356      -0.01658804 </v>
   <v>      -0.05504014       0.23643957       0.22913447 </v>
   <v>      -0.05591993      -0.03952806       0.06442267 </v>
  </varray>
  <energy>
   <i name="e_fr_energy">   -293.09719544 </i>
   <i name="e_wo_entrp">   -293.08958540 </i>
   <i name="e_0_energy">     -0.02283012 </i>
  </energy>
  <time name="totalsc">  688.22  693.76</time>
 </calculation>
 <calculation>
  <scstep>
   <time name="dav">   44.83   45.25</time>
   <time name="total">   48.79   49.23</time>
   <energy>
    <i name="alphaZ">    477.09650995 </i>
    <i name="ewald"> 394161.06354716 </i>
    <i name="hartreedc">-427859.25653462 </i>
    <i name="XCdc">   1613.03215363 </i>
    <i name="pawpsdc">  38084.38292126 </i>
    <i name="pawaedc"> -38790.16103161 </i>
    <i name="eentropy">     -0.02229705 </i>
    <i name="bandstr">  -5932.15761529 </i>
    <i name="atom">  37952.93320877 </i>
    <i name="e_fr_energy">   -293.08913779 </i>
    <i name="e_wo_entrp">   -293.06684074 </i>
    <i name="e_0_energy">   -293.08170544 </i>
   </energy>
  </scstep>
  <scstep>
   <time name="diag">    8.94    8.95</time>
   <time name="diis">   30.04   30.41</time>
   <time name="orth">    0.49    0.49</time>
   <time name="total">   43.45   43.83</time>
   <energy>
    <i name="e_fr_energy">   -293.10411213 </i>
    <i name="e_wo_entrp">   -293.08151086 </i>
    <i name="e_0_energy">   -293.09657837 </i>
   </energy>
  </scstep>
  <scstep>
   <time name="diag">    8.93    8.95</time>
   <time name="diis">   26.44   26.54</time>
   <time name="orth">    0.49    0.49</time>
   <time name="total">   39.88   40.06</time>
   <energy>
    <i name="e_fr_energy">   -293.10441202 </i>
    <i name="e_wo_entrp">   -293.08296890 </i>
    <i name="e_0_energy">   -293.09726431 </i>
   </energy>
  </scstep>
  <scstep>
   <time name="diag">    8.88    8.91</time>
   <time name="diis">   27.54   27.79</time>
   <time name="orth">    0.48    0.49</time>
   <time name="total">   40.86   41.15</time>
   <energy>
    <i name="e_fr_energy">   -293.10393505 </i>
    <i name="e_wo_entrp">   -293.08229946 </i>
    <i name="e_0_energy">   -293.09672318 </i>
   </energy>
  </scstep>
  <scstep>
   <time name="diag">    8.86    8.88</time>
   <time name="diis">   24.42   24.89</time>
   <time name="orth">    0.48    0.48</time>
   <time name="total">   37.70   38.19</time>
   <energy>
    <i name="e_fr_energy">   -293.10403259 </i>
    <i name="e_wo_entrp">   -293.08102735 </i>
    <i name="e_0_energy">   -293.09636418 </i>
   </energy>
  </scstep>
  <scstep>
   <time name="diag">    8.85    8.89</time>
   <time name="diis">   23.28   23.33</time>
   <time name="orth">    0.48    0.48</time>
   <time name="total">   36.58   36.68</time>
   <energy>
    <i name="e_fr_energy">   -293.10375903 </i>
    <i name="e_wo_entrp">   -293.08109495 </i>
    <i name="e_0_energy">   -293.09620434 </i>
   </energy>
  </scstep>
  <scstep>
   <time name="diag">    8.87    9.01</time>
   <time name="diis">   23.82   24.07</time>
   <time name="orth">    0.48    0.49</time>
   <time name="total">   37.12   37.51</time>
   <energy>
    <i name="e_fr_energy">   -293.10417753 </i>
    <i name="e_wo_entrp">   -293.08289745 </i>
    <i name="e_0_energy">   -293.09708417 </i>
   </energy>
  </scstep>
  <scstep>
   <time name="diag">    8.86    8.88</time>
   <time name="diis">   22.59   22.70</time>
   <time name="orth">    0.50    0.52</time>
   <time name="total">   35.95   36.12</time>
   <energy>
    <i name="e_fr_energy">   -293.10385098 </i>
    <i name="e_wo_entrp">   -293.08280900 </i>
    <i name="e_0_energy">   -293.09683699 </i>
   </energy>
  </scstep>
  <scstep>
   <time name="diag">    8.98    9.19</time>
   <time name="diis">   22.22   22.27</time>
   <time name="orth">    0.48    0.49</time>
   <time name="total">   35.64   35.93</time>
   <energy>
    <i name="e_fr_energy">   -293.10345121 </i>
    <i name="e_wo_entrp">   -293.08168221 </i>
    <i name="e_0_energy">   -293.09619488 </i>
   </energy>
  </scstep>
  <scstep>
   <time name="diag">    8.88    8.91</time>
   <time name="diis">   17.53   17.69</time>
   <time name="orth">    0.55    0.62</time>
   <time name="total">   31.07   31.51</time>
   <energy>
    <i name="e_fr_energy">   -293.10379214 </i>
    <i name="e_wo_entrp">   -293.08121914 </i>
    <i name="e_0_energy">   -293.09626781 </i>
   </energy>
  </scstep>
  <scstep>
   <time name="diag">    8.87    8.89</time>
   <time name="diis">   17.61   17.64</time>
   <time name="orth">    0.48    0.48</time>
   <time name="total">   30.91   30.96</time>
   <energy>
    <i name="e_fr_energy">   -293.10396448 </i>
    <i name="e_wo_entrp">   -293.08100592 </i>
    <i name="e_0_energy">   -293.09631163 </i>
   </energy>
  </scstep>
  <scstep>
   <time name="diag">    8.85    8.93</time>
   <time name="diis">   16.62   16.85</time>
   <time name="orth">    0.49    0.50</time>
   <time name="total">   29.92   30.22</time>
   <energy>
    <i name="e_fr_energy">   -293.10388981 </i>
    <i name="e_wo_entrp">   -293.08075101 </i>
    <i name="e_0_energy">   -293.09617687 </i>
   </energy>
  </scstep>
  <scstep>
   <time name="diag">    8.84    8.85</time>
   <time name="diis">   14.94   14.97</time>
   <time name="orth">    0.48    0.48</time>
   <time name="total">   28.19   28.24</time>
   <energy>
    <i name="e_fr_energy">   -293.10392129 </i>
    <i name="e_wo_entrp">   -293.08053494 </i>
    <i name="e_0_energy">   -293.09612584 </i>
   </energy>
  </scstep>
  <scstep>
   <time name="diag">    8.86    8.88</time>
   <time name="diis">   15.66   15.76</time>
   <time name="orth">    0.50    0.51</time>
   <time name="total">   29.04   29.25</time>
   <energy>
    <i name="e_fr_energy">   -293.10374539 </i>
    <i name="e_wo_entrp">   -293.08029096 </i>
    <i name="e_0_energy">   -293.09592725 </i>
   </energy>
  </scstep>
  <scstep>
   <time name="diag">    8.84    8.85</time>
   <time name="diis">   15.18   15.21</time>
   <time name="orth">    0.49    0.49</time>
   <time name="total">   28.44   28.49</time>
   <energy>
    <i name="e_fr_energy">   -293.10360349 </i>
    <i name="e_wo_entrp">   -293.08026557 </i>
    <i name="e_0_energy">   -293.09582418 </i>
   </energy>
  </scstep>
  <scstep>
   <time name="diag">    8.82    8.84</time>
   <time name="diis">   22.01   22.22</time>
   <time name="orth">    0.48    0.49</time>
   <time name="total">   35.28   35.51</time>
   <energy>
    <i name="e_fr_energy">   -293.10351795 </i>
    <i name="e_wo_entrp">   -293.08089694 </i>
    <i name="e_0_energy">   -293.09597762 </i>
   </energy>
  </scstep>
  <scstep>
   <time name="diag">    8.86    8.88</time>
   <time name="diis">   17.88   17.91</time>
   <time name="orth">    0.48    0.48</time>
   <time name="total">   31.19   31.25</time>
   <energy>
    <i name="e_fr_energy">   -293.10405784 </i>
    <i name="e_wo_entrp">   -293.08246808 </i>
    <i name="e_0_energy">   -293.09686125 </i>
   </energy>
  </scstep>
  <scstep>
   <time name="diag">    8.91    9.01</time>
   <time name="diis">   20.25   20.50</time>
   <time name="orth">    0.48    0.49</time>
   <time name="total">   33.61   33.96</time>
   <energy>
    <i name="e_fr_energy">   -293.10400930 </i>
    <i name="e_wo_entrp">   -293.08284733 </i>
    <i name="e_0_energy">   -293.09695531 </i>
   </energy>
  </scstep>
  <scstep>
   <time name="diag">    8.88    8.90</time>
   <time name="diis">   17.92   17.95</time>
   <time name="orth">    0.48    0.48</time>
   <time name="total">   31.26   31.32</time>
   <energy>
    <i name="e_fr_energy">   -293.10375763 </i>
    <i name="e_wo_entrp">   -293.08257225 </i>
    <i name="e_0_energy">   -293.09669584 </i>
   </energy>
  </scstep>
  <scstep>
   <time name="diag">    8.87    8.93</time>
   <time name="diis">   17.40   17.59</time>
   <time name="orth">    0.48    0.49</time>
   <time name="total">   30.72   30.98</time>
   <energy>
    <i name="e_fr_energy">   -293.10361670 </i>
    <i name="e_wo_entrp">   -293.08200874 </i>
    <i name="e_0_energy">   -293.09641404 </i>
   </energy>
  </scstep>
  <scstep>
   <time name="diag">    8.89    8.91</time>
   <time name="diis">   15.18   15.20</time>
   <time name="orth">    0.48    0.48</time>
   <time name="total">   28.53   28.59</time>
   <energy>
    <i name="e_fr_energy">   -293.10374570 </i>
    <i name="e_wo_entrp">   -293.08166807 </i>
    <i name="e_0_energy">   -293.09638649 </i>
   </energy>
  </scstep>
  <scstep>
   <time name="diag">    8.87    8.98</time>
   <time name="diis">   15.52   15.88</time>
   <time name="orth">    0.49    0.49</time>
   <time name="total">   28.86   29.34</time>
   <energy>
    <i name="e_fr_energy">   -293.10390259 </i>
    <i name="e_wo_entrp">   -293.08143046 </i>
    <i name="e_0_energy">   -293.09641188 </i>
   </energy>
  </scstep>
  <scstep>
   <time name="diag">    8.91    8.94</time>
   <time name="diis">   15.19   15.23</time>
   <time name="orth">    0.48    0.48</time>
   <time name="total">   28.56   28.63</time>
   <energy>
    <i name="e_fr_energy">   -293.10396653 </i>
    <i name="e_wo_entrp">   -293.08123856 </i>
    <i name="e_0_energy">   -293.09639054 </i>
   </energy>
  </scstep>
  <scstep>
   <time name="diag">    8.92    8.96</time>
   <time name="diis">   15.30   15.59</time>
   <time name="orth">    0.48    0.48</time>
   <time name="total">   28.69   29.02</time>
   <energy>
    <i name="e_fr_energy">   -293.10392990 </i>
    <i name="e_wo_entrp">   -293.08109302 </i>
    <i name="e_0_energy">   -293.09631761 </i>
   </energy>
  </scstep>
  <scstep>
   <time name="diag">    8.89    8.92</time>
   <time name="diis">   14.15   14.17</time>
   <time name="orth">    0.48    0.48</time>
   <time name="total">   27.50   27.56</time>
   <energy>
    <i name="e_fr_energy">   -293.10389925 </i>
    <i name="e_wo_entrp">   -293.08101798 </i>
    <i name="e_0_energy">   -293.09627216 </i>
   </energy>
  </scstep>
  <scstep>
   <time name="diag">    8.91    8.99</time>
   <time name="diis">   13.14   13.23</time>
   <time name="orth">    0.55    0.58</time>
   <time name="total">   26.59   26.80</time>
   <energy>
    <i name="e_fr_energy">   -293.10388923 </i>
    <i name="e_wo_entrp">   -293.08096909 </i>
    <i name="e_0_energy">   -293.09624919 </i>
   </energy>
  </scstep>
  <scstep>
   <time name="diag">    8.87    8.88</time>
   <time name="diis">   12.77   12.80</time>
   <time name="orth">    0.49    0.49</time>
   <time name="total">   22.67   22.70</time>
   <energy>
    <i name="alphaZ">    477.09650995 </i>
    <i name="ewald"> 394161.06354716 </i>
    <i name="hartreedc">-427860.02648275 </i>
    <i name="XCdc">   1613.00651083 </i>
    <i name="pawpsdc">  38080.48271059 </i>
    <i name="pawaedc"> -38786.26176644 </i>
    <i name="eentropy">     -0.02296586 </i>
    <i name="bandstr">  -5931.37515611 </i>
    <i name="atom">  37952.93320877 </i>
    <i name="e_fr_energy">   -293.10388386 </i>
    <i name="e_wo_entrp">   -293.08091800 </i>
    <i name="e_0_energy">   -293.09622857 </i>
   </energy>
  </scstep>
  <structure>
   <crystal>
    <varray name="basis" >
     <v>       2.87357350      -2.87357350       4.70833511 </v>
     <v>       5.74714699       0.00000000       0.00000000 </v>
     <v>       0.00000000      33.06569101      20.18052901 </v>
    </varray>
    <i name="volume">   1228.01926054 </i>
    <varray name="rec_basis" >
     <v>       0.00000000      -0.09444515       0.15474789 </v>
     <v>       0.17399938       0.04722258      -0.07737394 </v>
     <v>       0.00000000       0.02203507       0.01344836 </v>
    </varray>
   </crystal>
   <varray name="positions" >
    <v>       0.22067121       0.89240241       0.08901558 </v>
    <v>       0.66186547       0.17100855       0.21833518 </v>
    <v>       0.94927612       0.02809995       0.15233499 </v>
    <v>       0.37454490       0.31576863       0.28552019 </v>
    <v>       0.44927612       0.52809995       0.15233499 </v>
    <v>       0.89579986       0.30295979       0.28180582 </v>
    <v>       0.44927612       0.02809995       0.15233499 </v>
    <v>       0.89243194       0.80188810       0.28144778 </v>
    <v>       0.90282244       0.55132680       0.10484543 </v>
    <v>       0.35310565       0.82557288       0.23361069 </v>
    <v>       0.99141453       0.50808884       0.20080973 </v>
    <v>       0.42415095       0.79162108       0.33274931 </v>
    <v>       0.53851998       0.23347802       0.07318573 </v>
    <v>       0.01889750       0.48679048       0.35054268 </v>
    <v>       0.77201903       0.61213189       0.30914427 </v>
    <v>       0.87926422       0.06310591       0.05527763 </v>
    <v>       0.33892876       0.33056513       0.18267947 </v>
    <v>       0.58246139       0.21150732       0.12452493 </v>
    <v>       0.03393023       0.48797838       0.25347662 </v>
    <v>       0.68011066       0.70178592       0.37180298 </v>
    <v>       0.09516526       0.72856013       0.12156099 </v>
    <v>       0.54228304       0.45265556       0.25367098 </v>
    <v>       0.73764013       0.12567928       0.31184146 </v>
    <v>       0.85888103       0.57329750       0.05350623 </v>
    <v>       0.31109168       0.84856783       0.18052187 </v>
    <v>       0.56207820       0.72169891       0.12275353 </v>
    <v>       0.00199928       0.99840521       0.25292887 </v>
    <v>       0.79497087       0.32645767       0.18417841 </v>
    <v>       0.21902083       0.62041654       0.31579890 </v>
    <v>       0.34617716       0.60305419       0.05647018 </v>
    <v>       0.21651889       0.16661272       0.31517037 </v>
    <v>       0.79390736       0.88325853       0.18411165 </v>
    <v>       0.34617716       0.05624469       0.05647018 </v>
    <v>       0.53848654       0.01147103       0.25329285 </v>
    <v>       0.09516526       0.18175063       0.12156099 </v>
    <v>       0.18781366       0.35830461       0.39328829 </v>
    <v>       0.34047062       0.60391201       0.02782883 </v>
    <v>       0.92434681       0.68523651       0.03696881 </v>
    <v>       0.34363348       0.06399961       0.02783421 </v>
    <v>       0.88838126       0.05560908       0.02665597 </v>
    <v>       0.64400086       0.77951592       0.39458537 </v>
    <v>       0.75412751       0.10595225       0.33692772 </v>
    <v>       0.07549995       0.43394510       0.41265638 </v>
   </varray>
  </structure>
  <varray name="forces" >
   <v>       0.11663761      -1.74221749      -1.61224284 </v>
   <v>      -0.02037539      -0.06373556      -0.01607714 </v>
   <v>      -0.05751256       0.63592804      -0.01165983 </v>
   <v>       0.02309832       0.02522758       0.00760843 </v>
   <v>      -0.02435500       0.38285139       0.08949368 </v>
   <v>       0.11855759       0.06865830      -0.00194300 </v>
   <v>      -0.03695027       0.22190934       0.07118987 </v>
   <v>      -0.09941478       0.07005160       0.01734591 </v>
   <v>      -0.02762422      -1.32849192      -0.84824239 </v>
   <v>      -0.03675151       0.00433832      -0.02895990 </v>
   <v>      -0.04422102      -0.05687826      -0.02129790 </v>
   <v>      -0.00877934       0.09408811      -0.05289341 </v>
   <v>       0.00570203      -0.50334224       0.26597237 </v>
   <v>      -0.03004874      -0.05651501       0.03739937 </v>
   <v>      -0.03426927      -0.01252855      -0.00144552 </v>
   <v>      -0.31302136      -3.61443727      -1.95836768 </v>
   <v>       0.03734409       0.07357317      -0.01557784 </v>
   <v>      -0.06752910       0.26448099       0.37127216 </v>
   <v>      -0.04425330      -0.01038350      -0.04194416 </v>
   <v>       0.09309402       0.00943382       0.00469692 </v>
   <v>       0.34595012       0.36992921       0.54315403 </v>
   <v>       0.01523848      -0.05292845      -0.03616679 </v>
   <v>       0.03350062       0.11844621       0.15581223 </v>
   <v>       2.66883393      -2.51698427      -0.25077916 </v>
   <v>      -0.04163378       0.07040088       0.07513595 </v>
   <v>       0.10907756       0.33382437      -0.33914967 </v>
   <v>       0.05644248      -0.12943013       0.03419521 </v>
   <v>       0.07760921       0.06055862       0.04105452 </v>
   <v>       0.06694661       0.00048712       0.04483333 </v>
   <v>      -0.94843264      -3.58112048      -2.15409569 </v>
   <v>      -0.02107840       0.02717365       0.00212083 </v>
   <v>      -0.08503608       0.02198334       0.04171888 </v>
   <v>       1.05056227      -3.64110993      -1.92941043 </v>
   <v>      -0.05762823      -0.03956755      -0.01742523 </v>
   <v>      -0.15560768       0.32571137       0.44241565 </v>
   <v>       0.03291066       0.02472177      -0.03316435 </v>
   <v>       0.56499182       3.80013267       2.31478258 </v>
   <v>      -2.87578855       3.06347501       0.46168688 </v>
   <v>      -0.65608226       3.94062371       2.09593900 </v>
   <v>       0.36409228       3.67550018       2.17266473 </v>
   <v>       0.01227327       0.15687485       0.06627729 </v>
   <v>      -0.02138343      -0.19132060      -0.09303423 </v>
   <v>      -0.08508608      -0.29939238       0.10710734 </v>
  </varray>
  <energy>
   <i name="e_fr_energy">   -293.10388386 </i>
   <i name="e_wo_entrp">   -293.09622857 </i>
   <i name="e_0_energy">     -0.02296586 </i>
  </energy>
  <time name="totalsc">  908.25  914.41</time>
 </calculation>
 <calculation>
  <scstep>
   <time name="dav">   45.39   45.70</time>
   <time name="total">   49.33   49.69</time>
   <energy>
    <i name="alphaZ">    477.09650995 </i>
    <i name="ewald"> 394161.16561403 </i>
    <i name="hartreedc">-427860.16379469 </i>
    <i name="XCdc">   1613.00509535 </i>
    <i name="pawpsdc">  38080.48307774 </i>
    <i name="pawaedc"> -38786.26239432 </i>
    <i name="eentropy">     -0.02297980 </i>
    <i name="bandstr">  -5931.33817167 </i>
    <i name="atom">  37952.93320877 </i>
    <i name="e_fr_energy">   -293.10383464 </i>
    <i name="e_wo_entrp">   -293.08085484 </i>
    <i name="e_0_energy">   -293.09617471 </i>
   </energy>
  </scstep>
  <scstep>
   <time name="diag">    8.95    9.00</time>
   <time name="diis">   27.21   27.54</time>
   <time name="orth">    0.49    0.49</time>
   <time name="total">   40.62   41.01</time>
   <energy>
    <i name="e_fr_energy">   -293.11013047 </i>
    <i name="e_wo_entrp">   -293.09369449 </i>
    <i name="e_0_energy">   -293.10465181 </i>
   </energy>
  </scstep>
  <scstep>
   <time name="diag">    8.86    8.87</time>
   <time name="diis">   23.90   23.97</time>
   <time name="orth">    0.48    0.49</time>
   <time name="total">   37.22   37.33</time>
   <energy>
    <i name="e_fr_energy">   -293.10373110 </i>
    <i name="e_wo_entrp">   -293.08749497 </i>
    <i name="e_0_energy">   -293.09831906 </i>
   </energy>
  </scstep>
  <scstep>
   <time name="diag">    9.02    9.20</time>
   <time name="diis">   25.46   25.51</time>
   <time name="orth">    0.48    0.48</time>
   <time name="total">   38.93   39.20</time>
   <energy>
    <i name="e_fr_energy">   -293.10136565 </i>
    <i name="e_wo_entrp">   -293.08393198 </i>
    <i name="e_0_energy">   -293.09555443 </i>
   </energy>
  </scstep>
  <scstep>
   <time name="diag">    8.85    8.87</time>
   <time name="diis">   24.09   24.34</time>
   <time name="orth">    0.48    0.48</time>
   <time name="total">   37.35   37.63</time>
   <energy>
    <i name="e_fr_energy">   -293.10120217 </i>
    <i name="e_wo_entrp">   -293.08211047 </i>
    <i name="e_0_energy">   -293.09483827 </i>
   </energy>
  </scstep>
  <scstep>
   <time name="diag">    8.83    8.86</time>
   <time name="diis">   22.28   22.32</time>
   <time name="orth">    0.48    0.48</time>
   <time name="total">   35.54   35.66</time>
   <energy>
    <i name="e_fr_energy">   -293.10187066 </i>
    <i name="e_wo_entrp">   -293.08045846 </i>
    <i name="e_0_energy">   -293.09473326 </i>
   </energy>
  </scstep>
  <scstep>
   <time name="diag">    8.96    9.00</time>
   <time name="diis">   20.48   20.72</time>
   <time name="orth">    0.49    0.49</time>
   <time name="total">   33.90   34.19</time>
   <energy>
    <i name="e_fr_energy">   -293.10400960 </i>
    <i name="e_wo_entrp">   -293.08093291 </i>
    <i name="e_0_energy">   -293.09631737 </i>
   </energy>
  </scstep>
  <scstep>
   <time name="diag">    8.88    8.89</time>
   <time name="diis">   20.78   20.88</time>
   <time name="orth">    0.51    0.52</time>
   <time name="total">   34.21   34.35</time>
   <energy>
    <i name="e_fr_energy">   -293.10467186 </i>
    <i name="e_wo_entrp">   -293.08072878 </i>
    <i name="e_0_energy">   -293.09669083 </i>
   </energy>
  </scstep>
  <scstep>
   <time name="diag">    8.99    9.20</time>
   <time name="diis">   18.75   18.78</time>
   <time name="orth">    0.49    0.49</time>
   <time name="total">   32.24   32.48</time>
   <energy>
    <i name="e_fr_energy">   -293.10498404 </i>
    <i name="e_wo_entrp">   -293.08042776 </i>
    <i name="e_0_energy">   -293.09679862 </i>
   </energy>
  </scstep>
  <scstep>
   <time name="diag">    8.91    8.97</time>
   <time name="diis">   21.27   21.77</time>
   <time name="orth">    0.58    0.60</time>
   <time name="total">   34.85   35.42</time>
   <energy>
    <i name="e_fr_energy">   -293.10428743 </i>
    <i name="e_wo_entrp">   -293.07944065 </i>
    <i name="e_0_energy">   -293.09600517 </i>
   </energy>
  </scstep>
  <scstep>
   <time name="diag">    8.92    8.93</time>
   <time name="diis">   17.70   17.75</time>
   <time name="orth">    0.49    0.49</time>
   <time name="total">   31.09   31.15</time>
   <energy>
    <i name="e_fr_energy">   -293.10367465 </i>
    <i name="e_wo_entrp">   -293.07868920 </i>
    <i name="e_0_energy">   -293.09534616 </i>
   </energy>
  </scstep>
  <scstep>
   <time name="diag">    8.88    8.91</time>
   <time name="diis">   15.86   16.16</time>
   <time name="orth">    0.48    0.48</time>
   <time name="total">   29.20   29.52</time>
   <energy>
    <i name="e_fr_energy">   -293.10352258 </i>
    <i name="e_wo_entrp">   -293.07844568 </i>
    <i name="e_0_energy">   -293.09516361 </i>
   </energy>
  </scstep>
  <scstep>
   <time name="diag">    8.87    8.89</time>
   <time name="diis">   16.62   16.63</time>
   <time name="orth">    0.48    0.48</time>
   <time name="total">   29.95   30.00</time>
   <energy>
    <i name="e_fr_energy">   -293.10274893 </i>
    <i name="e_wo_entrp">   -293.07762681 </i>
    <i name="e_0_energy">   -293.09437489 </i>
   </energy>
  </scstep>
  <scstep>
   <time name="diag">    8.87    8.89</time>
   <time name="diis">   17.16   17.41</time>
   <time name="orth">    0.48    0.48</time>
   <time name="total">   30.46   30.73</time>
   <energy>
    <i name="e_fr_energy">   -293.10190588 </i>
    <i name="e_wo_entrp">   -293.07683672 </i>
    <i name="e_0_energy">   -293.09354950 </i>
   </energy>
  </scstep>
  <scstep>
   <time name="diag">    8.85    8.86</time>
   <time name="diis">   19.39   19.42</time>
   <time name="orth">    0.48    0.49</time>
   <time name="total">   32.68   32.73</time>
   <energy>
    <i name="e_fr_energy">   -293.10134699 </i>
    <i name="e_wo_entrp">   -293.07653578 </i>
    <i name="e_0_energy">   -293.09307658 </i>
   </energy>
  </scstep>
  <scstep>
   <time name="diag">    8.88    8.97</time>
   <time name="diis">   20.34   20.57</time>
   <time name="orth">    0.48    0.49</time>
   <time name="total">   33.64   33.98</time>
   <energy>
    <i name="e_fr_energy">   -293.10158339 </i>
    <i name="e_wo_entrp">   -293.07740674 </i>
    <i name="e_0_energy">   -293.09352451 </i>
   </energy>
  </scstep>
  <scstep>
   <time name="diag">    8.84    8.86</time>
   <time name="diis">   18.38   18.41</time>
   <time name="orth">    0.49    0.49</time>
   <time name="total">   31.63   31.71</time>
   <energy>
    <i name="e_fr_energy">   -293.10264528 </i>
    <i name="e_wo_entrp">   -293.07938796 </i>
    <i name="e_0_energy">   -293.09489284 </i>
   </energy>
  </scstep>
  <scstep>
   <time name="diag">    8.80    8.86</time>
   <time name="diis">   18.22   18.53</time>
   <time name="orth">    0.48    0.48</time>
   <time name="total">   31.42   31.83</time>
   <energy>
    <i name="e_fr_energy">   -293.10365285 </i>
    <i name="e_wo_entrp">   -293.08140542 </i>
    <i name="e_0_energy">   -293.09623704 </i>
   </energy>
  </scstep>
  <scstep>
   <time name="diag">    8.75    8.78</time>
   <time name="diis">   18.14   18.17</time>
   <time name="orth">    0.47    0.47</time>
   <time name="total">   31.34   31.52</time>
   <energy>
    <i name="e_fr_energy">   -293.10420499 </i>
    <i name="e_wo_entrp">   -293.08283006 </i>
    <i name="e_0_energy">   -293.09708002 </i>
   </energy>
  </scstep>
  <scstep>
   <time name="diag">    8.88    8.92</time>
   <time name="diis">   17.74   17.91</time>
   <time name="orth">    0.49    0.49</time>
   <time name="total">   31.04   31.26</time>
   <energy>
    <i name="e_fr_energy">   -293.10424069 </i>
    <i name="e_wo_entrp">   -293.08359536 </i>
    <i name="e_0_energy">   -293.09735891 </i>
   </energy>
  </scstep>
  <scstep>
   <time name="diag">    8.83    8.84</time>
   <time name="diis">   16.59   16.62</time>
   <time name="orth">    0.48    0.49</time>
   <time name="total">   29.85   29.95</time>
   <energy>
    <i name="e_fr_energy">   -293.10419185 </i>
    <i name="e_wo_entrp">   -293.08422532 </i>
    <i name="e_0_energy">   -293.09753634 </i>
   </energy>
  </scstep>
  <scstep>
   <time name="diag">    9.00    9.05</time>
   <time name="diis">   16.50   16.75</time>
   <time name="orth">    0.48    0.48</time>
   <time name="total">   29.97   30.27</time>
   <energy>
    <i name="e_fr_energy">   -293.10408923 </i>
    <i name="e_wo_entrp">   -293.08475969 </i>
    <i name="e_0_energy">   -293.09764605 </i>
   </energy>
  </scstep>
  <scstep>
   <time name="diag">    8.88    8.89</time>
   <time name="diis">   15.78   15.81</time>
   <time name="orth">    0.49    0.51</time>
   <time name="total">   29.13   29.23</time>
   <energy>
    <i name="e_fr_energy">   -293.10390472 </i>
    <i name="e_wo_entrp">   -293.08512185 </i>
    <i name="e_0_energy">   -293.09764376 </i>
   </energy>
  </scstep>
  <scstep>
   <time name="diag">    8.98    9.01</time>
   <time name="diis">   15.73   15.90</time>
   <time name="orth">    0.50    0.51</time>
   <time name="total">   29.19   29.40</time>
   <energy>
    <i name="e_fr_energy">   -293.10373015 </i>
    <i name="e_wo_entrp">   -293.08541788 </i>
    <i name="e_0_energy">   -293.09762606 </i>
   </energy>
  </scstep>
  <scstep>
   <time name="diag">    8.89    8.91</time>
   <time name="diis">   15.14   15.17</time>
   <time name="orth">    0.49    0.49</time>
   <time name="total">   28.53   28.61</time>
   <energy>
    <i name="e_fr_energy">   -293.10355747 </i>
    <i name="e_wo_entrp">   -293.08564257 </i>
    <i name="e_0_energy">   -293.09758584 </i>
   </energy>
  </scstep>
  <scstep>
   <time name="diag">    8.93    8.97</time>
   <time name="diis">   15.03   15.29</time>
   <time name="orth">    0.49    0.49</time>
   <time name="total">   28.46   28.77</time>
   <energy>
    <i name="e_fr_energy">   -293.10339836 </i>
    <i name="e_wo_entrp">   -293.08581282 </i>
    <i name="e_0_energy">   -293.09753652 </i>
   </energy>
  </scstep>
  <scstep>
   <time name="diag">    8.93    8.94</time>
   <time name="diis">   14.57   14.59</time>
   <time name="orth">    0.49    0.49</time>
   <time name="total">   27.98   28.03</time>
   <energy>
    <i name="e_fr_energy">   -293.10326958 </i>
    <i name="e_wo_entrp">   -293.08596132 </i>
    <i name="e_0_energy">   -293.09750016 </i>
   </energy>
  </scstep>
  <scstep>
   <time name="diag">    8.98    9.12</time>
   <time name="diis">   14.64   14.85</time>
   <time name="orth">    0.49    0.49</time>
   <time name="total">   28.09   28.45</time>
   <energy>
    <i name="e_fr_energy">   -293.10314635 </i>
    <i name="e_wo_entrp">   -293.08606021 </i>
    <i name="e_0_energy">   -293.09745097 </i>
   </energy>
  </scstep>
  <scstep>
   <time name="diag">    8.91    8.93</time>
   <time name="diis">   13.94   13.96</time>
   <time name="orth">    0.49    0.49</time>
   <time name="total">   27.33   27.37</time>
   <energy>
    <i name="e_fr_energy">   -293.10306342 </i>
    <i name="e_wo_entrp">   -293.08616919 </i>
    <i name="e_0_energy">   -293.09743201 </i>
   </energy>
  </scstep>
  <scstep>
   <time name="diag">    8.94    9.01</time>
   <time name="diis">   14.07   14.45</time>
   <time name="orth">    0.49    0.49</time>
   <time name="total">   27.48   27.92</time>
   <energy>
    <i name="e_fr_energy">   -293.10296157 </i>
    <i name="e_wo_entrp">   -293.08620892 </i>
    <i name="e_0_energy">   -293.09737735 </i>
   </energy>
  </scstep>
  <scstep>
   <time name="diag">    8.92    8.94</time>
   <time name="diis">   13.02   13.04</time>
   <time name="orth">    0.49    0.49</time>
   <time name="total">   26.40   26.45</time>
   <energy>
    <i name="e_fr_energy">   -293.10291444 </i>
    <i name="e_wo_entrp">   -293.08628956 </i>
    <i name="e_0_energy">   -293.09737281 </i>
   </energy>
  </scstep>
  <scstep>
   <time name="diag">    8.90    8.92</time>
   <time name="diis">   13.46   13.57</time>
   <time name="orth">    0.50    0.50</time>
   <time name="total">   27.00   27.34</time>
   <energy>
    <i name="e_fr_energy">   -293.10278833 </i>
    <i name="e_wo_entrp">   -293.08621364 </i>
    <i name="e_0_energy">   -293.09726343 </i>
   </energy>
  </scstep>
  <scstep>
   <time name="diag">    8.86    8.87</time>
   <time name="diis">   14.44   14.47</time>
   <time name="orth">    0.48    0.49</time>
   <time name="total">   27.75   27.79</time>
   <energy>
    <i name="e_fr_energy">   -293.10241754 </i>
    <i name="e_wo_entrp">   -293.08561665 </i>
    <i name="e_0_energy">   -293.09681724 </i>
   </energy>
  </scstep>
  <scstep>
   <time name="diag">    8.85    8.87</time>
   <time name="diis">   15.93   16.02</time>
   <time name="orth">    0.49    0.49</time>
   <time name="total">   29.37   29.50</time>
   <energy>
    <i name="e_fr_energy">   -293.10190653 </i>
    <i name="e_wo_entrp">   -293.08442351 </i>
    <i name="e_0_energy">   -293.09607886 </i>
   </energy>
  </scstep>
  <scstep>
   <time name="diag">    9.03    9.24</time>
   <time name="diis">   15.46   15.48</time>
   <time name="orth">    0.49    0.49</time>
   <time name="total">   28.97   29.23</time>
   <energy>
    <i name="e_fr_energy">   -293.10194067 </i>
    <i name="e_wo_entrp">   -293.08363005 </i>
    <i name="e_0_energy">   -293.09583713 </i>
   </energy>
  </scstep>
  <scstep>
   <time name="diag">    8.88    8.89</time>
   <time name="diis">   16.73   16.86</time>
   <time name="orth">    0.51    0.52</time>
   <time name="total">   30.12   30.29</time>
   <energy>
    <i name="e_fr_energy">   -293.10209157 </i>
    <i name="e_wo_entrp">   -293.08277404 </i>
    <i name="e_0_energy">   -293.09565240 </i>
   </energy>
  </scstep>
  <scstep>
   <time name="diag">    9.11    9.37</time>
   <time name="diis">   18.80   18.83</time>
   <time name="orth">    0.48    0.48</time>
   <time name="total">   32.35   32.65</time>
   <energy>
    <i name="e_fr_energy">   -293.10242081 </i>
    <i name="e_wo_entrp">   -293.08184828 </i>
    <i name="e_0_energy">   -293.09556330 </i>
   </energy>
  </scstep>
  <scstep>
   <time name="diag">    8.87    8.89</time>
   <time name="diis">   17.41   17.50</time>
   <time name="orth">    0.48    0.48</time>
   <time name="total">   30.78   31.11</time>
   <energy>
    <i name="e_fr_energy">   -293.10322605 </i>
    <i name="e_wo_entrp">   -293.08163208 </i>
    <i name="e_0_energy">   -293.09602806 </i>
   </energy>
  </scstep>
  <scstep>
   <time name="diag">    8.85    8.86</time>
   <time name="diis">   17.30   17.37</time>
   <time name="orth">    0.48    0.48</time>
   <time name="total">   30.59   30.67</time>
   <energy>
    <i name="e_fr_energy">   -293.10380431 </i>
    <i name="e_wo_entrp">   -293.08138758 </i>
    <i name="e_0_energy">   -293.09633207 </i>
   </energy>
  </scstep>
  <scstep>
   <time name="diag">    8.86    8.92</time>
   <time name="diis">   17.55   17.84</time>
   <time name="orth">    0.51    0.56</time>
   <time name="total">   30.90   31.36</time>
   <energy>
    <i name="e_fr_energy">   -293.10411807 </i>
    <i name="e_wo_entrp">   -293.08115162 </i>
    <i name="e_0_energy">   -293.09646258 </i>
   </energy>
  </scstep>
  <scstep>
   <time name="diag">    8.86    8.88</time>
   <time name="diis">   16.87   16.89</time>
   <time name="orth">    0.48    0.48</time>
   <time name="total">   30.17   30.22</time>
   <energy>
    <i name="e_fr_energy">   -293.10407399 </i>
    <i name="e_wo_entrp">   -293.08079884 </i>
    <i name="e_0_energy">   -293.09631561 </i>
   </energy>
  </scstep>
  <scstep>
   <time name="diag">    8.88    8.92</time>
   <time name="diis">   15.94   16.06</time>
   <time name="orth">    0.55    0.57</time>
   <time name="total">   29.46   29.79</time>
   <energy>
    <i name="e_fr_energy">   -293.10393671 </i>
    <i name="e_wo_entrp">   -293.08051905 </i>
    <i name="e_0_energy">   -293.09613082 </i>
   </energy>
  </scstep>
  <scstep>
   <time name="diag">    8.83    8.84</time>
   <time name="diis">   15.13   15.17</time>
   <time name="orth">    0.48    0.48</time>
   <time name="total">   28.40   28.46</time>
   <energy>
    <i name="e_fr_energy">   -293.10381004 </i>
    <i name="e_wo_entrp">   -293.08036909 </i>
    <i name="e_0_energy">   -293.09599639 </i>
   </energy>
  </scstep>
  <scstep>
   <time name="diag">    8.84    8.85</time>
   <time name="diis">   14.75   14.85</time>
   <time name="orth">    0.48    0.48</time>
   <time name="total">   28.29   28.54</time>
   <energy>
    <i name="e_fr_energy">   -293.10370962 </i>
    <i name="e_wo_entrp">   -293.08037529 </i>
    <i name="e_0_energy">   -293.09593151 </i>
   </energy>
  </scstep>
  <scstep>
   <time name="diag">    8.81    8.82</time>
   <time name="diis">   15.46   15.49</time>
   <time name="orth">    0.48    0.48</time>
   <time name="total">   28.70   28.75</time>
   <energy>
    <i name="e_fr_energy">   -293.10365445 </i>
    <i name="e_wo_entrp">   -293.08065335 </i>
    <i name="e_0_energy">   -293.09598742 </i>
   </energy>
  </scstep>
  <scstep>
   <time name="diag">    8.82    8.85</time>
   <time name="diis">   15.16   15.27</time>
   <time name="orth">    0.49    0.50</time>
   <time name="total">   28.51   28.67</time>
   <energy>
    <i name="e_fr_energy">   -293.10380518 </i>
    <i name="e_wo_entrp">   -293.08120509 </i>
    <i name="e_0_energy">   -293.09627181 </i>
   </energy>
  </scstep>
  <scstep>
   <time name="diag">    8.83    9.06</time>
   <time name="diis">   15.13   15.16</time>
   <time name="orth">    0.48    0.48</time>
   <time name="total">   28.34   28.60</time>
   <energy>
    <i name="e_fr_energy">   -293.10395149 </i>
    <i name="e_wo_entrp">   -293.08158591 </i>
    <i name="e_0_energy">   -293.09649630 </i>
   </energy>
  </scstep>
  <scstep>
   <time name="diag">    8.68    8.73</time>
   <time name="diis">   14.88   15.09</time>
   <time name="orth">    0.48    0.49</time>
   <time name="total">   28.06   28.33</time>
   <energy>
    <i name="e_fr_energy">   -293.10399209 </i>
    <i name="e_wo_entrp">   -293.08165233 </i>
    <i name="e_0_energy">   -293.09654550 </i>
   </energy>
  </scstep>
  <scstep>
   <time name="diag">    9.18    9.49</time>
   <time name="diis">   14.28   14.31</time>
   <time name="orth">    0.49    0.49</time>
   <time name="total">   24.49   24.83</time>
   <energy>
    <i name="alphaZ">    477.09650995 </i>
    <i name="ewald"> 394161.16561403 </i>
    <i name="hartreedc">-427860.19752363 </i>
    <i name="XCdc">   1613.00301599 </i>
    <i name="pawpsdc">  38080.23350138 </i>
    <i name="pawaedc"> -38786.01005793 </i>
    <i name="eentropy">     -0.02244502 </i>
    <i name="bandstr">  -5931.30582346 </i>
    <i name="atom">  37952.93320877 </i>
    <i name="e_fr_energy">   -293.10399991 </i>
    <i name="e_wo_entrp">   -293.08155489 </i>
    <i name="e_0_energy">   -293.09651824 </i>
   </energy>
  </scstep>
  <structure>
   <crystal>
    <varray name="basis" >
     <v>       2.87357350      -2.87357350       4.70833511 </v>
     <v>       5.74714699       0.00000000       0.00000000 </v>
     <v>       0.00000000      33.06569101      20.18052901 </v>
    </varray>
    <i name="volume">   1228.01926054 </i>
    <varray name="rec_basis" >
     <v>       0.00000000      -0.09444515       0.15474789 </v>
     <v>       0.17399938       0.04722258      -0.07737394 </v>
     <v>       0.00000000       0.02203507       0.01344836 </v>
    </varray>
   </crystal>
   <varray name="positions" >
    <v>       0.22067121       0.89240241       0.08901558 </v>
    <v>       0.66188014       0.17098382       0.21833430 </v>
    <v>       0.94927612       0.02809995       0.15233499 </v>
    <v>       0.37456701       0.31575403       0.28551935 </v>
    <v>       0.44927612       0.52809995       0.15233499 </v>
    <v>       0.89580363       0.30293806       0.28180755 </v>
    <v>       0.44927612       0.02809995       0.15233499 </v>
    <v>       0.89241932       0.80192032       0.28144869 </v>
    <v>       0.90282244       0.55132680       0.10484543 </v>
    <v>       0.35310469       0.82556511       0.23361360 </v>
    <v>       0.99140717       0.50808079       0.20080813 </v>
    <v>       0.42412141       0.79163681       0.33275446 </v>
    <v>       0.53851998       0.23347802       0.07318573 </v>
    <v>       0.01887236       0.48680325       0.35054127 </v>
    <v>       0.77195874       0.61217541       0.30914365 </v>
    <v>       0.87926422       0.06310591       0.05527763 </v>
    <v>       0.33891933       0.33054989       0.18268092 </v>
    <v>       0.58246139       0.21150732       0.12452493 </v>
    <v>       0.03390788       0.48798524       0.25347348 </v>
    <v>       0.68010807       0.70185807       0.37181252 </v>
    <v>       0.09516526       0.72856013       0.12156099 </v>
    <v>       0.54227072       0.45264325       0.25367075 </v>
    <v>       0.73768760       0.12565703       0.31182708 </v>
    <v>       0.85888103       0.57329750       0.05350623 </v>
    <v>       0.31108440       0.84857872       0.18052386 </v>
    <v>       0.56207820       0.72169891       0.12275353 </v>
    <v>       0.00200444       0.99842120       0.25292946 </v>
    <v>       0.79499385       0.32643127       0.18417812 </v>
    <v>       0.21905144       0.62041721       0.31579805 </v>
    <v>       0.34617716       0.60305419       0.05647018 </v>
    <v>       0.21654578       0.16660541       0.31517029 </v>
    <v>       0.79393364       0.88323721       0.18411032 </v>
    <v>       0.34617716       0.05624469       0.05647018 </v>
    <v>       0.53848560       0.01144989       0.25329364 </v>
    <v>       0.09516526       0.18175063       0.12156099 </v>
    <v>       0.18790693       0.35825476       0.39327864 </v>
    <v>       0.34047062       0.60391201       0.02782883 </v>
    <v>       0.92434681       0.68523651       0.03696881 </v>
    <v>       0.34363348       0.06399961       0.02783421 </v>
    <v>       0.88838126       0.05560908       0.02665597 </v>
    <v>       0.64400019       0.77949772       0.39458965 </v>
    <v>       0.75415048       0.10592364       0.33693290 </v>
    <v>       0.07554283       0.43389665       0.41265396 </v>
   </varray>
  </structure>
  <varray name="forces" >
   <v>       0.11666618      -1.74168737      -1.61341104 </v>
   <v>      -0.02036668      -0.06243484      -0.01661673 </v>
   <v>      -0.05807640       0.63381795      -0.01124408 </v>
   <v>       0.02447315       0.02549015       0.00506189 </v>
   <v>      -0.02415240       0.38456681       0.08919742 </v>
   <v>       0.12324131       0.06489807      -0.00290130 </v>
   <v>      -0.03833174       0.22198298       0.07065678 </v>
   <v>      -0.10445082       0.06434682       0.01709015 </v>
   <v>      -0.02587137      -1.32910407      -0.84760564 </v>
   <v>      -0.03723020       0.00359205      -0.02929391 </v>
   <v>      -0.04441073      -0.05644210      -0.02049630 </v>
   <v>      -0.00955406       0.09532951      -0.05107635 </v>
   <v>       0.00469773      -0.50264364       0.26728340 </v>
   <v>      -0.03545164      -0.03856375       0.02818066 </v>
   <v>      -0.03387262      -0.00978198       0.01350567 </v>
   <v>      -0.31267589      -3.62041544      -1.96085202 </v>
   <v>       0.03858763       0.07176133      -0.01498485 </v>
   <v>      -0.06760155       0.26455065       0.37120906 </v>
   <v>      -0.04383957      -0.00661462      -0.04074537 </v>
   <v>       0.08127959      -0.02398426       0.00502281 </v>
   <v>       0.34714644       0.37080865       0.54369808 </v>
   <v>       0.01519542      -0.05396952      -0.03637187 </v>
   <v>       0.03181397       0.15225512       0.17750146 </v>
   <v>       2.68834144      -2.53770556      -0.25008395 </v>
   <v>      -0.04245639       0.06895561       0.07532128 </v>
   <v>       0.10936805       0.33638254      -0.33971424 </v>
   <v>       0.05470420      -0.13029423       0.03363199 </v>
   <v>       0.07762329       0.06152534       0.03952067 </v>
   <v>       0.06405702       0.00259122       0.04454742 </v>
   <v>      -0.94745180      -3.58262491      -2.15578848 </v>
   <v>      -0.01529442       0.03418851       0.00200482 </v>
   <v>      -0.08506484       0.02263508       0.04067805 </v>
   <v>       1.04926095      -3.64333336      -1.93077765 </v>
   <v>      -0.05665631      -0.04055723      -0.01761911 </v>
   <v>      -0.15759332       0.32461451       0.44261804 </v>
   <v>       0.03543143       0.01753443      -0.04490089 </v>
   <v>       0.56481622       3.80155638       2.31558290 </v>
   <v>      -2.89095742       3.08049911       0.46179844 </v>
   <v>      -0.65606210       3.94307914       2.09704588 </v>
   <v>       0.36422730       3.68022166       2.17516556 </v>
   <v>       0.02082924       0.17673410       0.07642577 </v>
   <v>      -0.01931526      -0.21830589      -0.11337770 </v>
   <v>      -0.08502302      -0.30545491       0.10511328 </v>
  </varray>
  <energy>
   <i name="e_fr_energy">   -293.10399991 </i>
   <i name="e_wo_entrp">   -293.09651824 </i>
   <i name="e_0_energy">     -0.02244502 </i>
  </energy>
  <time name="totalsc"> 1542.76 1553.61</time>
 </calculation>
 <calculation>
  <scstep>
   <time name="dav">   45.55   45.95</time>
   <time name="total">   49.48   49.90</time>
   <energy>
    <i name="alphaZ">    477.09650995 </i>
    <i name="ewald"> 394145.95989175 </i>
    <i name="hartreedc">-427844.97467753 </i>
    <i name="XCdc">   1612.99833084 </i>
    <i name="pawpsdc">  38080.23009170 </i>
    <i name="pawaedc"> -38786.00774454 </i>
    <i name="eentropy">     -0.02269857 </i>
    <i name="bandstr">  -5931.31144839 </i>
    <i name="atom">  37952.93320877 </i>
    <i name="e_fr_energy">   -293.09853602 </i>
    <i name="e_wo_entrp">   -293.07583744 </i>
    <i name="e_0_energy">   -293.09096983 </i>
   </energy>
  </scstep>
  <scstep>
   <time name="diag">    8.91    8.98</time>
   <time name="diis">   30.41   30.96</time>
   <time name="orth">    0.50    0.50</time>
   <time name="total">   43.84   44.48</time>
   <energy>
    <i name="e_fr_energy">   -293.11217302 </i>
    <i name="e_wo_entrp">   -293.09292750 </i>
    <i name="e_0_energy">   -293.10575785 </i>
   </energy>
  </scstep>
  <scstep>
   <time name="diag">    8.92    8.94</time>
   <time name="diis">   25.89   25.96</time>
   <time name="orth">    0.49    0.49</time>
   <time name="total">   39.35   39.46</time>
   <energy>
    <i name="e_fr_energy">   -293.10920373 </i>
    <i name="e_wo_entrp">   -293.08675052 </i>
    <i name="e_0_energy">   -293.10171933 </i>
   </energy>
  </scstep>
  <scstep>
   <time name="diag">    9.21    9.54</time>
   <time name="diis">   25.57   25.62</time>
   <time name="orth">    0.49    0.49</time>
   <time name="total">   39.25   39.65</time>
   <energy>
    <i name="e_fr_energy">   -293.11157537 </i>
    <i name="e_wo_entrp">   -293.08773435 </i>
    <i name="e_0_energy">   -293.10362837 </i>
   </energy>
  </scstep>
  <scstep>
   <time name="diag">    8.93    8.94</time>
   <time name="diis">   24.32   24.73</time>
   <time name="orth">    0.48    0.48</time>
   <time name="total">   37.70   38.13</time>
   <energy>
    <i name="e_fr_energy">   -293.10982154 </i>
    <i name="e_wo_entrp">   -293.08682789 </i>
    <i name="e_0_energy">   -293.10215699 </i>
   </energy>
  </scstep>
  <scstep>
   <time name="diag">    8.92    8.95</time>
   <time name="diis">   23.16   23.20</time>
   <time name="orth">    0.50    0.54</time>
   <time name="total">   36.58   36.72</time>
   <energy>
    <i name="e_fr_energy">   -293.11078643 </i>
    <i name="e_wo_entrp">   -293.08932712 </i>
    <i name="e_0_energy">   -293.10363333 </i>
   </energy>
  </scstep>
  <scstep>
   <time name="diag">    9.09    9.29</time>
   <time name="diis">   23.35   23.54</time>
   <time name="orth">    0.49    0.49</time>
   <time name="total">   36.91   37.31</time>
   <energy>
    <i name="e_fr_energy">   -293.11052586 </i>
    <i name="e_wo_entrp">   -293.08914535 </i>
    <i name="e_0_energy">   -293.10339902 </i>
   </energy>
  </scstep>
  <scstep>
   <time name="diag">    8.92    8.97</time>
   <time name="diis">   23.56   23.95</time>
   <time name="orth">    0.48    0.51</time>
   <time name="total">   36.90   37.36</time>
   <energy>
    <i name="e_fr_energy">   -293.11042087 </i>
    <i name="e_wo_entrp">   -293.08748935 </i>
    <i name="e_0_energy">   -293.10277703 </i>
   </energy>
  </scstep>
  <scstep>
   <time name="diag">    8.84    8.85</time>
   <time name="diis">   21.25   21.29</time>
   <time name="orth">    0.48    0.49</time>
   <time name="total">   34.51   34.56</time>
   <energy>
    <i name="e_fr_energy">   -293.11094055 </i>
    <i name="e_wo_entrp">   -293.08728869 </i>
    <i name="e_0_energy">   -293.10305660 </i>
   </energy>
  </scstep>
  <scstep>
   <time name="diag">    8.89    8.94</time>
   <time name="diis">   22.39   22.66</time>
   <time name="orth">    0.49    0.49</time>
   <time name="total">   35.77   36.13</time>
   <energy>
    <i name="e_fr_energy">   -293.11020166 </i>
    <i name="e_wo_entrp">   -293.08664930 </i>
    <i name="e_0_energy">   -293.10235088 </i>
   </energy>
  </scstep>
  <scstep>
   <time name="diag">    8.89    8.90</time>
   <time name="diis">   18.44   18.47</time>
   <time name="orth">    0.49    0.49</time>
   <time name="total">   31.83   31.93</time>
   <energy>
    <i name="e_fr_energy">   -293.11011396 </i>
    <i name="e_wo_entrp">   -293.08705381 </i>
    <i name="e_0_energy">   -293.10242724 </i>
   </energy>
  </scstep>
  <scstep>
   <time name="diag">    9.04    9.09</time>
   <time name="diis">   17.80   18.04</time>
   <time name="orth">    0.49    0.49</time>
   <time name="total">   31.29   31.60</time>
   <energy>
    <i name="e_fr_energy">   -293.11042206 </i>
    <i name="e_wo_entrp">   -293.08810895 </i>
    <i name="e_0_energy">   -293.10298436 </i>
   </energy>
  </scstep>
  <scstep>
   <time name="diag">    8.89    8.90</time>
   <time name="diis">   16.86   16.89</time>
   <time name="orth">    0.48    0.49</time>
   <time name="total">   30.19   30.31</time>
   <energy>
    <i name="e_fr_energy">   -293.11076379 </i>
    <i name="e_wo_entrp">   -293.08920536 </i>
    <i name="e_0_energy">   -293.10357765 </i>
   </energy>
  </scstep>
  <scstep>
   <time name="diag">    8.92    9.01</time>
   <time name="diis">   16.95   17.16</time>
   <time name="orth">    0.49    0.49</time>
   <time name="total">   30.29   30.61</time>
   <energy>
    <i name="e_fr_energy">   -293.11073274 </i>
    <i name="e_wo_entrp">   -293.08969315 </i>
    <i name="e_0_energy">   -293.10371954 </i>
   </energy>
  </scstep>
  <scstep>
   <time name="diag">    8.84    8.85</time>
   <time name="diis">   15.69   15.72</time>
   <time name="orth">    0.49    0.52</time>
   <time name="total">   28.99   29.09</time>
   <energy>
    <i name="e_fr_energy">   -293.11067324 </i>
    <i name="e_wo_entrp">   -293.09008463 </i>
    <i name="e_0_energy">   -293.10381037 </i>
   </energy>
  </scstep>
  <scstep>
   <time name="diag">    8.95    9.00</time>
   <time name="diis">   15.87   16.07</time>
   <time name="orth">    0.48    0.49</time>
   <time name="total">   29.27   29.53</time>
   <energy>
    <i name="e_fr_energy">   -293.11056203 </i>
    <i name="e_wo_entrp">   -293.09033798 </i>
    <i name="e_0_energy">   -293.10382068 </i>
   </energy>
  </scstep>
  <scstep>
   <time name="diag">    8.85    8.87</time>
   <time name="diis">   14.97   15.03</time>
   <time name="orth">    0.48    0.49</time>
   <time name="total">   28.26   28.35</time>
   <energy>
    <i name="e_fr_energy">   -293.11044564 </i>
    <i name="e_wo_entrp">   -293.09051434 </i>
    <i name="e_0_energy">   -293.10380188 </i>
   </energy>
  </scstep>
  <scstep>
   <time name="diag">    8.95    9.07</time>
   <time name="diis">   14.94   15.18</time>
   <time name="orth">    0.49    0.49</time>
   <time name="total">   28.38   28.79</time>
   <energy>
    <i name="e_fr_energy">   -293.11034680 </i>
    <i name="e_wo_entrp">   -293.09066090 </i>
    <i name="e_0_energy">   -293.10378483 </i>
   </energy>
  </scstep>
  <scstep>
   <time name="diag">    8.86    8.88</time>
   <time name="diis">   14.52   14.58</time>
   <time name="orth">    0.49    0.49</time>
   <time name="total">   27.84   27.92</time>
   <energy>
    <i name="e_fr_energy">   -293.11025423 </i>
    <i name="e_wo_entrp">   -293.09077198 </i>
    <i name="e_0_energy">   -293.10376015 </i>
   </energy>
  </scstep>
  <scstep>
   <time name="diag">    8.91    9.17</time>
   <time name="diis">   14.43   14.55</time>
   <time name="orth">    0.49    0.49</time>
   <time name="total">   27.79   28.17</time>
   <energy>
    <i name="e_fr_energy">   -293.11017873 </i>
    <i name="e_wo_entrp">   -293.09086918 </i>
    <i name="e_0_energy">   -293.10374221 </i>
   </energy>
  </scstep>
  <scstep>
   <time name="diag">    8.89    8.92</time>
   <time name="diis">   13.98   14.00</time>
   <time name="orth">    0.49    0.49</time>
   <time name="total">   27.32   27.39</time>
   <energy>
    <i name="e_fr_energy">   -293.11010680 </i>
    <i name="e_wo_entrp">   -293.09093751 </i>
    <i name="e_0_energy">   -293.10371704 </i>
   </energy>
  </scstep>
  <scstep>
   <time name="diag">    8.91    9.08</time>
   <time name="diis">   13.69   13.97</time>
   <time name="orth">    0.49    0.49</time>
   <time name="total">   27.05   27.51</time>
   <energy>
    <i name="e_fr_energy">   -293.11005148 </i>
    <i name="e_wo_entrp">   -293.09100087 </i>
    <i name="e_0_energy">   -293.10370127 </i>
   </energy>
  </scstep>
  <scstep>
   <time name="diag">    8.86    8.88</time>
   <time name="diis">   13.20   13.22</time>
   <time name="orth">    0.48    0.49</time>
   <time name="total">   26.51   26.56</time>
   <energy>
    <i name="e_fr_energy">   -293.11000341 </i>
    <i name="e_wo_entrp">   -293.09105269 </i>
    <i name="e_0_energy">   -293.10368650 </i>
   </energy>
  </scstep>
  <scstep>
   <time name="diag">    8.85    8.89</time>
   <time name="diis">   12.83   12.96</time>
   <time name="orth">    0.50    0.51</time>
   <time name="total">   26.33   26.58</time>
   <energy>
    <i name="e_fr_energy">   -293.10995594 </i>
    <i name="e_wo_entrp">   -293.09108245 </i>
    <i name="e_0_energy">   -293.10366478 </i>
   </energy>
  </scstep>
  <scstep>
   <time name="diag">    8.96    9.06</time>
   <time name="diis">   12.41   12.44</time>
   <time name="orth">    0.49    0.49</time>
   <time name="total">   25.83   25.99</time>
   <energy>
    <i name="e_fr_energy">   -293.10992597 </i>
    <i name="e_wo_entrp">   -293.09112028 </i>
    <i name="e_0_energy">   -293.10365741 </i>
   </energy>
  </scstep>
  <scstep>
   <time name="diag">    8.85    8.87</time>
   <time name="diis">   12.18   12.24</time>
   <time name="orth">    0.49    0.49</time>
   <time name="total">   25.49   25.57</time>
   <energy>
    <i name="e_fr_energy">   -293.10988821 </i>
    <i name="e_wo_entrp">   -293.09113035 </i>
    <i name="e_0_energy">   -293.10363559 </i>
   </energy>
  </scstep>
  <scstep>
   <time name="diag">    9.35    9.58</time>
   <time name="diis">   11.64   11.65</time>
   <time name="orth">    0.49    0.50</time>
   <time name="total">   25.46   25.72</time>
   <energy>
    <i name="e_fr_energy">   -293.10986388 </i>
    <i name="e_wo_entrp">   -293.09114319 </i>
    <i name="e_0_energy">   -293.10362365 </i>
   </energy>
  </scstep>
  <scstep>
   <time name="diag">    8.86    8.87</time>
   <time name="diis">   11.42   11.44</time>
   <time name="orth">    0.49    0.49</time>
   <time name="total">   24.73   24.77</time>
   <energy>
    <i name="e_fr_energy">   -293.10985111 </i>
    <i name="e_wo_entrp">   -293.09116420 </i>
    <i name="e_0_energy">   -293.10362214 </i>
   </energy>
  </scstep>
  <scstep>
   <time name="diag">    8.95    9.07</time>
   <time name="diis">   11.80   12.08</time>
   <time name="orth">    0.49    0.49</time>
   <time name="total">   21.78   22.19</time>
   <energy>
    <i name="alphaZ">    477.09650995 </i>
    <i name="ewald"> 394145.95989175 </i>
    <i name="hartreedc">-427846.11314657 </i>
    <i name="XCdc">   1613.00144932 </i>
    <i name="pawpsdc">  38078.10246066 </i>
    <i name="pawaedc"> -38783.85216390 </i>
    <i name="eentropy">     -0.01864616 </i>
    <i name="bandstr">  -5930.21941416 </i>
    <i name="atom">  37952.93320877 </i>
    <i name="e_fr_energy">   -293.10985034 </i>
    <i name="e_wo_entrp">   -293.09120418 </i>
    <i name="e_0_energy">   -293.10363495 </i>
   </energy>
  </scstep>
  <structure>
   <crystal>
    <varray name="basis" >
     <v>       2.87357350      -2.87357350       4.70833511 </v>
     <v>       5.74714699       0.00000000       0.00000000 </v>
     <v>       0.00000000      33.06569101      20.18052901 </v>
    </varray>
    <i name="volume">   1228.01926054 </i>
    <varray name="rec_basis" >
     <v>       0.00000000      -0.09444515       0.15474789 </v>
     <v>       0.17399938       0.04722258      -0.07737394 </v>
     <v>       0.00000000       0.02203507       0.01344836 </v>
    </varray>
   </crystal>
   <varray name="positions" >
    <v>       0.22067121       0.89240241       0.08901558 </v>
    <v>       0.66208523       0.17064547       0.21829622 </v>
    <v>       0.94927612       0.02809995       0.15233499 </v>
    <v>       0.37475414       0.31570394       0.28552263 </v>
    <v>       0.44927612       0.52809995       0.15233499 </v>
    <v>       0.89571966       0.30317965       0.28185011 </v>
    <v>       0.44927612       0.02809995       0.15233499 </v>
    <v>       0.89223238       0.80193385       0.28148789 </v>
    <v>       0.90282244       0.55132680       0.10484543 </v>
    <v>       0.35300569       0.82541451       0.23363644 </v>
    <v>       0.99137458       0.50783985       0.20076441 </v>
    <v>       0.42352061       0.79191605       0.33283097 </v>
    <v>       0.53851998       0.23347802       0.07318573 </v>
    <v>       0.01877284       0.48674162       0.35051874 </v>
    <v>       0.77142252       0.61246632       0.30913691 </v>
    <v>       0.87926422       0.06310591       0.05527763 </v>
    <v>       0.33865951       0.33060739       0.18272051 </v>
    <v>       0.58246139       0.21150732       0.12452493 </v>
    <v>       0.03358409       0.48796458       0.25342987 </v>
    <v>       0.68013866       0.70279820       0.37189766 </v>
    <v>       0.09516526       0.72856013       0.12156099 </v>
    <v>       0.54214006       0.45257595       0.25363768 </v>
    <v>       0.73839417       0.12542015       0.31179159 </v>
    <v>       0.85888103       0.57329750       0.05350623 </v>
    <v>       0.31110759       0.84850247       0.18058998 </v>
    <v>       0.56207820       0.72169891       0.12275353 </v>
    <v>       0.00237710       0.99859222       0.25289071 </v>
    <v>       0.79522502       0.32641781       0.18421002 </v>
    <v>       0.21947413       0.62056765       0.31580182 </v>
    <v>       0.34617716       0.60305419       0.05647018 </v>
    <v>       0.21675593       0.16651158       0.31518383 </v>
    <v>       0.79426807       0.88271764       0.18411652 </v>
    <v>       0.34617716       0.05624469       0.05647018 </v>
    <v>       0.53849663       0.01105104       0.25328061 </v>
    <v>       0.09516526       0.18175063       0.12156099 </v>
    <v>       0.18866396       0.35795811       0.39317990 </v>
    <v>       0.34047062       0.60391201       0.02782883 </v>
    <v>       0.92434681       0.68523651       0.03696881 </v>
    <v>       0.34363348       0.06399961       0.02783421 </v>
    <v>       0.88838126       0.05560908       0.02665597 </v>
    <v>       0.64390415       0.77943055       0.39472215 </v>
    <v>       0.75443243       0.10555280       0.33686723 </v>
    <v>       0.07679324       0.43273430       0.41253244 </v>
   </varray>
  </structure>
  <varray name="forces" >
   <v>       0.11609456      -1.73862577      -1.61957300 </v>
   <v>      -0.01884292      -0.01830558      -0.00249442 </v>
   <v>      -0.06268829       0.63780485      -0.00241300 </v>
   <v>       0.02381867       0.00497418      -0.00891063 </v>
   <v>      -0.02181115       0.41353324       0.09167057 </v>
   <v>       0.08039108      -0.01328754      -0.01955547 </v>
   <v>      -0.04966380       0.24735274       0.07339031 </v>
   <v>      -0.07020657      -0.03105639       0.00617280 </v>
   <v>      -0.01459916      -1.33303362      -0.84602917 </v>
   <v>      -0.03654866       0.00220281      -0.02279573 </v>
   <v>      -0.03897572      -0.03703687      -0.00188926 </v>
   <v>      -0.00546395       0.09784516      -0.00935326 </v>
   <v>      -0.00164355      -0.49891699       0.27468438 </v>
   <v>      -0.06190768       0.07172753      -0.02947437 </v>
   <v>      -0.01324148       0.04041298       0.10870936 </v>
   <v>      -0.31022730      -3.65594732      -1.97572696 </v>
   <v>       0.03818743       0.02228197      -0.00003325 </v>
   <v>      -0.06950051       0.26815203       0.37354776 </v>
   <v>      -0.02625454       0.03774487      -0.02057712 </v>
   <v>       0.04118092      -0.15203691       0.02870820 </v>
   <v>       0.35527979       0.37463983       0.54727344 </v>
   <v>      -0.00579005      -0.04970503      -0.02710336 </v>
   <v>       0.03058303       0.13442416       0.13583571 </v>
   <v>       2.80335507      -2.65920520      -0.24350383 </v>
   <v>      -0.03790682       0.02165269       0.05715377 </v>
   <v>       0.11264535       0.35284964      -0.34406542 </v>
   <v>       0.02225674      -0.05791878       0.01682790 </v>
   <v>       0.04224081       0.04590250       0.00800475 </v>
   <v>       0.01517674       0.01464083       0.02355422 </v>
   <v>      -0.94211503      -3.59045822      -2.16501529 </v>
   <v>       0.04066513       0.07668343      -0.00579646 </v>
   <v>      -0.05557322       0.01322844       0.01496152 </v>
   <v>       1.04250914      -3.65620334      -1.93961666 </v>
   <v>      -0.02521411      -0.03871157      -0.00613942 </v>
   <v>      -0.17014098       0.31965086       0.44547060 </v>
   <v>       0.02150225      -0.24122817      -0.08061697 </v>
   <v>       0.56395815       3.80858012       2.31930068 </v>
   <v>      -2.97921647       3.18031934       0.46126827 </v>
   <v>      -0.65598217       3.95681094       2.10324353 </v>
   <v>       0.36501518       3.70819321       2.18995701 </v>
   <v>       0.03883835       0.20610104       0.10763695 </v>
   <v>      -0.02237703      -0.16766302      -0.07892101 </v>
   <v>      -0.05780721      -0.11836906       0.06223231 </v>
  </varray>
  <energy>
   <i name="e_fr_energy">   -293.10985034 </i>
   <i name="e_wo_entrp">   -293.10363495 </i>
   <i name="e_0_energy">     -0.01864616 </i>
  </energy>
  <time name="totalsc">  936.41  943.83</time>
 </calculation>
 <calculation>
  <scstep>
   <time name="dav">   45.93   46.39</time>
   <time name="total">   49.95   50.43</time>
   <energy>
    <i name="alphaZ">    477.09650995 </i>
    <i name="ewald"> 394114.66583830 </i>
    <i name="hartreedc">-427814.79405795 </i>
    <i name="XCdc">   1612.99356962 </i>
    <i name="pawpsdc">  38078.10482161 </i>
    <i name="pawaedc"> -38783.85404229 </i>
    <i name="eentropy">     -0.01893101 </i>
    <i name="bandstr">  -5930.19113565 </i>
    <i name="atom">  37952.93320877 </i>
    <i name="e_fr_energy">   -293.06421863 </i>
    <i name="e_wo_entrp">   -293.04528763 </i>
    <i name="e_0_energy">   -293.05790830 </i>
   </energy>
  </scstep>
  <scstep>
   <time name="diag">    8.85    8.86</time>
   <time name="diis">   30.04   30.15</time>
   <time name="orth">    0.50    0.50</time>
   <time name="total">   43.46   43.61</time>
   <energy>
    <i name="e_fr_energy">   -293.23292873 </i>
    <i name="e_wo_entrp">   -293.23612725 </i>
    <i name="e_0_energy">   -293.23399491 </i>
   </energy>
  </scstep>
  <scstep>
   <time name="diag">    8.97    9.07</time>
   <time name="diis">   25.82   25.86</time>
   <time name="orth">    0.48    0.49</time>
   <time name="total">   39.25   39.40</time>
   <energy>
    <i name="e_fr_energy">   -293.09894829 </i>
    <i name="e_wo_entrp">   -293.08197464 </i>
    <i name="e_0_energy">   -293.09329041 </i>
   </energy>
  </scstep>
  <scstep>
   <time name="diag">    8.88    8.93</time>
   <time name="diis">   25.97   26.21</time>
   <time name="orth">    0.49    0.50</time>
   <time name="total">   39.31   39.62</time>
   <energy>
    <i name="e_fr_energy">   -293.06645652 </i>
    <i name="e_wo_entrp">   -293.04550784 </i>
    <i name="e_0_energy">   -293.05947362 </i>
   </energy>
  </scstep>
  <scstep>
   <time name="diag">    8.85    8.85</time>
   <time name="diis">   24.85   24.96</time>
   <time name="orth">    0.49    0.49</time>
   <time name="total">   38.20   38.35</time>
   <energy>
    <i name="e_fr_energy">   -293.14269493 </i>
    <i name="e_wo_entrp">   -293.13575869 </i>
    <i name="e_0_energy">   -293.14038285 </i>
   </energy>
  </scstep>
  <scstep>
   <time name="diag">    9.10    9.32</time>
   <time name="diis">   24.31   24.35</time>
   <time name="orth">    0.48    0.49</time>
   <time name="total">   37.85   38.15</time>
   <energy>
    <i name="e_fr_energy">   -293.13898350 </i>
    <i name="e_wo_entrp">   -293.13958879 </i>
    <i name="e_0_energy">   -293.13918526 </i>
   </energy>
  </scstep>
  <scstep>
   <time name="diag">    8.88    8.89</time>
   <time name="diis">   25.16   25.56</time>
   <time name="orth">    0.48    0.48</time>
   <time name="total">   38.53   38.97</time>
   <energy>
    <i name="e_fr_energy">   -293.12891081 </i>
    <i name="e_wo_entrp">   -293.13200692 </i>
    <i name="e_0_energy">   -293.12994285 </i>
   </energy>
  </scstep>
  <scstep>
   <time name="diag">    8.87    8.88</time>
   <time name="diis">   24.11   24.18</time>
   <time name="orth">    0.48    0.48</time>
   <time name="total">   37.44   37.53</time>
   <energy>
    <i name="e_fr_energy">   -293.13494994 </i>
    <i name="e_wo_entrp">   -293.14182823 </i>
    <i name="e_0_energy">   -293.13724270 </i>
   </energy>
  </scstep>
  <scstep>
   <time name="diag">    9.22    9.50</time>
   <time name="diis">   26.63   26.67</time>
   <time name="orth">    0.49    0.49</time>
   <time name="total">   40.29   40.62</time>
   <energy>
    <i name="e_fr_energy">   -293.08282330 </i>
    <i name="e_wo_entrp">   -293.07301243 </i>
    <i name="e_0_energy">   -293.07955301 </i>
   </energy>
  </scstep>
  <scstep>
   <time name="diag">    8.89    8.90</time>
   <time name="diis">   25.15   25.49</time>
   <time name="orth">    0.49    0.49</time>
   <time name="total">   38.51   38.86</time>
   <energy>
    <i name="e_fr_energy">   -293.10176711 </i>
    <i name="e_wo_entrp">   -293.08204766 </i>
    <i name="e_0_energy">   -293.09519396 </i>
   </energy>
  </scstep>
  <scstep>
   <time name="diag">    8.88    8.90</time>
   <time name="diis">   23.69   23.74</time>
   <time name="orth">    0.48    0.49</time>
   <time name="total">   37.08   37.19</time>
   <energy>
    <i name="e_fr_energy">   -293.11578828 </i>
    <i name="e_wo_entrp">   -293.09236535 </i>
    <i name="e_0_energy">   -293.10798063 </i>
   </energy>
  </scstep>
  <scstep>
   <time name="diag">    8.94    9.01</time>
   <time name="diis">   24.62   24.77</time>
   <time name="orth">    0.48    0.48</time>
   <time name="total">   38.01   38.23</time>
   <energy>
    <i name="e_fr_energy">   -293.11802069 </i>
    <i name="e_wo_entrp">   -293.09335517 </i>
    <i name="e_0_energy">   -293.10979885 </i>
   </energy>
  </scstep>
  <scstep>
   <time name="diag">    8.92    8.94</time>
   <time name="diis">   25.10   25.61</time>
   <time name="orth">    0.49    0.49</time>
   <time name="total">   38.45   38.99</time>
   <energy>
    <i name="e_fr_energy">   -293.11544627 </i>
    <i name="e_wo_entrp">   -293.09104042 </i>
    <i name="e_0_energy">   -293.10731099 </i>
   </energy>
  </scstep>
  <scstep>
   <time name="diag">    8.86    8.90</time>
   <time name="diis">   23.91   23.95</time>
   <time name="orth">    0.48    0.48</time>
   <time name="total">   37.21   37.30</time>
   <energy>
    <i name="e_fr_energy">   -293.11540837 </i>
    <i name="e_wo_entrp">   -293.09251996 </i>
    <i name="e_0_energy">   -293.10777890 </i>
   </energy>
  </scstep>
  <scstep>
   <time name="diag">    8.85    8.99</time>
   <time name="diis">   20.84   21.27</time>
   <time name="orth">    0.49    0.49</time>
   <time name="total">   34.13   34.72</time>
   <energy>
    <i name="e_fr_energy">   -293.11713379 </i>
    <i name="e_wo_entrp">   -293.09595473 </i>
    <i name="e_0_energy">   -293.11007410 </i>
   </energy>
  </scstep>
  <scstep>
   <time name="diag">    8.83    8.84</time>
   <time name="diis">   21.63   21.71</time>
   <time name="orth">    0.48    0.49</time>
   <time name="total">   34.91   35.00</time>
   <energy>
    <i name="e_fr_energy">   -293.11681856 </i>
    <i name="e_wo_entrp">   -293.09613906 </i>
    <i name="e_0_energy">   -293.10992539 </i>
   </energy>
  </scstep>
  <scstep>
   <time name="diag">    9.26    9.58</time>
   <time name="diis">   23.00   23.03</time>
   <time name="orth">    0.49    0.49</time>
   <time name="total">   36.71   37.07</time>
   <energy>
    <i name="e_fr_energy">   -293.11590356 </i>
    <i name="e_wo_entrp">   -293.09409284 </i>
    <i name="e_0_energy">   -293.10863332 </i>
   </energy>
  </scstep>
  <scstep>
   <time name="diag">    8.89    8.90</time>
   <time name="diis">   22.85   23.23</time>
   <time name="orth">    0.49    0.49</time>
   <time name="total">   36.18   36.58</time>
   <energy>
    <i name="e_fr_energy">   -293.11705600 </i>
    <i name="e_wo_entrp">   -293.09351059 </i>
    <i name="e_0_energy">   -293.10920753 </i>
   </energy>
  </scstep>
  <scstep>
   <time name="diag">    8.91    8.93</time>
   <time name="diis">   21.60   21.64</time>
   <time name="orth">    0.48    0.49</time>
   <time name="total">   34.95   35.02</time>
   <energy>
    <i name="e_fr_energy">   -293.11725541 </i>
    <i name="e_wo_entrp">   -293.09305018 </i>
    <i name="e_0_energy">   -293.10918700 </i>
   </energy>
  </scstep>
  <scstep>
   <time name="diag">    8.87    8.92</time>
   <time name="diis">   22.14   22.47</time>
   <time name="orth">    0.49    0.50</time>
   <time name="total">   35.47   35.86</time>
   <energy>
    <i name="e_fr_energy">   -293.11615280 </i>
    <i name="e_wo_entrp">   -293.09210721 </i>
    <i name="e_0_energy">   -293.10813760 </i>
   </energy>
  </scstep>
  <scstep>
   <time name="diag">    8.84    8.86</time>
   <time name="diis">   23.58   23.70</time>
   <time name="orth">    0.48    0.49</time>
   <time name="total">   36.89   37.04</time>
   <energy>
    <i name="e_fr_energy">   -293.11605039 </i>
    <i name="e_wo_entrp">   -293.09356764 </i>
    <i name="e_0_energy">   -293.10855614 </i>
   </energy>
  </scstep>
  <scstep>
   <time name="diag">    9.06    9.33</time>
   <time name="diis">   21.18   21.22</time>
   <time name="orth">    0.49    0.49</time>
   <time name="total">   34.68   34.99</time>
   <energy>
    <i name="e_fr_energy">   -293.11724417 </i>
    <i name="e_wo_entrp">   -293.09594102 </i>
    <i name="e_0_energy">   -293.11014312 </i>
   </energy>
  </scstep>
  <scstep>
   <time name="diag">    8.85    8.91</time>
   <time name="diis">   21.36   21.83</time>
   <time name="orth">    0.49    0.50</time>
   <time name="total">   34.65   35.19</time>
   <energy>
    <i name="e_fr_energy">   -293.11688715 </i>
    <i name="e_wo_entrp">   -293.09590432 </i>
    <i name="e_0_energy">   -293.10989287 </i>
   </energy>
  </scstep>
  <scstep>
   <time name="diag">    8.87    8.87</time>
   <time name="diis">   21.79   21.83</time>
   <time name="orth">    0.49    0.49</time>
   <time name="total">   35.10   35.16</time>
   <energy>
    <i name="e_fr_energy">   -293.11638903 </i>
    <i name="e_wo_entrp">   -293.09490006 </i>
    <i name="e_0_energy">   -293.10922604 </i>
   </energy>
  </scstep>
  <scstep>
   <time name="diag">    8.91    9.02</time>
   <time name="diis">   19.76   20.09</time>
   <time name="orth">    0.49    0.49</time>
   <time name="total">   33.11   33.55</time>
   <energy>
    <i name="e_fr_energy">   -293.11650751 </i>
    <i name="e_wo_entrp">   -293.09413040 </i>
    <i name="e_0_energy">   -293.10904847 </i>
   </energy>
  </scstep>
  <scstep>
   <time name="diag">    8.88    8.91</time>
   <time name="diis">   16.70   16.73</time>
   <time name="orth">    0.49    0.49</time>
   <time name="total">   30.05   30.11</time>
   <energy>
    <i name="e_fr_energy">   -293.11690663 </i>
    <i name="e_wo_entrp">   -293.09390241 </i>
    <i name="e_0_energy">   -293.10923856 </i>
   </energy>
  </scstep>
  <scstep>
   <time name="diag">    8.90    8.95</time>
   <time name="diis">   17.24   17.54</time>
   <time name="orth">    0.48    0.49</time>
   <time name="total">   30.58   30.93</time>
   <energy>
    <i name="e_fr_energy">   -293.11692840 </i>
    <i name="e_wo_entrp">   -293.09364579 </i>
    <i name="e_0_energy">   -293.10916753 </i>
   </energy>
  </scstep>
  <scstep>
   <time name="diag">    8.86    8.89</time>
   <time name="diis">   15.61   15.62</time>
   <time name="orth">    0.48    0.48</time>
   <time name="total">   28.92   28.97</time>
   <energy>
    <i name="e_fr_energy">   -293.11682781 </i>
    <i name="e_wo_entrp">   -293.09346607 </i>
    <i name="e_0_energy">   -293.10904057 </i>
   </energy>
  </scstep>
  <scstep>
   <time name="diag">    8.93    8.98</time>
   <time name="diis">   14.49   14.73</time>
   <time name="orth">    0.48    0.49</time>
   <time name="total">   27.86   28.15</time>
   <energy>
    <i name="e_fr_energy">   -293.11678878 </i>
    <i name="e_wo_entrp">   -293.09339901 </i>
    <i name="e_0_energy">   -293.10899219 </i>
   </energy>
  </scstep>
  <scstep>
   <time name="diag">    8.85    8.86</time>
   <time name="diis">   13.31   13.35</time>
   <time name="orth">    0.48    0.48</time>
   <time name="total">   26.59   26.64</time>
   <energy>
    <i name="e_fr_energy">   -293.11677831 </i>
    <i name="e_wo_entrp">   -293.09336147 </i>
    <i name="e_0_energy">   -293.10897270 </i>
   </energy>
  </scstep>
  <scstep>
   <time name="diag">    8.93    9.06</time>
   <time name="diis">   12.75   12.78</time>
   <time name="orth">    0.48    0.49</time>
   <time name="total">   22.70   22.87</time>
   <energy>
    <i name="alphaZ">    477.09650995 </i>
    <i name="ewald"> 394114.66583830 </i>
    <i name="hartreedc">-427817.03960579 </i>
    <i name="XCdc">   1612.98784242 </i>
    <i name="pawpsdc">  38073.86465095 </i>
    <i name="pawaedc"> -38779.64142777 </i>
    <i name="eentropy">     -0.02344579 </i>
    <i name="bandstr">  -5927.96034221 </i>
    <i name="atom">  37952.93320877 </i>
    <i name="e_fr_energy">   -293.11677117 </i>
    <i name="e_wo_entrp">   -293.09332538 </i>
    <i name="e_0_energy">   -293.10895590 </i>
   </energy>
  </scstep>
  <structure>
   <crystal>
    <varray name="basis" >
     <v>       2.87357350      -2.87357350       4.70833511 </v>
     <v>       5.74714699       0.00000000       0.00000000 </v>
     <v>       0.00000000      33.06569101      20.18052901 </v>
    </varray>
    <i name="volume">   1228.01926054 </i>
    <varray name="rec_basis" >
     <v>       0.00000000      -0.09444515       0.15474789 </v>
     <v>       0.17399938       0.04722258      -0.07737394 </v>
     <v>       0.00000000       0.02203507       0.01344836 </v>
    </varray>
   </crystal>
   <varray name="positions" >
    <v>       0.22067121       0.89240241       0.08901558 </v>
    <v>       0.66250728       0.16994917       0.21821787 </v>
    <v>       0.94927612       0.02809995       0.15233499 </v>
    <v>       0.37513925       0.31560085       0.28552940 </v>
    <v>       0.44927612       0.52809995       0.15233499 </v>
    <v>       0.89554685       0.30367681       0.28193768 </v>
    <v>       0.44927612       0.02809995       0.15233499 </v>
    <v>       0.89184766       0.80196169       0.28156857 </v>
    <v>       0.90282244       0.55132680       0.10484543 </v>
    <v>       0.35280196       0.82510459       0.23368344 </v>
    <v>       0.99130753       0.50734402       0.20067446 </v>
    <v>       0.42228422       0.79249071       0.33298843 </v>
    <v>       0.53851998       0.23347802       0.07318573 </v>
    <v>       0.01856803       0.48661478       0.35047237 </v>
    <v>       0.77031903       0.61306499       0.30912304 </v>
    <v>       0.87926422       0.06310591       0.05527763 </v>
    <v>       0.33812483       0.33072573       0.18280199 </v>
    <v>       0.58246139       0.21150732       0.12452493 </v>
    <v>       0.03291775       0.48792204       0.25334012 </v>
    <v>       0.68020160       0.70473290       0.37207286 </v>
    <v>       0.09516526       0.72856013       0.12156099 </v>
    <v>       0.54187116       0.45243745       0.25356963 </v>
    <v>       0.73984821       0.12493267       0.31171855 </v>
    <v>       0.85888103       0.57329750       0.05350623 </v>
    <v>       0.31115529       0.84834557       0.18072604 </v>
    <v>       0.56207820       0.72169891       0.12275353 </v>
    <v>       0.00314400       0.99894416       0.25281098 </v>
    <v>       0.79570075       0.32639010       0.18427567 </v>
    <v>       0.22034399       0.62087723       0.31580958 </v>
    <v>       0.34617716       0.60305419       0.05647018 </v>
    <v>       0.21718840       0.16631849       0.31521170 </v>
    <v>       0.79495628       0.88164840       0.18412926 </v>
    <v>       0.34617716       0.05624469       0.05647018 </v>
    <v>       0.53851933       0.01023026       0.25325378 </v>
    <v>       0.09516526       0.18175063       0.12156099 </v>
    <v>       0.19022185       0.35734763       0.39297672 </v>
    <v>       0.34047062       0.60391201       0.02782883 </v>
    <v>       0.92434681       0.68523651       0.03696881 </v>
    <v>       0.34363348       0.06399961       0.02783421 </v>
    <v>       0.88838126       0.05560908       0.02665597 </v>
    <v>       0.64370652       0.77929230       0.39499482 </v>
    <v>       0.75501266       0.10478967       0.33673209 </v>
    <v>       0.07936646       0.43034229       0.41228236 </v>
   </varray>
  </structure>
  <varray name="forces" >
   <v>       0.11533758      -1.74241893      -1.61197482 </v>
   <v>      -0.01626379       0.06195816       0.02387397 </v>
   <v>      -0.07108438       0.65844164       0.01546466 </v>
   <v>       0.00261607      -0.02190160      -0.04018032 </v>
   <v>      -0.02542482       0.46831523       0.09944360 </v>
   <v>       0.04640625      -0.13343644      -0.04006496 </v>
   <v>      -0.05555871       0.30739028       0.08388513 </v>
   <v>      -0.03570563      -0.19989243      -0.00422029 </v>
   <v>      -0.02748064      -1.32723032      -0.84853248 </v>
   <v>      -0.03426684      -0.00422615      -0.00689364 </v>
   <v>      -0.02532304      -0.00184777       0.03630379 </v>
   <v>       0.02934168       0.08553285       0.08870360 </v>
   <v>       0.00624946      -0.50500350       0.26424343 </v>
   <v>      -0.00271160      -0.05553734       0.02894254 </v>
   <v>       0.00110900       0.06965508       0.06992225 </v>
   <v>      -0.31315460      -3.61072726      -1.95706958 </v>
   <v>       0.04028157      -0.07940680       0.03338198 </v>
   <v>      -0.06976322       0.27468465       0.37770231 </v>
   <v>       0.00850934       0.12425546       0.02303717 </v>
   <v>       0.04428774      -0.13053847      -0.05870843 </v>
   <v>       0.35014313       0.36503865       0.54579274 </v>
   <v>      -0.04838823      -0.04502424      -0.00825510 </v>
   <v>       0.03298898       0.09960999       0.05315119 </v>
   <v>       2.65713739      -2.50468047      -0.25126301 </v>
   <v>      -0.02964725      -0.07276522       0.02269357 </v>
   <v>       0.11223702       0.33741050      -0.33984152 </v>
   <v>      -0.04013060       0.08993965      -0.01606322 </v>
   <v>      -0.02755733       0.01166902      -0.05548431 </v>
   <v>      -0.05469443       0.01741076      -0.04213522 </v>
   <v>      -0.94913525      -3.58040950      -2.15333712 </v>
   <v>       0.06234536       0.04016519      -0.03236676 </v>
   <v>       0.00982888      -0.00908097      -0.03593591 </v>
   <v>       1.05127240      -3.63962230      -1.92891505 </v>
   <v>       0.04765080      -0.03405201       0.01852785 </v>
   <v>      -0.15620157       0.32803137       0.44592522 </v>
   <v>      -0.01664363      -0.32062943       0.01707486 </v>
   <v>       0.56502995       3.79944687       2.31420354 </v>
   <v>      -2.86670320       3.05353327       0.46133221 </v>
   <v>      -0.65601004       3.93934549       2.09514623 </v>
   <v>       0.36403601       3.67276903       2.17091773 </v>
   <v>       0.03976854       0.19683245       0.08760577 </v>
   <v>      -0.02740970      -0.06729667      -0.00919968 </v>
   <v>      -0.03731865       0.08429225       0.06316609 </v>
  </varray>
  <energy>
   <i name="e_fr_energy">   -293.11677117 </i>
   <i name="e_wo_entrp">   -293.10895590 </i>
   <i name="e_0_energy">     -0.02344579 </i>
  </energy>
  <time name="totalsc"> 1128.74 1136.99</time>
 </calculation>
 <calculation>
  <scstep>
   <time name="dav">   47.95   48.35</time>
   <time name="total">   51.90   52.32</time>
   <energy>
    <i name="alphaZ">    477.09650995 </i>
    <i name="ewald"> 394127.98305969 </i>
    <i name="hartreedc">-427830.76745066 </i>
    <i name="XCdc">   1612.97340148 </i>
    <i name="pawpsdc">  38073.87088122 </i>
    <i name="pawaedc"> -38779.64715159 </i>
    <i name="eentropy">     -0.02214316 </i>
    <i name="bandstr">  -5927.52257538 </i>
    <i name="atom">  37952.93320877 </i>
    <i name="e_fr_energy">   -293.10225968 </i>
    <i name="e_wo_entrp">   -293.08011652 </i>
    <i name="e_0_energy">   -293.09487863 </i>
   </energy>
  </scstep>
  <scstep>
   <time name="diag">    8.85    8.86</time>
   <time name="diis">   29.35   29.42</time>
   <time name="orth">    0.49    0.49</time>
   <time name="total">   42.70   42.80</time>
   <energy>
    <i name="e_fr_energy">   -293.12232530 </i>
    <i name="e_wo_entrp">   -293.09990175 </i>
    <i name="e_0_energy">   -293.11485078 </i>
   </energy>
  </scstep>
  <scstep>
   <time name="diag">    9.18    9.49</time>
   <time name="diis">   25.98   26.02</time>
   <time name="orth">    0.48    0.48</time>
   <time name="total">   39.61   39.97</time>
   <energy>
    <i name="e_fr_energy">   -293.12374214 </i>
    <i name="e_wo_entrp">   -293.10319422 </i>
    <i name="e_0_energy">   -293.11689283 </i>
   </energy>
  </scstep>
  <scstep>
   <time name="diag">    8.95    9.00</time>
   <time name="diis">   27.15   27.49</time>
   <time name="orth">    0.48    0.49</time>
   <time name="total">   40.53   40.93</time>
   <energy>
    <i name="e_fr_energy">   -293.12268512 </i>
    <i name="e_wo_entrp">   -293.10194934 </i>
    <i name="e_0_energy">   -293.11577319 </i>
   </energy>
  </scstep>
  <scstep>
   <time name="diag">    8.85    8.87</time>
   <time name="diis">   24.67   24.73</time>
   <time name="orth">    0.49    0.49</time>
   <time name="total">   38.02   38.13</time>
   <energy>
    <i name="e_fr_energy">   -293.12276820 </i>
    <i name="e_wo_entrp">   -293.09985500 </i>
    <i name="e_0_energy">   -293.11513046 </i>
   </energy>
  </scstep>
  <scstep>
   <time name="diag">    9.06    9.23</time>
   <time name="diis">   22.67   22.72</time>
   <time name="orth">    0.49    0.49</time>
   <time name="total">   36.18   36.40</time>
   <energy>
    <i name="e_fr_energy">   -293.12285328 </i>
    <i name="e_wo_entrp">   -293.09947924 </i>
    <i name="e_0_energy">   -293.11506193 </i>
   </energy>
  </scstep>
  <scstep>
   <time name="diag">    8.86    8.89</time>
   <time name="diis">   25.00   25.28</time>
   <time name="orth">    0.48    0.49</time>
   <time name="total">   38.30   38.63</time>
   <energy>
    <i name="e_fr_energy">   -293.12284479 </i>
    <i name="e_wo_entrp">   -293.10190178 </i>
    <i name="e_0_energy">   -293.11586379 </i>
   </energy>
  </scstep>
  <scstep>
   <time name="diag">    8.84    8.85</time>
   <time name="diis">   22.61   22.79</time>
   <time name="orth">    0.48    0.48</time>
   <time name="total">   35.92   36.18</time>
   <energy>
    <i name="e_fr_energy">   -293.12495056 </i>
    <i name="e_wo_entrp">   -293.10676591 </i>
    <i name="e_0_energy">   -293.11888901 </i>
   </energy>
  </scstep>
  <scstep>
   <time name="diag">    8.94    8.99</time>
   <time name="diis">   22.84   23.12</time>
   <time name="orth">    0.49    0.49</time>
   <time name="total">   36.21   36.56</time>
   <energy>
    <i name="e_fr_energy">   -293.12281886 </i>
    <i name="e_wo_entrp">   -293.10534700 </i>
    <i name="e_0_energy">   -293.11699491 </i>
   </energy>
  </scstep>
  <scstep>
   <time name="diag">    8.88    8.89</time>
   <time name="diis">   21.68   21.80</time>
   <time name="orth">    0.50    0.50</time>
   <time name="total">   35.08   35.33</time>
   <energy>
    <i name="e_fr_energy">   -293.12165008 </i>
    <i name="e_wo_entrp">   -293.10407434 </i>
    <i name="e_0_energy">   -293.11579150 </i>
   </energy>
  </scstep>
  <scstep>
   <time name="diag">    8.88    8.96</time>
   <time name="diis">   17.94   17.98</time>
   <time name="orth">    0.48    0.48</time>
   <time name="total">   31.28   31.46</time>
   <energy>
    <i name="e_fr_energy">   -293.12112131 </i>
    <i name="e_wo_entrp">   -293.10300736 </i>
    <i name="e_0_energy">   -293.11508333 </i>
   </energy>
  </scstep>
  <scstep>
   <time name="diag">    8.85    8.87</time>
   <time name="diis">   23.60   23.94</time>
   <time name="orth">    0.48    0.48</time>
   <time name="total">   36.87   37.24</time>
   <energy>
    <i name="e_fr_energy">   -293.11998276 </i>
    <i name="e_wo_entrp">   -293.09975460 </i>
    <i name="e_0_energy">   -293.11324004 </i>
   </energy>
  </scstep>
  <scstep>
   <time name="diag">    8.85    8.87</time>
   <time name="diis">   21.56   21.59</time>
   <time name="orth">    0.48    0.48</time>
   <time name="total">   34.84   34.92</time>
   <energy>
    <i name="e_fr_energy">   -293.12177623 </i>
    <i name="e_wo_entrp">   -293.09943684 </i>
    <i name="e_0_energy">   -293.11432977 </i>
   </energy>
  </scstep>
  <scstep>
   <time name="diag">    8.85    8.91</time>
   <time name="diis">   20.92   21.26</time>
   <time name="orth">    0.49    0.49</time>
   <time name="total">   34.20   34.60</time>
   <energy>
    <i name="e_fr_energy">   -293.12334215 </i>
    <i name="e_wo_entrp">   -293.09974460 </i>
    <i name="e_0_energy">   -293.11547630 </i>
   </energy>
  </scstep>
  <scstep>
   <time name="diag">    8.85    8.86</time>
   <time name="diis">   20.04   20.10</time>
   <time name="orth">    0.49    0.49</time>
   <time name="total">   33.31   33.39</time>
   <energy>
    <i name="e_fr_energy">   -293.12347562 </i>
    <i name="e_wo_entrp">   -293.09919020 </i>
    <i name="e_0_energy">   -293.11538048 </i>
   </energy>
  </scstep>
  <scstep>
   <time name="diag">    9.18    9.50</time>
   <time name="diis">   18.47   18.56</time>
   <time name="orth">    0.48    0.48</time>
   <time name="total">   32.06   32.50</time>
   <energy>
    <i name="e_fr_energy">   -293.12351951 </i>
    <i name="e_wo_entrp">   -293.09880249 </i>
    <i name="e_0_energy">   -293.11528050 </i>
   </energy>
  </scstep>
  <scstep>
   <time name="diag">    8.82    8.83</time>
   <time name="diis">   18.77   18.83</time>
   <time name="orth">    0.48    0.49</time>
   <time name="total">   32.06   32.16</time>
   <energy>
    <i name="e_fr_energy">   -293.12295345 </i>
    <i name="e_wo_entrp">   -293.09800141 </i>
    <i name="e_0_energy">   -293.11463610 </i>
   </energy>
  </scstep>
  <scstep>
   <time name="diag">    9.02    9.20</time>
   <time name="diis">   17.07   17.10</time>
   <time name="orth">    0.48    0.48</time>
   <time name="total">   30.53   30.75</time>
   <energy>
    <i name="e_fr_energy">   -293.12285804 </i>
    <i name="e_wo_entrp">   -293.09779201 </i>
    <i name="e_0_energy">   -293.11450270 </i>
   </energy>
  </scstep>
  <scstep>
   <time name="diag">    8.85    8.86</time>
   <time name="diis">   17.33   17.57</time>
   <time name="orth">    0.50    0.51</time>
   <time name="total">   30.67   30.94</time>
   <energy>
    <i name="e_fr_energy">   -293.12210878 </i>
    <i name="e_wo_entrp">   -293.09697931 </i>
    <i name="e_0_energy">   -293.11373229 </i>
   </energy>
  </scstep>
  <scstep>
   <time name="diag">    9.13    9.38</time>
   <time name="diis">   15.87   15.93</time>
   <time name="orth">    0.48    0.48</time>
   <time name="total">   29.44   29.75</time>
   <energy>
    <i name="e_fr_energy">   -293.12191403 </i>
    <i name="e_wo_entrp">   -293.09679140 </i>
    <i name="e_0_energy">   -293.11353982 </i>
   </energy>
  </scstep>
  <scstep>
   <time name="diag">    8.84    8.85</time>
   <time name="diis">   15.76   15.84</time>
   <time name="orth">    0.48    0.48</time>
   <time name="total">   29.09   29.20</time>
   <energy>
    <i name="e_fr_energy">   -293.12139201 </i>
    <i name="e_wo_entrp">   -293.09627917 </i>
    <i name="e_0_energy">   -293.11302107 </i>
   </energy>
  </scstep>
  <scstep>
   <time name="diag">    9.07    9.34</time>
   <time name="diis">   15.13   15.16</time>
   <time name="orth">    0.48    0.48</time>
   <time name="total">   28.63   28.93</time>
   <energy>
    <i name="e_fr_energy">   -293.12103829 </i>
    <i name="e_wo_entrp">   -293.09595191 </i>
    <i name="e_0_energy">   -293.11267616 </i>
   </energy>
  </scstep>
  <scstep>
   <time name="diag">    8.85    8.86</time>
   <time name="diis">   14.84   14.93</time>
   <time name="orth">    0.49    0.49</time>
   <time name="total">   28.13   28.24</time>
   <energy>
    <i name="e_fr_energy">   -293.12077916 </i>
    <i name="e_wo_entrp">   -293.09572543 </i>
    <i name="e_0_energy">   -293.11242792 </i>
   </energy>
  </scstep>
  <scstep>
   <time name="diag">    9.11    9.45</time>
   <time name="diis">   14.67   14.69</time>
   <time name="orth">    0.48    0.49</time>
   <time name="total">   28.23   28.62</time>
   <energy>
    <i name="e_fr_energy">   -293.12053659 </i>
    <i name="e_wo_entrp">   -293.09551398 </i>
    <i name="e_0_energy">   -293.11219572 </i>
   </energy>
  </scstep>
  <scstep>
   <time name="diag">    8.86    8.87</time>
   <time name="diis">   14.51   14.62</time>
   <time name="orth">    0.48    0.51</time>
   <time name="total">   27.85   28.00</time>
   <energy>
    <i name="e_fr_energy">   -293.12032828 </i>
    <i name="e_wo_entrp">   -293.09533261 </i>
    <i name="e_0_energy">   -293.11199639 </i>
   </energy>
  </scstep>
  <scstep>
   <time name="diag">    9.20    9.51</time>
   <time name="diis">   14.04   14.12</time>
   <time name="orth">    0.48    0.49</time>
   <time name="total">   27.69   28.09</time>
   <energy>
    <i name="e_fr_energy">   -293.12019283 </i>
    <i name="e_wo_entrp">   -293.09522457 </i>
    <i name="e_0_energy">   -293.11187007 </i>
   </energy>
  </scstep>
  <scstep>
   <time name="diag">    8.87    8.88</time>
   <time name="diis">   13.77   13.80</time>
   <time name="orth">    0.48    0.49</time>
   <time name="total">   27.06   27.10</time>
   <energy>
    <i name="e_fr_energy">   -293.12004070 </i>
    <i name="e_wo_entrp">   -293.09509200 </i>
    <i name="e_0_energy">   -293.11172447 </i>
   </energy>
  </scstep>
  <scstep>
   <time name="diag">    8.92    8.99</time>
   <time name="diis">   13.21   13.40</time>
   <time name="orth">    0.48    0.49</time>
   <time name="total">   26.58   26.85</time>
   <energy>
    <i name="e_fr_energy">   -293.11993417 </i>
    <i name="e_wo_entrp">   -293.09500183 </i>
    <i name="e_0_energy">   -293.11162339 </i>
   </energy>
  </scstep>
  <scstep>
   <time name="diag">    8.85    8.87</time>
   <time name="diis">   12.67   12.69</time>
   <time name="orth">    0.48    0.48</time>
   <time name="total">   25.98   26.03</time>
   <energy>
    <i name="e_fr_energy">   -293.11990622 </i>
    <i name="e_wo_entrp">   -293.09499496 </i>
    <i name="e_0_energy">   -293.11160247 </i>
   </energy>
  </scstep>
  <scstep>
   <time name="diag">    8.90    9.01</time>
   <time name="diis">   13.31   13.56</time>
   <time name="orth">    0.50    0.50</time>
   <time name="total">   26.65   27.02</time>
   <energy>
    <i name="e_fr_energy">   -293.11966074 </i>
    <i name="e_wo_entrp">   -293.09474001 </i>
    <i name="e_0_energy">   -293.11135383 </i>
   </energy>
  </scstep>
  <scstep>
   <time name="diag">    8.82    8.83</time>
   <time name="diis">   12.49   12.51</time>
   <time name="orth">    0.48    0.48</time>
   <time name="total">   25.74   25.79</time>
   <energy>
    <i name="e_fr_energy">   -293.11938622 </i>
    <i name="e_wo_entrp">   -293.09442925 </i>
    <i name="e_0_energy">   -293.11106723 </i>
   </energy>
  </scstep>
  <scstep>
   <time name="diag">    8.83    8.89</time>
   <time name="diis">   14.76   14.84</time>
   <time name="orth">    0.50    0.50</time>
   <time name="total">   28.22   28.39</time>
   <energy>
    <i name="e_fr_energy">   -293.11870514 </i>
    <i name="e_wo_entrp">   -293.09363596 </i>
    <i name="e_0_energy">   -293.11034874 </i>
   </energy>
  </scstep>
  <scstep>
   <time name="diag">    9.01    9.20</time>
   <time name="diis">   16.21   16.25</time>
   <time name="orth">    0.48    0.48</time>
   <time name="total">   29.69   29.98</time>
   <energy>
    <i name="e_fr_energy">   -293.11800901 </i>
    <i name="e_wo_entrp">   -293.09279566 </i>
    <i name="e_0_energy">   -293.10960456 </i>
   </energy>
  </scstep>
  <scstep>
   <time name="diag">    8.91    8.92</time>
   <time name="diis">   18.32   18.43</time>
   <time name="orth">    0.49    0.49</time>
   <time name="total">   31.87   32.17</time>
   <energy>
    <i name="e_fr_energy">   -293.11777447 </i>
    <i name="e_wo_entrp">   -293.09250349 </i>
    <i name="e_0_energy">   -293.10935081 </i>
   </energy>
  </scstep>
  <scstep>
   <time name="diag">    8.83    8.83</time>
   <time name="diis">   19.46   19.49</time>
   <time name="orth">    0.49    0.49</time>
   <time name="total">   32.73   32.78</time>
   <energy>
    <i name="e_fr_energy">   -293.11809198 </i>
    <i name="e_wo_entrp">   -293.09297963 </i>
    <i name="e_0_energy">   -293.10972119 </i>
   </energy>
  </scstep>
  <scstep>
   <time name="diag">    8.85    8.86</time>
   <time name="diis">   19.07   19.43</time>
   <time name="orth">    0.48    0.48</time>
   <time name="total">   32.36   32.73</time>
   <energy>
    <i name="e_fr_energy">   -293.11913199 </i>
    <i name="e_wo_entrp">   -293.09450146 </i>
    <i name="e_0_energy">   -293.11092181 </i>
   </energy>
  </scstep>
  <scstep>
   <time name="diag">    8.85    8.87</time>
   <time name="diis">   19.57   19.64</time>
   <time name="orth">    0.48    0.49</time>
   <time name="total">   32.86   32.96</time>
   <energy>
    <i name="e_fr_energy">   -293.12039594 </i>
    <i name="e_wo_entrp">   -293.09661845 </i>
    <i name="e_0_energy">   -293.11247011 </i>
   </energy>
  </scstep>
  <scstep>
   <time name="diag">    8.87    8.98</time>
   <time name="diis">   19.69   19.98</time>
   <time name="orth">    0.49    0.49</time>
   <time name="total">   33.03   33.45</time>
   <energy>
    <i name="e_fr_energy">   -293.12180197 </i>
    <i name="e_wo_entrp">   -293.09920307 </i>
    <i name="e_0_energy">   -293.11426900 </i>
   </energy>
  </scstep>
  <scstep>
   <time name="diag">    8.87    8.88</time>
   <time name="diis">   19.07   19.10</time>
   <time name="orth">    0.49    0.49</time>
   <time name="total">   32.40   32.46</time>
   <energy>
    <i name="e_fr_energy">   -293.12296767 </i>
    <i name="e_wo_entrp">   -293.10167373 </i>
    <i name="e_0_energy">   -293.11586969 </i>
   </energy>
  </scstep>
  <scstep>
   <time name="diag">    8.90    8.94</time>
   <time name="diis">   18.78   19.01</time>
   <time name="orth">    0.49    0.49</time>
   <time name="total">   32.17   32.47</time>
   <energy>
    <i name="e_fr_energy">   -293.12342110 </i>
    <i name="e_wo_entrp">   -293.10335033 </i>
    <i name="e_0_energy">   -293.11673085 </i>
   </energy>
  </scstep>
  <scstep>
   <time name="diag">    8.86    8.87</time>
   <time name="diis">   18.31   18.41</time>
   <time name="orth">    0.48    0.49</time>
   <time name="total">   31.63   31.76</time>
   <energy>
    <i name="e_fr_energy">   -293.12339020 </i>
    <i name="e_wo_entrp">   -293.10438142 </i>
    <i name="e_0_energy">   -293.11705394 </i>
   </energy>
  </scstep>
  <scstep>
   <time name="diag">    9.12    9.38</time>
   <time name="diis">   17.42   17.52</time>
   <time name="orth">    0.49    0.49</time>
   <time name="total">   31.01   31.37</time>
   <energy>
    <i name="e_fr_energy">   -293.12319717 </i>
    <i name="e_wo_entrp">   -293.10512934 </i>
    <i name="e_0_energy">   -293.11717456 </i>
   </energy>
  </scstep>
  <scstep>
   <time name="diag">    8.86    8.87</time>
   <time name="diis">   16.78   16.85</time>
   <time name="orth">    0.49    0.49</time>
   <time name="total">   30.11   30.19</time>
   <energy>
    <i name="e_fr_energy">   -293.12298382 </i>
    <i name="e_wo_entrp">   -293.10575894 </i>
    <i name="e_0_energy">   -293.11724219 </i>
   </energy>
  </scstep>
  <scstep>
   <time name="diag">    9.15    9.37</time>
   <time name="diis">   16.12   16.16</time>
   <time name="orth">    0.49    0.49</time>
   <time name="total">   29.75   30.00</time>
   <energy>
    <i name="e_fr_energy">   -293.12277353 </i>
    <i name="e_wo_entrp">   -293.10629717 </i>
    <i name="e_0_energy">   -293.11728141 </i>
   </energy>
  </scstep>
  <scstep>
   <time name="diag">    8.86    8.87</time>
   <time name="diis">   15.82   15.97</time>
   <time name="orth">    0.48    0.48</time>
   <time name="total">   29.13   29.33</time>
   <energy>
    <i name="e_fr_energy">   -293.12257465 </i>
    <i name="e_wo_entrp">   -293.10675866 </i>
    <i name="e_0_energy">   -293.11730265 </i>
   </energy>
  </scstep>
  <scstep>
   <time name="diag">    9.21    9.53</time>
   <time name="diis">   15.45   15.47</time>
   <time name="orth">    0.48    0.48</time>
   <time name="total">   29.12   29.46</time>
   <energy>
    <i name="e_fr_energy">   -293.12238562 </i>
    <i name="e_wo_entrp">   -293.10714383 </i>
    <i name="e_0_energy">   -293.11730503 </i>
   </energy>
  </scstep>
  <scstep>
   <time name="diag">    8.73    8.75</time>
   <time name="diis">   15.21   15.23</time>
   <time name="orth">    0.48    0.48</time>
   <time name="total">   28.36   28.44</time>
   <energy>
    <i name="e_fr_energy">   -293.12263283 </i>
    <i name="e_wo_entrp">   -293.10815005 </i>
    <i name="e_0_energy">   -293.11780524 </i>
   </energy>
  </scstep>
  <scstep>
   <time name="diag">    8.84    8.88</time>
   <time name="diis">   15.54   15.82</time>
   <time name="orth">    0.48    0.48</time>
   <time name="total">   28.76   29.09</time>
   <energy>
    <i name="e_fr_energy">   -293.12206007 </i>
    <i name="e_wo_entrp">   -293.10800161 </i>
    <i name="e_0_energy">   -293.11737391 </i>
   </energy>
  </scstep>
  <scstep>
   <time name="diag">    8.73    8.75</time>
   <time name="diis">   15.07   15.10</time>
   <time name="orth">    0.48    0.48</time>
   <time name="total">   28.26   28.35</time>
   <energy>
    <i name="e_fr_energy">   -293.12134395 </i>
    <i name="e_wo_entrp">   -293.10730200 </i>
    <i name="e_0_energy">   -293.11666330 </i>
   </energy>
  </scstep>
  <scstep>
   <time name="diag">    8.92    8.97</time>
   <time name="diis">   17.95   18.21</time>
   <time name="orth">    0.49    0.49</time>
   <time name="total">   31.34   31.65</time>
   <energy>
    <i name="e_fr_energy">   -293.12030785 </i>
    <i name="e_wo_entrp">   -293.10564511 </i>
    <i name="e_0_energy">   -293.11542027 </i>
   </energy>
  </scstep>
  <scstep>
   <time name="diag">    8.88    8.89</time>
   <time name="diis">   20.59   20.88</time>
   <time name="orth">    0.48    0.48</time>
   <time name="total">   33.93   34.25</time>
   <energy>
    <i name="e_fr_energy">   -293.11933765 </i>
    <i name="e_wo_entrp">   -293.10331644 </i>
    <i name="e_0_energy">   -293.11399725 </i>
   </energy>
  </scstep>
  <scstep>
   <time name="diag">    9.30    9.55</time>
   <time name="diis">   20.11   20.14</time>
   <time name="orth">    0.48    0.48</time>
   <time name="total">   33.86   34.15</time>
   <energy>
    <i name="e_fr_energy">   -293.11929987 </i>
    <i name="e_wo_entrp">   -293.10154860 </i>
    <i name="e_0_energy">   -293.11338278 </i>
   </energy>
  </scstep>
  <scstep>
   <time name="diag">    8.85    8.92</time>
   <time name="diis">   20.11   20.22</time>
   <time name="orth">    0.50    0.50</time>
   <time name="total">   33.62   34.00</time>
   <energy>
    <i name="e_fr_energy">   -293.12002212 </i>
    <i name="e_wo_entrp">   -293.10041243 </i>
    <i name="e_0_energy">   -293.11348556 </i>
   </energy>
  </scstep>
  <scstep>
   <time name="diag">    8.85    8.86</time>
   <time name="diis">   19.25   19.28</time>
   <time name="orth">    0.48    0.48</time>
   <time name="total">   32.55   32.61</time>
   <energy>
    <i name="e_fr_energy">   -293.12133059 </i>
    <i name="e_wo_entrp">   -293.10000264 </i>
    <i name="e_0_energy">   -293.11422127 </i>
   </energy>
  </scstep>
  <scstep>
   <time name="diag">    8.89    8.91</time>
   <time name="diis">   19.29   19.65</time>
   <time name="orth">    0.49    0.49</time>
   <time name="total">   32.69   33.08</time>
   <energy>
    <i name="e_fr_energy">   -293.12268294 </i>
    <i name="e_wo_entrp">   -293.09994829 </i>
    <i name="e_0_energy">   -293.11510472 </i>
   </energy>
  </scstep>
  <scstep>
   <time name="diag">    8.94    8.97</time>
   <time name="diis">   18.99   19.01</time>
   <time name="orth">    0.49    0.50</time>
   <time name="total">   32.41   32.47</time>
   <energy>
    <i name="e_fr_energy">   -293.12354345 </i>
    <i name="e_wo_entrp">   -293.09980093 </i>
    <i name="e_0_energy">   -293.11562928 </i>
   </energy>
  </scstep>
  <scstep>
   <time name="diag">    8.96    9.03</time>
   <time name="diis">   19.09   19.42</time>
   <time name="orth">    0.49    0.49</time>
   <time name="total">   32.54   32.94</time>
   <energy>
    <i name="e_fr_energy">   -293.12379903 </i>
    <i name="e_wo_entrp">   -293.09939780 </i>
    <i name="e_0_energy">   -293.11566529 </i>
   </energy>
  </scstep>
  <scstep>
   <time name="diag">    8.94    8.99</time>
   <time name="diis">   18.79   18.82</time>
   <time name="orth">    0.49    0.49</time>
   <time name="total">   32.22   32.31</time>
   <energy>
    <i name="e_fr_energy">   -293.12363807 </i>
    <i name="e_wo_entrp">   -293.09885169 </i>
    <i name="e_0_energy">   -293.11537594 </i>
   </energy>
  </scstep>
  <scstep>
   <time name="diag">    8.86    8.99</time>
   <time name="diis">   18.28   18.53</time>
   <time name="orth">    0.49    0.50</time>
   <time name="total">   31.58   31.98</time>
   <energy>
    <i name="e_fr_energy">   -293.12323997 </i>
    <i name="e_wo_entrp">   -293.09825074 </i>
    <i name="e_0_energy">   -293.11491022 </i>
   </energy>
  </scstep>
  <scstep>
   <time name="diag">    8.77    8.78</time>
   <time name="diis">   17.15   17.21</time>
   <time name="orth">    0.48    0.48</time>
   <time name="total">   26.93   27.00</time>
   <energy>
    <i name="alphaZ">    477.09650995 </i>
    <i name="ewald"> 394127.98305969 </i>
    <i name="hartreedc">-427832.79439865 </i>
    <i name="XCdc">   1612.94525639 </i>
    <i name="pawpsdc">  38071.61336956 </i>
    <i name="pawaedc"> -38777.42454963 </i>
    <i name="eentropy">     -0.02508258 </i>
    <i name="bandstr">  -5925.45009307 </i>
    <i name="atom">  37952.93320877 </i>
    <i name="e_fr_energy">   -293.12271957 </i>
    <i name="e_wo_entrp">   -293.09763700 </i>
    <i name="e_0_energy">   -293.11435871 </i>
   </energy>
  </scstep>
  <structure>
   <crystal>
    <varray name="basis" >
     <v>       2.87357350      -2.87357350       4.70833511 </v>
     <v>       5.74714699       0.00000000       0.00000000 </v>
     <v>       0.00000000      33.06569101      20.18052901 </v>
    </varray>
    <i name="volume">   1228.01926054 </i>
    <varray name="rec_basis" >
     <v>       0.00000000      -0.09444515       0.15474789 </v>
     <v>       0.17399938       0.04722258      -0.07737394 </v>
     <v>       0.00000000       0.02203507       0.01344836 </v>
    </varray>
   </crystal>
   <varray name="positions" >
    <v>       0.22067121       0.89240241       0.08901558 </v>
    <v>       0.66266665       0.16956613       0.21821737 </v>
    <v>       0.94927612       0.02809995       0.15233499 </v>
    <v>       0.37523534       0.31560723       0.28550959 </v>
    <v>       0.44927612       0.52809995       0.15233499 </v>
    <v>       0.89560644       0.30403225       0.28190219 </v>
    <v>       0.44927612       0.02809995       0.15233499 </v>
    <v>       0.89207016       0.80162877       0.28150745 </v>
    <v>       0.90282244       0.55132680       0.10484543 </v>
    <v>       0.35268638       0.82482442       0.23370242 </v>
    <v>       0.99140548       0.50693429       0.20064021 </v>
    <v>       0.42180216       0.79282574       0.33313570 </v>
    <v>       0.53851998       0.23347802       0.07318573 </v>
    <v>       0.01868696       0.48643157       0.35043062 </v>
    <v>       0.76987070       0.61331667       0.30917218 </v>
    <v>       0.87926422       0.06310591       0.05527763 </v>
    <v>       0.33814759       0.33079940       0.18281276 </v>
    <v>       0.58246139       0.21150732       0.12452493 </v>
    <v>       0.03240429       0.48802696       0.25336479 </v>
    <v>       0.68030602       0.70582476       0.37207636 </v>
    <v>       0.09516526       0.72856013       0.12156099 </v>
    <v>       0.54180582       0.45214506       0.25351111 </v>
    <v>       0.74053863       0.12483544       0.31174834 </v>
    <v>       0.85888103       0.57329750       0.05350623 </v>
    <v>       0.31141370       0.84803406       0.18076378 </v>
    <v>       0.56207820       0.72169891       0.12275353 </v>
    <v>       0.00327390       0.99908398       0.25281159 </v>
    <v>       0.79571625       0.32637755       0.18429699 </v>
    <v>       0.22058835       0.62090701       0.31580927 </v>
    <v>       0.34617716       0.60305419       0.05647018 </v>
    <v>       0.21720262       0.16656817       0.31523562 </v>
    <v>       0.79518935       0.88121290       0.18412009 </v>
    <v>       0.34617716       0.05624469       0.05647018 </v>
    <v>       0.53866813       0.00994416       0.25322921 </v>
    <v>       0.09516526       0.18175063       0.12156099 </v>
    <v>       0.19173496       0.35660867       0.39272189 </v>
    <v>       0.34047062       0.60391201       0.02782883 </v>
    <v>       0.92434681       0.68523651       0.03696881 </v>
    <v>       0.34363348       0.06399961       0.02783421 </v>
    <v>       0.88838126       0.05560908       0.02665597 </v>
    <v>       0.64349520       0.77943755       0.39525406 </v>
    <v>       0.75541041       0.10424961       0.33662910 </v>
    <v>       0.08067667       0.42899510       0.41222025 </v>
   </varray>
  </structure>
  <varray name="forces" >
   <v>       0.11498079      -1.75321734      -1.60706707 </v>
   <v>      -0.01299666       0.04271536       0.01395074 </v>
   <v>      -0.07583304       0.66273176       0.01760883 </v>
   <v>      -0.01640847      -0.01193633      -0.01528290 </v>
   <v>      -0.02779502       0.46705194       0.10283687 </v>
   <v>       0.02508861      -0.05329573      -0.03534643 </v>
   <v>      -0.05390798       0.31706539       0.08916871 </v>
   <v>      -0.00408397      -0.10078970      -0.00177787 </v>
   <v>      -0.03882853      -1.32690237      -0.85681978 </v>
   <v>      -0.02371233      -0.01501074       0.00128263 </v>
   <v>      -0.01608878       0.00047917       0.04150980 </v>
   <v>       0.04691744       0.06134798       0.09262763 </v>
   <v>       0.01242313      -0.51647124       0.25494474 </v>
   <v>       0.05847532      -0.21881839       0.05008880 </v>
   <v>      -0.00106865      -0.00546819      -0.02184306 </v>
   <v>      -0.31458823      -3.55932796      -1.93503498 </v>
   <v>       0.02979121      -0.08757314       0.04006540 </v>
   <v>      -0.06956438       0.27728637       0.37992553 </v>
   <v>       0.01145349       0.07081879       0.02895822 </v>
   <v>       0.18879070       0.31239535       0.01332661 </v>
   <v>       0.34168734       0.35854886       0.54376752 </v>
   <v>      -0.04548178      -0.03192486      -0.00003314 </v>
   <v>       0.03838365      -0.12364154      -0.11035896 </v>
   <v>       2.49574145      -2.33704651      -0.25422472 </v>
   <v>      -0.01417522      -0.08414455       0.00939929 </v>
   <v>       0.11038212       0.32164603      -0.33457047 </v>
   <v>      -0.04951555       0.08660102      -0.02298537 </v>
   <v>      -0.04786190       0.00592247      -0.06143163 </v>
   <v>      -0.04878799       0.00061741      -0.06125111 </v>
   <v>      -0.95706212      -3.56630838      -2.13823400 </v>
   <v>       0.02197369      -0.02702931      -0.03707440 </v>
   <v>       0.02835010      -0.00454202      -0.03993827 </v>
   <v>       1.06224586      -3.61970687      -1.91686195 </v>
   <v>       0.05248838      -0.01979517       0.01837907 </v>
   <v>      -0.14206089       0.34071859       0.44814726 </v>
   <v>      -0.00299846       0.20889079       0.08636942 </v>
   <v>       0.56672058       3.78806761       2.30780012 </v>
   <v>      -2.74183952       2.91809589       0.45946318 </v>
   <v>      -0.65610587       3.92016834       2.08648610 </v>
   <v>       0.36299460       3.63536468       2.15153864 </v>
   <v>      -0.08879441      -0.16404884      -0.06063654 </v>
   <v>      -0.04159060       0.12276814       0.13249287 </v>
   <v>      -0.07773807      -0.29230278       0.14063464 </v>
  </varray>
  <energy>
   <i name="e_fr_energy">   -293.12271957 </i>
   <i name="e_wo_entrp">   -293.11435871 </i>
   <i name="e_0_energy">     -0.02508258 </i>
  </energy>
  <time name="totalsc"> 1948.00 1962.59</time>
 </calculation>
 <calculation>
  <scstep>
   <time name="dav">   39.11   39.18</time>
   <time name="total">   43.10   43.22</time>
   <energy>
    <i name="alphaZ">    477.09650995 </i>
    <i name="ewald"> 394128.00360164 </i>
    <i name="hartreedc">-427832.82230260 </i>
    <i name="XCdc">   1612.94570776 </i>
    <i name="pawpsdc">  38071.62279005 </i>
    <i name="pawaedc"> -38777.43570490 </i>
    <i name="eentropy">     -0.02511362 </i>
    <i name="bandstr">  -5925.44091620 </i>
    <i name="atom">  37952.93320877 </i>
    <i name="e_fr_energy">   -293.12221915 </i>
    <i name="e_wo_entrp">   -293.09710552 </i>
    <i name="e_0_energy">   -293.11384794 </i>
   </energy>
  </scstep>
  <scstep>
   <time name="diag">    8.90    8.93</time>
   <time name="diis">   25.78   26.08</time>
   <time name="orth">    0.48    0.49</time>
   <time name="total">   39.10   39.44</time>
   <energy>
    <i name="e_fr_energy">   -293.39390575 </i>
    <i name="e_wo_entrp">   -293.40640025 </i>
    <i name="e_0_energy">   -293.39807058 </i>
   </energy>
  </scstep>
  <scstep>
   <time name="diag">    8.85    8.87</time>
   <time name="diis">   27.61   28.36</time>
   <time name="orth">    0.49    0.49</time>
   <time name="total">   40.91   41.69</time>
   <energy>
    <i name="e_fr_energy">   -293.22576058 </i>
    <i name="e_wo_entrp">   -293.24480973 </i>
    <i name="e_0_energy">   -293.23211030 </i>
   </energy>
  </scstep>
  <scstep>
   <time name="diag">    8.92    8.94</time>
   <time name="diis">   27.34   27.41</time>
   <time name="orth">    0.48    0.68</time>
   <time name="total">   40.75   41.04</time>
   <energy>
    <i name="e_fr_energy">   -293.12777391 </i>
    <i name="e_wo_entrp">   -293.13916178 </i>
    <i name="e_0_energy">   -293.13156987 </i>
   </energy>
  </scstep>
  <scstep>
   <time name="diag">    9.26    9.59</time>
   <time name="diis">   28.19   28.27</time>
   <time name="orth">    0.49    0.49</time>
   <time name="total">   41.90   42.30</time>
   <energy>
    <i name="e_fr_energy">   -293.09315990 </i>
    <i name="e_wo_entrp">   -293.09094575 </i>
    <i name="e_0_energy">   -293.09242185 </i>
   </energy>
  </scstep>
  <scstep>
   <time name="diag">    8.89    8.91</time>
   <time name="diis">   25.13   25.51</time>
   <time name="orth">    0.48    0.48</time>
   <time name="total">   38.45   38.86</time>
   <energy>
    <i name="e_fr_energy">   -293.09635125 </i>
    <i name="e_wo_entrp">   -293.08113971 </i>
    <i name="e_0_energy">   -293.09128074 </i>
   </energy>
  </scstep>
  <scstep>
   <time name="diag">    8.88    8.90</time>
   <time name="diis">   22.54   22.57</time>
   <time name="orth">    0.48    0.49</time>
   <time name="total">   35.86   35.97</time>
   <energy>
    <i name="e_fr_energy">   -293.11608499 </i>
    <i name="e_wo_entrp">   -293.09445949 </i>
    <i name="e_0_energy">   -293.10887649 </i>
   </energy>
  </scstep>
  <scstep>
   <time name="diag">    8.92    8.96</time>
   <time name="diis">   22.50   22.77</time>
   <time name="orth">    0.48    0.48</time>
   <time name="total">   35.86   36.17</time>
   <energy>
    <i name="e_fr_energy">   -293.12638820 </i>
    <i name="e_wo_entrp">   -293.10203571 </i>
    <i name="e_0_energy">   -293.11827070 </i>
   </energy>
  </scstep>
  <scstep>
   <time name="diag">    8.85    8.86</time>
   <time name="diis">   22.03   22.16</time>
   <time name="orth">    0.48    0.48</time>
   <time name="total">   35.36   35.53</time>
   <energy>
    <i name="e_fr_energy">   -293.13205568 </i>
    <i name="e_wo_entrp">   -293.10766078 </i>
    <i name="e_0_energy">   -293.12392405 </i>
   </energy>
  </scstep>
  <scstep>
   <time name="diag">    8.94    9.08</time>
   <time name="diis">   21.93   21.97</time>
   <time name="orth">    0.48    0.48</time>
   <time name="total">   35.34   35.62</time>
   <energy>
    <i name="e_fr_energy">   -293.13151313 </i>
    <i name="e_wo_entrp">   -293.10862389 </i>
    <i name="e_0_energy">   -293.12388338 </i>
   </energy>
  </scstep>
  <scstep>
   <time name="diag">    8.85    8.86</time>
   <time name="diis">   21.79   22.13</time>
   <time name="orth">    0.48    0.48</time>
   <time name="total">   35.07   35.44</time>
   <energy>
    <i name="e_fr_energy">   -293.13105485 </i>
    <i name="e_wo_entrp">   -293.11063243 </i>
    <i name="e_0_energy">   -293.12424738 </i>
   </energy>
  </scstep>
  <scstep>
   <time name="diag">    8.85    8.87</time>
   <time name="diis">   21.31   21.34</time>
   <time name="orth">    0.49    0.49</time>
   <time name="total">   34.62   34.70</time>
   <energy>
    <i name="e_fr_energy">   -293.12952841 </i>
    <i name="e_wo_entrp">   -293.11152514 </i>
    <i name="e_0_energy">   -293.12352732 </i>
   </energy>
  </scstep>
  <scstep>
   <time name="diag">    8.98    9.03</time>
   <time name="diis">   20.50   20.77</time>
   <time name="orth">    0.49    0.49</time>
   <time name="total">   33.92   34.24</time>
   <energy>
    <i name="e_fr_energy">   -293.12837273 </i>
    <i name="e_wo_entrp">   -293.11247884 </i>
    <i name="e_0_energy">   -293.12307477 </i>
   </energy>
  </scstep>
  <scstep>
   <time name="diag">    8.85    8.86</time>
   <time name="diis">   18.71   18.81</time>
   <time name="orth">    0.48    0.49</time>
   <time name="total">   31.98   32.10</time>
   <energy>
    <i name="e_fr_energy">   -293.12741160 </i>
    <i name="e_wo_entrp">   -293.11313608 </i>
    <i name="e_0_energy">   -293.12265309 </i>
   </energy>
  </scstep>
  <scstep>
   <time name="diag">    9.18    9.40</time>
   <time name="diis">   17.41   17.45</time>
   <time name="orth">    0.49    0.49</time>
   <time name="total">   31.03   31.30</time>
   <energy>
    <i name="e_fr_energy">   -293.12662138 </i>
    <i name="e_wo_entrp">   -293.11346423 </i>
    <i name="e_0_energy">   -293.12223566 </i>
   </energy>
  </scstep>
  <scstep>
   <time name="diag">    8.85    8.85</time>
   <time name="diis">   16.16   16.26</time>
   <time name="orth">    0.49    0.49</time>
   <time name="total">   29.44   29.57</time>
   <energy>
    <i name="e_fr_energy">   -293.12617321 </i>
    <i name="e_wo_entrp">   -293.11377755 </i>
    <i name="e_0_energy">   -293.12204132 </i>
   </energy>
  </scstep>
  <scstep>
   <time name="diag">    9.30    9.57</time>
   <time name="diis">   15.37   15.39</time>
   <time name="orth">    0.48    0.49</time>
   <time name="total">   29.11   29.41</time>
   <energy>
    <i name="e_fr_energy">   -293.12562035 </i>
    <i name="e_wo_entrp">   -293.11363871 </i>
    <i name="e_0_energy">   -293.12162647 </i>
   </energy>
  </scstep>
  <scstep>
   <time name="diag">    8.85    8.86</time>
   <time name="diis">   14.99   15.03</time>
   <time name="orth">    0.48    0.48</time>
   <time name="total">   28.31   28.40</time>
   <energy>
    <i name="e_fr_energy">   -293.12621691 </i>
    <i name="e_wo_entrp">   -293.11474337 </i>
    <i name="e_0_energy">   -293.12239240 </i>
   </energy>
  </scstep>
  <scstep>
   <time name="diag">    9.11    9.30</time>
   <time name="diis">   14.73   14.81</time>
   <time name="orth">    0.48    0.49</time>
   <time name="total">   28.29   28.57</time>
   <energy>
    <i name="e_fr_energy">   -293.12570519 </i>
    <i name="e_wo_entrp">   -293.11441461 </i>
    <i name="e_0_energy">   -293.12194166 </i>
   </energy>
  </scstep>
  <scstep>
   <time name="diag">    8.85    8.86</time>
   <time name="diis">   19.50   19.60</time>
   <time name="orth">    0.48    0.48</time>
   <time name="total">   32.79   32.91</time>
   <energy>
    <i name="e_fr_energy">   -293.12031293 </i>
    <i name="e_wo_entrp">   -293.10758315 </i>
    <i name="e_0_energy">   -293.11606967 </i>
   </energy>
  </scstep>
  <scstep>
   <time name="diag">    9.22    9.53</time>
   <time name="diis">   18.12   18.14</time>
   <time name="orth">    0.49    0.49</time>
   <time name="total">   31.79   32.14</time>
   <energy>
    <i name="e_fr_energy">   -293.11737075 </i>
    <i name="e_wo_entrp">   -293.10295716 </i>
    <i name="e_0_energy">   -293.11256622 </i>
   </energy>
  </scstep>
  <scstep>
   <time name="diag">    8.84    8.85</time>
   <time name="diis">   19.44   19.52</time>
   <time name="orth">    0.48    0.49</time>
   <time name="total">   32.78   32.89</time>
   <energy>
    <i name="e_fr_energy">   -293.11480754 </i>
    <i name="e_wo_entrp">   -293.09850517 </i>
    <i name="e_0_energy">   -293.10937341 </i>
   </energy>
  </scstep>
  <scstep>
   <time name="diag">    9.20    9.45</time>
   <time name="diis">   18.86   18.90</time>
   <time name="orth">    0.48    0.48</time>
   <time name="total">   32.48   32.77</time>
   <energy>
    <i name="e_fr_energy">   -293.11298895 </i>
    <i name="e_wo_entrp">   -293.09475251 </i>
    <i name="e_0_energy">   -293.10691014 </i>
   </energy>
  </scstep>
  <scstep>
   <time name="diag">    8.85    8.87</time>
   <time name="diis">   20.06   20.16</time>
   <time name="orth">    0.50    0.50</time>
   <time name="total">   33.73   34.10</time>
   <energy>
    <i name="e_fr_energy">   -293.11125284 </i>
    <i name="e_wo_entrp">   -293.09099874 </i>
    <i name="e_0_energy">   -293.10450148 </i>
   </energy>
  </scstep>
  <scstep>
   <time name="diag">    8.86    8.87</time>
   <time name="diis">   24.12   24.20</time>
   <time name="orth">    0.48    0.48</time>
   <time name="total">   37.40   37.50</time>
   <energy>
    <i name="e_fr_energy">   -293.10822581 </i>
    <i name="e_wo_entrp">   -293.08556650 </i>
    <i name="e_0_energy">   -293.10067271 </i>
   </energy>
  </scstep>
  <scstep>
   <time name="diag">    8.86    8.92</time>
   <time name="diis">   22.44   22.81</time>
   <time name="orth">    0.49    0.49</time>
   <time name="total">   35.79   36.23</time>
   <energy>
    <i name="e_fr_energy">   -293.10692639 </i>
    <i name="e_wo_entrp">   -293.08220734 </i>
    <i name="e_0_energy">   -293.09868671 </i>
   </energy>
  </scstep>
  <scstep>
   <time name="diag">    8.86    8.88</time>
   <time name="diis">   21.37   21.49</time>
   <time name="orth">    0.48    0.49</time>
   <time name="total">   34.65   34.78</time>
   <energy>
    <i name="e_fr_energy">   -293.11055138 </i>
    <i name="e_wo_entrp">   -293.08513732 </i>
    <i name="e_0_energy">   -293.10208003 </i>
   </energy>
  </scstep>
  <scstep>
   <time name="diag">    9.19    9.48</time>
   <time name="diis">   21.23   21.27</time>
   <time name="orth">    0.48    0.49</time>
   <time name="total">   34.85   35.19</time>
   <energy>
    <i name="e_fr_energy">   -293.11532408 </i>
    <i name="e_wo_entrp">   -293.09018967 </i>
    <i name="e_0_energy">   -293.10694594 </i>
   </energy>
  </scstep>
  <scstep>
   <time name="diag">    8.84    8.91</time>
   <time name="diis">   21.12   21.22</time>
   <time name="orth">    0.49    0.49</time>
   <time name="total">   34.62   35.07</time>
   <energy>
    <i name="e_fr_energy">   -293.11911720 </i>
    <i name="e_wo_entrp">   -293.09457362 </i>
    <i name="e_0_energy">   -293.11093601 </i>
   </energy>
  </scstep>
  <scstep>
   <time name="diag">    8.82    8.83</time>
   <time name="diis">   21.47   21.51</time>
   <time name="orth">    0.49    0.49</time>
   <time name="total">   34.74   34.80</time>
   <energy>
    <i name="e_fr_energy">   -293.12146938 </i>
    <i name="e_wo_entrp">   -293.09719475 </i>
    <i name="e_0_energy">   -293.11337784 </i>
   </energy>
  </scstep>
  <scstep>
   <time name="diag">    8.84    8.86</time>
   <time name="diis">   17.23   17.43</time>
   <time name="orth">    0.48    0.48</time>
   <time name="total">   30.49   30.72</time>
   <energy>
    <i name="e_fr_energy">   -293.12186663 </i>
    <i name="e_wo_entrp">   -293.09778004 </i>
    <i name="e_0_energy">   -293.11383776 </i>
   </energy>
  </scstep>
  <scstep>
   <time name="diag">    8.83    8.86</time>
   <time name="diis">   15.86   15.88</time>
   <time name="orth">    0.48    0.52</time>
   <time name="total">   29.14   29.23</time>
   <energy>
    <i name="e_fr_energy">   -293.12180314 </i>
    <i name="e_wo_entrp">   -293.09811869 </i>
    <i name="e_0_energy">   -293.11390832 </i>
   </energy>
  </scstep>
  <scstep>
   <time name="diag">    8.84    8.86</time>
   <time name="diis">   16.76   17.07</time>
   <time name="orth">    0.48    0.49</time>
   <time name="total">   30.02   30.36</time>
   <energy>
    <i name="e_fr_energy">   -293.12215769 </i>
    <i name="e_wo_entrp">   -293.09895218 </i>
    <i name="e_0_energy">   -293.11442252 </i>
   </energy>
  </scstep>
  <scstep>
   <time name="diag">    8.84    8.86</time>
   <time name="diis">   16.61   16.64</time>
   <time name="orth">    0.48    0.49</time>
   <time name="total">   29.91   30.01</time>
   <energy>
    <i name="e_fr_energy">   -293.12248412 </i>
    <i name="e_wo_entrp">   -293.09990851 </i>
    <i name="e_0_energy">   -293.11495892 </i>
   </energy>
  </scstep>
  <scstep>
   <time name="diag">    8.87    8.90</time>
   <time name="diis">   17.11   17.40</time>
   <time name="orth">    0.48    0.49</time>
   <time name="total">   30.43   30.76</time>
   <energy>
    <i name="e_fr_energy">   -293.12287734 </i>
    <i name="e_wo_entrp">   -293.10098185 </i>
    <i name="e_0_energy">   -293.11557884 </i>
   </energy>
  </scstep>
  <scstep>
   <time name="diag">    8.90    8.94</time>
   <time name="diis">   16.51   16.54</time>
   <time name="orth">    0.48    0.48</time>
   <time name="total">   29.90   29.97</time>
   <energy>
    <i name="e_fr_energy">   -293.12310445 </i>
    <i name="e_wo_entrp">   -293.10187357 </i>
    <i name="e_0_energy">   -293.11602749 </i>
   </energy>
  </scstep>
  <scstep>
   <time name="diag">    8.93    9.13</time>
   <time name="diis">   16.92   17.21</time>
   <time name="orth">    0.49    0.49</time>
   <time name="total">   30.32   30.81</time>
   <energy>
    <i name="e_fr_energy">   -293.12304947 </i>
    <i name="e_wo_entrp">   -293.10226295 </i>
    <i name="e_0_energy">   -293.11612063 </i>
   </energy>
  </scstep>
  <scstep>
   <time name="diag">    8.88    8.90</time>
   <time name="diis">   16.02   16.05</time>
   <time name="orth">    0.48    0.49</time>
   <time name="total">   29.38   29.44</time>
   <energy>
    <i name="e_fr_energy">   -293.12287310 </i>
    <i name="e_wo_entrp">   -293.10226050 </i>
    <i name="e_0_energy">   -293.11600223 </i>
   </energy>
  </scstep>
  <scstep>
   <time name="diag">    8.91    8.97</time>
   <time name="diis">   15.54   15.82</time>
   <time name="orth">    0.48    0.48</time>
   <time name="total">   28.88   29.23</time>
   <energy>
    <i name="e_fr_energy">   -293.12269221 </i>
    <i name="e_wo_entrp">   -293.10198638 </i>
    <i name="e_0_energy">   -293.11579027 </i>
   </energy>
  </scstep>
  <scstep>
   <time name="diag">    8.84    8.86</time>
   <time name="diis">   14.60   14.62</time>
   <time name="orth">    0.48    0.48</time>
   <time name="total">   27.91   27.95</time>
   <energy>
    <i name="e_fr_energy">   -293.12263181 </i>
    <i name="e_wo_entrp">   -293.10168169 </i>
    <i name="e_0_energy">   -293.11564844 </i>
   </energy>
  </scstep>
  <scstep>
   <time name="diag">    8.85    8.86</time>
   <time name="diis">   14.63   14.79</time>
   <time name="orth">    0.58    0.71</time>
   <time name="total">   28.04   28.39</time>
   <energy>
    <i name="e_fr_energy">   -293.12267363 </i>
    <i name="e_wo_entrp">   -293.10145127 </i>
    <i name="e_0_energy">   -293.11559951 </i>
   </energy>
  </scstep>
  <scstep>
   <time name="diag">    8.88    8.89</time>
   <time name="diis">   14.53   14.56</time>
   <time name="orth">    0.49    0.49</time>
   <time name="total">   27.90   27.94</time>
   <energy>
    <i name="e_fr_energy">   -293.12274249 </i>
    <i name="e_wo_entrp">   -293.10127849 </i>
    <i name="e_0_energy">   -293.11558782 </i>
   </energy>
  </scstep>
  <scstep>
   <time name="diag">    8.90    8.94</time>
   <time name="diis">   14.66   14.88</time>
   <time name="orth">    0.49    0.49</time>
   <time name="total">   28.08   28.43</time>
   <energy>
    <i name="e_fr_energy">   -293.12280568 </i>
    <i name="e_wo_entrp">   -293.10115354 </i>
    <i name="e_0_energy">   -293.11558830 </i>
   </energy>
  </scstep>
  <scstep>
   <time name="diag">    8.88    8.90</time>
   <time name="diis">   14.15   14.19</time>
   <time name="orth">    0.49    0.49</time>
   <time name="total">   27.53   27.68</time>
   <energy>
    <i name="e_fr_energy">   -293.12284642 </i>
    <i name="e_wo_entrp">   -293.10104792 </i>
    <i name="e_0_energy">   -293.11558025 </i>
   </energy>
  </scstep>
  <scstep>
   <time name="diag">    8.89    8.94</time>
   <time name="diis">   13.88   13.94</time>
   <time name="orth">    0.48    0.48</time>
   <time name="total">   27.26   27.38</time>
   <energy>
    <i name="e_fr_energy">   -293.12287085 </i>
    <i name="e_wo_entrp">   -293.10094780 </i>
    <i name="e_0_energy">   -293.11556317 </i>
   </energy>
  </scstep>
  <scstep>
   <time name="diag">    9.08    9.28</time>
   <time name="diis">   13.78   13.81</time>
   <time name="orth">    0.48    0.48</time>
   <time name="total">   27.34   27.57</time>
   <energy>
    <i name="e_fr_energy">   -293.12288633 </i>
    <i name="e_wo_entrp">   -293.10085553 </i>
    <i name="e_0_energy">   -293.11554273 </i>
   </energy>
  </scstep>
  <scstep>
   <time name="diag">    8.70    8.71</time>
   <time name="diis">   13.09   13.13</time>
   <time name="orth">    0.48    0.48</time>
   <time name="total">   22.81   22.85</time>
   <energy>
    <i name="alphaZ">    477.09650995 </i>
    <i name="ewald"> 394128.00360164 </i>
    <i name="hartreedc">-427832.05233641 </i>
    <i name="XCdc">   1612.94054450 </i>
    <i name="pawpsdc">  38071.79051261 </i>
    <i name="pawaedc"> -38777.58438036 </i>
    <i name="eentropy">     -0.02213196 </i>
    <i name="bandstr">  -5926.22842360 </i>
    <i name="atom">  37952.93320877 </i>
    <i name="e_fr_energy">   -293.12289485 </i>
    <i name="e_wo_entrp">   -293.10076289 </i>
    <i name="e_0_energy">   -293.11551753 </i>
   </energy>
  </scstep>
  <structure>
   <crystal>
    <varray name="basis" >
     <v>       2.87357350      -2.87357350       4.70833511 </v>
     <v>       5.74714699       0.00000000       0.00000000 </v>
     <v>       0.00000000      33.06569101      20.18052901 </v>
    </varray>
    <i name="volume">   1228.01926054 </i>
    <varray name="rec_basis" >
     <v>       0.00000000      -0.09444515       0.15474789 </v>
     <v>       0.17399938       0.04722258      -0.07737394 </v>
     <v>       0.00000000       0.02203507       0.01344836 </v>
    </varray>
   </crystal>
   <varray name="positions" >
    <v>       0.22067121       0.89240241       0.08901558 </v>
    <v>       0.66266690       0.16956554       0.21821737 </v>
    <v>       0.94927612       0.02809995       0.15233499 </v>
    <v>       0.37523549       0.31560724       0.28550956 </v>
    <v>       0.44927612       0.52809995       0.15233499 </v>
    <v>       0.89560653       0.30403280       0.28190213 </v>
    <v>       0.44927612       0.02809995       0.15233499 </v>
    <v>       0.89207050       0.80162826       0.28150735 </v>
    <v>       0.90282244       0.55132680       0.10484543 </v>
    <v>       0.35268620       0.82482399       0.23370245 </v>
    <v>       0.99140563       0.50693366       0.20064016 </v>
    <v>       0.42180142       0.79282625       0.33313593 </v>
    <v>       0.53851998       0.23347802       0.07318573 </v>
    <v>       0.01868715       0.48643129       0.35043056 </v>
    <v>       0.76987001       0.61331706       0.30917226 </v>
    <v>       0.87926422       0.06310591       0.05527763 </v>
    <v>       0.33814763       0.33079951       0.18281278 </v>
    <v>       0.58246139       0.21150732       0.12452493 </v>
    <v>       0.03240350       0.48802712       0.25336483 </v>
    <v>       0.68030618       0.70582645       0.37207637 </v>
    <v>       0.09516526       0.72856013       0.12156099 </v>
    <v>       0.54180572       0.45214460       0.25351102 </v>
    <v>       0.74053970       0.12483529       0.31174838 </v>
    <v>       0.85888103       0.57329750       0.05350623 </v>
    <v>       0.31141410       0.84803358       0.18076384 </v>
    <v>       0.56207820       0.72169891       0.12275353 </v>
    <v>       0.00327410       0.99908420       0.25281159 </v>
    <v>       0.79571627       0.32637753       0.18429703 </v>
    <v>       0.22058873       0.62090705       0.31580927 </v>
    <v>       0.34617716       0.60305419       0.05647018 </v>
    <v>       0.21720264       0.16656855       0.31523566 </v>
    <v>       0.79518970       0.88121222       0.18412008 </v>
    <v>       0.34617716       0.05624469       0.05647018 </v>
    <v>       0.53866835       0.00994372       0.25322918 </v>
    <v>       0.09516526       0.18175063       0.12156099 </v>
    <v>       0.19173729       0.35660753       0.39272150 </v>
    <v>       0.34047062       0.60391201       0.02782883 </v>
    <v>       0.92434681       0.68523651       0.03696881 </v>
    <v>       0.34363348       0.06399961       0.02783421 </v>
    <v>       0.88838126       0.05560908       0.02665597 </v>
    <v>       0.64349488       0.77943777       0.39525446 </v>
    <v>       0.75541102       0.10424878       0.33662894 </v>
    <v>       0.08067869       0.42899302       0.41222015 </v>
   </varray>
  </structure>
  <varray name="forces" >
   <v>       0.11555479      -1.74798876      -1.61774825 </v>
   <v>      -0.01390384       0.05075062       0.01698863 </v>
   <v>      -0.07713846       0.65643049       0.01817735 </v>
   <v>      -0.00541390      -0.01615743      -0.01356518 </v>
   <v>      -0.02349951       0.46999489       0.10210533 </v>
   <v>      -0.00127109      -0.07295553      -0.04152123 </v>
   <v>      -0.06306090       0.31316796       0.08702400 </v>
   <v>       0.01428288      -0.11332782      -0.00832129 </v>
   <v>      -0.02194902      -1.33162247      -0.85106525 </v>
   <v>      -0.02494533      -0.01130922       0.00155309 </v>
   <v>      -0.01688130       0.00494391       0.04310025 </v>
   <v>       0.03252912       0.07237703       0.08883683 </v>
   <v>       0.00324379      -0.50729249       0.26661602 </v>
   <v>      -0.00219559      -0.03370321      -0.03094641 </v>
   <v>       0.01385541       0.03284453       0.10101940 </v>
   <v>      -0.31157716      -3.61878535      -1.96002630 </v>
   <v>       0.02830623      -0.08874713       0.03847253 </v>
   <v>      -0.07125350       0.27741708       0.37971992 </v>
   <v>       0.01116895       0.07120536       0.02721941 </v>
   <v>       0.14651800       0.16187633       0.08209177 </v>
   <v>       0.35547694       0.37005604       0.54944514 </v>
   <v>      -0.04530141      -0.03210925      -0.00076617 </v>
   <v>       0.03678867      -0.12582875      -0.11190300 </v>
   <v>       2.68683403      -2.53732204      -0.25091230 </v>
   <v>      -0.01436674      -0.08538962       0.00779303 </v>
   <v>       0.11431238       0.34664480      -0.34140962 </v>
   <v>      -0.05102695       0.08571187      -0.02420288 </v>
   <v>      -0.04966068       0.00412851      -0.06315766 </v>
   <v>      -0.06643395       0.01132865      -0.05289338 </v>
   <v>      -0.94622491      -3.58354500      -2.15621032 </v>
   <v>       0.07380136       0.04010901      -0.03273997 </v>
   <v>       0.02775697      -0.00677548      -0.04224346 </v>
   <v>       1.04795995      -3.64164498      -1.92991755 </v>
   <v>       0.04900138      -0.02071539       0.01677425 </v>
   <v>      -0.16197238       0.33208850       0.45120218 </v>
   <v>       0.00236459      -0.05674418      -0.00715312 </v>
   <v>       0.56476086       3.80314348       2.31627865 </v>
   <v>      -2.89056164       3.08141920       0.46116577 </v>
   <v>      -0.65567989       3.94390345       2.09675993 </v>
   <v>       0.36451546       3.68072155       2.17523465 </v>
   <v>      -0.07255583      -0.12837812      -0.01506322 </v>
   <v>      -0.04251585       0.12563612       0.13294743 </v>
   <v>      -0.05964193      -0.17555719       0.09124100 </v>
  </varray>
  <energy>
   <i name="e_fr_energy">   -293.12289485 </i>
   <i name="e_wo_entrp">   -293.11551753 </i>
   <i name="e_0_energy">     -0.02213196 </i>
  </energy>
  <time name="totalsc"> 1550.98 1562.68</time>
 </calculation>
 <calculation>
  <scstep>
   <time name="dav">   36.20   36.28</time>
   <time name="total">   40.31   40.43</time>
   <energy>
    <i name="alphaZ">    477.09650995 </i>
    <i name="ewald"> 394128.04468544 </i>
    <i name="hartreedc">-427832.09481417 </i>
    <i name="XCdc">   1612.94049271 </i>
    <i name="pawpsdc">  38071.79033178 </i>
    <i name="pawaedc"> -38777.58477181 </i>
    <i name="eentropy">     -0.02221803 </i>
    <i name="bandstr">  -5926.22632768 </i>
    <i name="atom">  37952.93320877 </i>
    <i name="e_fr_energy">   -293.12290305 </i>
    <i name="e_wo_entrp">   -293.10068502 </i>
    <i name="e_0_energy">   -293.11549704 </i>
   </energy>
  </scstep>
  <scstep>
   <time name="diag">    9.01    9.05</time>
   <time name="diis">   23.50   23.85</time>
   <time name="orth">    0.49    0.49</time>
   <time name="total">   37.00   37.39</time>
   <energy>
    <i name="e_fr_energy">   -293.12294033 </i>
    <i name="e_wo_entrp">   -293.10110736 </i>
    <i name="e_0_energy">   -293.11566268 </i>
   </energy>
  </scstep>
  <scstep>
   <time name="diag">    8.92    8.94</time>
   <time name="diis">   22.49   22.59</time>
   <time name="orth">    0.50    0.53</time>
   <time name="total">   36.08   36.52</time>
   <energy>
    <i name="e_fr_energy">   -293.12291381 </i>
    <i name="e_wo_entrp">   -293.10064761 </i>
    <i name="e_0_energy">   -293.11549175 </i>
   </energy>
  </scstep>
  <scstep>
   <time name="diag">    8.91    8.92</time>
   <time name="diis">   17.83   17.86</time>
   <time name="orth">    0.49    0.49</time>
   <time name="total">   31.21   31.26</time>
   <energy>
    <i name="e_fr_energy">   -293.12289117 </i>
    <i name="e_wo_entrp">   -293.10061492 </i>
    <i name="e_0_energy">   -293.11546576 </i>
   </energy>
  </scstep>
  <scstep>
   <time name="diag">    8.93    8.95</time>
   <time name="diis">   17.99   18.35</time>
   <time name="orth">    0.48    0.49</time>
   <time name="total">   31.33   31.72</time>
   <energy>
    <i name="e_fr_energy">   -293.12293770 </i>
    <i name="e_wo_entrp">   -293.10113111 </i>
    <i name="e_0_energy">   -293.11566884 </i>
   </energy>
  </scstep>
  <scstep>
   <time name="diag">    8.90    8.92</time>
   <time name="diis">   17.44   17.47</time>
   <time name="orth">    0.48    0.48</time>
   <time name="total">   30.81   30.88</time>
   <energy>
    <i name="e_fr_energy">   -293.12286672 </i>
    <i name="e_wo_entrp">   -293.10103913 </i>
    <i name="e_0_energy">   -293.11559085 </i>
   </energy>
  </scstep>
  <scstep>
   <time name="diag">    8.89    8.91</time>
   <time name="diis">   16.02   16.39</time>
   <time name="orth">    0.49    0.49</time>
   <time name="total">   29.33   29.75</time>
   <energy>
    <i name="e_fr_energy">   -293.12285340 </i>
    <i name="e_wo_entrp">   -293.10073745 </i>
    <i name="e_0_energy">   -293.11548142 </i>
   </energy>
  </scstep>
  <scstep>
   <time name="diag">    8.85    8.87</time>
   <time name="diis">   14.68   14.69</time>
   <time name="orth">    0.49    0.49</time>
   <time name="total">   27.96   28.01</time>
   <energy>
    <i name="e_fr_energy">   -293.12290442 </i>
    <i name="e_wo_entrp">   -293.10053769 </i>
    <i name="e_0_energy">   -293.11544884 </i>
   </energy>
  </scstep>
  <scstep>
   <time name="diag">    8.87    8.89</time>
   <time name="diis">   14.65   14.74</time>
   <time name="orth">    0.50    0.50</time>
   <time name="total">   24.55   24.67</time>
   <energy>
    <i name="alphaZ">    477.09650995 </i>
    <i name="ewald"> 394128.04468544 </i>
    <i name="hartreedc">-427833.08617536 </i>
    <i name="XCdc">   1612.94934430 </i>
    <i name="pawpsdc">  38071.80523374 </i>
    <i name="pawaedc"> -38777.58140667 </i>
    <i name="eentropy">     -0.02245089 </i>
    <i name="bandstr">  -5925.26184746 </i>
    <i name="atom">  37952.93320877 </i>
    <i name="e_fr_energy">   -293.12289818 </i>
    <i name="e_wo_entrp">   -293.10044730 </i>
    <i name="e_0_energy">   -293.11541456 </i>
   </energy>
  </scstep>
  <structure>
   <crystal>
    <varray name="basis" >
     <v>       2.87357350      -2.87357350       4.70833511 </v>
     <v>       5.74714699       0.00000000       0.00000000 </v>
     <v>       0.00000000      33.06569101      20.18052901 </v>
    </varray>
    <i name="volume">   1228.01926054 </i>
    <varray name="rec_basis" >
     <v>       0.00000000      -0.09444515       0.15474789 </v>
     <v>       0.17399938       0.04722258      -0.07737394 </v>
     <v>       0.00000000       0.02203507       0.01344836 </v>
    </varray>
   </crystal>
   <varray name="positions" >
    <v>       0.22067121       0.89240241       0.08901558 </v>
    <v>       0.66266739       0.16956436       0.21821737 </v>
    <v>       0.94927612       0.02809995       0.15233499 </v>
    <v>       0.37523579       0.31560726       0.28550950 </v>
    <v>       0.44927612       0.52809995       0.15233499 </v>
    <v>       0.89560671       0.30403389       0.28190202 </v>
    <v>       0.44927612       0.02809995       0.15233499 </v>
    <v>       0.89207119       0.80162723       0.28150716 </v>
    <v>       0.90282244       0.55132680       0.10484543 </v>
    <v>       0.35268584       0.82482312       0.23370251 </v>
    <v>       0.99140594       0.50693240       0.20064006 </v>
    <v>       0.42179993       0.79282729       0.33313639 </v>
    <v>       0.53851998       0.23347802       0.07318573 </v>
    <v>       0.01868751       0.48643072       0.35043043 </v>
    <v>       0.76986863       0.61331783       0.30917241 </v>
    <v>       0.87926422       0.06310591       0.05527763 </v>
    <v>       0.33814770       0.33079974       0.18281281 </v>
    <v>       0.58246139       0.21150732       0.12452493 </v>
    <v>       0.03240191       0.48802745       0.25336491 </v>
    <v>       0.68030650       0.70582982       0.37207638 </v>
    <v>       0.09516526       0.72856013       0.12156099 </v>
    <v>       0.54180552       0.45214370       0.25351084 </v>
    <v>       0.74054183       0.12483499       0.31174848 </v>
    <v>       0.85888103       0.57329750       0.05350623 </v>
    <v>       0.31141490       0.84803262       0.18076396 </v>
    <v>       0.56207820       0.72169891       0.12275353 </v>
    <v>       0.00327450       0.99908463       0.25281159 </v>
    <v>       0.79571632       0.32637749       0.18429709 </v>
    <v>       0.22058949       0.62090714       0.31580926 </v>
    <v>       0.34617716       0.60305419       0.05647018 </v>
    <v>       0.21720268       0.16656932       0.31523573 </v>
    <v>       0.79519042       0.88121088       0.18412005 </v>
    <v>       0.34617716       0.05624469       0.05647018 </v>
    <v>       0.53866881       0.00994284       0.25322910 </v>
    <v>       0.09516526       0.18175063       0.12156099 </v>
    <v>       0.19174197       0.35660525       0.39272071 </v>
    <v>       0.34047062       0.60391201       0.02782883 </v>
    <v>       0.92434681       0.68523651       0.03696881 </v>
    <v>       0.34363348       0.06399961       0.02783421 </v>
    <v>       0.88838126       0.05560908       0.02665597 </v>
    <v>       0.64349422       0.77943822       0.39525526 </v>
    <v>       0.75541225       0.10424711       0.33662862 </v>
    <v>       0.08068273       0.42898886       0.41221996 </v>
   </varray>
  </structure>
  <varray name="forces" >
   <v>       0.11458987      -1.74644991      -1.61520917 </v>
   <v>      -0.01366669       0.04838074       0.01584050 </v>
   <v>      -0.07749046       0.65650252       0.01806497 </v>
   <v>      -0.00602507      -0.01745392      -0.01404573 </v>
   <v>      -0.02391195       0.46948336       0.10173217 </v>
   <v>      -0.00039334      -0.07241750      -0.04179818 </v>
   <v>      -0.06248557       0.31321858       0.08713909 </v>
   <v>       0.01352322      -0.11306702      -0.00871989 </v>
   <v>      -0.02379596      -1.32964876      -0.84951939 </v>
   <v>      -0.02472433      -0.01264420       0.00076450 </v>
   <v>      -0.01671295       0.00385164       0.04236718 </v>
   <v>       0.03297273       0.07010263       0.08787918 </v>
   <v>       0.00489059      -0.50602323       0.26501861 </v>
   <v>       0.00129459      -0.04751562      -0.03030885 </v>
   <v>       0.01308019       0.03125091       0.09355058 </v>
   <v>      -0.31236636      -3.61871440      -1.95988046 </v>
   <v>       0.02820213      -0.08789887       0.03889629 </v>
   <v>      -0.07130124       0.27787295       0.38021584 </v>
   <v>       0.01097446       0.07192215       0.02800980 </v>
   <v>       0.14989690       0.17580502       0.07865986 </v>
   <v>       0.35487256       0.36899108       0.54903809 </v>
   <v>      -0.04551696      -0.03074315      -0.00025749 </v>
   <v>       0.03691129      -0.12562735      -0.11205071 </v>
   <v>       2.68281152      -2.53290698      -0.25091800 </v>
   <v>      -0.01429573      -0.08463742       0.00826718 </v>
   <v>       0.11427388       0.34429474      -0.34118084 </v>
   <v>      -0.05090934       0.08640540      -0.02377295 </v>
   <v>      -0.04962544       0.00517452      -0.06258073 </v>
   <v>      -0.06438763       0.01021712      -0.05233989 </v>
   <v>      -0.94727970      -3.58179155      -2.15520261 </v>
   <v>       0.06953527       0.03562185      -0.03187962 </v>
   <v>       0.02776857      -0.00552794      -0.04171585 </v>
   <v>       1.04917785      -3.64194536      -1.93043432 </v>
   <v>       0.04926302      -0.01930113       0.01738429 </v>
   <v>      -0.15995005       0.33225281       0.45048081 </v>
   <v>       0.00232067      -0.02950595       0.00091364 </v>
   <v>       0.56496691       3.80114514       2.31524212 </v>
   <v>      -2.88669492       3.07608031       0.46166962 </v>
   <v>      -0.65586846       3.94250977       2.09658259 </v>
   <v>       0.36434945       3.67910667       2.17444649 </v>
   <v>      -0.07429859      -0.13259596      -0.01877311 </v>
   <v>      -0.04253517       0.12581015       0.13332843 </v>
   <v>      -0.06143981      -0.18958384       0.09509593 </v>
  </varray>
  <energy>
   <i name="e_fr_energy">   -293.12289818 </i>
   <i name="e_wo_entrp">   -293.11541456 </i>
   <i name="e_0_energy">     -0.02245089 </i>
  </energy>
  <time name="totalsc">  310.16  312.61</time>
 </calculation>
 <calculation>
  <scstep>
   <time name="dav">   44.62   45.03</time>
   <time name="total">   48.56   48.98</time>
   <energy>
    <i name="alphaZ">    477.09650995 </i>
    <i name="ewald"> 394128.12685263 </i>
    <i name="hartreedc">-427833.17759210 </i>
    <i name="XCdc">   1612.94951554 </i>
    <i name="pawpsdc">  38071.81143497 </i>
    <i name="pawaedc"> -38777.58756496 </i>
    <i name="eentropy">     -0.02244978 </i>
    <i name="bandstr">  -5925.25281083 </i>
    <i name="atom">  37952.93320877 </i>
    <i name="e_fr_energy">   -293.12289581 </i>
    <i name="e_wo_entrp">   -293.10044603 </i>
    <i name="e_0_energy">   -293.11541255 </i>
   </energy>
  </scstep>
  <scstep>
   <time name="diag">    8.91    8.94</time>
   <time name="diis">   23.50   23.55</time>
   <time name="orth">    0.49    0.49</time>
   <time name="total">   36.90   36.98</time>
   <energy>
    <i name="e_fr_energy">   -293.12387386 </i>
    <i name="e_wo_entrp">   -293.10362331 </i>
    <i name="e_0_energy">   -293.11712367 </i>
   </energy>
  </scstep>
  <scstep>
   <time name="diag">    9.01    9.10</time>
   <time name="diis">   23.00   23.29</time>
   <time name="orth">    0.49    0.49</time>
   <time name="total">   36.47   36.89</time>
   <energy>
    <i name="e_fr_energy">   -293.12283316 </i>
    <i name="e_wo_entrp">   -293.10281107 </i>
    <i name="e_0_energy">   -293.11615913 </i>
   </energy>
  </scstep>
  <scstep>
   <time name="diag">    8.88    8.89</time>
   <time name="diis">   20.98   21.06</time>
   <time name="orth">    0.49    0.49</time>
   <time name="total">   34.42   34.53</time>
   <energy>
    <i name="e_fr_energy">   -293.12240607 </i>
    <i name="e_wo_entrp">   -293.10208004 </i>
    <i name="e_0_energy">   -293.11563073 </i>
   </energy>
  </scstep>
  <scstep>
   <time name="diag">    9.15    9.37</time>
   <time name="diis">   15.62   15.67</time>
   <time name="orth">    0.49    0.49</time>
   <time name="total">   29.22   29.49</time>
   <energy>
    <i name="e_fr_energy">   -293.12241842 </i>
    <i name="e_wo_entrp">   -293.10170707 </i>
    <i name="e_0_energy">   -293.11551464 </i>
   </energy>
  </scstep>
  <scstep>
   <time name="diag">    8.87    8.88</time>
   <time name="diis">   15.53   15.63</time>
   <time name="orth">    0.49    0.49</time>
   <time name="total">   28.90   29.04</time>
   <energy>
    <i name="e_fr_energy">   -293.12245116 </i>
    <i name="e_wo_entrp">   -293.10114908 </i>
    <i name="e_0_energy">   -293.11535047 </i>
   </energy>
  </scstep>
  <scstep>
   <time name="diag">    9.05    9.31</time>
   <time name="diis">   16.11   16.14</time>
   <time name="orth">    0.48    0.49</time>
   <time name="total">   29.68   29.98</time>
   <energy>
    <i name="e_fr_energy">   -293.12266803 </i>
    <i name="e_wo_entrp">   -293.10068543 </i>
    <i name="e_0_energy">   -293.11534049 </i>
   </energy>
  </scstep>
  <scstep>
   <time name="diag">    8.87    8.88</time>
   <time name="diis">   16.25   16.35</time>
   <time name="orth">    0.48    0.49</time>
   <time name="total">   29.64   29.78</time>
   <energy>
    <i name="e_fr_energy">   -293.12292168 </i>
    <i name="e_wo_entrp">   -293.10041910 </i>
    <i name="e_0_energy">   -293.11542082 </i>
   </energy>
  </scstep>
  <scstep>
   <time name="diag">    9.06    9.31</time>
   <time name="diis">   15.83   15.86</time>
   <time name="orth">    0.49    0.49</time>
   <time name="total">   29.34   29.62</time>
   <energy>
    <i name="e_fr_energy">   -293.12297575 </i>
    <i name="e_wo_entrp">   -293.10013854 </i>
    <i name="e_0_energy">   -293.11536334 </i>
   </energy>
  </scstep>
  <scstep>
   <time name="diag">    8.87    8.92</time>
   <time name="diis">   15.41   15.56</time>
   <time name="orth">    0.48    0.48</time>
   <time name="total">   28.72   28.95</time>
   <energy>
    <i name="e_fr_energy">   -293.12293201 </i>
    <i name="e_wo_entrp">   -293.09987160 </i>
    <i name="e_0_energy">   -293.11524520 </i>
   </energy>
  </scstep>
  <scstep>
   <time name="diag">    9.07    9.31</time>
   <time name="diis">   14.68   14.74</time>
   <time name="orth">    0.48    0.48</time>
   <time name="total">   28.17   28.47</time>
   <energy>
    <i name="e_fr_energy">   -293.12290730 </i>
    <i name="e_wo_entrp">   -293.09964370 </i>
    <i name="e_0_energy">   -293.11515277 </i>
   </energy>
  </scstep>
  <scstep>
   <time name="diag">    8.82    8.83</time>
   <time name="diis">   14.75   15.02</time>
   <time name="orth">    0.48    0.49</time>
   <time name="total">   28.02   28.31</time>
   <energy>
    <i name="e_fr_energy">   -293.12282712 </i>
    <i name="e_wo_entrp">   -293.09943024 </i>
    <i name="e_0_energy">   -293.11502816 </i>
   </energy>
  </scstep>
  <scstep>
   <time name="diag">    9.17    9.46</time>
   <time name="diis">   14.24   14.36</time>
   <time name="orth">    0.48    0.48</time>
   <time name="total">   27.85   28.27</time>
   <energy>
    <i name="e_fr_energy">   -293.12278930 </i>
    <i name="e_wo_entrp">   -293.09927598 </i>
    <i name="e_0_energy">   -293.11495152 </i>
   </energy>
  </scstep>
  <scstep>
   <time name="diag">    8.88    8.91</time>
   <time name="diis">   14.12   14.15</time>
   <time name="orth">    0.48    0.49</time>
   <time name="total">   27.49   27.67</time>
   <energy>
    <i name="e_fr_energy">   -293.12274454 </i>
    <i name="e_wo_entrp">   -293.09913346 </i>
    <i name="e_0_energy">   -293.11487418 </i>
   </energy>
  </scstep>
  <scstep>
   <time name="diag">    8.91    8.96</time>
   <time name="diis">   14.12   14.29</time>
   <time name="orth">    0.49    0.49</time>
   <time name="total">   27.48   27.72</time>
   <energy>
    <i name="e_fr_energy">   -293.12269959 </i>
    <i name="e_wo_entrp">   -293.09901085 </i>
    <i name="e_0_energy">   -293.11480335 </i>
   </energy>
  </scstep>
  <scstep>
   <time name="diag">    8.87    8.88</time>
   <time name="diis">   13.59   13.60</time>
   <time name="orth">    0.49    0.49</time>
   <time name="total">   26.92   26.96</time>
   <energy>
    <i name="e_fr_energy">   -293.12265328 </i>
    <i name="e_wo_entrp">   -293.09890580 </i>
    <i name="e_0_energy">   -293.11473745 </i>
   </energy>
  </scstep>
  <scstep>
   <time name="diag">    8.93    8.99</time>
   <time name="diis">   13.22   13.51</time>
   <time name="orth">    0.48    0.48</time>
   <time name="total">   26.57   26.92</time>
   <energy>
    <i name="e_fr_energy">   -293.12263953 </i>
    <i name="e_wo_entrp">   -293.09883078 </i>
    <i name="e_0_energy">   -293.11470328 </i>
   </energy>
  </scstep>
  <scstep>
   <time name="diag">    8.86    8.88</time>
   <time name="diis">   13.46   13.48</time>
   <time name="orth">    0.49    0.49</time>
   <time name="total">   26.76   26.82</time>
   <energy>
    <i name="e_fr_energy">   -293.12257476 </i>
    <i name="e_wo_entrp">   -293.09873532 </i>
    <i name="e_0_energy">   -293.11462828 </i>
   </energy>
  </scstep>
  <scstep>
   <time name="diag">    8.85    8.87</time>
   <time name="diis">   12.20   12.26</time>
   <time name="orth">    0.48    0.49</time>
   <time name="total">   25.66   26.04</time>
   <energy>
    <i name="e_fr_energy">   -293.12253641 </i>
    <i name="e_wo_entrp">   -293.09868811 </i>
    <i name="e_0_energy">   -293.11458697 </i>
   </energy>
  </scstep>
  <scstep>
   <time name="diag">    8.84    8.85</time>
   <time name="diis">   10.97   11.02</time>
   <time name="orth">    0.49    0.49</time>
   <time name="total">   20.84   20.90</time>
   <energy>
    <i name="alphaZ">    477.09650995 </i>
    <i name="ewald"> 394128.12685263 </i>
    <i name="hartreedc">-427833.18641522 </i>
    <i name="XCdc">   1612.94864548 </i>
    <i name="pawpsdc">  38071.72404884 </i>
    <i name="pawaedc"> -38777.51089450 </i>
    <i name="eentropy">     -0.02385222 </i>
    <i name="bandstr">  -5925.23063153 </i>
    <i name="atom">  37952.93320877 </i>
    <i name="e_fr_energy">   -293.12252779 </i>
    <i name="e_wo_entrp">   -293.09867557 </i>
    <i name="e_0_energy">   -293.11457705 </i>
   </energy>
  </scstep>
  <structure>
   <crystal>
    <varray name="basis" >
     <v>       2.87357350      -2.87357350       4.70833511 </v>
     <v>       5.74714699       0.00000000       0.00000000 </v>
     <v>       0.00000000      33.06569101      20.18052901 </v>
    </varray>
    <i name="volume">   1228.01926054 </i>
    <varray name="rec_basis" >
     <v>       0.00000000      -0.09444515       0.15474789 </v>
     <v>       0.17399938       0.04722258      -0.07737394 </v>
     <v>       0.00000000       0.02203507       0.01344836 </v>
    </varray>
   </crystal>
   <varray name="positions" >
    <v>       0.22067121       0.89240241       0.08901558 </v>
    <v>       0.66266838       0.16956199       0.21821736 </v>
    <v>       0.94927612       0.02809995       0.15233499 </v>
    <v>       0.37523638       0.31560730       0.28550938 </v>
    <v>       0.44927612       0.52809995       0.15233499 </v>
    <v>       0.89560708       0.30403609       0.28190180 </v>
    <v>       0.44927612       0.02809995       0.15233499 </v>
    <v>       0.89207256       0.80162518       0.28150679 </v>
    <v>       0.90282244       0.55132680       0.10484543 </v>
    <v>       0.35268513       0.82482139       0.23370263 </v>
    <v>       0.99140654       0.50692987       0.20063984 </v>
    <v>       0.42179695       0.79282936       0.33313729 </v>
    <v>       0.53851998       0.23347802       0.07318573 </v>
    <v>       0.01868825       0.48642959       0.35043017 </v>
    <v>       0.76986586       0.61331939       0.30917271 </v>
    <v>       0.87926422       0.06310591       0.05527763 </v>
    <v>       0.33814784       0.33080019       0.18281287 </v>
    <v>       0.58246139       0.21150732       0.12452493 </v>
    <v>       0.03239874       0.48802809       0.25336506 </v>
    <v>       0.68030714       0.70583656       0.37207640 </v>
    <v>       0.09516526       0.72856013       0.12156099 </v>
    <v>       0.54180511       0.45214190       0.25351048 </v>
    <v>       0.74054609       0.12483439       0.31174866 </v>
    <v>       0.85888103       0.57329750       0.05350623 </v>
    <v>       0.31141649       0.84803070       0.18076419 </v>
    <v>       0.56207820       0.72169891       0.12275353 </v>
    <v>       0.00327530       0.99908549       0.25281160 </v>
    <v>       0.79571642       0.32637741       0.18429722 </v>
    <v>       0.22059099       0.62090733       0.31580926 </v>
    <v>       0.34617716       0.60305419       0.05647018 </v>
    <v>       0.21720277       0.16657087       0.31523588 </v>
    <v>       0.79519186       0.88120819       0.18411999 </v>
    <v>       0.34617716       0.05624469       0.05647018 </v>
    <v>       0.53866973       0.00994107       0.25322895 </v>
    <v>       0.09516526       0.18175063       0.12156099 </v>
    <v>       0.19175131       0.35660069       0.39271914 </v>
    <v>       0.34047062       0.60391201       0.02782883 </v>
    <v>       0.92434681       0.68523651       0.03696881 </v>
    <v>       0.34363348       0.06399961       0.02783421 </v>
    <v>       0.88838126       0.05560908       0.02665597 </v>
    <v>       0.64349292       0.77943912       0.39525686 </v>
    <v>       0.75541471       0.10424378       0.33662798 </v>
    <v>       0.08069082       0.42898054       0.41221958 </v>
   </varray>
  </structure>
  <varray name="forces" >
   <v>       0.11463170      -1.74797507      -1.61203510 </v>
   <v>      -0.01342874       0.04748187       0.01583205 </v>
   <v>      -0.07716520       0.65954415       0.01816060 </v>
   <v>      -0.00940516      -0.01467890      -0.01416945 </v>
   <v>      -0.02534681       0.46916315       0.10244774 </v>
   <v>       0.00775934      -0.06537931      -0.03939501 </v>
   <v>      -0.05957833       0.31509237       0.08830052 </v>
   <v>       0.00804445      -0.10807515      -0.00628810 </v>
   <v>      -0.02922789      -1.32830448      -0.85124450 </v>
   <v>      -0.02433390      -0.01278117       0.00141922 </v>
   <v>      -0.01639533       0.00363072       0.04260336 </v>
   <v>       0.03746029       0.06718806       0.08965300 </v>
   <v>       0.00776296      -0.50860889       0.26150681 </v>
   <v>       0.02029279      -0.10379694      -0.00498313 </v>
   <v>       0.00872258       0.01849751       0.05495865 </v>
   <v>      -0.31331741      -3.59973945      -1.95199481 </v>
   <v>       0.02864811      -0.08844177       0.03905783 </v>
   <v>      -0.07067772       0.27747915       0.37994338 </v>
   <v>       0.01109748       0.07046482       0.02816423 </v>
   <v>       0.16346908       0.22348548       0.05795994 </v>
   <v>       0.35078311       0.36540792       0.54719308 </v>
   <v>      -0.04544485      -0.03162975      -0.00046044 </v>
   <v>       0.03745512      -0.12679849      -0.11295650 </v>
   <v>       2.62162465      -2.46818003      -0.25275917 </v>
   <v>      -0.01434049      -0.08481118       0.00826000 </v>
   <v>       0.11303850       0.33620738      -0.33910222 </v>
   <v>      -0.05052815       0.08575913      -0.02377703 </v>
   <v>      -0.04929628       0.00467112      -0.06254385 </v>
   <v>      -0.05924051       0.00630841      -0.05533891 </v>
   <v>      -0.95032591      -3.57719620      -2.14995766 </v>
   <v>       0.05363915       0.01404528      -0.03355075 </v>
   <v>       0.02817476      -0.00585679      -0.04151806 </v>
   <v>       1.05321724      -3.63494696      -1.92604380 </v>
   <v>       0.05034504      -0.01998996       0.01737579 </v>
   <v>      -0.15357747       0.33476875       0.44940987 </v>
   <v>       0.00033097       0.05084351       0.03048504 </v>
   <v>       0.56549878       3.79709769       2.31299348 </v>
   <v>      -2.83939143       3.02371444       0.46131188 </v>
   <v>      -0.65592017       3.93519170       2.09329917 </v>
   <v>       0.36393257       3.66461386       2.16679780 </v>
   <v>      -0.07981210      -0.14523746      -0.03314736 </v>
   <v>      -0.04234631       0.12629380       0.13413292 </v>
   <v>      -0.06682852      -0.22452231       0.10999947 </v>
  </varray>
  <energy>
   <i name="e_fr_energy">   -293.12252779 </i>
   <i name="e_wo_entrp">   -293.11457705 </i>
   <i name="e_0_energy">     -0.02385222 </i>
  </energy>
  <time name="totalsc">  618.90  623.66</time>
 </calculation>
 <calculation>
  <scstep>
   <time name="dav">   48.74   49.19</time>
   <time name="total">   52.69   53.15</time>
   <energy>
    <i name="alphaZ">    477.09650995 </i>
    <i name="ewald"> 394140.58422833 </i>
    <i name="hartreedc">-427845.53908088 </i>
    <i name="XCdc">   1612.95728384 </i>
    <i name="pawpsdc">  38071.72638996 </i>
    <i name="pawaedc"> -38777.51312987 </i>
    <i name="eentropy">     -0.02373275 </i>
    <i name="bandstr">  -5925.32814967 </i>
    <i name="atom">  37952.93320877 </i>
    <i name="e_fr_energy">   -293.10647230 </i>
    <i name="e_wo_entrp">   -293.08273955 </i>
    <i name="e_0_energy">   -293.09856139 </i>
   </energy>
  </scstep>
  <scstep>
   <time name="diag">    8.93    8.96</time>
   <time name="diis">   30.58   30.96</time>
   <time name="orth">    0.49    0.49</time>
   <time name="total">   43.95   44.37</time>
   <energy>
    <i name="e_fr_energy">   -293.17325850 </i>
    <i name="e_wo_entrp">   -293.17245401 </i>
    <i name="e_0_energy">   -293.17299034 </i>
   </energy>
  </scstep>
  <scstep>
   <time name="diag">    8.89    8.91</time>
   <time name="diis">   25.86   25.99</time>
   <time name="orth">    0.50    0.51</time>
   <time name="total">   39.39   39.74</time>
   <energy>
    <i name="e_fr_energy">   -293.12736620 </i>
    <i name="e_wo_entrp">   -293.12264082 </i>
    <i name="e_0_energy">   -293.12579107 </i>
   </energy>
  </scstep>
  <scstep>
   <time name="diag">    8.92    8.93</time>
   <time name="diis">   26.72   26.81</time>
   <time name="orth">    0.49    0.49</time>
   <time name="total">   40.10   40.22</time>
   <energy>
    <i name="e_fr_energy">   -293.10698163 </i>
    <i name="e_wo_entrp">   -293.08631484 </i>
    <i name="e_0_energy">   -293.10009270 </i>
   </energy>
  </scstep>
  <scstep>
   <time name="diag">    8.90    8.94</time>
   <time name="diis">   24.60   24.91</time>
   <time name="orth">    0.48    0.49</time>
   <time name="total">   37.92   38.27</time>
   <energy>
    <i name="e_fr_energy">   -293.13282188 </i>
    <i name="e_wo_entrp">   -293.10838468 </i>
    <i name="e_0_energy">   -293.12467615 </i>
   </energy>
  </scstep>
  <scstep>
   <time name="diag">    8.83    8.84</time>
   <time name="diis">   23.90   24.03</time>
   <time name="orth">    0.48    0.48</time>
   <time name="total">   37.18   37.34</time>
   <energy>
    <i name="e_fr_energy">   -293.13031310 </i>
    <i name="e_wo_entrp">   -293.10511748 </i>
    <i name="e_0_energy">   -293.12191456 </i>
   </energy>
  </scstep>
  <scstep>
   <time name="diag">    9.17    9.44</time>
   <time name="diis">   25.05   25.09</time>
   <time name="orth">    0.48    0.48</time>
   <time name="total">   38.66   38.99</time>
   <energy>
    <i name="e_fr_energy">   -293.12369077 </i>
    <i name="e_wo_entrp">   -293.09940171 </i>
    <i name="e_0_energy">   -293.11559441 </i>
   </energy>
  </scstep>
  <scstep>
   <time name="diag">    8.84    8.85</time>
   <time name="diis">   23.82   24.20</time>
   <time name="orth">    0.49    0.49</time>
   <time name="total">   37.08   37.49</time>
   <energy>
    <i name="e_fr_energy">   -293.12745299 </i>
    <i name="e_wo_entrp">   -293.10594329 </i>
    <i name="e_0_energy">   -293.12028309 </i>
   </energy>
  </scstep>
  <scstep>
   <time name="diag">    8.80    8.82</time>
   <time name="diis">   22.53   22.57</time>
   <time name="orth">    0.48    0.48</time>
   <time name="total">   35.76   35.87</time>
   <energy>
    <i name="e_fr_energy">   -293.12985643 </i>
    <i name="e_wo_entrp">   -293.11042949 </i>
    <i name="e_0_energy">   -293.12338079 </i>
   </energy>
  </scstep>
  <scstep>
   <time name="diag">    9.21    9.34</time>
   <time name="diis">   23.78   24.02</time>
   <time name="orth">    0.48    0.48</time>
   <time name="total">   37.42   37.80</time>
   <energy>
    <i name="e_fr_energy">   -293.12772105 </i>
    <i name="e_wo_entrp">   -293.10762942 </i>
    <i name="e_0_energy">   -293.12102384 </i>
   </energy>
  </scstep>
  <scstep>
   <time name="diag">    8.85    8.86</time>
   <time name="diis">   22.75   23.04</time>
   <time name="orth">    0.53    0.63</time>
   <time name="total">   36.07   36.49</time>
   <energy>
    <i name="e_fr_energy">   -293.12777733 </i>
    <i name="e_wo_entrp">   -293.10623105 </i>
    <i name="e_0_energy">   -293.12059524 </i>
   </energy>
  </scstep>
  <scstep>
   <time name="diag">    8.83    8.85</time>
   <time name="diis">   18.88   18.91</time>
   <time name="orth">    0.48    0.48</time>
   <time name="total">   32.12   32.16</time>
   <energy>
    <i name="e_fr_energy">   -293.12864842 </i>
    <i name="e_wo_entrp">   -293.10613980 </i>
    <i name="e_0_energy">   -293.12114555 </i>
   </energy>
  </scstep>
  <scstep>
   <time name="diag">    8.91    9.09</time>
   <time name="diis">   18.91   19.23</time>
   <time name="orth">    0.48    0.49</time>
   <time name="total">   32.22   32.74</time>
   <energy>
    <i name="e_fr_energy">   -293.12877962 </i>
    <i name="e_wo_entrp">   -293.10578751 </i>
    <i name="e_0_energy">   -293.12111558 </i>
   </energy>
  </scstep>
  <scstep>
   <time name="diag">    8.83    8.85</time>
   <time name="diis">   17.14   17.16</time>
   <time name="orth">    0.49    0.49</time>
   <time name="total">   30.39   30.44</time>
   <energy>
    <i name="e_fr_energy">   -293.12860906 </i>
    <i name="e_wo_entrp">   -293.10540202 </i>
    <i name="e_0_energy">   -293.12087338 </i>
   </energy>
  </scstep>
  <scstep>
   <time name="diag">    8.85    8.89</time>
   <time name="diis">   17.55   17.85</time>
   <time name="orth">    0.49    0.49</time>
   <time name="total">   30.84   31.19</time>
   <energy>
    <i name="e_fr_energy">   -293.12898964 </i>
    <i name="e_wo_entrp">   -293.10530834 </i>
    <i name="e_0_energy">   -293.12109587 </i>
   </energy>
  </scstep>
  <scstep>
   <time name="diag">    8.88    8.90</time>
   <time name="diis">   16.77   16.80</time>
   <time name="orth">    0.48    0.49</time>
   <time name="total">   30.08   30.13</time>
   <energy>
    <i name="e_fr_energy">   -293.12882807 </i>
    <i name="e_wo_entrp">   -293.10479046 </i>
    <i name="e_0_energy">   -293.12081553 </i>
   </energy>
  </scstep>
  <scstep>
   <time name="diag">    8.94    9.05</time>
   <time name="diis">   16.69   17.02</time>
   <time name="orth">    0.49    0.49</time>
   <time name="total">   30.09   30.55</time>
   <energy>
    <i name="e_fr_energy">   -293.12886719 </i>
    <i name="e_wo_entrp">   -293.10454067 </i>
    <i name="e_0_energy">   -293.12075835 </i>
   </energy>
  </scstep>
  <scstep>
   <time name="diag">    8.94    8.96</time>
   <time name="diis">   16.31   16.35</time>
   <time name="orth">    0.49    0.49</time>
   <time name="total">   29.70   29.76</time>
   <energy>
    <i name="e_fr_energy">   -293.12876703 </i>
    <i name="e_wo_entrp">   -293.10421285 </i>
    <i name="e_0_energy">   -293.12058230 </i>
   </energy>
  </scstep>
  <scstep>
   <time name="diag">    8.93    8.96</time>
   <time name="diis">   16.37   16.62</time>
   <time name="orth">    0.48    0.49</time>
   <time name="total">   29.76   30.06</time>
   <energy>
    <i name="e_fr_energy">   -293.12856842 </i>
    <i name="e_wo_entrp">   -293.10385485 </i>
    <i name="e_0_energy">   -293.12033056 </i>
   </energy>
  </scstep>
  <scstep>
   <time name="diag">    8.91    8.98</time>
   <time name="diis">   15.91   15.95</time>
   <time name="orth">    0.49    0.49</time>
   <time name="total">   29.27   29.37</time>
   <energy>
    <i name="e_fr_energy">   -293.12830496 </i>
    <i name="e_wo_entrp">   -293.10348614 </i>
    <i name="e_0_energy">   -293.12003202 </i>
   </energy>
  </scstep>
  <scstep>
   <time name="diag">    8.92    9.00</time>
   <time name="diis">   15.91   16.27</time>
   <time name="orth">    0.49    0.49</time>
   <time name="total">   29.30   29.75</time>
   <energy>
    <i name="e_fr_energy">   -293.12806814 </i>
    <i name="e_wo_entrp">   -293.10318510 </i>
    <i name="e_0_energy">   -293.11977379 </i>
   </energy>
  </scstep>
  <scstep>
   <time name="diag">    8.96    9.05</time>
   <time name="diis">   15.40   15.43</time>
   <time name="orth">    0.49    0.49</time>
   <time name="total">   28.83   28.97</time>
   <energy>
    <i name="e_fr_energy">   -293.12780182 </i>
    <i name="e_wo_entrp">   -293.10288223 </i>
    <i name="e_0_energy">   -293.11949529 </i>
   </energy>
  </scstep>
  <scstep>
   <time name="diag">    8.93    8.99</time>
   <time name="diis">   15.52   15.81</time>
   <time name="orth">    0.48    0.49</time>
   <time name="total">   28.91   29.26</time>
   <energy>
    <i name="e_fr_energy">   -293.12755835 </i>
    <i name="e_wo_entrp">   -293.10262416 </i>
    <i name="e_0_energy">   -293.11924695 </i>
   </energy>
  </scstep>
  <scstep>
   <time name="diag">    8.90    8.95</time>
   <time name="diis">   14.91   14.93</time>
   <time name="orth">    0.48    0.48</time>
   <time name="total">   28.26   28.34</time>
   <energy>
    <i name="e_fr_energy">   -293.12731419 </i>
    <i name="e_wo_entrp">   -293.10237880 </i>
    <i name="e_0_energy">   -293.11900239 </i>
   </energy>
  </scstep>
  <scstep>
   <time name="diag">    8.86    8.89</time>
   <time name="diis">   14.99   15.35</time>
   <time name="orth">    0.48    0.49</time>
   <time name="total">   28.28   28.67</time>
   <energy>
    <i name="e_fr_energy">   -293.12710204 </i>
    <i name="e_wo_entrp">   -293.10217564 </i>
    <i name="e_0_energy">   -293.11879324 </i>
   </energy>
  </scstep>
  <scstep>
   <time name="diag">    8.84    8.86</time>
   <time name="diis">   14.40   14.42</time>
   <time name="orth">    0.48    0.48</time>
   <time name="total">   27.68   27.75</time>
   <energy>
    <i name="e_fr_energy">   -293.12689734 </i>
    <i name="e_wo_entrp">   -293.10198433 </i>
    <i name="e_0_energy">   -293.11859300 </i>
   </energy>
  </scstep>
  <scstep>
   <time name="diag">    8.84    8.86</time>
   <time name="diis">   14.28   14.40</time>
   <time name="orth">    0.50    0.50</time>
   <time name="total">   27.98   28.41</time>
   <energy>
    <i name="e_fr_energy">   -293.12672657 </i>
    <i name="e_wo_entrp">   -293.10183081 </i>
    <i name="e_0_energy">   -293.11842799 </i>
   </energy>
  </scstep>
  <scstep>
   <time name="diag">    8.86    8.87</time>
   <time name="diis">   14.04   14.07</time>
   <time name="orth">    0.48    0.48</time>
   <time name="total">   27.33   27.37</time>
   <energy>
    <i name="e_fr_energy">   -293.12657277 </i>
    <i name="e_wo_entrp">   -293.10169508 </i>
    <i name="e_0_energy">   -293.11828020 </i>
   </energy>
  </scstep>
  <scstep>
   <time name="diag">    8.85    8.87</time>
   <time name="diis">   13.78   13.86</time>
   <time name="orth">    0.48    0.48</time>
   <time name="total">   27.12   27.25</time>
   <energy>
    <i name="e_fr_energy">   -293.12643316 </i>
    <i name="e_wo_entrp">   -293.10157275 </i>
    <i name="e_0_energy">   -293.11814635 </i>
   </energy>
  </scstep>
  <scstep>
   <time name="diag">    9.17    9.47</time>
   <time name="diis">   13.54   13.56</time>
   <time name="orth">    0.48    0.49</time>
   <time name="total">   27.17   27.51</time>
   <energy>
    <i name="e_fr_energy">   -293.12632379 </i>
    <i name="e_wo_entrp">   -293.10148102 </i>
    <i name="e_0_energy">   -293.11804287 </i>
   </energy>
  </scstep>
  <scstep>
   <time name="diag">    8.85    8.86</time>
   <time name="diis">   13.04   13.06</time>
   <time name="orth">    0.48    0.49</time>
   <time name="total">   26.32   26.65</time>
   <energy>
    <i name="e_fr_energy">   -293.12621418 </i>
    <i name="e_wo_entrp">   -293.10138592 </i>
    <i name="e_0_energy">   -293.11793809 </i>
   </energy>
  </scstep>
  <scstep>
   <time name="diag">    8.94    9.02</time>
   <time name="diis">   12.99   13.24</time>
   <time name="orth">    0.49    0.49</time>
   <time name="total">   26.37   26.71</time>
   <energy>
    <i name="e_fr_energy">   -293.12613564 </i>
    <i name="e_wo_entrp">   -293.10132200 </i>
    <i name="e_0_energy">   -293.11786442 </i>
   </energy>
  </scstep>
  <scstep>
   <time name="diag">    8.83    8.85</time>
   <time name="diis">   12.50   12.52</time>
   <time name="orth">    0.49    0.49</time>
   <time name="total">   25.80   25.84</time>
   <energy>
    <i name="e_fr_energy">   -293.12604921 </i>
    <i name="e_wo_entrp">   -293.10124608 </i>
    <i name="e_0_energy">   -293.11778150 </i>
   </energy>
  </scstep>
  <scstep>
   <time name="diag">    8.89    8.95</time>
   <time name="diis">   12.46   12.72</time>
   <time name="orth">    0.48    0.48</time>
   <time name="total">   25.79   26.11</time>
   <energy>
    <i name="e_fr_energy">   -293.12599852 </i>
    <i name="e_wo_entrp">   -293.10120643 </i>
    <i name="e_0_energy">   -293.11773449 </i>
   </energy>
  </scstep>
  <scstep>
   <time name="diag">    8.86    8.88</time>
   <time name="diis">   11.99   12.00</time>
   <time name="orth">    0.48    0.48</time>
   <time name="total">   25.30   25.34</time>
   <energy>
    <i name="e_fr_energy">   -293.12597781 </i>
    <i name="e_wo_entrp">   -293.10119927 </i>
    <i name="e_0_energy">   -293.11771830 </i>
   </energy>
  </scstep>
  <scstep>
   <time name="diag">    8.86    8.88</time>
   <time name="diis">   12.37   12.44</time>
   <time name="orth">    0.48    0.48</time>
   <time name="total">   25.80   26.01</time>
   <energy>
    <i name="e_fr_energy">   -293.12607424 </i>
    <i name="e_wo_entrp">   -293.10132480 </i>
    <i name="e_0_energy">   -293.11782443 </i>
   </energy>
  </scstep>
  <scstep>
   <time name="diag">    8.87    8.98</time>
   <time name="diis">   14.10   14.12</time>
   <time name="orth">    0.48    0.48</time>
   <time name="total">   27.42   27.60</time>
   <energy>
    <i name="e_fr_energy">   -293.12638267 </i>
    <i name="e_wo_entrp">   -293.10170821 </i>
    <i name="e_0_energy">   -293.11815785 </i>
   </energy>
  </scstep>
  <scstep>
   <time name="diag">    8.84    8.85</time>
   <time name="diis">   15.15   15.26</time>
   <time name="orth">    0.48    0.48</time>
   <time name="total">   28.47   28.61</time>
   <energy>
    <i name="e_fr_energy">   -293.12694114 </i>
    <i name="e_wo_entrp">   -293.10243197 </i>
    <i name="e_0_energy">   -293.11877141 </i>
   </energy>
  </scstep>
  <scstep>
   <time name="diag">    9.23    9.46</time>
   <time name="diis">   15.54   15.56</time>
   <time name="orth">    0.49    0.49</time>
   <time name="total">   29.23   29.48</time>
   <energy>
    <i name="e_fr_energy">   -293.12745788 </i>
    <i name="e_wo_entrp">   -293.10321984 </i>
    <i name="e_0_energy">   -293.11937854 </i>
   </energy>
  </scstep>
  <scstep>
   <time name="diag">    8.85    8.87</time>
   <time name="diis">   15.85   15.91</time>
   <time name="orth">    0.48    0.49</time>
   <time name="total">   29.19   29.30</time>
   <energy>
    <i name="e_fr_energy">   -293.12743161 </i>
    <i name="e_wo_entrp">   -293.10350587 </i>
    <i name="e_0_energy">   -293.11945636 </i>
   </energy>
  </scstep>
  <scstep>
   <time name="diag">    9.17    9.41</time>
   <time name="diis">   15.83   15.86</time>
   <time name="orth">    0.49    0.49</time>
   <time name="total">   29.44   29.73</time>
   <energy>
    <i name="e_fr_energy">   -293.12684477 </i>
    <i name="e_wo_entrp">   -293.10317938 </i>
    <i name="e_0_energy">   -293.11895630 </i>
   </energy>
  </scstep>
  <scstep>
   <time name="diag">    8.86    8.87</time>
   <time name="diis">   15.34   15.42</time>
   <time name="orth">    0.48    0.48</time>
   <time name="total">   28.65   28.74</time>
   <energy>
    <i name="e_fr_energy">   -293.12612550 </i>
    <i name="e_wo_entrp">   -293.10264166 </i>
    <i name="e_0_energy">   -293.11829756 </i>
   </energy>
  </scstep>
  <scstep>
   <time name="diag">    9.32    9.60</time>
   <time name="diis">   14.70   14.73</time>
   <time name="orth">    0.48    0.48</time>
   <time name="total">   28.49   28.82</time>
   <energy>
    <i name="e_fr_energy">   -293.12591219 </i>
    <i name="e_wo_entrp">   -293.10262432 </i>
    <i name="e_0_energy">   -293.11814957 </i>
   </energy>
  </scstep>
  <scstep>
   <time name="diag">    8.85    8.86</time>
   <time name="diis">   14.54   14.62</time>
   <time name="orth">    0.48    0.48</time>
   <time name="total">   27.83   27.93</time>
   <energy>
    <i name="e_fr_energy">   -293.12563373 </i>
    <i name="e_wo_entrp">   -293.10250766 </i>
    <i name="e_0_energy">   -293.11792504 </i>
   </energy>
  </scstep>
  <scstep>
   <time name="diag">    9.08    9.38</time>
   <time name="diis">   14.32   14.35</time>
   <time name="orth">    0.48    0.48</time>
   <time name="total">   27.85   28.19</time>
   <energy>
    <i name="e_fr_energy">   -293.12543177 </i>
    <i name="e_wo_entrp">   -293.10244790 </i>
    <i name="e_0_energy">   -293.11777048 </i>
   </energy>
  </scstep>
  <scstep>
   <time name="diag">    8.83    8.85</time>
   <time name="diis">   13.92   13.94</time>
   <time name="orth">    0.48    0.48</time>
   <time name="total">   27.22   27.28</time>
   <energy>
    <i name="e_fr_energy">   -293.12526914 </i>
    <i name="e_wo_entrp">   -293.10240895 </i>
    <i name="e_0_energy">   -293.11764907 </i>
   </energy>
  </scstep>
  <scstep>
   <time name="diag">    8.87    8.96</time>
   <time name="diis">   14.55   14.84</time>
   <time name="orth">    0.48    0.48</time>
   <time name="total">   27.89   28.26</time>
   <energy>
    <i name="e_fr_energy">   -293.12554408 </i>
    <i name="e_wo_entrp">   -293.10288918 </i>
    <i name="e_0_energy">   -293.11799244 </i>
   </energy>
  </scstep>
  <scstep>
   <time name="diag">    8.88    8.89</time>
   <time name="diis">   14.09   14.14</time>
   <time name="orth">    0.48    0.49</time>
   <time name="total">   27.43   27.52</time>
   <energy>
    <i name="e_fr_energy">   -293.12535233 </i>
    <i name="e_wo_entrp">   -293.10285250 </i>
    <i name="e_0_energy">   -293.11785239 </i>
   </energy>
  </scstep>
  <scstep>
   <time name="diag">    8.87    8.91</time>
   <time name="diis">   14.18   14.42</time>
   <time name="orth">    0.48    0.48</time>
   <time name="total">   27.51   27.79</time>
   <energy>
    <i name="e_fr_energy">   -293.12491285 </i>
    <i name="e_wo_entrp">   -293.10247422 </i>
    <i name="e_0_energy">   -293.11743330 </i>
   </energy>
  </scstep>
  <scstep>
   <time name="diag">    8.88    8.92</time>
   <time name="diis">   12.35   12.36</time>
   <time name="orth">    0.48    0.49</time>
   <time name="total">   25.71   25.77</time>
   <energy>
    <i name="e_fr_energy">   -293.12488458 </i>
    <i name="e_wo_entrp">   -293.10252523 </i>
    <i name="e_0_energy">   -293.11743146 </i>
   </energy>
  </scstep>
  <scstep>
   <time name="diag">    8.84    8.89</time>
   <time name="diis">   13.24   13.34</time>
   <time name="orth">    0.50    0.50</time>
   <time name="total">   26.67   27.02</time>
   <energy>
    <i name="e_fr_energy">   -293.12473416 </i>
    <i name="e_wo_entrp">   -293.10241889 </i>
    <i name="e_0_energy">   -293.11729574 </i>
   </energy>
  </scstep>
  <scstep>
   <time name="diag">    8.84    8.85</time>
   <time name="diis">   14.47   14.50</time>
   <time name="orth">    0.48    0.48</time>
   <time name="total">   27.76   27.82</time>
   <energy>
    <i name="e_fr_energy">   -293.12584196 </i>
    <i name="e_wo_entrp">   -293.10385659 </i>
    <i name="e_0_energy">   -293.11851350 </i>
   </energy>
  </scstep>
  <scstep>
   <time name="diag">    8.85    8.93</time>
   <time name="diis">   14.60   14.91</time>
   <time name="orth">    0.48    0.48</time>
   <time name="total">   27.94   28.36</time>
   <energy>
    <i name="e_fr_energy">   -293.12589527 </i>
    <i name="e_wo_entrp">   -293.10420478 </i>
    <i name="e_0_energy">   -293.11866511 </i>
   </energy>
  </scstep>
  <scstep>
   <time name="diag">    8.96    9.22</time>
   <time name="diis">   14.35   14.69</time>
   <time name="orth">    0.48    0.48</time>
   <time name="total">   27.75   28.40</time>
   <energy>
    <i name="e_fr_energy">   -293.12563671 </i>
    <i name="e_wo_entrp">   -293.10418203 </i>
    <i name="e_0_energy">   -293.11848515 </i>
   </energy>
  </scstep>
  <scstep>
   <time name="diag">    8.89    8.90</time>
   <time name="diis">   14.14   14.23</time>
   <time name="orth">    0.49    0.49</time>
   <time name="total">   27.52   27.64</time>
   <energy>
    <i name="e_fr_energy">   -293.12541252 </i>
    <i name="e_wo_entrp">   -293.10415009 </i>
    <i name="e_0_energy">   -293.11832505 </i>
   </energy>
  </scstep>
  <scstep>
   <time name="diag">    9.09    9.35</time>
   <time name="diis">   13.78   13.80</time>
   <time name="orth">    0.49    0.49</time>
   <time name="total">   27.36   27.64</time>
   <energy>
    <i name="e_fr_energy">   -293.12521128 </i>
    <i name="e_wo_entrp">   -293.10409778 </i>
    <i name="e_0_energy">   -293.11817345 </i>
   </energy>
  </scstep>
  <scstep>
   <time name="diag">    8.87    8.88</time>
   <time name="diis">   15.32   15.39</time>
   <time name="orth">    0.49    0.49</time>
   <time name="total">   28.68   28.77</time>
   <energy>
    <i name="e_fr_energy">   -293.12637559 </i>
    <i name="e_wo_entrp">   -293.10572966 </i>
    <i name="e_0_energy">   -293.11949361 </i>
   </energy>
  </scstep>
  <scstep>
   <time name="diag">    9.15    9.42</time>
   <time name="diis">   14.82   14.86</time>
   <time name="orth">    0.49    0.49</time>
   <time name="total">   28.43   28.74</time>
   <energy>
    <i name="e_fr_energy">   -293.12604579 </i>
    <i name="e_wo_entrp">   -293.10572116 </i>
    <i name="e_0_energy">   -293.11927091 </i>
   </energy>
  </scstep>
  <scstep>
   <time name="diag">    8.87    8.88</time>
   <time name="diis">   14.57   14.59</time>
   <time name="orth">    0.49    0.49</time>
   <time name="total">   28.09   28.22</time>
   <energy>
    <i name="e_fr_energy">   -293.12608666 </i>
    <i name="e_wo_entrp">   -293.10610222 </i>
    <i name="e_0_energy">   -293.11942518 </i>
   </energy>
  </scstep>
  <scstep>
   <time name="diag">    9.16    9.24</time>
   <time name="diis">   15.00   15.52</time>
   <time name="orth">    0.49    0.49</time>
   <time name="total">   25.19   25.79</time>
   <energy>
    <i name="alphaZ">    477.09650995 </i>
    <i name="ewald"> 394140.58422833 </i>
    <i name="hartreedc">-427845.72395863 </i>
    <i name="XCdc">   1612.95808853 </i>
    <i name="pawpsdc">  38073.19930385 </i>
    <i name="pawaedc"> -38779.02290225 </i>
    <i name="eentropy">     -0.01972022 </i>
    <i name="bandstr">  -5925.13063440 </i>
    <i name="atom">  37952.93320877 </i>
    <i name="e_fr_energy">   -293.12587606 </i>
    <i name="e_wo_entrp">   -293.10615584 </i>
    <i name="e_0_energy">   -293.11930266 </i>
   </energy>
  </scstep>
  <structure>
   <crystal>
    <varray name="basis" >
     <v>       2.87357350      -2.87357350       4.70833511 </v>
     <v>       5.74714699       0.00000000       0.00000000 </v>
     <v>       0.00000000      33.06569101      20.18052901 </v>
    </varray>
    <i name="volume">   1228.01926054 </i>
    <varray name="rec_basis" >
     <v>       0.00000000      -0.09444515       0.15474789 </v>
     <v>       0.17399938       0.04722258      -0.07737394 </v>
     <v>       0.00000000       0.02203507       0.01344836 </v>
    </varray>
   </crystal>
   <varray name="positions" >
    <v>       0.22067121       0.89240241       0.08901558 </v>
    <v>       0.66274707       0.16926234       0.21823941 </v>
    <v>       0.94927612       0.02809995       0.15233499 </v>
    <v>       0.37529131       0.31558994       0.28548595 </v>
    <v>       0.44927612       0.52809995       0.15233499 </v>
    <v>       0.89565144       0.30431569       0.28184114 </v>
    <v>       0.44927612       0.02809995       0.15233499 </v>
    <v>       0.89239734       0.80132788       0.28141883 </v>
    <v>       0.90282244       0.55132680       0.10484543 </v>
    <v>       0.35262719       0.82453133       0.23371164 </v>
    <v>       0.99158840       0.50652806       0.20062678 </v>
    <v>       0.42158339       0.79311993       0.33329129 </v>
    <v>       0.53851998       0.23347802       0.07318573 </v>
    <v>       0.01893476       0.48627997       0.35035817 </v>
    <v>       0.76966291       0.61346771       0.30922856 </v>
    <v>       0.87926422       0.06310591       0.05527763 </v>
    <v>       0.33842050       0.33081390       0.18279530 </v>
    <v>       0.58246139       0.21150732       0.12452493 </v>
    <v>       0.03198767       0.48815855       0.25341723 </v>
    <v>       0.68016638       0.70723808       0.37218045 </v>
    <v>       0.09516526       0.72856013       0.12156099 </v>
    <v>       0.54180991       0.45176438       0.25345577 </v>
    <v>       0.74094591       0.12492928       0.31169337 </v>
    <v>       0.85888103       0.57329750       0.05350623 </v>
    <v>       0.31176812       0.84767903       0.18076012 </v>
    <v>       0.56207820       0.72169891       0.12275353 </v>
    <v>       0.00315930       0.99913464       0.25283998 </v>
    <v>       0.79554747       0.32630575       0.18429946 </v>
    <v>       0.22060414       0.62082684       0.31579826 </v>
    <v>       0.34617716       0.60305419       0.05647018 </v>
    <v>       0.21709700       0.16697502       0.31525060 </v>
    <v>       0.79525538       0.88103372       0.18410115 </v>
    <v>       0.34617716       0.05624469       0.05647018 </v>
    <v>       0.53885848       0.00984999       0.25320755 </v>
    <v>       0.09516526       0.18175063       0.12156099 </v>
    <v>       0.19284073       0.35606968       0.39256265 </v>
    <v>       0.34047062       0.60391201       0.02782883 </v>
    <v>       0.92434681       0.68523651       0.03696881 </v>
    <v>       0.34363348       0.06399961       0.02783421 </v>
    <v>       0.88838126       0.05560908       0.02665597 </v>
    <v>       0.64349341       0.77922023       0.39537887 </v>
    <v>       0.75585863       0.10364468       0.33663537 </v>
    <v>       0.08231589       0.42746205       0.41211306 </v>
   </varray>
  </structure>
  <varray name="forces" >
   <v>       0.11549222      -1.76579645      -1.59624941 </v>
   <v>      -0.00878256      -0.00159089      -0.00503375 </v>
   <v>      -0.07761868       0.67587625       0.01427434 </v>
   <v>      -0.03877712       0.01039544       0.00861189 </v>
   <v>      -0.03351749       0.44698075       0.10874053 </v>
   <v>       0.04595625       0.06603598      -0.01535373 </v>
   <v>      -0.04253674       0.31346260       0.09697691 </v>
   <v>      -0.01091031       0.04939525       0.01128781 </v>
   <v>      -0.05303554      -1.33190481      -0.87605852 </v>
   <v>      -0.01019614      -0.02352093       0.00650311 </v>
   <v>      -0.00799096      -0.00540761       0.03387827 </v>
   <v>       0.06914557       0.03369187       0.09037378 </v>
   <v>       0.01783338      -0.53994475       0.24338723 </v>
   <v>       0.15646929      -0.44088755       0.14014223 </v>
   <v>      -0.01737917      -0.10542083      -0.21487269 </v>
   <v>      -0.31453766      -3.46679637      -1.89716065 </v>
   <v>       0.01796956      -0.06128510       0.03150916 </v>
   <v>      -0.06832936       0.27347193       0.37804171 </v>
   <v>       0.00105736      -0.01319438       0.02409628 </v>
   <v>       0.19921744       0.39529159      -0.10445991 </v>
   <v>       0.31335594       0.33610046       0.53097614 </v>
   <v>      -0.02330232      -0.01997963      -0.00200744 </v>
   <v>       0.01577380      -0.03505347      -0.04436466 </v>
   <v>       2.23189003      -2.05637862      -0.23843757 </v>
   <v>       0.00041139      -0.06433040       0.00344568 </v>
   <v>       0.10310049       0.28789102      -0.32661413 </v>
   <v>      -0.03821051       0.02922618      -0.01830853 </v>
   <v>      -0.04202755       0.00599082      -0.04679084 </v>
   <v>       0.00321357      -0.03197677      -0.06102552 </v>
   <v>      -0.97642319      -3.53800116      -2.10805937 </v>
   <v>      -0.07873802      -0.14684518      -0.03142639 </v>
   <v>       0.02560112       0.00341613      -0.02580529 </v>
   <v>       1.08710509      -3.58584986      -1.89601659 </v>
   <v>       0.03275952      -0.00810566       0.00462214 </v>
   <v>      -0.11593417       0.35313716       0.44462403 </v>
   <v>      -0.01841645       0.59835061       0.23191506 </v>
   <v>       0.56939399       3.76405492       2.29335070 </v>
   <v>      -2.53476788       2.70153614       0.45032282 </v>
   <v>      -0.65675465       3.88732657       2.07150288 </v>
   <v>       0.36064964       3.57325470       2.12004263 </v>
   <v>      -0.07210564      -0.12681172      -0.09680187 </v>
   <v>      -0.02750793       0.01580182       0.05657218 </v>
   <v>      -0.09859561      -0.45160604       0.20964936 </v>
  </varray>
  <energy>
   <i name="e_fr_energy">   -293.12587606 </i>
   <i name="e_wo_entrp">   -293.11930266 </i>
   <i name="e_0_energy">     -0.01972022 </i>
  </energy>
  <time name="totalsc"> 1835.93 1850.96</time>
 </calculation>
 <calculation>
  <scstep>
   <time name="dav">   49.00   49.46</time>
   <time name="total">   53.00   53.46</time>
   <energy>
    <i name="alphaZ">    477.09650995 </i>
    <i name="ewald"> 394161.24145876 </i>
    <i name="hartreedc">-427866.19440787 </i>
    <i name="XCdc">   1612.97369303 </i>
    <i name="pawpsdc">  38073.21431730 </i>
    <i name="pawaedc"> -38779.03806192 </i>
    <i name="eentropy">     -0.01968704 </i>
    <i name="bandstr">  -5925.27445313 </i>
    <i name="atom">  37952.93320877 </i>
    <i name="e_fr_energy">   -293.06742215 </i>
    <i name="e_wo_entrp">   -293.04773512 </i>
    <i name="e_0_energy">   -293.06085981 </i>
   </energy>
  </scstep>
  <scstep>
   <time name="diag">    8.85    8.89</time>
   <time name="diis">   28.47   28.84</time>
   <time name="orth">    0.48    0.48</time>
   <time name="total">   41.74   42.17</time>
   <energy>
    <i name="e_fr_energy">   -293.89262678 </i>
    <i name="e_wo_entrp">   -293.91041589 </i>
    <i name="e_0_energy">   -293.89855648 </i>
   </energy>
  </scstep>
  <scstep>
   <time name="diag">    8.86    8.89</time>
   <time name="diis">   26.30   26.33</time>
   <time name="orth">    0.49    0.51</time>
   <time name="total">   39.60   39.72</time>
   <energy>
    <i name="e_fr_energy">   -293.57811505 </i>
    <i name="e_wo_entrp">   -293.59633087 </i>
    <i name="e_0_energy">   -293.58418699 </i>
   </energy>
  </scstep>
  <scstep>
   <time name="diag">    9.05    9.20</time>
   <time name="diis">   25.98   26.14</time>
   <time name="orth">    0.48    0.48</time>
   <time name="total">   39.45   39.77</time>
   <energy>
    <i name="e_fr_energy">   -293.27421357 </i>
    <i name="e_wo_entrp">   -293.29384518 </i>
    <i name="e_0_energy">   -293.28075744 </i>
   </energy>
  </scstep>
  <scstep>
   <time name="diag">    8.87    8.89</time>
   <time name="diis">   29.76   30.13</time>
   <time name="orth">    0.48    0.48</time>
   <time name="total">   43.09   43.49</time>
   <energy>
    <i name="e_fr_energy">   -293.15584456 </i>
    <i name="e_wo_entrp">   -293.17184146 </i>
    <i name="e_0_energy">   -293.16117686 </i>
   </energy>
  </scstep>
  <scstep>
   <time name="diag">    8.85    8.86</time>
   <time name="diis">   26.92   27.02</time>
   <time name="orth">    0.48    0.48</time>
   <time name="total">   40.23   40.36</time>
   <energy>
    <i name="e_fr_energy">   -293.07384248 </i>
    <i name="e_wo_entrp">   -293.05580615 </i>
    <i name="e_0_energy">   -293.06783037 </i>
   </energy>
  </scstep>
  <scstep>
   <time name="diag">    9.14    9.43</time>
   <time name="diis">   24.73   24.78</time>
   <time name="orth">    0.48    0.49</time>
   <time name="total">   38.31   38.64</time>
   <energy>
    <i name="e_fr_energy">   -293.14416639 </i>
    <i name="e_wo_entrp">   -293.12100079 </i>
    <i name="e_0_energy">   -293.13644453 </i>
   </energy>
  </scstep>
  <scstep>
   <time name="diag">    8.86    8.89</time>
   <time name="diis">   25.46   25.77</time>
   <time name="orth">    0.48    0.49</time>
   <time name="total">   38.75   39.09</time>
   <energy>
    <i name="e_fr_energy">   -293.12522749 </i>
    <i name="e_wo_entrp">   -293.09967380 </i>
    <i name="e_0_energy">   -293.11670960 </i>
   </energy>
  </scstep>
  <scstep>
   <time name="diag">    8.86    8.88</time>
   <time name="diis">   25.27   25.37</time>
   <time name="orth">    0.48    0.52</time>
   <time name="total">   38.60   38.76</time>
   <energy>
    <i name="e_fr_energy">   -293.12813463 </i>
    <i name="e_wo_entrp">   -293.10692211 </i>
    <i name="e_0_energy">   -293.12106379 </i>
   </energy>
  </scstep>
  <scstep>
   <time name="diag">    9.07    9.20</time>
   <time name="diis">   23.27   23.48</time>
   <time name="orth">    0.49    0.49</time>
   <time name="total">   36.83   37.17</time>
   <energy>
    <i name="e_fr_energy">   -293.13964421 </i>
    <i name="e_wo_entrp">   -293.12471732 </i>
    <i name="e_0_energy">   -293.13466858 </i>
   </energy>
  </scstep>
  <scstep>
   <time name="diag">    8.92    8.94</time>
   <time name="diis">   25.33   25.66</time>
   <time name="orth">    0.48    0.48</time>
   <time name="total">   38.70   39.05</time>
   <energy>
    <i name="e_fr_energy">   -293.12879534 </i>
    <i name="e_wo_entrp">   -293.11187018 </i>
    <i name="e_0_energy">   -293.12315362 </i>
   </energy>
  </scstep>
  <scstep>
   <time name="diag">    8.85    8.89</time>
   <time name="diis">   25.52   25.58</time>
   <time name="orth">    0.48    0.48</time>
   <time name="total">   38.81   38.92</time>
   <energy>
    <i name="e_fr_energy">   -293.13150196 </i>
    <i name="e_wo_entrp">   -293.10888409 </i>
    <i name="e_0_energy">   -293.12396267 </i>
   </energy>
  </scstep>
  <scstep>
   <time name="diag">    9.04    9.25</time>
   <time name="diis">   23.31   23.69</time>
   <time name="orth">    0.49    0.49</time>
   <time name="total">   36.81   37.40</time>
   <energy>
    <i name="e_fr_energy">   -293.13813894 </i>
    <i name="e_wo_entrp">   -293.11413347 </i>
    <i name="e_0_energy">   -293.13013711 </i>
   </energy>
  </scstep>
  <scstep>
   <time name="diag">    8.84    8.85</time>
   <time name="diis">   23.62   23.77</time>
   <time name="orth">    0.48    0.48</time>
   <time name="total">   37.23   37.67</time>
   <energy>
    <i name="e_fr_energy">   -293.12891271 </i>
    <i name="e_wo_entrp">   -293.10420752 </i>
    <i name="e_0_energy">   -293.12067765 </i>
   </energy>
  </scstep>
  <scstep>
   <time name="diag">    8.84    8.85</time>
   <time name="diis">   24.76   24.82</time>
   <time name="orth">    0.48    0.48</time>
   <time name="total">   38.04   38.11</time>
   <energy>
    <i name="e_fr_energy">   -293.12517610 </i>
    <i name="e_wo_entrp">   -293.10144812 </i>
    <i name="e_0_energy">   -293.11726677 </i>
   </energy>
  </scstep>
  <scstep>
   <time name="diag">    8.91    8.95</time>
   <time name="diis">   22.74   23.08</time>
   <time name="orth">    0.49    0.49</time>
   <time name="total">   36.14   36.53</time>
   <energy>
    <i name="e_fr_energy">   -293.13110754 </i>
    <i name="e_wo_entrp">   -293.11030933 </i>
    <i name="e_0_energy">   -293.12417480 </i>
   </energy>
  </scstep>
  <scstep>
   <time name="diag">    8.93    8.94</time>
   <time name="diis">   21.86   21.97</time>
   <time name="orth">    0.49    0.49</time>
   <time name="total">   35.23   35.35</time>
   <energy>
    <i name="e_fr_energy">   -293.13431985 </i>
    <i name="e_wo_entrp">   -293.11624300 </i>
    <i name="e_0_energy">   -293.12829423 </i>
   </energy>
  </scstep>
  <scstep>
   <time name="diag">    9.15    9.52</time>
   <time name="diis">   21.99   22.05</time>
   <time name="orth">    0.49    0.49</time>
   <time name="total">   35.58   36.00</time>
   <energy>
    <i name="e_fr_energy">   -293.13328601 </i>
    <i name="e_wo_entrp">   -293.11659763 </i>
    <i name="e_0_energy">   -293.12772322 </i>
   </energy>
  </scstep>
  <scstep>
   <time name="diag">    8.84    8.87</time>
   <time name="diis">   22.68   22.81</time>
   <time name="orth">    0.51    0.57</time>
   <time name="total">   36.12   36.54</time>
   <energy>
    <i name="e_fr_energy">   -293.13154627 </i>
    <i name="e_wo_entrp">   -293.11495821 </i>
    <i name="e_0_energy">   -293.12601692 </i>
   </energy>
  </scstep>
  <scstep>
   <time name="diag">    8.86    8.87</time>
   <time name="diis">   23.16   23.21</time>
   <time name="orth">    0.48    0.48</time>
   <time name="total">   36.46   36.52</time>
   <energy>
    <i name="e_fr_energy">   -293.12993463 </i>
    <i name="e_wo_entrp">   -293.11201074 </i>
    <i name="e_0_energy">   -293.12396000 </i>
   </energy>
  </scstep>
  <scstep>
   <time name="diag">    8.90    8.96</time>
   <time name="diis">   22.65   22.94</time>
   <time name="orth">    0.48    0.49</time>
   <time name="total">   35.98   36.35</time>
   <energy>
    <i name="e_fr_energy">   -293.13013028 </i>
    <i name="e_wo_entrp">   -293.11011463 </i>
    <i name="e_0_energy">   -293.12345840 </i>
   </energy>
  </scstep>
  <scstep>
   <time name="diag">    8.83    8.84</time>
   <time name="diis">   20.02   20.05</time>
   <time name="orth">    0.49    0.49</time>
   <time name="total">   33.30   33.42</time>
   <energy>
    <i name="e_fr_energy">   -293.13190739 </i>
    <i name="e_wo_entrp">   -293.11006774 </i>
    <i name="e_0_energy">   -293.12462751 </i>
   </energy>
  </scstep>
  <scstep>
   <time name="diag">    9.08    9.15</time>
   <time name="diis">   21.10   21.31</time>
   <time name="orth">    0.49    0.49</time>
   <time name="total">   34.61   34.90</time>
   <energy>
    <i name="e_fr_energy">   -293.13296986 </i>
    <i name="e_wo_entrp">   -293.11006442 </i>
    <i name="e_0_energy">   -293.12533471 </i>
   </energy>
  </scstep>
  <scstep>
   <time name="diag">    8.86    8.87</time>
   <time name="diis">   21.17   21.37</time>
   <time name="orth">    0.49    0.49</time>
   <time name="total">   34.74   35.04</time>
   <energy>
    <i name="e_fr_energy">   -293.13260957 </i>
    <i name="e_wo_entrp">   -293.10928074 </i>
    <i name="e_0_energy">   -293.12483329 </i>
   </energy>
  </scstep>
  <scstep>
   <time name="diag">    9.01    9.10</time>
   <time name="diis">   19.66   19.70</time>
   <time name="orth">    0.48    0.49</time>
   <time name="total">   33.19   33.44</time>
   <energy>
    <i name="e_fr_energy">   -293.13205324 </i>
    <i name="e_wo_entrp">   -293.10867847 </i>
    <i name="e_0_energy">   -293.12426165 </i>
   </energy>
  </scstep>
  <scstep>
   <time name="diag">    8.87    8.89</time>
   <time name="diis">   17.44   17.81</time>
   <time name="orth">    0.50    0.52</time>
   <time name="total">   30.77   31.19</time>
   <energy>
    <i name="e_fr_energy">   -293.13174517 </i>
    <i name="e_wo_entrp">   -293.10859048 </i>
    <i name="e_0_energy">   -293.12402694 </i>
   </energy>
  </scstep>
  <scstep>
   <time name="diag">    8.88    8.90</time>
   <time name="diis">   21.88   21.91</time>
   <time name="orth">    0.49    0.49</time>
   <time name="total">   35.20   35.26</time>
   <energy>
    <i name="e_fr_energy">   -293.13168373 </i>
    <i name="e_wo_entrp">   -293.10928438 </i>
    <i name="e_0_energy">   -293.12421728 </i>
   </energy>
  </scstep>
  <scstep>
   <time name="diag">    8.86    8.94</time>
   <time name="diis">   22.08   22.42</time>
   <time name="orth">    0.49    0.49</time>
   <time name="total">   35.45   35.88</time>
   <energy>
    <i name="e_fr_energy">   -293.13263362 </i>
    <i name="e_wo_entrp">   -293.11174187 </i>
    <i name="e_0_energy">   -293.12566971 </i>
   </energy>
  </scstep>
  <scstep>
   <time name="diag">    8.92    8.93</time>
   <time name="diis">   19.01   19.04</time>
   <time name="orth">    0.49    0.49</time>
   <time name="total">   32.45   32.53</time>
   <energy>
    <i name="e_fr_energy">   -293.13348566 </i>
    <i name="e_wo_entrp">   -293.11408959 </i>
    <i name="e_0_energy">   -293.12702030 </i>
   </energy>
  </scstep>
  <scstep>
   <time name="diag">    9.00    9.04</time>
   <time name="diis">   21.68   22.05</time>
   <time name="orth">    0.49    0.49</time>
   <time name="total">   35.17   35.59</time>
   <energy>
    <i name="e_fr_energy">   -293.13282299 </i>
    <i name="e_wo_entrp">   -293.11396704 </i>
    <i name="e_0_energy">   -293.12653767 </i>
   </energy>
  </scstep>
  <scstep>
   <time name="diag">    8.92    8.93</time>
   <time name="diis">   20.55   20.66</time>
   <time name="orth">    0.54    0.57</time>
   <time name="total">   34.02   34.18</time>
   <energy>
    <i name="e_fr_energy">   -293.13207154 </i>
    <i name="e_wo_entrp">   -293.11297635 </i>
    <i name="e_0_energy">   -293.12570648 </i>
   </energy>
  </scstep>
  <scstep>
   <time name="diag">    9.03    9.26</time>
   <time name="diis">   18.47   18.52</time>
   <time name="orth">    0.48    0.49</time>
   <time name="total">   31.96   32.24</time>
   <energy>
    <i name="e_fr_energy">   -293.13180612 </i>
    <i name="e_wo_entrp">   -293.11196973 </i>
    <i name="e_0_energy">   -293.12519399 </i>
   </energy>
  </scstep>
  <scstep>
   <time name="diag">    8.87    8.92</time>
   <time name="diis">   16.25   16.47</time>
   <time name="orth">    0.48    0.49</time>
   <time name="total">   29.77   30.25</time>
   <energy>
    <i name="e_fr_energy">   -293.13208544 </i>
    <i name="e_wo_entrp">   -293.11141835 </i>
    <i name="e_0_energy">   -293.12519641 </i>
   </energy>
  </scstep>
  <scstep>
   <time name="diag">    8.88    8.89</time>
   <time name="diis">   16.68   16.71</time>
   <time name="orth">    0.48    0.49</time>
   <time name="total">   30.01   30.07</time>
   <energy>
    <i name="e_fr_energy">   -293.13247985 </i>
    <i name="e_wo_entrp">   -293.11106411 </i>
    <i name="e_0_energy">   -293.12534127 </i>
   </energy>
  </scstep>
  <scstep>
   <time name="diag">    8.88    8.89</time>
   <time name="diis">   16.92   17.02</time>
   <time name="orth">    0.49    0.49</time>
   <time name="total">   30.57   30.88</time>
   <energy>
    <i name="e_fr_energy">   -293.13274434 </i>
    <i name="e_wo_entrp">   -293.11087339 </i>
    <i name="e_0_energy">   -293.12545402 </i>
   </energy>
  </scstep>
  <scstep>
   <time name="diag">    8.88    8.88</time>
   <time name="diis">   17.09   17.12</time>
   <time name="orth">    0.48    0.49</time>
   <time name="total">   26.99   27.03</time>
   <energy>
    <i name="alphaZ">    477.09650995 </i>
    <i name="ewald"> 394161.24145876 </i>
    <i name="hartreedc">-427865.74275066 </i>
    <i name="XCdc">   1612.96374214 </i>
    <i name="pawpsdc">  38077.00208243 </i>
    <i name="pawaedc"> -38782.79524056 </i>
    <i name="eentropy">     -0.02197562 </i>
    <i name="bandstr">  -5925.80978058 </i>
    <i name="atom">  37952.93320877 </i>
    <i name="e_fr_energy">   -293.13274538 </i>
    <i name="e_wo_entrp">   -293.11076975 </i>
    <i name="e_0_energy">   -293.12542017 </i>
   </energy>
  </scstep>
  <structure>
   <crystal>
    <varray name="basis" >
     <v>       2.87357350      -2.87357350       4.70833511 </v>
     <v>       5.74714699       0.00000000       0.00000000 </v>
     <v>       0.00000000      33.06569101      20.18052901 </v>
    </varray>
    <i name="volume">   1228.01926054 </i>
    <varray name="rec_basis" >
     <v>       0.00000000      -0.09444515       0.15474789 </v>
     <v>       0.17399938       0.04722258      -0.07737394 </v>
     <v>       0.00000000       0.02203507       0.01344836 </v>
    </varray>
   </crystal>
   <varray name="positions" >
    <v>       0.22067121       0.89240241       0.08901558 </v>
    <v>       0.66287798       0.16876386       0.21827610 </v>
    <v>       0.94927612       0.02809995       0.15233499 </v>
    <v>       0.37538268       0.31556108       0.28544698 </v>
    <v>       0.44927612       0.52809995       0.15233499 </v>
    <v>       0.89572522       0.30478082       0.28174022 </v>
    <v>       0.44927612       0.02809995       0.15233499 </v>
    <v>       0.89293762       0.80083333       0.28127250 </v>
    <v>       0.90282244       0.55132680       0.10484543 </v>
    <v>       0.35253080       0.82404880       0.23372663 </v>
    <v>       0.99189094       0.50585964       0.20060504 </v>
    <v>       0.42122813       0.79360331       0.33354747 </v>
    <v>       0.53851998       0.23347802       0.07318573 </v>
    <v>       0.01934484       0.48603106       0.35023840 </v>
    <v>       0.76932529       0.61371446       0.30932146 </v>
    <v>       0.87926422       0.06310591       0.05527763 </v>
    <v>       0.33887409       0.33083671       0.18276606 </v>
    <v>       0.58246139       0.21150732       0.12452493 </v>
    <v>       0.03130383       0.48837555       0.25350401 </v>
    <v>       0.67993221       0.70956953       0.37235353 </v>
    <v>       0.09516526       0.72856013       0.12156099 </v>
    <v>       0.54181788       0.45113639       0.25336477 </v>
    <v>       0.74161100       0.12508713       0.31160139 </v>
    <v>       0.85888103       0.57329750       0.05350623 </v>
    <v>       0.31235307       0.84709402       0.18075334 </v>
    <v>       0.56207820       0.72169891       0.12275353 </v>
    <v>       0.00296632       0.99921641       0.25288720 </v>
    <v>       0.79526643       0.32618654       0.18430317 </v>
    <v>       0.22062602       0.62069294       0.31577997 </v>
    <v>       0.34617716       0.60305419       0.05647018 </v>
    <v>       0.21692104       0.16764733       0.31527510 </v>
    <v>       0.79536105       0.88074347       0.18406979 </v>
    <v>       0.34617716       0.05624469       0.05647018 </v>
    <v>       0.53917245       0.00969848       0.25317197 </v>
    <v>       0.09516526       0.18175063       0.12156099 </v>
    <v>       0.19465301       0.35518634       0.39230233 </v>
    <v>       0.34047062       0.60391201       0.02782883 </v>
    <v>       0.92434681       0.68523651       0.03696881 </v>
    <v>       0.34363348       0.06399961       0.02783421 </v>
    <v>       0.88838126       0.05560908       0.02665597 </v>
    <v>       0.64349424       0.77885611       0.39558184 </v>
    <v>       0.75659709       0.10264807       0.33664765 </v>
    <v>       0.08501921       0.42493601       0.41193587 </v>
   </varray>
  </structure>
  <varray name="forces" >
   <v>       0.11231653      -1.75427083      -1.61678619 </v>
   <v>      -0.00586860      -0.05538226      -0.03006636 </v>
   <v>      -0.09463753       0.64703242       0.01025241 </v>
   <v>      -0.02039201       0.01840548       0.05346661 </v>
   <v>      -0.02304928       0.41821575       0.10757591 </v>
   <v>      -0.05355950       0.16186890      -0.02038504 </v>
   <v>      -0.06880966       0.28051973       0.09553560 </v>
   <v>       0.07258067       0.23038649      -0.00601458 </v>
   <v>      -0.02190223      -1.33218665      -0.85322462 </v>
   <v>       0.00562156      -0.02902739       0.01058572 </v>
   <v>       0.00091563      -0.00523927       0.02302126 </v>
   <v>       0.02940072       0.04059383       0.06813259 </v>
   <v>       0.00468292      -0.50847931       0.26367932 </v>
   <v>       0.02960326       0.05713333      -0.07567551 </v>
   <v>       0.03202266      -0.08195683       0.06543407 </v>
   <v>      -0.31215366      -3.61603074      -1.95822881 </v>
   <v>      -0.01021361      -0.01702271       0.01371494 </v>
   <v>      -0.07380196       0.27709022       0.38008707 </v>
   <v>      -0.01536342      -0.14315707       0.01042393 </v>
   <v>       0.02203149      -0.19104124       0.00530100 </v>
   <v>       0.35852335       0.37317324       0.55174377 </v>
   <v>       0.01080158       0.00619410      -0.00383635 </v>
   <v>      -0.03067273       0.10814214       0.06276483 </v>
   <v>       2.67533348      -2.52582207      -0.25175988 </v>
   <v>       0.02405939      -0.02887309      -0.00877006 </v>
   <v>       0.11518251       0.34574876      -0.34364915 </v>
   <v>      -0.02436821      -0.06531935      -0.01289018 </v>
   <v>      -0.03844849       0.00643620      -0.02100251 </v>
   <v>       0.00609143      -0.02575421      -0.02183560 </v>
   <v>      -0.94676567      -3.57978451      -2.15413396 </v>
   <v>       0.00316804      -0.01571866      -0.00240775 </v>
   <v>       0.01511797       0.01462910      -0.00860687 </v>
   <v>       1.04867574      -3.63980176      -1.92951652 </v>
   <v>      -0.01805217       0.01595786      -0.02091986 </v>
   <v>      -0.15862991       0.34440895       0.45776555 </v>
   <v>      -0.02057454      -0.08954125       0.03184053 </v>
   <v>       0.56498400       3.80109346       2.31504796 </v>
   <v>      -2.88166872       3.07068137       0.46187203 </v>
   <v>      -0.65601601       3.94218417       2.09617205 </v>
   <v>       0.36425218       3.67802687       2.17396016 </v>
   <v>       0.03046534       0.12442656       0.07191062 </v>
   <v>      -0.00657071      -0.15166760      -0.06913964 </v>
   <v>      -0.04431180      -0.10627216       0.07856154 </v>
  </varray>
  <energy>
   <i name="e_fr_energy">   -293.13274538 </i>
   <i name="e_wo_entrp">   -293.12542017 </i>
   <i name="e_0_energy">     -0.02197562 </i>
  </energy>
  <time name="totalsc"> 1324.18 1334.39</time>
 </calculation>
 <calculation>
  <scstep>
   <time name="dav">   46.90   47.28</time>
   <time name="total">   50.88   51.29</time>
   <energy>
    <i name="alphaZ">    477.09650995 </i>
    <i name="ewald"> 394158.25422786 </i>
    <i name="hartreedc">-427862.70736425 </i>
    <i name="XCdc">   1612.97244267 </i>
    <i name="pawpsdc">  38077.03072453 </i>
    <i name="pawaedc"> -38782.82298332 </i>
    <i name="eentropy">     -0.02131411 </i>
    <i name="bandstr">  -5925.85168185 </i>
    <i name="atom">  37952.93320877 </i>
    <i name="e_fr_energy">   -293.11622974 </i>
    <i name="e_wo_entrp">   -293.09491564 </i>
    <i name="e_0_energy">   -293.10912504 </i>
   </energy>
  </scstep>
  <scstep>
   <time name="diag">    8.98    9.04</time>
   <time name="diis">   29.73   30.10</time>
   <time name="orth">    0.49    0.49</time>
   <time name="total">   43.14   43.59</time>
   <energy>
    <i name="e_fr_energy">   -293.13620469 </i>
    <i name="e_wo_entrp">   -293.11458102 </i>
    <i name="e_0_energy">   -293.12899680 </i>
   </energy>
  </scstep>
  <scstep>
   <time name="diag">    8.84    8.85</time>
   <time name="diis">   25.91   26.05</time>
   <time name="orth">    0.54    0.65</time>
   <time name="total">   39.32   39.71</time>
   <energy>
    <i name="e_fr_energy">   -293.13776126 </i>
    <i name="e_wo_entrp">   -293.11820353 </i>
    <i name="e_0_energy">   -293.13124201 </i>
   </energy>
  </scstep>
  <scstep>
   <time name="diag">    8.85    8.85</time>
   <time name="diis">   26.25   26.37</time>
   <time name="orth">    0.48    0.51</time>
   <time name="total">   39.53   39.70</time>
   <energy>
    <i name="e_fr_energy">   -293.13653820 </i>
    <i name="e_wo_entrp">   -293.11682785 </i>
    <i name="e_0_energy">   -293.12996808 </i>
   </energy>
  </scstep>
  <scstep>
   <time name="diag">    8.86    8.91</time>
   <time name="diis">   24.51   24.89</time>
   <time name="orth">    0.48    0.49</time>
   <time name="total">   37.82   38.25</time>
   <energy>
    <i name="e_fr_energy">   -293.13641692 </i>
    <i name="e_wo_entrp">   -293.11476904 </i>
    <i name="e_0_energy">   -293.12920096 </i>
   </energy>
  </scstep>
  <scstep>
   <time name="diag">    8.86    8.87</time>
   <time name="diis">   22.34   22.53</time>
   <time name="orth">    0.49    0.49</time>
   <time name="total">   35.71   35.94</time>
   <energy>
    <i name="e_fr_energy">   -293.13682036 </i>
    <i name="e_wo_entrp">   -293.11458765 </i>
    <i name="e_0_energy">   -293.12940946 </i>
   </energy>
  </scstep>
  <scstep>
   <time name="diag">    9.06    9.34</time>
   <time name="diis">   24.64   24.67</time>
   <time name="orth">    0.48    0.49</time>
   <time name="total">   38.17   38.49</time>
   <energy>
    <i name="e_fr_energy">   -293.13668849 </i>
    <i name="e_wo_entrp">   -293.11639978 </i>
    <i name="e_0_energy">   -293.12992559 </i>
   </energy>
  </scstep>
  <scstep>
   <time name="diag">    8.91    8.94</time>
   <time name="diis">   23.08   23.37</time>
   <time name="orth">    0.49    0.49</time>
   <time name="total">   36.47   36.80</time>
   <energy>
    <i name="e_fr_energy">   -293.13814319 </i>
    <i name="e_wo_entrp">   -293.12013392 </i>
    <i name="e_0_energy">   -293.13214010 </i>
   </energy>
  </scstep>
  <scstep>
   <time name="diag">    8.95    8.98</time>
   <time name="diis">   22.66   22.70</time>
   <time name="orth">    0.49    0.49</time>
   <time name="total">   36.17   36.26</time>
   <energy>
    <i name="e_fr_energy">   -293.13655878 </i>
    <i name="e_wo_entrp">   -293.11910357 </i>
    <i name="e_0_energy">   -293.13074038 </i>
   </energy>
  </scstep>
  <scstep>
   <time name="diag">    9.17    9.29</time>
   <time name="diis">   21.38   21.47</time>
   <time name="orth">    0.49    0.49</time>
   <time name="total">   35.02   35.24</time>
   <energy>
    <i name="e_fr_energy">   -293.13559478 </i>
    <i name="e_wo_entrp">   -293.11785706 </i>
    <i name="e_0_energy">   -293.12968221 </i>
   </energy>
  </scstep>
  <scstep>
   <time name="diag">    8.93    8.95</time>
   <time name="diis">   21.04   21.16</time>
   <time name="orth">    0.50    0.50</time>
   <time name="total">   34.50   34.75</time>
   <energy>
    <i name="e_fr_energy">   -293.13509835 </i>
    <i name="e_wo_entrp">   -293.11642729 </i>
    <i name="e_0_energy">   -293.12887466 </i>
   </energy>
  </scstep>
  <scstep>
   <time name="diag">    8.95    9.10</time>
   <time name="diis">   22.14   22.20</time>
   <time name="orth">    0.48    0.49</time>
   <time name="total">   35.53   35.81</time>
   <energy>
    <i name="e_fr_energy">   -293.13525448 </i>
    <i name="e_wo_entrp">   -293.11493351 </i>
    <i name="e_0_energy">   -293.12848083 </i>
   </energy>
  </scstep>
  <scstep>
   <time name="diag">    8.85    8.86</time>
   <time name="diis">   19.22   19.49</time>
   <time name="orth">    0.48    0.49</time>
   <time name="total">   32.52   32.81</time>
   <energy>
    <i name="e_fr_energy">   -293.13650635 </i>
    <i name="e_wo_entrp">   -293.11485180 </i>
    <i name="e_0_energy">   -293.12928817 </i>
   </energy>
  </scstep>
  <scstep>
   <time name="diag">    8.94    8.97</time>
   <time name="diis">   19.21   19.25</time>
   <time name="orth">    0.48    0.48</time>
   <time name="total">   32.61   32.68</time>
   <energy>
    <i name="e_fr_energy">   -293.13702667 </i>
    <i name="e_wo_entrp">   -293.11456502 </i>
    <i name="e_0_energy">   -293.12953945 </i>
   </energy>
  </scstep>
  <scstep>
   <time name="diag">    8.90    8.97</time>
   <time name="diis">   18.10   18.37</time>
   <time name="orth">    0.49    0.49</time>
   <time name="total">   31.45   31.80</time>
   <energy>
    <i name="e_fr_energy">   -293.13699744 </i>
    <i name="e_wo_entrp">   -293.11402204 </i>
    <i name="e_0_energy">   -293.12933897 </i>
   </energy>
  </scstep>
  <scstep>
   <time name="diag">    8.90    8.92</time>
   <time name="diis">   16.87   16.91</time>
   <time name="orth">    0.48    0.48</time>
   <time name="total">   30.22   30.29</time>
   <energy>
    <i name="e_fr_energy">   -293.13694048 </i>
    <i name="e_wo_entrp">   -293.11358207 </i>
    <i name="e_0_energy">   -293.12915435 </i>
   </energy>
  </scstep>
  <scstep>
   <time name="diag">    8.92    8.97</time>
   <time name="diis">   17.01   17.23</time>
   <time name="orth">    0.48    0.49</time>
   <time name="total">   30.39   30.68</time>
   <energy>
    <i name="e_fr_energy">   -293.13670663 </i>
    <i name="e_wo_entrp">   -293.11308213 </i>
    <i name="e_0_energy">   -293.12883180 </i>
   </energy>
  </scstep>
  <scstep>
   <time name="diag">    8.91    8.94</time>
   <time name="diis">   15.74   15.77</time>
   <time name="orth">    0.49    0.49</time>
   <time name="total">   29.13   29.19</time>
   <energy>
    <i name="e_fr_energy">   -293.13661014 </i>
    <i name="e_wo_entrp">   -293.11278378 </i>
    <i name="e_0_energy">   -293.12866802 </i>
   </energy>
  </scstep>
  <scstep>
   <time name="diag">    8.93    9.00</time>
   <time name="diis">   16.18   16.46</time>
   <time name="orth">    0.48    0.48</time>
   <time name="total">   29.55   29.91</time>
   <energy>
    <i name="e_fr_energy">   -293.13635117 </i>
    <i name="e_wo_entrp">   -293.11237851 </i>
    <i name="e_0_energy">   -293.12836029 </i>
   </energy>
  </scstep>
  <scstep>
   <time name="diag">    8.87    8.89</time>
   <time name="diis">   15.23   15.26</time>
   <time name="orth">    0.49    0.49</time>
   <time name="total">   28.56   28.61</time>
   <energy>
    <i name="e_fr_energy">   -293.13616710 </i>
    <i name="e_wo_entrp">   -293.11209089 </i>
    <i name="e_0_energy">   -293.12814170 </i>
   </energy>
  </scstep>
  <scstep>
   <time name="diag">    8.90    8.94</time>
   <time name="diis">   15.32   15.60</time>
   <time name="orth">    0.49    0.49</time>
   <time name="total">   28.67   29.00</time>
   <energy>
    <i name="e_fr_energy">   -293.13594544 </i>
    <i name="e_wo_entrp">   -293.11179278 </i>
    <i name="e_0_energy">   -293.12789456 </i>
   </energy>
  </scstep>
  <scstep>
   <time name="diag">    8.87    8.89</time>
   <time name="diis">   14.68   14.76</time>
   <time name="orth">    0.49    0.50</time>
   <time name="total">   27.99   28.10</time>
   <energy>
    <i name="e_fr_energy">   -293.13576349 </i>
    <i name="e_wo_entrp">   -293.11155675 </i>
    <i name="e_0_energy">   -293.12769458 </i>
   </energy>
  </scstep>
  <scstep>
   <time name="diag">    8.91    9.00</time>
   <time name="diis">   14.98   15.21</time>
   <time name="orth">    0.48    0.48</time>
   <time name="total">   28.32   28.66</time>
   <energy>
    <i name="e_fr_energy">   -293.13559895 </i>
    <i name="e_wo_entrp">   -293.11135238 </i>
    <i name="e_0_energy">   -293.12751676 </i>
   </energy>
  </scstep>
  <scstep>
   <time name="diag">    8.86    8.89</time>
   <time name="diis">   14.27   14.29</time>
   <time name="orth">    0.48    0.48</time>
   <time name="total">   27.56   27.61</time>
   <energy>
    <i name="e_fr_energy">   -293.13545474 </i>
    <i name="e_wo_entrp">   -293.11117907 </i>
    <i name="e_0_energy">   -293.12736285 </i>
   </energy>
  </scstep>
  <scstep>
   <time name="diag">    8.83    8.86</time>
   <time name="diis">   14.18   14.26</time>
   <time name="orth">    0.49    0.49</time>
   <time name="total">   27.66   28.00</time>
   <energy>
    <i name="e_fr_energy">   -293.13531681 </i>
    <i name="e_wo_entrp">   -293.11101921 </i>
    <i name="e_0_energy">   -293.12721761 </i>
   </energy>
  </scstep>
  <scstep>
   <time name="diag">    8.85    8.86</time>
   <time name="diis">   13.60   13.63</time>
   <time name="orth">    0.48    0.48</time>
   <time name="total">   26.87   26.91</time>
   <energy>
    <i name="e_fr_energy">   -293.13522923 </i>
    <i name="e_wo_entrp">   -293.11091682 </i>
    <i name="e_0_energy">   -293.12712509 </i>
   </energy>
  </scstep>
  <scstep>
   <time name="diag">    8.87    8.88</time>
   <time name="diis">   13.60   13.66</time>
   <time name="orth">    0.48    0.49</time>
   <time name="total">   26.97   27.10</time>
   <energy>
    <i name="e_fr_energy">   -293.13510121 </i>
    <i name="e_wo_entrp">   -293.11077525 </i>
    <i name="e_0_energy">   -293.12699256 </i>
   </energy>
  </scstep>
  <scstep>
   <time name="diag">    9.06    9.33</time>
   <time name="diis">   12.54   12.57</time>
   <time name="orth">    0.49    0.49</time>
   <time name="total">   26.08   26.39</time>
   <energy>
    <i name="e_fr_energy">   -293.13507078 </i>
    <i name="e_wo_entrp">   -293.11073860 </i>
    <i name="e_0_energy">   -293.12696006 </i>
   </energy>
  </scstep>
  <scstep>
   <time name="diag">    8.86    8.87</time>
   <time name="diis">   13.57   13.60</time>
   <time name="orth">    0.48    0.48</time>
   <time name="total">   26.91   26.98</time>
   <energy>
    <i name="e_fr_energy">   -293.13483720 </i>
    <i name="e_wo_entrp">   -293.11049050 </i>
    <i name="e_0_energy">   -293.12672163 </i>
   </energy>
  </scstep>
  <scstep>
   <time name="diag">    9.02    9.10</time>
   <time name="diis">   11.42   11.75</time>
   <time name="orth">    0.49    0.49</time>
   <time name="total">   24.90   25.34</time>
   <energy>
    <i name="e_fr_energy">   -293.13476083 </i>
    <i name="e_wo_entrp">   -293.11041436 </i>
    <i name="e_0_energy">   -293.12664534 </i>
   </energy>
  </scstep>
  <scstep>
   <time name="diag">    8.86    8.87</time>
   <time name="diis">   11.48   11.50</time>
   <time name="orth">    0.48    0.49</time>
   <time name="total">   21.37   21.39</time>
   <energy>
    <i name="alphaZ">    477.09650995 </i>
    <i name="ewald"> 394158.25422786 </i>
    <i name="hartreedc">-427863.82242960 </i>
    <i name="XCdc">   1612.96641230 </i>
    <i name="pawpsdc">  38077.93588666 </i>
    <i name="pawaedc"> -38783.76115705 </i>
    <i name="eentropy">     -0.02434121 </i>
    <i name="bandstr">  -5924.71308837 </i>
    <i name="atom">  37952.93320877 </i>
    <i name="e_fr_energy">   -293.13477069 </i>
    <i name="e_wo_entrp">   -293.11042947 </i>
    <i name="e_0_energy">   -293.12665695 </i>
   </energy>
  </scstep>
  <structure>
   <crystal>
    <varray name="basis" >
     <v>       2.87357350      -2.87357350       4.70833511 </v>
     <v>       5.74714699       0.00000000       0.00000000 </v>
     <v>       0.00000000      33.06569101      20.18052901 </v>
    </varray>
    <i name="volume">   1228.01926054 </i>
    <varray name="rec_basis" >
     <v>       0.00000000      -0.09444515       0.15474789 </v>
     <v>       0.17399938       0.04722258      -0.07737394 </v>
     <v>       0.00000000       0.02203507       0.01344836 </v>
    </varray>
   </crystal>
   <varray name="positions" >
    <v>       0.22067121       0.89240241       0.08901558 </v>
    <v>       0.66296502       0.16844620       0.21827287 </v>
    <v>       0.94927612       0.02809995       0.15233499 </v>
    <v>       0.37553820       0.31543852       0.28544111 </v>
    <v>       0.44927612       0.52809995       0.15233499 </v>
    <v>       0.89548424       0.30505681       0.28173089 </v>
    <v>       0.44927612       0.02809995       0.15233499 </v>
    <v>       0.89290933       0.80090874       0.28126240 </v>
    <v>       0.90282244       0.55132680       0.10484543 </v>
    <v>       0.35254098       0.82374219       0.23372788 </v>
    <v>       0.99213414       0.50543195       0.20059507 </v>
    <v>       0.42111985       0.79391892       0.33372829 </v>
    <v>       0.53851998       0.23347802       0.07318573 </v>
    <v>       0.01932514       0.48609434       0.35017066 </v>
    <v>       0.76939996       0.61380973       0.30936257 </v>
    <v>       0.87926422       0.06310591       0.05527763 </v>
    <v>       0.33920236       0.33079403       0.18274567 </v>
    <v>       0.58246139       0.21150732       0.12452493 </v>
    <v>       0.03112970       0.48834678       0.25350920 </v>
    <v>       0.68008400       0.71087406       0.37239285 </v>
    <v>       0.09516526       0.72856013       0.12156099 </v>
    <v>       0.54180443       0.45079985       0.25331178 </v>
    <v>       0.74200009       0.12510270       0.31159638 </v>
    <v>       0.85888103       0.57329750       0.05350623 </v>
    <v>       0.31272325       0.84679909       0.18073764 </v>
    <v>       0.56207820       0.72169891       0.12275353 </v>
    <v>       0.00291569       0.99916741       0.25289046 </v>
    <v>       0.79503912       0.32604183       0.18430321 </v>
    <v>       0.22062444       0.62063674       0.31575575 </v>
    <v>       0.34617716       0.60305419       0.05647018 </v>
    <v>       0.21683323       0.16804839       0.31528386 </v>
    <v>       0.79538216       0.88063192       0.18405428 </v>
    <v>       0.34617716       0.05624469       0.05647018 </v>
    <v>       0.53928646       0.00959620       0.25315182 </v>
    <v>       0.09516526       0.18175063       0.12156099 </v>
    <v>       0.19594113       0.35450057       0.39212314 </v>
    <v>       0.34047062       0.60391201       0.02782883 </v>
    <v>       0.92434681       0.68523651       0.03696881 </v>
    <v>       0.34363348       0.06399961       0.02783421 </v>
    <v>       0.88838126       0.05560908       0.02665597 </v>
    <v>       0.64348509       0.77872560       0.39576025 </v>
    <v>       0.75709372       0.10200777       0.33658897 </v>
    <v>       0.08697511       0.42313823       0.41181029 </v>
   </varray>
  </structure>
  <varray name="forces" >
   <v>       0.11203028      -1.76041403      -1.60768780 </v>
   <v>      -0.00270270      -0.07118915      -0.03588496 </v>
   <v>      -0.10106011       0.65202606       0.00687764 </v>
   <v>      -0.02976181       0.03020422       0.04644066 </v>
   <v>      -0.02645113       0.39546770       0.11149049 </v>
   <v>      -0.04018431       0.17559623      -0.00244810 </v>
   <v>      -0.06158984       0.26832073       0.10138312 </v>
   <v>       0.05142576       0.24820394       0.00626137 </v>
   <v>      -0.03617022      -1.32935187      -0.86043143 </v>
   <v>       0.01574208      -0.03041075       0.01180955 </v>
   <v>       0.00670189      -0.00763374       0.01092213 </v>
   <v>       0.03614775       0.01375059       0.03813126 </v>
   <v>       0.01161789      -0.51753967       0.25479017 </v>
   <v>       0.09073591      -0.08554101       0.00835520 </v>
   <v>       0.02081432      -0.11329917      -0.07436090 </v>
   <v>      -0.31456243      -3.56057935      -1.93489203 </v>
   <v>      -0.02040063       0.00881767       0.00203156 </v>
   <v>      -0.07279730       0.27368308       0.37823022 </v>
   <v>      -0.01590321      -0.15265625       0.01023277 </v>
   <v>       0.08779201       0.05198236      -0.00385106 </v>
   <v>       0.34620649       0.36264654       0.54620013 </v>
   <v>       0.02566707       0.01698520       0.00301015 </v>
   <v>      -0.02983032       0.05004856       0.00964806 </v>
   <v>       2.49900620      -2.34044771      -0.25455196 </v>
   <v>       0.03387154      -0.00401296      -0.01498478 </v>
   <v>       0.11108609       0.32128694      -0.33832739 </v>
   <v>      -0.00942223      -0.07224902      -0.01050251 </v>
   <v>      -0.02022345      -0.00089364      -0.00258748 </v>
   <v>       0.05582201      -0.04077702      -0.00932489 </v>
   <v>      -0.95611620      -3.56559609      -2.13826296 </v>
   <v>      -0.07638942      -0.09205334       0.00715878 </v>
   <v>       0.00293863       0.01280898       0.00560526 </v>
   <v>       1.06106135      -3.61926111      -1.91678786 </v>
   <v>      -0.03246051       0.02626329      -0.02322604 </v>
   <v>      -0.13939596       0.35450387       0.45598587 </v>
   <v>      -0.03583502       0.10418516       0.12063143 </v>
   <v>       0.56655365       3.78875435       2.30815482 </v>
   <v>      -2.74500405       2.92157647       0.46005501 </v>
   <v>      -0.65631884       3.92103693       2.08678016 </v>
   <v>       0.36291369       3.63673142       2.15255390 </v>
   <v>      -0.01649763      -0.02937256      -0.00796423 </v>
   <v>      -0.00807040      -0.08575372      -0.02288375 </v>
   <v>      -0.05098689      -0.15584812       0.11622042 </v>
  </varray>
  <energy>
   <i name="e_fr_energy">   -293.13477069 </i>
   <i name="e_wo_entrp">   -293.12665695 </i>
   <i name="e_0_energy">     -0.02434121 </i>
  </energy>
  <time name="totalsc"> 1021.40 1028.98</time>
 </calculation>
 <calculation>
  <scstep>
   <time name="dav">   46.74   47.10</time>
   <time name="total">   50.77   51.17</time>
   <energy>
    <i name="alphaZ">    477.09650995 </i>
    <i name="ewald"> 394155.06487364 </i>
    <i name="hartreedc">-427860.56768075 </i>
    <i name="XCdc">   1612.97485995 </i>
    <i name="pawpsdc">  38077.94145655 </i>
    <i name="pawaedc"> -38783.76619892 </i>
    <i name="eentropy">     -0.02406996 </i>
    <i name="bandstr">  -5924.76659293 </i>
    <i name="atom">  37952.93320877 </i>
    <i name="e_fr_energy">   -293.11363370 </i>
    <i name="e_wo_entrp">   -293.08956374 </i>
    <i name="e_0_energy">   -293.10561038 </i>
   </energy>
  </scstep>
  <scstep>
   <time name="diag">    9.06    9.12</time>
   <time name="diis">   29.17   29.41</time>
   <time name="orth">    0.49    0.49</time>
   <time name="total">   42.71   43.02</time>
   <energy>
    <i name="e_fr_energy">   -293.34473671 </i>
    <i name="e_wo_entrp">   -293.35874490 </i>
    <i name="e_0_energy">   -293.34940611 </i>
   </energy>
  </scstep>
  <scstep>
   <time name="diag">    8.93    8.95</time>
   <time name="diis">   26.02   26.37</time>
   <time name="orth">    0.48    0.49</time>
   <time name="total">   39.39   39.78</time>
   <energy>
    <i name="e_fr_energy">   -293.20044732 </i>
    <i name="e_wo_entrp">   -293.21736075 </i>
    <i name="e_0_energy">   -293.20608513 </i>
   </energy>
  </scstep>
  <scstep>
   <time name="diag">    8.89    8.92</time>
   <time name="diis">   26.48   26.60</time>
   <time name="orth">    0.48    0.48</time>
   <time name="total">   39.82   39.97</time>
   <energy>
    <i name="e_fr_energy">   -293.11593661 </i>
    <i name="e_wo_entrp">   -293.11920280 </i>
    <i name="e_0_energy">   -293.11702534 </i>
   </energy>
  </scstep>
  <scstep>
   <time name="diag">    9.20    9.49</time>
   <time name="diis">   27.20   27.23</time>
   <time name="orth">    0.48    0.48</time>
   <time name="total">   40.87   41.20</time>
   <energy>
    <i name="e_fr_energy">   -293.10185634 </i>
    <i name="e_wo_entrp">   -293.08352714 </i>
    <i name="e_0_energy">   -293.09574661 </i>
   </energy>
  </scstep>
  <scstep>
   <time name="diag">    8.89    8.91</time>
   <time name="diis">   23.96   24.30</time>
   <time name="orth">    0.48    0.48</time>
   <time name="total">   37.30   37.66</time>
   <energy>
    <i name="e_fr_energy">   -293.15075223 </i>
    <i name="e_wo_entrp">   -293.12813657 </i>
    <i name="e_0_energy">   -293.14321368 </i>
   </energy>
  </scstep>
  <scstep>
   <time name="diag">    8.88    8.90</time>
   <time name="diis">   23.09   23.13</time>
   <time name="orth">    0.49    0.49</time>
   <time name="total">   36.44   36.54</time>
   <energy>
    <i name="e_fr_energy">   -293.15715077 </i>
    <i name="e_wo_entrp">   -293.13633105 </i>
    <i name="e_0_energy">   -293.15021086 </i>
   </energy>
  </scstep>
  <scstep>
   <time name="diag">    8.95    9.01</time>
   <time name="diis">   23.64   23.86</time>
   <time name="orth">    0.49    0.49</time>
   <time name="total">   37.03   37.31</time>
   <energy>
    <i name="e_fr_energy">   -293.16295398 </i>
    <i name="e_wo_entrp">   -293.14891230 </i>
    <i name="e_0_energy">   -293.15827342 </i>
   </energy>
  </scstep>
  <scstep>
   <time name="diag">    8.86    8.87</time>
   <time name="diis">   22.61   22.73</time>
   <time name="orth">    0.50    0.50</time>
   <time name="total">   36.16   36.53</time>
   <energy>
    <i name="e_fr_energy">   -293.17173501 </i>
    <i name="e_wo_entrp">   -293.16606164 </i>
    <i name="e_0_energy">   -293.16984389 </i>
   </energy>
  </scstep>
  <scstep>
   <time name="diag">    8.89    8.90</time>
   <time name="diis">   24.40   24.45</time>
   <time name="orth">    0.48    0.48</time>
   <time name="total">   37.71   37.78</time>
   <energy>
    <i name="e_fr_energy">   -293.13972650 </i>
    <i name="e_wo_entrp">   -293.13063398 </i>
    <i name="e_0_energy">   -293.13669566 </i>
   </energy>
  </scstep>
  <scstep>
   <time name="diag">    8.89    8.95</time>
   <time name="diis">   24.47   24.66</time>
   <time name="orth">    0.49    0.49</time>
   <time name="total">   37.81   38.07</time>
   <energy>
    <i name="e_fr_energy">   -293.12141871 </i>
    <i name="e_wo_entrp">   -293.10626370 </i>
    <i name="e_0_energy">   -293.11636704 </i>
   </energy>
  </scstep>
  <scstep>
   <time name="diag">    8.85    8.86</time>
   <time name="diis">   22.87   22.96</time>
   <time name="orth">    0.48    0.49</time>
   <time name="total">   36.26   36.43</time>
   <energy>
    <i name="e_fr_energy">   -293.11702125 </i>
    <i name="e_wo_entrp">   -293.09694781 </i>
    <i name="e_0_energy">   -293.11033010 </i>
   </energy>
  </scstep>
  <scstep>
   <time name="diag">    9.02    9.25</time>
   <time name="diis">   22.26   22.30</time>
   <time name="orth">    0.49    0.49</time>
   <time name="total">   35.74   36.01</time>
   <energy>
    <i name="e_fr_energy">   -293.12339997 </i>
    <i name="e_wo_entrp">   -293.10123743 </i>
    <i name="e_0_energy">   -293.11601245 </i>
   </energy>
  </scstep>
  <scstep>
   <time name="diag">    8.88    8.89</time>
   <time name="diis">   25.30   25.75</time>
   <time name="orth">    0.48    0.49</time>
   <time name="total">   38.60   39.07</time>
   <energy>
    <i name="e_fr_energy">   -293.11507516 </i>
    <i name="e_wo_entrp">   -293.09059147 </i>
    <i name="e_0_energy">   -293.10691393 </i>
   </energy>
  </scstep>
  <scstep>
   <time name="diag">    8.87    8.90</time>
   <time name="diis">   23.37   23.40</time>
   <time name="orth">    0.49    0.49</time>
   <time name="total">   36.70   36.79</time>
   <energy>
    <i name="e_fr_energy">   -293.13599184 </i>
    <i name="e_wo_entrp">   -293.11737997 </i>
    <i name="e_0_energy">   -293.12978789 </i>
   </energy>
  </scstep>
  <scstep>
   <time name="diag">    8.92    8.99</time>
   <time name="diis">   22.80   23.05</time>
   <time name="orth">    0.48    0.49</time>
   <time name="total">   36.18   36.50</time>
   <energy>
    <i name="e_fr_energy">   -293.15632553 </i>
    <i name="e_wo_entrp">   -293.14793230 </i>
    <i name="e_0_energy">   -293.15352779 </i>
   </energy>
  </scstep>
  <scstep>
   <time name="diag">    8.88    8.89</time>
   <time name="diis">   22.55   22.64</time>
   <time name="orth">    0.50    0.50</time>
   <time name="total">   35.91   36.04</time>
   <energy>
    <i name="e_fr_energy">   -293.16281781 </i>
    <i name="e_wo_entrp">   -293.16343803 </i>
    <i name="e_0_energy">   -293.16302455 </i>
   </energy>
  </scstep>
  <scstep>
   <time name="diag">    8.97    9.17</time>
   <time name="diis">   23.45   23.49</time>
   <time name="orth">    0.48    0.48</time>
   <time name="total">   36.87   37.14</time>
   <energy>
    <i name="e_fr_energy">   -293.15542355 </i>
    <i name="e_wo_entrp">   -293.15992889 </i>
    <i name="e_0_energy">   -293.15692533 </i>
   </energy>
  </scstep>
  <scstep>
   <time name="diag">    8.84    8.86</time>
   <time name="diis">   24.80   25.16</time>
   <time name="orth">    0.49    0.49</time>
   <time name="total">   38.07   38.45</time>
   <energy>
    <i name="e_fr_energy">   -293.14012507 </i>
    <i name="e_wo_entrp">   -293.14297281 </i>
    <i name="e_0_energy">   -293.14107432 </i>
   </energy>
  </scstep>
  <scstep>
   <time name="diag">    8.88    9.02</time>
   <time name="diis">   24.34   24.41</time>
   <time name="orth">    0.48    0.48</time>
   <time name="total">   37.64   37.86</time>
   <energy>
    <i name="e_fr_energy">   -293.12561381 </i>
    <i name="e_wo_entrp">   -293.12226118 </i>
    <i name="e_0_energy">   -293.12449627 </i>
   </energy>
  </scstep>
  <scstep>
   <time name="diag">    9.16    9.33</time>
   <time name="diis">   23.75   23.80</time>
   <time name="orth">    0.48    0.49</time>
   <time name="total">   37.35   37.58</time>
   <energy>
    <i name="e_fr_energy">   -293.12336332 </i>
    <i name="e_wo_entrp">   -293.11272624 </i>
    <i name="e_0_energy">   -293.11981762 </i>
   </energy>
  </scstep>
  <scstep>
   <time name="diag">    8.83    8.86</time>
   <time name="diis">   22.68   23.02</time>
   <time name="orth">    0.48    0.49</time>
   <time name="total">   35.95   36.32</time>
   <energy>
    <i name="e_fr_energy">   -293.13080254 </i>
    <i name="e_wo_entrp">   -293.11570749 </i>
    <i name="e_0_energy">   -293.12577086 </i>
   </energy>
  </scstep>
  <scstep>
   <time name="diag">    8.85    8.87</time>
   <time name="diis">   22.64   22.67</time>
   <time name="orth">    0.48    0.49</time>
   <time name="total">   35.92   36.00</time>
   <energy>
    <i name="e_fr_energy">   -293.13523618 </i>
    <i name="e_wo_entrp">   -293.11744618 </i>
    <i name="e_0_energy">   -293.12930618 </i>
   </energy>
  </scstep>
  <scstep>
   <time name="diag">    8.91    8.95</time>
   <time name="diis">   23.85   24.24</time>
   <time name="orth">    0.49    0.49</time>
   <time name="total">   37.26   37.71</time>
   <energy>
    <i name="e_fr_energy">   -293.13736319 </i>
    <i name="e_wo_entrp">   -293.11769628 </i>
    <i name="e_0_energy">   -293.13080756 </i>
   </energy>
  </scstep>
  <scstep>
   <time name="diag">    8.92    8.93</time>
   <time name="diis">   22.24   22.32</time>
   <time name="orth">    0.48    0.49</time>
   <time name="total">   35.60   35.72</time>
   <energy>
    <i name="e_fr_energy">   -293.13887034 </i>
    <i name="e_wo_entrp">   -293.11762824 </i>
    <i name="e_0_energy">   -293.13178964 </i>
   </energy>
  </scstep>
  <scstep>
   <time name="diag">    9.18    9.47</time>
   <time name="diis">   20.16   20.20</time>
   <time name="orth">    0.48    0.48</time>
   <time name="total">   33.77   34.10</time>
   <energy>
    <i name="e_fr_energy">   -293.13988747 </i>
    <i name="e_wo_entrp">   -293.11754872 </i>
    <i name="e_0_energy">   -293.13244122 </i>
   </energy>
  </scstep>
  <scstep>
   <time name="diag">    8.89    8.90</time>
   <time name="diis">   21.34   21.46</time>
   <time name="orth">    0.56    0.71</time>
   <time name="total">   34.79   35.14</time>
   <energy>
    <i name="e_fr_energy">   -293.13941523 </i>
    <i name="e_wo_entrp">   -293.11662908 </i>
    <i name="e_0_energy">   -293.13181984 </i>
   </energy>
  </scstep>
  <scstep>
   <time name="diag">    8.89    8.90</time>
   <time name="diis">   21.36   21.41</time>
   <time name="orth">    0.48    0.48</time>
   <time name="total">   34.71   34.77</time>
   <energy>
    <i name="e_fr_energy">   -293.13862240 </i>
    <i name="e_wo_entrp">   -293.11588857 </i>
    <i name="e_0_energy">   -293.13104446 </i>
   </energy>
  </scstep>
  <scstep>
   <time name="diag">    8.92    8.98</time>
   <time name="diis">   20.78   21.12</time>
   <time name="orth">    0.49    0.49</time>
   <time name="total">   34.19   34.61</time>
   <energy>
    <i name="e_fr_energy">   -293.13841578 </i>
    <i name="e_wo_entrp">   -293.11610974 </i>
    <i name="e_0_energy">   -293.13098043 </i>
   </energy>
  </scstep>
  <scstep>
   <time name="diag">    8.80    8.81</time>
   <time name="diis">   20.51   20.54</time>
   <time name="orth">    0.48    0.48</time>
   <time name="total">   33.77   33.85</time>
   <energy>
    <i name="e_fr_energy">   -293.13874710 </i>
    <i name="e_wo_entrp">   -293.11720653 </i>
    <i name="e_0_energy">   -293.13156691 </i>
   </energy>
  </scstep>
  <scstep>
   <time name="diag">    8.88    8.93</time>
   <time name="diis">   18.17   18.41</time>
   <time name="orth">    0.48    0.48</time>
   <time name="total">   31.47   31.76</time>
   <energy>
    <i name="e_fr_energy">   -293.13933093 </i>
    <i name="e_wo_entrp">   -293.11864462 </i>
    <i name="e_0_energy">   -293.13243549 </i>
   </energy>
  </scstep>
  <scstep>
   <time name="diag">    8.81    8.82</time>
   <time name="diis">   17.31   17.36</time>
   <time name="orth">    0.48    0.48</time>
   <time name="total">   30.61   30.70</time>
   <energy>
    <i name="e_fr_energy">   -293.13959587 </i>
    <i name="e_wo_entrp">   -293.11959939 </i>
    <i name="e_0_energy">   -293.13293038 </i>
   </energy>
  </scstep>
  <scstep>
   <time name="diag">    9.02    9.12</time>
   <time name="diis">   17.54   17.74</time>
   <time name="orth">    0.48    0.48</time>
   <time name="total">   31.03   31.32</time>
   <energy>
    <i name="e_fr_energy">   -293.13946623 </i>
    <i name="e_wo_entrp">   -293.11979496 </i>
    <i name="e_0_energy">   -293.13290914 </i>
   </energy>
  </scstep>
  <scstep>
   <time name="diag">    8.87    8.88</time>
   <time name="diis">   15.66   15.69</time>
   <time name="orth">    0.48    0.48</time>
   <time name="total">   29.02   29.11</time>
   <energy>
    <i name="e_fr_energy">   -293.13932150 </i>
    <i name="e_wo_entrp">   -293.11972066 </i>
    <i name="e_0_energy">   -293.13278789 </i>
   </energy>
  </scstep>
  <scstep>
   <time name="diag">    9.18    9.46</time>
   <time name="diis">   17.03   17.07</time>
   <time name="orth">    0.49    0.49</time>
   <time name="total">   30.71   31.04</time>
   <energy>
    <i name="e_fr_energy">   -293.13915206 </i>
    <i name="e_wo_entrp">   -293.11925056 </i>
    <i name="e_0_energy">   -293.13251823 </i>
   </energy>
  </scstep>
  <scstep>
   <time name="diag">    8.92    8.94</time>
   <time name="diis">   15.78   15.85</time>
   <time name="orth">    0.49    0.49</time>
   <time name="total">   29.18   29.27</time>
   <energy>
    <i name="e_fr_energy">   -293.13920341 </i>
    <i name="e_wo_entrp">   -293.11877296 </i>
    <i name="e_0_energy">   -293.13239326 </i>
   </energy>
  </scstep>
  <scstep>
   <time name="diag">    9.09    9.31</time>
   <time name="diis">   15.61   15.70</time>
   <time name="orth">    0.49    0.50</time>
   <time name="total">   29.20   29.53</time>
   <energy>
    <i name="e_fr_energy">   -293.13940462 </i>
    <i name="e_wo_entrp">   -293.11848779 </i>
    <i name="e_0_energy">   -293.13243234 </i>
   </energy>
  </scstep>
  <scstep>
   <time name="diag">    8.92    8.94</time>
   <time name="diis">   15.54   15.57</time>
   <time name="orth">    0.49    0.49</time>
   <time name="total">   28.95   29.03</time>
   <energy>
    <i name="e_fr_energy">   -293.13952067 </i>
    <i name="e_wo_entrp">   -293.11827563 </i>
    <i name="e_0_energy">   -293.13243899 </i>
   </energy>
  </scstep>
  <scstep>
   <time name="diag">    8.99    9.05</time>
   <time name="diis">   15.45   15.76</time>
   <time name="orth">    0.50    0.51</time>
   <time name="total">   28.95   29.33</time>
   <energy>
    <i name="e_fr_energy">   -293.13950776 </i>
    <i name="e_wo_entrp">   -293.11810363 </i>
    <i name="e_0_energy">   -293.13237305 </i>
   </energy>
  </scstep>
  <scstep>
   <time name="diag">    8.87    8.88</time>
   <time name="diis">   14.77   14.80</time>
   <time name="orth">    0.48    0.48</time>
   <time name="total">   28.12   28.18</time>
   <energy>
    <i name="e_fr_energy">   -293.13947603 </i>
    <i name="e_wo_entrp">   -293.11803498 </i>
    <i name="e_0_energy">   -293.13232901 </i>
   </energy>
  </scstep>
  <scstep>
   <time name="diag">    8.87    8.90</time>
   <time name="diis">   14.10   14.35</time>
   <time name="orth">    0.48    0.48</time>
   <time name="total">   27.45   27.78</time>
   <energy>
    <i name="e_fr_energy">   -293.13945936 </i>
    <i name="e_wo_entrp">   -293.11807264 </i>
    <i name="e_0_energy">   -293.13233046 </i>
   </energy>
  </scstep>
  <scstep>
   <time name="diag">    8.84    8.85</time>
   <time name="diis">   14.40   14.42</time>
   <time name="orth">    0.48    0.48</time>
   <time name="total">   27.68   27.74</time>
   <energy>
    <i name="e_fr_energy">   -293.13947119 </i>
    <i name="e_wo_entrp">   -293.11823839 </i>
    <i name="e_0_energy">   -293.13239359 </i>
   </energy>
  </scstep>
  <scstep>
   <time name="diag">    8.87    8.91</time>
   <time name="diis">   14.70   14.94</time>
   <time name="orth">    0.48    0.48</time>
   <time name="total">   28.02   28.30</time>
   <energy>
    <i name="e_fr_energy">   -293.13951602 </i>
    <i name="e_wo_entrp">   -293.11847523 </i>
    <i name="e_0_energy">   -293.13250242 </i>
   </energy>
  </scstep>
  <scstep>
   <time name="diag">    8.86    8.88</time>
   <time name="diis">   14.41   14.43</time>
   <time name="orth">    0.48    0.49</time>
   <time name="total">   27.71   27.76</time>
   <energy>
    <i name="e_fr_energy">   -293.13955290 </i>
    <i name="e_wo_entrp">   -293.11866734 </i>
    <i name="e_0_energy">   -293.13259104 </i>
   </energy>
  </scstep>
  <scstep>
   <time name="diag">    8.88    8.97</time>
   <time name="diis">   14.56   14.89</time>
   <time name="orth">    0.49    0.49</time>
   <time name="total">   27.89   28.31</time>
   <energy>
    <i name="e_fr_energy">   -293.13956303 </i>
    <i name="e_wo_entrp">   -293.11875985 </i>
    <i name="e_0_energy">   -293.13262864 </i>
   </energy>
  </scstep>
  <scstep>
   <time name="diag">    8.86    8.88</time>
   <time name="diis">   13.47   13.49</time>
   <time name="orth">    0.48    0.48</time>
   <time name="total">   23.35   23.39</time>
   <energy>
    <i name="alphaZ">    477.09650995 </i>
    <i name="ewald"> 394155.06487364 </i>
    <i name="hartreedc">-427862.28921133 </i>
    <i name="XCdc">   1612.96987149 </i>
    <i name="pawpsdc">  38079.03362688 </i>
    <i name="pawaedc"> -38784.83331332 </i>
    <i name="eentropy">     -0.02078821 </i>
    <i name="bandstr">  -5923.09433514 </i>
    <i name="atom">  37952.93320877 </i>
    <i name="e_fr_energy">   -293.13955727 </i>
    <i name="e_wo_entrp">   -293.11876906 </i>
    <i name="e_0_energy">   -293.13262787 </i>
   </energy>
  </scstep>
  <structure>
   <crystal>
    <varray name="basis" >
     <v>       2.87357350      -2.87357350       4.70833511 </v>
     <v>       5.74714699       0.00000000       0.00000000 </v>
     <v>       0.00000000      33.06569101      20.18052901 </v>
    </varray>
    <i name="volume">   1228.01926054 </i>
    <varray name="rec_basis" >
     <v>       0.00000000      -0.09444515       0.15474789 </v>
     <v>       0.17399938       0.04722258      -0.07737394 </v>
     <v>       0.00000000       0.02203507       0.01344836 </v>
    </varray>
   </crystal>
   <varray name="positions" >
    <v>       0.22067121       0.89240241       0.08901558 </v>
    <v>       0.66305658       0.16811201       0.21826948 </v>
    <v>       0.94927612       0.02809995       0.15233499 </v>
    <v>       0.37570181       0.31530959       0.28543494 </v>
    <v>       0.44927612       0.52809995       0.15233499 </v>
    <v>       0.89523072       0.30534717       0.28172107 </v>
    <v>       0.44927612       0.02809995       0.15233499 </v>
    <v>       0.89287957       0.80098808       0.28125177 </v>
    <v>       0.90282244       0.55132680       0.10484543 </v>
    <v>       0.35255168       0.82341961       0.23372921 </v>
    <v>       0.99239000       0.50498200       0.20058458 </v>
    <v>       0.42100593       0.79425096       0.33391853 </v>
    <v>       0.53851998       0.23347802       0.07318573 </v>
    <v>       0.01930442       0.48616091       0.35009940 </v>
    <v>       0.76947851       0.61390996       0.30940583 </v>
    <v>       0.87926422       0.06310591       0.05527763 </v>
    <v>       0.33954772       0.33074913       0.18272422 </v>
    <v>       0.58246139       0.21150732       0.12452493 </v>
    <v>       0.03094650       0.48831652       0.25351467 </v>
    <v>       0.68024369       0.71224648       0.37243422 </v>
    <v>       0.09516526       0.72856013       0.12156099 </v>
    <v>       0.54179027       0.45044580       0.25325604 </v>
    <v>       0.74240942       0.12511908       0.31159110 </v>
    <v>       0.85888103       0.57329750       0.05350623 </v>
    <v>       0.31311268       0.84648881       0.18072113 </v>
    <v>       0.56207820       0.72169891       0.12275353 </v>
    <v>       0.00286243       0.99911586       0.25289388 </v>
    <v>       0.79479999       0.32588960       0.18430325 </v>
    <v>       0.22062278       0.62057763       0.31573026 </v>
    <v>       0.34617716       0.60305419       0.05647018 </v>
    <v>       0.21674086       0.16847032       0.31529307 </v>
    <v>       0.79540438       0.88051457       0.18403796 </v>
    <v>       0.34617716       0.05624469       0.05647018 </v>
    <v>       0.53940641       0.00948860       0.25313062 </v>
    <v>       0.09516526       0.18175063       0.12156099 </v>
    <v>       0.19729627       0.35377910       0.39193462 </v>
    <v>       0.34047062       0.60391201       0.02782883 </v>
    <v>       0.92434681       0.68523651       0.03696881 </v>
    <v>       0.34363348       0.06399961       0.02783421 </v>
    <v>       0.88838126       0.05560908       0.02665597 </v>
    <v>       0.64347547       0.77858829       0.39594795 </v>
    <v>       0.75761618       0.10133415       0.33652723 </v>
    <v>       0.08903279       0.42124689       0.41167817 </v>
   </varray>
  </structure>
  <varray name="forces" >
   <v>       0.11099751      -1.75575380      -1.61700986 </v>
   <v>      -0.00146486      -0.08228414      -0.04121621 </v>
   <v>      -0.11075068       0.63905202       0.00307439 </v>
   <v>      -0.01631279       0.02629180       0.04117885 </v>
   <v>      -0.02122322       0.37403027       0.11102812 </v>
   <v>      -0.07858450       0.14759720      -0.00117897 </v>
   <v>      -0.07215088       0.24522186       0.10096455 </v>
   <v>       0.06600022       0.23841014       0.00298933 </v>
   <v>      -0.01875315      -1.33317050      -0.85451026 </v>
   <v>       0.02371794      -0.03020062       0.00987499 </v>
   <v>       0.01028697      -0.00762692      -0.00204730 </v>
   <v>       0.01364350       0.00785947      -0.00018099 </v>
   <v>       0.00332548      -0.50715459       0.26554754 </v>
   <v>       0.02944435       0.10243778      -0.05420253 </v>
   <v>       0.03776413      -0.06884025       0.02573890 </v>
   <v>      -0.31170930      -3.62292087      -1.96084947 </v>
   <v>      -0.03510694       0.03918501      -0.01090475 </v>
   <v>      -0.07538398       0.27271899       0.37769726 </v>
   <v>      -0.01697648      -0.15548161       0.00796651 </v>
   <v>       0.07871559       0.02471858       0.11215629 </v>
   <v>       0.36128627       0.37536677       0.55258982 </v>
   <v>       0.03853282       0.03406665       0.01109291 </v>
   <v>      -0.03094745      -0.01546783      -0.04704649 </v>
   <v>       2.69686875      -2.54876076      -0.25087251 </v>
   <v>       0.04455978       0.02378673      -0.02224815 </v>
   <v>       0.11512731       0.34513377      -0.34642585 </v>
   <v>       0.00340199      -0.07636426      -0.00853877 </v>
   <v>      -0.00520233      -0.00801829       0.01463913 </v>
   <v>       0.07622169      -0.03347429       0.02136869 </v>
   <v>      -0.94541270      -3.58100990      -2.15598382 </v>
   <v>      -0.05514370      -0.02757133       0.02525513 </v>
   <v>      -0.01181018       0.01267201       0.01814483 </v>
   <v>       1.04715350      -3.64206312      -1.93108196 </v>
   <v>      -0.05448641       0.04137812      -0.02621211 </v>
   <v>      -0.15783155       0.34967465       0.46039983 </v>
   <v>      -0.03401852      -0.19342402       0.03296976 </v>
   <v>       0.56482459       3.80291574       2.31599211 </v>
   <v>      -2.89847267       3.08988361       0.46226537 </v>
   <v>      -0.65601338       3.94524773       2.09752053 </v>
   <v>       0.36442304       3.68363518       2.17713308 </v>
   <v>      -0.03851057      -0.12557305      -0.00585249 </v>
   <v>      -0.01166770      -0.01178975       0.02621698 </v>
   <v>      -0.02836149       0.00566583       0.06255759 </v>
  </varray>
  <energy>
   <i name="e_fr_energy">   -293.13955727 </i>
   <i name="e_wo_entrp">   -293.13262787 </i>
   <i name="e_0_energy">     -0.02078821 </i>
  </energy>
  <time name="totalsc"> 1602.11 1613.36</time>
 </calculation>
 <calculation>
  <scstep>
   <time name="dav">   46.88   47.41</time>
   <time name="total">   50.88   51.43</time>
   <energy>
    <i name="alphaZ">    477.09650995 </i>
    <i name="ewald"> 394148.54449261 </i>
    <i name="hartreedc">-427855.62593493 </i>
    <i name="XCdc">   1612.98688394 </i>
    <i name="pawpsdc">  38079.03066941 </i>
    <i name="pawaedc"> -38784.83089062 </i>
    <i name="eentropy">     -0.01945968 </i>
    <i name="bandstr">  -5923.16453183 </i>
    <i name="atom">  37952.93320877 </i>
    <i name="e_fr_energy">   -293.04905237 </i>
    <i name="e_wo_entrp">   -293.02959269 </i>
    <i name="e_0_energy">   -293.04256581 </i>
   </energy>
  </scstep>
  <scstep>
   <time name="diag">    8.88    8.94</time>
   <time name="diis">   30.47   30.72</time>
   <time name="orth">    0.49    0.49</time>
   <time name="total">   43.79   44.10</time>
   <energy>
    <i name="e_fr_energy">   -293.14983009 </i>
    <i name="e_wo_entrp">   -293.12793431 </i>
    <i name="e_0_energy">   -293.14253149 </i>
   </energy>
  </scstep>
  <scstep>
   <time name="diag">    8.94    8.95</time>
   <time name="diis">   26.36   26.77</time>
   <time name="orth">    0.48    0.48</time>
   <time name="total">   39.73   40.16</time>
   <energy>
    <i name="e_fr_energy">   -293.13471091 </i>
    <i name="e_wo_entrp">   -293.11745819 </i>
    <i name="e_0_energy">   -293.12896001 </i>
   </energy>
  </scstep>
  <scstep>
   <time name="diag">    8.89    8.91</time>
   <time name="diis">   26.09   26.13</time>
   <time name="orth">    0.48    0.49</time>
   <time name="total">   39.47   39.58</time>
   <energy>
    <i name="e_fr_energy">   -293.14901641 </i>
    <i name="e_wo_entrp">   -293.13806022 </i>
    <i name="e_0_energy">   -293.14536435 </i>
   </energy>
  </scstep>
  <scstep>
   <time name="diag">    8.95    8.99</time>
   <time name="diis">   26.10   26.59</time>
   <time name="orth">    0.48    0.48</time>
   <time name="total">   39.49   40.02</time>
   <energy>
    <i name="e_fr_energy">   -293.13365180 </i>
    <i name="e_wo_entrp">   -293.11907833 </i>
    <i name="e_0_energy">   -293.12879398 </i>
   </energy>
  </scstep>
  <scstep>
   <time name="diag">    8.85    8.87</time>
   <time name="diis">   26.08   26.48</time>
   <time name="orth">    0.49    0.49</time>
   <time name="total">   39.38   39.80</time>
   <energy>
    <i name="e_fr_energy">   -293.13702317 </i>
    <i name="e_wo_entrp">   -293.11604912 </i>
    <i name="e_0_energy">   -293.13003182 </i>
   </energy>
  </scstep>
  <scstep>
   <time name="diag">    8.90    8.93</time>
   <time name="diis">   23.89   23.93</time>
   <time name="orth">    0.49    0.49</time>
   <time name="total">   37.22   37.30</time>
   <energy>
    <i name="e_fr_energy">   -293.14516156 </i>
    <i name="e_wo_entrp">   -293.12240552 </i>
    <i name="e_0_energy">   -293.13757621 </i>
   </energy>
  </scstep>
  <scstep>
   <time name="diag">    8.93    9.08</time>
   <time name="diis">   25.42   25.69</time>
   <time name="orth">    0.48    0.48</time>
   <time name="total">   38.77   39.19</time>
   <energy>
    <i name="e_fr_energy">   -293.13187616 </i>
    <i name="e_wo_entrp">   -293.10934044 </i>
    <i name="e_0_energy">   -293.12436425 </i>
   </energy>
  </scstep>
  <scstep>
   <time name="diag">    8.84    8.85</time>
   <time name="diis">   24.70   24.81</time>
   <time name="orth">    0.50    0.50</time>
   <time name="total">   38.41   38.78</time>
   <energy>
    <i name="e_fr_energy">   -293.14253200 </i>
    <i name="e_wo_entrp">   -293.12666218 </i>
    <i name="e_0_energy">   -293.13724206 </i>
   </energy>
  </scstep>
  <scstep>
   <time name="diag">    8.85    8.86</time>
   <time name="diis">   23.46   23.52</time>
   <time name="orth">    0.48    0.48</time>
   <time name="total">   36.74   36.81</time>
   <energy>
    <i name="e_fr_energy">   -293.14382469 </i>
    <i name="e_wo_entrp">   -293.13170821 </i>
    <i name="e_0_energy">   -293.13978586 </i>
   </energy>
  </scstep>
  <scstep>
   <time name="diag">    8.91    8.97</time>
   <time name="diis">   23.90   24.16</time>
   <time name="orth">    0.49    0.49</time>
   <time name="total">   37.31   37.64</time>
   <energy>
    <i name="e_fr_energy">   -293.13735501 </i>
    <i name="e_wo_entrp">   -293.12489544 </i>
    <i name="e_0_energy">   -293.13320182 </i>
   </energy>
  </scstep>
  <scstep>
   <time name="diag">    8.89    8.90</time>
   <time name="diis">   24.45   24.51</time>
   <time name="orth">    0.49    0.49</time>
   <time name="total">   37.85   37.97</time>
   <energy>
    <i name="e_fr_energy">   -293.13522182 </i>
    <i name="e_wo_entrp">   -293.12104606 </i>
    <i name="e_0_energy">   -293.13049657 </i>
   </energy>
  </scstep>
  <scstep>
   <time name="diag">    9.09    9.33</time>
   <time name="diis">   23.98   24.02</time>
   <time name="orth">    0.48    0.49</time>
   <time name="total">   37.52   37.81</time>
   <energy>
    <i name="e_fr_energy">   -293.13405914 </i>
    <i name="e_wo_entrp">   -293.11592981 </i>
    <i name="e_0_energy">   -293.12801603 </i>
   </energy>
  </scstep>
  <scstep>
   <time name="diag">    8.91    8.93</time>
   <time name="diis">   22.41   22.78</time>
   <time name="orth">    0.49    0.49</time>
   <time name="total">   35.76   36.16</time>
   <energy>
    <i name="e_fr_energy">   -293.13958772 </i>
    <i name="e_wo_entrp">   -293.11826506 </i>
    <i name="e_0_energy">   -293.13248017 </i>
   </energy>
  </scstep>
  <scstep>
   <time name="diag">    8.89    8.91</time>
   <time name="diis">   22.29   22.34</time>
   <time name="orth">    0.49    0.49</time>
   <time name="total">   35.63   35.70</time>
   <energy>
    <i name="e_fr_energy">   -293.14157486 </i>
    <i name="e_wo_entrp">   -293.11889582 </i>
    <i name="e_0_energy">   -293.13401518 </i>
   </energy>
  </scstep>
  <scstep>
   <time name="diag">    8.88    8.95</time>
   <time name="diis">   22.70   22.95</time>
   <time name="orth">    0.49    0.49</time>
   <time name="total">   36.03   36.36</time>
   <energy>
    <i name="e_fr_energy">   -293.13992230 </i>
    <i name="e_wo_entrp">   -293.11677681 </i>
    <i name="e_0_energy">   -293.13220714 </i>
   </energy>
  </scstep>
  <scstep>
   <time name="diag">    8.87    8.88</time>
   <time name="diis">   19.45   19.55</time>
   <time name="orth">    0.49    0.49</time>
   <time name="total">   32.83   32.98</time>
   <energy>
    <i name="e_fr_energy">   -293.13996634 </i>
    <i name="e_wo_entrp">   -293.11670175 </i>
    <i name="e_0_energy">   -293.13221148 </i>
   </energy>
  </scstep>
  <scstep>
   <time name="diag">    9.12    9.23</time>
   <time name="diis">   17.88   17.91</time>
   <time name="orth">    0.49    0.49</time>
   <time name="total">   31.46   31.61</time>
   <energy>
    <i name="e_fr_energy">   -293.13970045 </i>
    <i name="e_wo_entrp">   -293.11641340 </i>
    <i name="e_0_energy">   -293.13193810 </i>
   </energy>
  </scstep>
  <scstep>
   <time name="diag">    8.91    8.92</time>
   <time name="diis">   17.50   17.56</time>
   <time name="orth">    0.50    0.51</time>
   <time name="total">   30.93   31.04</time>
   <energy>
    <i name="e_fr_energy">   -293.13921858 </i>
    <i name="e_wo_entrp">   -293.11601066 </i>
    <i name="e_0_energy">   -293.13148261 </i>
   </energy>
  </scstep>
  <scstep>
   <time name="diag">    9.14    9.47</time>
   <time name="diis">   17.30   17.33</time>
   <time name="orth">    0.49    0.49</time>
   <time name="total">   30.93   31.30</time>
   <energy>
    <i name="e_fr_energy">   -293.13868780 </i>
    <i name="e_wo_entrp">   -293.11563198 </i>
    <i name="e_0_energy">   -293.13100253 </i>
   </energy>
  </scstep>
  <scstep>
   <time name="diag">    8.93    8.95</time>
   <time name="diis">   16.74   16.83</time>
   <time name="orth">    0.48    0.48</time>
   <time name="total">   30.17   30.28</time>
   <energy>
    <i name="e_fr_energy">   -293.13816804 </i>
    <i name="e_wo_entrp">   -293.11530417 </i>
    <i name="e_0_energy">   -293.13054675 </i>
   </energy>
  </scstep>
  <scstep>
   <time name="diag">    9.16    9.45</time>
   <time name="diis">   16.24   16.27</time>
   <time name="orth">    0.49    0.49</time>
   <time name="total">   29.84   30.16</time>
   <energy>
    <i name="e_fr_energy">   -293.13768994 </i>
    <i name="e_wo_entrp">   -293.11503405 </i>
    <i name="e_0_energy">   -293.13013798 </i>
   </energy>
  </scstep>
  <scstep>
   <time name="diag">    8.86    8.88</time>
   <time name="diis">   15.71   15.78</time>
   <time name="orth">    0.49    0.50</time>
   <time name="total">   29.06   29.17</time>
   <energy>
    <i name="e_fr_energy">   -293.13725334 </i>
    <i name="e_wo_entrp">   -293.11480329 </i>
    <i name="e_0_energy">   -293.12976999 </i>
   </energy>
  </scstep>
  <scstep>
   <time name="diag">    9.12    9.36</time>
   <time name="diis">   15.45   15.47</time>
   <time name="orth">    0.49    0.49</time>
   <time name="total">   29.00   29.27</time>
   <energy>
    <i name="e_fr_energy">   -293.13688021 </i>
    <i name="e_wo_entrp">   -293.11462582 </i>
    <i name="e_0_energy">   -293.12946208 </i>
   </energy>
  </scstep>
  <scstep>
   <time name="diag">    8.87    8.88</time>
   <time name="diis">   15.12   15.19</time>
   <time name="orth">    0.48    0.49</time>
   <time name="total">   28.45   28.56</time>
   <energy>
    <i name="e_fr_energy">   -293.13655113 </i>
    <i name="e_wo_entrp">   -293.11447349 </i>
    <i name="e_0_energy">   -293.12919192 </i>
   </energy>
  </scstep>
  <scstep>
   <time name="diag">    9.04    9.18</time>
   <time name="diis">   14.85   14.87</time>
   <time name="orth">    0.48    0.49</time>
   <time name="total">   28.36   28.53</time>
   <energy>
    <i name="e_fr_energy">   -293.13626232 </i>
    <i name="e_wo_entrp">   -293.11433879 </i>
    <i name="e_0_energy">   -293.12895448 </i>
   </energy>
  </scstep>
  <scstep>
   <time name="diag">    8.86    8.87</time>
   <time name="diis">   14.63   14.68</time>
   <time name="orth">    0.48    0.48</time>
   <time name="total">   27.93   28.00</time>
   <energy>
    <i name="e_fr_energy">   -293.13602112 </i>
    <i name="e_wo_entrp">   -293.11422981 </i>
    <i name="e_0_energy">   -293.12875735 </i>
   </energy>
  </scstep>
  <scstep>
   <time name="diag">    9.18    9.44</time>
   <time name="diis">   14.35   14.37</time>
   <time name="orth">    0.48    0.48</time>
   <time name="total">   27.98   28.27</time>
   <energy>
    <i name="e_fr_energy">   -293.13581781 </i>
    <i name="e_wo_entrp">   -293.11413727 </i>
    <i name="e_0_energy">   -293.12859096 </i>
   </energy>
  </scstep>
  <scstep>
   <time name="diag">    8.86    8.88</time>
   <time name="diis">   13.95   13.98</time>
   <time name="orth">    0.48    0.48</time>
   <time name="total">   27.31   27.60</time>
   <energy>
    <i name="e_fr_energy">   -293.13564744 </i>
    <i name="e_wo_entrp">   -293.11405778 </i>
    <i name="e_0_energy">   -293.12845088 </i>
   </energy>
  </scstep>
  <scstep>
   <time name="diag">    8.93    8.97</time>
   <time name="diis">   13.89   14.16</time>
   <time name="orth">    0.49    0.49</time>
   <time name="total">   27.28   27.59</time>
   <energy>
    <i name="e_fr_energy">   -293.13551553 </i>
    <i name="e_wo_entrp">   -293.11400134 </i>
    <i name="e_0_energy">   -293.12834413 </i>
   </energy>
  </scstep>
  <scstep>
   <time name="diag">    8.87    8.89</time>
   <time name="diis">   13.08   13.09</time>
   <time name="orth">    0.48    0.48</time>
   <time name="total">   26.39   26.43</time>
   <energy>
    <i name="e_fr_energy">   -293.13537160 </i>
    <i name="e_wo_entrp">   -293.11391016 </i>
    <i name="e_0_energy">   -293.12821779 </i>
   </energy>
  </scstep>
  <scstep>
   <time name="diag">    8.89    8.94</time>
   <time name="diis">   13.07   13.20</time>
   <time name="orth">    0.48    0.48</time>
   <time name="total">   26.41   26.62</time>
   <energy>
    <i name="e_fr_energy">   -293.13529082 </i>
    <i name="e_wo_entrp">   -293.11387305 </i>
    <i name="e_0_energy">   -293.12815156 </i>
   </energy>
  </scstep>
  <scstep>
   <time name="diag">    8.89    8.92</time>
   <time name="diis">   12.13   12.15</time>
   <time name="orth">    0.48    0.49</time>
   <time name="total">   25.47   25.52</time>
   <energy>
    <i name="e_fr_energy">   -293.13522901 </i>
    <i name="e_wo_entrp">   -293.11384807 </i>
    <i name="e_0_energy">   -293.12810203 </i>
   </energy>
  </scstep>
  <scstep>
   <time name="diag">    8.86    8.89</time>
   <time name="diis">   12.18   12.27</time>
   <time name="orth">    0.49    0.50</time>
   <time name="total">   25.55   25.79</time>
   <energy>
    <i name="e_fr_energy">   -293.13533769 </i>
    <i name="e_wo_entrp">   -293.11402518 </i>
    <i name="e_0_energy">   -293.12823352 </i>
   </energy>
  </scstep>
  <scstep>
   <time name="diag">    8.94    9.02</time>
   <time name="diis">   13.03   13.05</time>
   <time name="orth">    0.49    0.49</time>
   <time name="total">   26.46   26.65</time>
   <energy>
    <i name="e_fr_energy">   -293.13499278 </i>
    <i name="e_wo_entrp">   -293.11365462 </i>
    <i name="e_0_energy">   -293.12788006 </i>
   </energy>
  </scstep>
  <scstep>
   <time name="diag">    8.85    8.91</time>
   <time name="diis">   10.61   10.63</time>
   <time name="orth">    0.48    0.48</time>
   <time name="total">   23.91   24.04</time>
   <energy>
    <i name="e_fr_energy">   -293.13496635 </i>
    <i name="e_wo_entrp">   -293.11362221 </i>
    <i name="e_0_energy">   -293.12785164 </i>
   </energy>
  </scstep>
  <scstep>
   <time name="diag">    8.97    9.09</time>
   <time name="diis">   10.29   10.44</time>
   <time name="orth">    0.49    0.49</time>
   <time name="total">   20.28   20.55</time>
   <energy>
    <i name="alphaZ">    477.09650995 </i>
    <i name="ewald"> 394148.54449261 </i>
    <i name="hartreedc">-427857.55458223 </i>
    <i name="XCdc">   1612.96982821 </i>
    <i name="pawpsdc">  38080.96186853 </i>
    <i name="pawaedc"> -38786.83146665 </i>
    <i name="eentropy">     -0.02135271 </i>
    <i name="bandstr">  -5921.23347287 </i>
    <i name="atom">  37952.93320877 </i>
    <i name="e_fr_energy">   -293.13496639 </i>
    <i name="e_wo_entrp">   -293.11361367 </i>
    <i name="e_0_energy">   -293.12784882 </i>
   </energy>
  </scstep>
  <structure>
   <crystal>
    <varray name="basis" >
     <v>       2.87357350      -2.87357350       4.70833511 </v>
     <v>       5.74714699       0.00000000       0.00000000 </v>
     <v>       0.00000000      33.06569101      20.18052901 </v>
    </varray>
    <i name="volume">   1228.01926054 </i>
    <varray name="rec_basis" >
     <v>       0.00000000      -0.09444515       0.15474789 </v>
     <v>       0.17399938       0.04722258      -0.07737394 </v>
     <v>       0.00000000       0.02203507       0.01344836 </v>
    </varray>
   </crystal>
   <varray name="positions" >
    <v>       0.22067121       0.89240241       0.08901558 </v>
    <v>       0.66323971       0.16744363       0.21826270 </v>
    <v>       0.94927612       0.02809995       0.15233499 </v>
    <v>       0.37602903       0.31505172       0.28542258 </v>
    <v>       0.44927612       0.52809995       0.15233499 </v>
    <v>       0.89472369       0.30592788       0.28170144 </v>
    <v>       0.44927612       0.02809995       0.15233499 </v>
    <v>       0.89282005       0.80114675       0.28123052 </v>
    <v>       0.90282244       0.55132680       0.10484543 </v>
    <v>       0.35257309       0.82277446       0.23373185 </v>
    <v>       0.99290173       0.50408210       0.20056360 </v>
    <v>       0.42077810       0.79491504       0.33429901 </v>
    <v>       0.53851998       0.23347802       0.07318573 </v>
    <v>       0.01926299       0.48629405       0.34995688 </v>
    <v>       0.76963561       0.61411043       0.30949234 </v>
    <v>       0.87926422       0.06310591       0.05527763 </v>
    <v>       0.34023843       0.33065932       0.18268131 </v>
    <v>       0.58246139       0.21150732       0.12452493 </v>
    <v>       0.03058011       0.48825598       0.25352560 </v>
    <v>       0.68056308       0.71499131       0.37251694 </v>
    <v>       0.09516526       0.72856013       0.12156099 </v>
    <v>       0.54176196       0.44973770       0.25314455 </v>
    <v>       0.74322808       0.12515185       0.31158056 </v>
    <v>       0.85888103       0.57329750       0.05350623 </v>
    <v>       0.31389155       0.84586825       0.18068810 </v>
    <v>       0.56207820       0.72169891       0.12275353 </v>
    <v>       0.00275591       0.99901277       0.25290072 </v>
    <v>       0.79432172       0.32558513       0.18430334 </v>
    <v>       0.22061946       0.62045939       0.31567929 </v>
    <v>       0.34617716       0.60305419       0.05647018 </v>
    <v>       0.21655612       0.16931418       0.31531151 </v>
    <v>       0.79544880       0.88027985       0.18400532 </v>
    <v>       0.34617716       0.05624469       0.05647018 </v>
    <v>       0.53964630       0.00927340       0.25308823 </v>
    <v>       0.09516526       0.18175063       0.12156099 </v>
    <v>       0.20000657       0.35233618       0.39155759 </v>
    <v>       0.34047062       0.60391201       0.02782883 </v>
    <v>       0.92434681       0.68523651       0.03696881 </v>
    <v>       0.34363348       0.06399961       0.02783421 </v>
    <v>       0.88838126       0.05560908       0.02665597 </v>
    <v>       0.64345623       0.77831368       0.39632335 </v>
    <v>       0.75866111       0.09998691       0.33640375 </v>
    <v>       0.09314815       0.41746422       0.41141394 </v>
   </varray>
  </structure>
  <varray name="forces" >
   <v>       0.11141582      -1.77202555      -1.59982149 </v>
   <v>       0.00529307      -0.11845903      -0.05483152 </v>
   <v>      -0.12227482       0.65004431      -0.00509718 </v>
   <v>      -0.04036169       0.05074337       0.02583911 </v>
   <v>      -0.02832283       0.32450425       0.11875863 </v>
   <v>      -0.04467072       0.18079501       0.03805712 </v>
   <v>      -0.05539603       0.21940903       0.11234047 </v>
   <v>       0.01864116       0.27778145       0.02987096 </v>
   <v>      -0.04540725      -1.33154457      -0.87629169 </v>
   <v>       0.04495159      -0.03455478       0.01204812 </v>
   <v>       0.02129426      -0.01554901      -0.02703590 </v>
   <v>       0.03450574      -0.04993942      -0.06167935 </v>
   <v>       0.01557155      -0.53333716       0.24809266 </v>
   <v>       0.17249896      -0.20005035       0.13226927 </v>
   <v>       0.01147785      -0.14099226      -0.28991796 </v>
   <v>      -0.31452541      -3.49396612      -1.90706079 </v>
   <v>      -0.05752017       0.09756357      -0.03447787 </v>
   <v>      -0.07325755       0.26470345       0.37347115 </v>
   <v>      -0.01670508      -0.17401073       0.00640662 </v>
   <v>       0.20055930       0.56443713       0.09956938 </v>
   <v>       0.33006001       0.34911958       0.53880952 </v>
   <v>       0.06779631       0.06135293       0.02611543 </v>
   <v>      -0.02692472      -0.13981927      -0.16187487 </v>
   <v>       2.30151226      -2.13543527      -0.24795477 </v>
   <v>       0.06405699       0.07597604      -0.03383306 </v>
   <v>       0.10560750       0.29302736      -0.33484297 </v>
   <v>       0.03479493      -0.09005495      -0.00281575 </v>
   <v>       0.03557025      -0.02326635       0.05334342 </v>
   <v>       0.18114873      -0.06345856       0.04444920 </v>
   <v>      -0.96801801      -3.54715216      -2.11830652 </v>
   <v>      -0.23480840      -0.20129313       0.04759693 </v>
   <v>      -0.03770816       0.00955670       0.04808314 </v>
   <v>       1.07745208      -3.59511090      -1.90213520 </v>
   <v>      -0.08459326       0.06448482      -0.03088716 </v>
   <v>      -0.11752105       0.37053100       0.45659368 </v>
   <v>      -0.06504095       0.25280105       0.22891527 </v>
   <v>       0.56864386       3.77301963       2.29865695 </v>
   <v>      -2.59054868       2.76021151       0.45401034 </v>
   <v>      -0.65646978       3.89769541       2.07585553 </v>
   <v>       0.36153595       3.59093253       2.12935362 </v>
   <v>      -0.12232920      -0.46632645      -0.18494090 </v>
   <v>      -0.01712661       0.12736111       0.12462213 </v>
   <v>      -0.04485782      -0.12970524       0.15067632 </v>
  </varray>
  <energy>
   <i name="e_fr_energy">   -293.13496639 </i>
   <i name="e_wo_entrp">   -293.12784882 </i>
   <i name="e_0_energy">     -0.02135271 </i>
  </energy>
  <time name="totalsc"> 1231.15 1240.03</time>
 </calculation>
 <calculation>
  <scstep>
   <time name="dav">   46.51   47.01</time>
   <time name="total">   50.46   50.97</time>
   <energy>
    <i name="alphaZ">    477.09650995 </i>
    <i name="ewald"> 394152.89169341 </i>
    <i name="hartreedc">-427861.99010086 </i>
    <i name="XCdc">   1612.96217486 </i>
    <i name="pawpsdc">  38080.96939232 </i>
    <i name="pawaedc"> -38786.83870121 </i>
    <i name="eentropy">     -0.02097719 </i>
    <i name="bandstr">  -5921.10155145 </i>
    <i name="atom">  37952.93320877 </i>
    <i name="e_fr_energy">   -293.09835140 </i>
    <i name="e_wo_entrp">   -293.07737421 </i>
    <i name="e_0_energy">   -293.09135900 </i>
   </energy>
  </scstep>
  <scstep>
   <time name="diag">    8.84    8.85</time>
   <time name="diis">   27.76   28.05</time>
   <time name="orth">    0.49    0.60</time>
   <time name="total">   41.04   41.46</time>
   <energy>
    <i name="e_fr_energy">   -293.78227270 </i>
    <i name="e_wo_entrp">   -293.79994554 </i>
    <i name="e_0_energy">   -293.78816364 </i>
   </energy>
  </scstep>
  <scstep>
   <time name="diag">    8.87    8.88</time>
   <time name="diis">   26.65   26.69</time>
   <time name="orth">    0.48    0.48</time>
   <time name="total">   39.95   40.02</time>
   <energy>
    <i name="e_fr_energy">   -293.49548822 </i>
    <i name="e_wo_entrp">   -293.50462378 </i>
    <i name="e_0_energy">   -293.49853341 </i>
   </energy>
  </scstep>
  <scstep>
   <time name="diag">    8.96    9.04</time>
   <time name="diis">   26.51   26.80</time>
   <time name="orth">    0.49    0.49</time>
   <time name="total">   39.91   40.29</time>
   <energy>
    <i name="e_fr_energy">   -293.23569408 </i>
    <i name="e_wo_entrp">   -293.25707029 </i>
    <i name="e_0_energy">   -293.24281948 </i>
   </energy>
  </scstep>
  <scstep>
   <time name="diag">    8.86    8.87</time>
   <time name="diis">   29.36   29.77</time>
   <time name="orth">    0.48    0.48</time>
   <time name="total">   42.64   43.07</time>
   <energy>
    <i name="e_fr_energy">   -293.12292356 </i>
    <i name="e_wo_entrp">   -293.13175584 </i>
    <i name="e_0_energy">   -293.12586765 </i>
   </energy>
  </scstep>
  <scstep>
   <time name="diag">    8.88    8.90</time>
   <time name="diis">   26.89   26.98</time>
   <time name="orth">    0.48    0.49</time>
   <time name="total">   40.23   40.41</time>
   <energy>
    <i name="e_fr_energy">   -293.09711885 </i>
    <i name="e_wo_entrp">   -293.07769661 </i>
    <i name="e_0_energy">   -293.09064477 </i>
   </energy>
  </scstep>
  <scstep>
   <time name="diag">    8.90    8.94</time>
   <time name="diis">   24.49   24.79</time>
   <time name="orth">    0.48    0.49</time>
   <time name="total">   37.81   38.16</time>
   <energy>
    <i name="e_fr_energy">   -293.15443765 </i>
    <i name="e_wo_entrp">   -293.13166697 </i>
    <i name="e_0_energy">   -293.14684742 </i>
   </energy>
  </scstep>
  <scstep>
   <time name="diag">    8.85    8.85</time>
   <time name="diis">   24.72   24.90</time>
   <time name="orth">    0.53    0.55</time>
   <time name="total">   38.07   38.31</time>
   <energy>
    <i name="e_fr_energy">   -293.13712333 </i>
    <i name="e_wo_entrp">   -293.11256239 </i>
    <i name="e_0_energy">   -293.12893635 </i>
   </energy>
  </scstep>
  <scstep>
   <time name="diag">    8.84    8.85</time>
   <time name="diis">   26.03   26.09</time>
   <time name="orth">    0.48    0.48</time>
   <time name="total">   39.29   39.37</time>
   <energy>
    <i name="e_fr_energy">   -293.12769997 </i>
    <i name="e_wo_entrp">   -293.10398377 </i>
    <i name="e_0_energy">   -293.11979457 </i>
   </energy>
  </scstep>
  <scstep>
   <time name="diag">    8.91    8.99</time>
   <time name="diis">   23.24   23.68</time>
   <time name="orth">    0.48    0.48</time>
   <time name="total">   36.56   37.09</time>
   <energy>
    <i name="e_fr_energy">   -293.13886775 </i>
    <i name="e_wo_entrp">   -293.11966678 </i>
    <i name="e_0_energy">   -293.13246743 </i>
   </energy>
  </scstep>
  <scstep>
   <time name="diag">    8.83    8.85</time>
   <time name="diis">   23.40   23.49</time>
   <time name="orth">    0.50    0.51</time>
   <time name="total">   36.75   36.88</time>
   <energy>
    <i name="e_fr_energy">   -293.14094776 </i>
    <i name="e_wo_entrp">   -293.12303370 </i>
    <i name="e_0_energy">   -293.13497641 </i>
   </energy>
  </scstep>
  <scstep>
   <time name="diag">    9.15    9.39</time>
   <time name="diis">   25.54   25.59</time>
   <time name="orth">    0.49    0.49</time>
   <time name="total">   39.16   39.45</time>
   <energy>
    <i name="e_fr_energy">   -293.14194434 </i>
    <i name="e_wo_entrp">   -293.11996348 </i>
    <i name="e_0_energy">   -293.13461739 </i>
   </energy>
  </scstep>
  <scstep>
   <time name="diag">    8.99    9.13</time>
   <time name="diis">   23.46   23.71</time>
   <time name="orth">    0.48    0.49</time>
   <time name="total">   36.90   37.30</time>
   <energy>
    <i name="e_fr_energy">   -293.15225326 </i>
    <i name="e_wo_entrp">   -293.12986348 </i>
    <i name="e_0_energy">   -293.14479000 </i>
   </energy>
  </scstep>
  <scstep>
   <time name="diag">    8.88    8.90</time>
   <time name="diis">   23.68   23.73</time>
   <time name="orth">    0.48    0.48</time>
   <time name="total">   37.03   37.10</time>
   <energy>
    <i name="e_fr_energy">   -293.14047223 </i>
    <i name="e_wo_entrp">   -293.11723648 </i>
    <i name="e_0_energy">   -293.13272698 </i>
   </energy>
  </scstep>
  <scstep>
   <time name="diag">    9.30    9.62</time>
   <time name="diis">   23.51   23.57</time>
   <time name="orth">    0.49    0.49</time>
   <time name="total">   37.30   37.69</time>
   <energy>
    <i name="e_fr_energy">   -293.13667023 </i>
    <i name="e_wo_entrp">   -293.11325393 </i>
    <i name="e_0_energy">   -293.12886480 </i>
   </energy>
  </scstep>
  <scstep>
   <time name="diag">    8.92    8.93</time>
   <time name="diis">   16.87   16.95</time>
   <time name="orth">    0.49    0.49</time>
   <time name="total">   30.31   30.43</time>
   <energy>
    <i name="e_fr_energy">   -293.13663808 </i>
    <i name="e_wo_entrp">   -293.11323660 </i>
    <i name="e_0_energy">   -293.12883759 </i>
   </energy>
  </scstep>
  <scstep>
   <time name="diag">    9.10    9.26</time>
   <time name="diis">   22.24   22.29</time>
   <time name="orth">    0.49    0.49</time>
   <time name="total">   35.83   36.04</time>
   <energy>
    <i name="e_fr_energy">   -293.13385650 </i>
    <i name="e_wo_entrp">   -293.11003314 </i>
    <i name="e_0_energy">   -293.12591538 </i>
   </energy>
  </scstep>
  <scstep>
   <time name="diag">    8.93    8.94</time>
   <time name="diis">   24.77   25.12</time>
   <time name="orth">    0.48    0.49</time>
   <time name="total">   38.16   38.55</time>
   <energy>
    <i name="e_fr_energy">   -293.12716957 </i>
    <i name="e_wo_entrp">   -293.10359588 </i>
    <i name="e_0_energy">   -293.11931167 </i>
   </energy>
  </scstep>
  <scstep>
   <time name="diag">    8.91    8.93</time>
   <time name="diis">   23.20   23.30</time>
   <time name="orth">    0.49    0.49</time>
   <time name="total">   36.56   36.70</time>
   <energy>
    <i name="e_fr_energy">   -293.13911579 </i>
    <i name="e_wo_entrp">   -293.12031203 </i>
    <i name="e_0_energy">   -293.13284787 </i>
   </energy>
  </scstep>
  <scstep>
   <time name="diag">    9.23    9.46</time>
   <time name="diis">   22.33   22.41</time>
   <time name="orth">    0.49    0.49</time>
   <time name="total">   36.03   36.34</time>
   <energy>
    <i name="e_fr_energy">   -293.14701769 </i>
    <i name="e_wo_entrp">   -293.13378018 </i>
    <i name="e_0_energy">   -293.14260518 </i>
   </energy>
  </scstep>
  <scstep>
   <time name="diag">    8.90    8.91</time>
   <time name="diis">   21.92   22.02</time>
   <time name="orth">    0.50    0.51</time>
   <time name="total">   35.43   35.82</time>
   <energy>
    <i name="e_fr_energy">   -293.14881619 </i>
    <i name="e_wo_entrp">   -293.14069003 </i>
    <i name="e_0_energy">   -293.14610747 </i>
   </energy>
  </scstep>
  <scstep>
   <time name="diag">    8.85    8.86</time>
   <time name="diis">   21.91   21.95</time>
   <time name="orth">    0.49    0.49</time>
   <time name="total">   35.20   35.26</time>
   <energy>
    <i name="e_fr_energy">   -293.14632251 </i>
    <i name="e_wo_entrp">   -293.14134723 </i>
    <i name="e_0_energy">   -293.14466408 </i>
   </energy>
  </scstep>
  <scstep>
   <time name="diag">    8.91    8.96</time>
   <time name="diis">   20.87   21.16</time>
   <time name="orth">    0.49    0.49</time>
   <time name="total">   34.23   34.57</time>
   <energy>
    <i name="e_fr_energy">   -293.14496946 </i>
    <i name="e_wo_entrp">   -293.14221649 </i>
    <i name="e_0_energy">   -293.14405181 </i>
   </energy>
  </scstep>
  <scstep>
   <time name="diag">    8.88    8.92</time>
   <time name="diis">   20.40   20.43</time>
   <time name="orth">    0.48    0.48</time>
   <time name="total">   33.72   33.80</time>
   <energy>
    <i name="e_fr_energy">   -293.14238302 </i>
    <i name="e_wo_entrp">   -293.14060475 </i>
    <i name="e_0_energy">   -293.14179027 </i>
   </energy>
  </scstep>
  <scstep>
   <time name="diag">    8.93    8.98</time>
   <time name="diis">   18.01   18.24</time>
   <time name="orth">    0.50    0.52</time>
   <time name="total">   31.47   31.79</time>
   <energy>
    <i name="e_fr_energy">   -293.14079312 </i>
    <i name="e_wo_entrp">   -293.13933943 </i>
    <i name="e_0_energy">   -293.14030856 </i>
   </energy>
  </scstep>
  <scstep>
   <time name="diag">    8.92    8.94</time>
   <time name="diis">   15.59   15.62</time>
   <time name="orth">    0.49    0.49</time>
   <time name="total">   29.05   29.16</time>
   <energy>
    <i name="e_fr_energy">   -293.14056136 </i>
    <i name="e_wo_entrp">   -293.13936633 </i>
    <i name="e_0_energy">   -293.14016302 </i>
   </energy>
  </scstep>
  <scstep>
   <time name="diag">    8.99    9.03</time>
   <time name="diis">   22.25   22.56</time>
   <time name="orth">    0.49    0.49</time>
   <time name="total">   35.73   36.09</time>
   <energy>
    <i name="e_fr_energy">   -293.13812004 </i>
    <i name="e_wo_entrp">   -293.13628826 </i>
    <i name="e_0_energy">   -293.13750945 </i>
   </energy>
  </scstep>
  <scstep>
   <time name="diag">    8.92    8.93</time>
   <time name="diis">   24.45   24.59</time>
   <time name="orth">    0.50    0.53</time>
   <time name="total">   38.08   38.45</time>
   <energy>
    <i name="e_fr_energy">   -293.13049172 </i>
    <i name="e_wo_entrp">   -293.12494474 </i>
    <i name="e_0_energy">   -293.12864273 </i>
   </energy>
  </scstep>
  <scstep>
   <time name="diag">    8.93    8.94</time>
   <time name="diis">   23.34   23.37</time>
   <time name="orth">    0.50    0.51</time>
   <time name="total">   36.75   36.82</time>
   <energy>
    <i name="e_fr_energy">   -293.12885777 </i>
    <i name="e_wo_entrp">   -293.11856879 </i>
    <i name="e_0_energy">   -293.12542811 </i>
   </energy>
  </scstep>
  <scstep>
   <time name="diag">    8.94    9.03</time>
   <time name="diis">   22.37   22.64</time>
   <time name="orth">    0.49    0.49</time>
   <time name="total">   35.78   36.15</time>
   <energy>
    <i name="e_fr_energy">   -293.13137481 </i>
    <i name="e_wo_entrp">   -293.11661557 </i>
    <i name="e_0_energy">   -293.12645507 </i>
   </energy>
  </scstep>
  <scstep>
   <time name="diag">    8.87    8.88</time>
   <time name="diis">   21.44   21.47</time>
   <time name="orth">    0.51    0.54</time>
   <time name="total">   34.79   34.87</time>
   <energy>
    <i name="e_fr_energy">   -293.13545052 </i>
    <i name="e_wo_entrp">   -293.11708704 </i>
    <i name="e_0_energy">   -293.12932936 </i>
   </energy>
  </scstep>
  <scstep>
   <time name="diag">    9.04    9.20</time>
   <time name="diis">   21.60   21.83</time>
   <time name="orth">    0.49    0.49</time>
   <time name="total">   35.10   35.49</time>
   <energy>
    <i name="e_fr_energy">   -293.13947166 </i>
    <i name="e_wo_entrp">   -293.11848421 </i>
    <i name="e_0_energy">   -293.13247584 </i>
   </energy>
  </scstep>
  <scstep>
   <time name="diag">    8.87    8.88</time>
   <time name="diis">   21.31   21.45</time>
   <time name="orth">    0.48    0.49</time>
   <time name="total">   34.75   35.10</time>
   <energy>
    <i name="e_fr_energy">   -293.14216021 </i>
    <i name="e_wo_entrp">   -293.11958991 </i>
    <i name="e_0_energy">   -293.13463678 </i>
   </energy>
  </scstep>
  <scstep>
   <time name="diag">    8.83    8.85</time>
   <time name="diis">   21.24   21.28</time>
   <time name="orth">    0.48    0.48</time>
   <time name="total">   34.52   34.59</time>
   <energy>
    <i name="e_fr_energy">   -293.14222734 </i>
    <i name="e_wo_entrp">   -293.11889305 </i>
    <i name="e_0_energy">   -293.13444924 </i>
   </energy>
  </scstep>
  <scstep>
   <time name="diag">    8.83    8.85</time>
   <time name="diis">   21.67   22.02</time>
   <time name="orth">    0.48    0.48</time>
   <time name="total">   34.95   35.33</time>
   <energy>
    <i name="e_fr_energy">   -293.14074842 </i>
    <i name="e_wo_entrp">   -293.11708466 </i>
    <i name="e_0_energy">   -293.13286050 </i>
   </energy>
  </scstep>
  <scstep>
   <time name="diag">    8.85    8.88</time>
   <time name="diis">   18.89   18.93</time>
   <time name="orth">    0.48    0.48</time>
   <time name="total">   32.20   32.28</time>
   <energy>
    <i name="e_fr_energy">   -293.13976742 </i>
    <i name="e_wo_entrp">   -293.11598368 </i>
    <i name="e_0_energy">   -293.13183951 </i>
   </energy>
  </scstep>
  <scstep>
   <time name="diag">    8.85    8.98</time>
   <time name="diis">   16.41   16.72</time>
   <time name="orth">    0.48    0.48</time>
   <time name="total">   29.72   30.17</time>
   <energy>
    <i name="e_fr_energy">   -293.13934529 </i>
    <i name="e_wo_entrp">   -293.11551929 </i>
    <i name="e_0_energy">   -293.13140329 </i>
   </energy>
  </scstep>
  <scstep>
   <time name="diag">    8.86    8.88</time>
   <time name="diis">   15.51   15.53</time>
   <time name="orth">    0.48    0.48</time>
   <time name="total">   28.82   28.88</time>
   <energy>
    <i name="e_fr_energy">   -293.13905825 </i>
    <i name="e_wo_entrp">   -293.11521750 </i>
    <i name="e_0_energy">   -293.13111134 </i>
   </energy>
  </scstep>
  <scstep>
   <time name="diag">    8.89    8.92</time>
   <time name="diis">   15.71   15.93</time>
   <time name="orth">    0.48    0.48</time>
   <time name="total">   29.06   29.31</time>
   <energy>
    <i name="e_fr_energy">   -293.13879818 </i>
    <i name="e_wo_entrp">   -293.11495874 </i>
    <i name="e_0_energy">   -293.13085170 </i>
   </energy>
  </scstep>
  <scstep>
   <time name="diag">    8.86    8.88</time>
   <time name="diis">   15.06   15.08</time>
   <time name="orth">    0.48    0.52</time>
   <time name="total">   28.37   28.46</time>
   <energy>
    <i name="e_fr_energy">   -293.13855047 </i>
    <i name="e_wo_entrp">   -293.11472378 </i>
    <i name="e_0_energy">   -293.13060824 </i>
   </energy>
  </scstep>
  <scstep>
   <time name="diag">    8.86    8.95</time>
   <time name="diis">   15.15   15.49</time>
   <time name="orth">    0.49    0.49</time>
   <time name="total">   28.48   28.91</time>
   <energy>
    <i name="e_fr_energy">   -293.13832534 </i>
    <i name="e_wo_entrp">   -293.11451776 </i>
    <i name="e_0_energy">   -293.13038948 </i>
   </energy>
  </scstep>
  <scstep>
   <time name="diag">    8.88    8.91</time>
   <time name="diis">   14.61   14.62</time>
   <time name="orth">    0.49    0.49</time>
   <time name="total">   27.98   28.03</time>
   <energy>
    <i name="e_fr_energy">   -293.13811238 </i>
    <i name="e_wo_entrp">   -293.11432775 </i>
    <i name="e_0_energy">   -293.13018417 </i>
   </energy>
  </scstep>
  <scstep>
   <time name="diag">    8.88    8.90</time>
   <time name="diis">   14.79   15.04</time>
   <time name="orth">    0.48    0.49</time>
   <time name="total">   28.12   28.39</time>
   <energy>
    <i name="e_fr_energy">   -293.13794554 </i>
    <i name="e_wo_entrp">   -293.11418683 </i>
    <i name="e_0_energy">   -293.13002597 </i>
   </energy>
  </scstep>
  <scstep>
   <time name="diag">    8.87    8.90</time>
   <time name="diis">   14.14   14.16</time>
   <time name="orth">    0.48    0.49</time>
   <time name="total">   27.47   27.52</time>
   <energy>
    <i name="e_fr_energy">   -293.13777891 </i>
    <i name="e_wo_entrp">   -293.11404527 </i>
    <i name="e_0_energy">   -293.12986769 </i>
   </energy>
  </scstep>
  <scstep>
   <time name="diag">    8.86    8.88</time>
   <time name="diis">   13.94   14.06</time>
   <time name="orth">    0.50    0.50</time>
   <time name="total">   27.63   28.04</time>
   <energy>
    <i name="e_fr_energy">   -293.13765398 </i>
    <i name="e_wo_entrp">   -293.11394598 </i>
    <i name="e_0_energy">   -293.12975131 </i>
   </energy>
  </scstep>
  <scstep>
   <time name="diag">    8.85    8.86</time>
   <time name="diis">   13.63   13.66</time>
   <time name="orth">    0.48    0.48</time>
   <time name="total">   26.92   26.97</time>
   <energy>
    <i name="e_fr_energy">   -293.13751461 </i>
    <i name="e_wo_entrp">   -293.11382813 </i>
    <i name="e_0_energy">   -293.12961912 </i>
   </energy>
  </scstep>
  <scstep>
   <time name="diag">    8.86    8.87</time>
   <time name="diis">   14.08   14.15</time>
   <time name="orth">    0.49    0.49</time>
   <time name="total">   27.43   27.55</time>
   <energy>
    <i name="e_fr_energy">   -293.13713537 </i>
    <i name="e_wo_entrp">   -293.11342492 </i>
    <i name="e_0_energy">   -293.12923188 </i>
   </energy>
  </scstep>
  <scstep>
   <time name="diag">    9.10    9.34</time>
   <time name="diis">   11.86   11.88</time>
   <time name="orth">    0.48    0.48</time>
   <time name="total">   25.42   25.69</time>
   <energy>
    <i name="e_fr_energy">   -293.13708816 </i>
    <i name="e_wo_entrp">   -293.11337688 </i>
    <i name="e_0_energy">   -293.12918440 </i>
   </energy>
  </scstep>
  <scstep>
   <time name="diag">    8.85    8.87</time>
   <time name="diis">   11.45   11.47</time>
   <time name="orth">    0.49    0.49</time>
   <time name="total">   24.79   24.85</time>
   <energy>
    <i name="e_fr_energy">   -293.13725059 </i>
    <i name="e_wo_entrp">   -293.11356321 </i>
    <i name="e_0_energy">   -293.12935480 </i>
   </energy>
  </scstep>
  <scstep>
   <time name="diag">    8.90    8.96</time>
   <time name="diis">   12.00   12.29</time>
   <time name="orth">    0.48    0.49</time>
   <time name="total">   25.36   25.71</time>
   <energy>
    <i name="e_fr_energy">   -293.13723031 </i>
    <i name="e_wo_entrp">   -293.11355425 </i>
    <i name="e_0_energy">   -293.12933829 </i>
   </energy>
  </scstep>
  <scstep>
   <time name="diag">    8.87    8.90</time>
   <time name="diis">   13.27   13.29</time>
   <time name="orth">    0.48    0.49</time>
   <time name="total">   26.60   26.65</time>
   <energy>
    <i name="e_fr_energy">   -293.13678091 </i>
    <i name="e_wo_entrp">   -293.11305332 </i>
    <i name="e_0_energy">   -293.12887171 </i>
   </energy>
  </scstep>
  <scstep>
   <time name="diag">    8.90    9.08</time>
   <time name="diis">   17.31   17.56</time>
   <time name="orth">    0.48    0.48</time>
   <time name="total">   30.66   31.11</time>
   <energy>
    <i name="e_fr_energy">   -293.13514286 </i>
    <i name="e_wo_entrp">   -293.11118835 </i>
    <i name="e_0_energy">   -293.12715802 </i>
   </energy>
  </scstep>
  <scstep>
   <time name="diag">    8.86    8.88</time>
   <time name="diis">   22.16   22.20</time>
   <time name="orth">    0.48    0.49</time>
   <time name="total">   35.49   35.57</time>
   <energy>
    <i name="e_fr_energy">   -293.13346649 </i>
    <i name="e_wo_entrp">   -293.10934216 </i>
    <i name="e_0_energy">   -293.12542505 </i>
   </energy>
  </scstep>
  <scstep>
   <time name="diag">    8.86    8.94</time>
   <time name="diis">   22.23   22.49</time>
   <time name="orth">    0.49    0.49</time>
   <time name="total">   35.56   35.91</time>
   <energy>
    <i name="e_fr_energy">   -293.13421440 </i>
    <i name="e_wo_entrp">   -293.11057892 </i>
    <i name="e_0_energy">   -293.12633591 </i>
   </energy>
  </scstep>
  <scstep>
   <time name="diag">    8.83    8.84</time>
   <time name="diis">   21.04   21.31</time>
   <time name="orth">    0.48    0.49</time>
   <time name="total">   34.37   34.68</time>
   <energy>
    <i name="e_fr_energy">   -293.13689927 </i>
    <i name="e_wo_entrp">   -293.11451843 </i>
    <i name="e_0_energy">   -293.12943899 </i>
   </energy>
  </scstep>
  <scstep>
   <time name="diag">    9.19    9.40</time>
   <time name="diis">   20.73   20.77</time>
   <time name="orth">    0.49    0.49</time>
   <time name="total">   34.39   34.64</time>
   <energy>
    <i name="e_fr_energy">   -293.13942902 </i>
    <i name="e_wo_entrp">   -293.11853340 </i>
    <i name="e_0_energy">   -293.13246381 </i>
   </energy>
  </scstep>
  <scstep>
   <time name="diag">    8.88    8.89</time>
   <time name="diis">   20.43   20.59</time>
   <time name="orth">    0.52    0.58</time>
   <time name="total">   33.89   34.23</time>
   <energy>
    <i name="e_fr_energy">   -293.14066338 </i>
    <i name="e_wo_entrp">   -293.12103858 </i>
    <i name="e_0_energy">   -293.13412178 </i>
   </energy>
  </scstep>
  <scstep>
   <time name="diag">    8.91    8.92</time>
   <time name="diis">   19.28   19.35</time>
   <time name="orth">    0.49    0.49</time>
   <time name="total">   32.70   32.79</time>
   <energy>
    <i name="e_fr_energy">   -293.14078186 </i>
    <i name="e_wo_entrp">   -293.12211054 </i>
    <i name="e_0_energy">   -293.13455808 </i>
   </energy>
  </scstep>
  <scstep>
   <time name="diag">    8.92    8.95</time>
   <time name="diis">   18.64   18.91</time>
   <time name="orth">    0.49    0.49</time>
   <time name="total">   32.04   32.35</time>
   <energy>
    <i name="e_fr_energy">   -293.14053088 </i>
    <i name="e_wo_entrp">   -293.12249535 </i>
    <i name="e_0_energy">   -293.13451904 </i>
   </energy>
  </scstep>
  <scstep>
   <time name="diag">    8.93    8.95</time>
   <time name="diis">   16.84   16.92</time>
   <time name="orth">    0.49    0.49</time>
   <time name="total">   26.80   26.90</time>
   <energy>
    <i name="alphaZ">    477.09650995 </i>
    <i name="ewald"> 394152.89169341 </i>
    <i name="hartreedc">-427860.89990565 </i>
    <i name="XCdc">   1612.97169741 </i>
    <i name="pawpsdc">  38079.84554506 </i>
    <i name="pawaedc"> -38785.63675404 </i>
    <i name="eentropy">     -0.01765970 </i>
    <i name="bandstr">  -5922.32455194 </i>
    <i name="atom">  37952.93320877 </i>
    <i name="e_fr_energy">   -293.14021673 </i>
    <i name="e_wo_entrp">   -293.12255703 </i>
    <i name="e_0_energy">   -293.13433016 </i>
   </energy>
  </scstep>
  <structure>
   <crystal>
    <varray name="basis" >
     <v>       2.87357350      -2.87357350       4.70833511 </v>
     <v>       5.74714699       0.00000000       0.00000000 </v>
     <v>       0.00000000      33.06569101      20.18052901 </v>
    </varray>
    <i name="volume">   1228.01926054 </i>
    <varray name="rec_basis" >
     <v>       0.00000000      -0.09444515       0.15474789 </v>
     <v>       0.17399938       0.04722258      -0.07737394 </v>
     <v>       0.00000000       0.02203507       0.01344836 </v>
    </varray>
   </crystal>
   <varray name="positions" >
    <v>       0.22067121       0.89240241       0.08901558 </v>
    <v>       0.66311821       0.16788710       0.21826720 </v>
    <v>       0.94927612       0.02809995       0.15233499 </v>
    <v>       0.37581192       0.31522281       0.28543078 </v>
    <v>       0.44927612       0.52809995       0.15233499 </v>
    <v>       0.89506010       0.30554258       0.28171447 </v>
    <v>       0.44927612       0.02809995       0.15233499 </v>
    <v>       0.89285954       0.80104147       0.28124462 </v>
    <v>       0.90282244       0.55132680       0.10484543 </v>
    <v>       0.35255888       0.82320251       0.23373010 </v>
    <v>       0.99256220       0.50467918       0.20057752 </v>
    <v>       0.42092927       0.79447443       0.33404656 </v>
    <v>       0.53851998       0.23347802       0.07318573 </v>
    <v>       0.01929048       0.48620571       0.35005144 </v>
    <v>       0.76953137       0.61397742       0.30943494 </v>
    <v>       0.87926422       0.06310591       0.05527763 </v>
    <v>       0.33978015       0.33071891       0.18270978 </v>
    <v>       0.58246139       0.21150732       0.12452493 </v>
    <v>       0.03082321       0.48829615       0.25351835 </v>
    <v>       0.68035117       0.71317013       0.37246205 </v>
    <v>       0.09516526       0.72856013       0.12156099 </v>
    <v>       0.54178074       0.45020752       0.25321852 </v>
    <v>       0.74268490       0.12513011       0.31158756 </v>
    <v>       0.85888103       0.57329750       0.05350623 </v>
    <v>       0.31337478       0.84627999       0.18071001 </v>
    <v>       0.56207820       0.72169891       0.12275353 </v>
    <v>       0.00282659       0.99908117       0.25289618 </v>
    <v>       0.79463905       0.32578714       0.18430328 </v>
    <v>       0.22062166       0.62053784       0.31571311 </v>
    <v>       0.34617716       0.60305419       0.05647018 </v>
    <v>       0.21667870       0.16875428       0.31529928 </v>
    <v>       0.79541932       0.88043558       0.18402697 </v>
    <v>       0.34617716       0.05624469       0.05647018 </v>
    <v>       0.53948713       0.00941619       0.25311636 </v>
    <v>       0.09516526       0.18175063       0.12156099 </v>
    <v>       0.19820830       0.35329355       0.39180775 </v>
    <v>       0.34047062       0.60391201       0.02782883 </v>
    <v>       0.92434681       0.68523651       0.03696881 </v>
    <v>       0.34363348       0.06399961       0.02783421 </v>
    <v>       0.88838126       0.05560908       0.02665597 </v>
    <v>       0.64346900       0.77849588       0.39607427 </v>
    <v>       0.75796781       0.10088080       0.33648567 </v>
    <v>       0.09041763       0.41997400       0.41158926 </v>
   </varray>
  </structure>
  <varray name="forces" >
   <v>       0.11065311      -1.75405088      -1.62171818 </v>
   <v>      -0.00052270      -0.08805659      -0.04347517 </v>
   <v>      -0.11651014       0.63502702       0.00075360 </v>
   <v>      -0.00977575       0.02769833       0.03764610 </v>
   <v>      -0.01903096       0.36018092       0.11213499 </v>
   <v>      -0.09734198       0.13553590       0.00291916 </v>
   <v>      -0.07673960       0.23198891       0.10219915 </v>
   <v>       0.07046076       0.23666807       0.00416161 </v>
   <v>      -0.01017075      -1.33719388      -0.85421510 </v>
   <v>       0.02928313      -0.02895598       0.01002331 </v>
   <v>       0.01273293      -0.00685442      -0.00959138 </v>
   <v>       0.00241264       0.00198311      -0.02437800 </v>
   <v>      -0.00195336      -0.50415374       0.27217904 </v>
   <v>       0.00309920       0.18516873      -0.07562639 </v>
   <v>       0.04646794      -0.04951920       0.06213774 </v>
   <v>      -0.30983241      -3.64872156      -1.97160998 </v>
   <v>      -0.04450543       0.05883533      -0.02029742 </v>
   <v>      -0.07672824       0.27087772       0.37649121 </v>
   <v>      -0.01674595      -0.15958723       0.00629342 </v>
   <v>       0.08334381       0.04502748       0.17579647 </v>
   <v>       0.36628404       0.37920762       0.55422949 </v>
   <v>       0.04732412       0.04432525       0.01556869 </v>
   <v>      -0.03164964      -0.05843766      -0.08681641 </v>
   <v>       2.78355483      -2.64020556      -0.24569284 </v>
   <v>       0.05127893       0.04103892      -0.02775093 </v>
   <v>       0.11643077       0.35477966      -0.35032322 </v>
   <v>       0.01202012      -0.08079772      -0.00762430 </v>
   <v>       0.00689423      -0.01337021       0.02610753 </v>
   <v>       0.09360409      -0.03218206       0.03896089 </v>
   <v>      -0.94130586      -3.58729390      -2.16315801 </v>
   <v>      -0.05298027      -0.00190398       0.03517356 </v>
   <v>      -0.02173559       0.01090910       0.02603273 </v>
   <v>       1.04187299      -3.65162665      -1.93738961 </v>
   <v>      -0.06811102       0.05035744      -0.02910288 </v>
   <v>      -0.16578330       0.34713298       0.46205130 </v>
   <v>      -0.03519653      -0.32943413      -0.00544917 </v>
   <v>       0.56406129       3.80866192       2.31896470 </v>
   <v>      -2.96532329       3.16598930       0.46181154 </v>
   <v>      -0.65600804       3.95580552       2.10210691 </v>
   <v>       0.36498278       3.70451459       2.18823910 </v>
   <v>      -0.05633028      -0.20137328      -0.01661281 </v>
   <v>      -0.01438771       0.03777267       0.05946200 </v>
   <v>      -0.01809291       0.08423215       0.03938758 </v>
  </varray>
  <energy>
   <i name="e_fr_energy">   -293.14021673 </i>
   <i name="e_wo_entrp">   -293.13433016 </i>
   <i name="e_0_energy">     -0.01765970 </i>
  </energy>
  <time name="totalsc"> 2051.33 2066.16</time>
 </calculation>
 <calculation>
  <scstep>
   <time name="dav">   47.36   47.90</time>
   <time name="total">   51.37   51.93</time>
   <energy>
    <i name="alphaZ">    477.09650995 </i>
    <i name="ewald"> 394133.82187533 </i>
    <i name="hartreedc">-427841.98685314 </i>
    <i name="XCdc">   1612.96822465 </i>
    <i name="pawpsdc">  38079.83245507 </i>
    <i name="pawaedc"> -38785.62289657 </i>
    <i name="eentropy">     -0.01557203 </i>
    <i name="bandstr">  -5922.14864863 </i>
    <i name="atom">  37952.93320877 </i>
    <i name="e_fr_energy">   -293.12169660 </i>
    <i name="e_wo_entrp">   -293.10612457 </i>
    <i name="e_0_energy">   -293.11650592 </i>
   </energy>
  </scstep>
  <scstep>
   <time name="diag">    9.18    9.38</time>
   <time name="diis">   29.98   30.08</time>
   <time name="orth">    0.49    0.49</time>
   <time name="total">   43.63   43.94</time>
   <energy>
    <i name="e_fr_energy">   -293.32411426 </i>
    <i name="e_wo_entrp">   -293.33029272 </i>
    <i name="e_0_energy">   -293.32617375 </i>
   </energy>
  </scstep>
  <scstep>
   <time name="diag">    8.93    8.95</time>
   <time name="diis">   25.95   26.23</time>
   <time name="orth">    0.48    0.48</time>
   <time name="total">   39.30   39.60</time>
   <energy>
    <i name="e_fr_energy">   -293.15419193 </i>
    <i name="e_wo_entrp">   -293.14645753 </i>
    <i name="e_0_energy">   -293.15161379 </i>
   </energy>
  </scstep>
  <scstep>
   <time name="diag">    8.86    8.88</time>
   <time name="diis">   26.96   27.03</time>
   <time name="orth">    0.48    0.48</time>
   <time name="total">   40.26   40.47</time>
   <energy>
    <i name="e_fr_energy">   -293.09986305 </i>
    <i name="e_wo_entrp">   -293.07759549 </i>
    <i name="e_0_energy">   -293.09244053 </i>
   </energy>
  </scstep>
  <scstep>
   <time name="diag">    9.01    9.14</time>
   <time name="diis">   26.89   26.94</time>
   <time name="orth">    0.48    0.48</time>
   <time name="total">   40.33   40.71</time>
   <energy>
    <i name="e_fr_energy">   -293.10746347 </i>
    <i name="e_wo_entrp">   -293.08480289 </i>
    <i name="e_0_energy">   -293.09990994 </i>
   </energy>
  </scstep>
  <scstep>
   <time name="diag">    8.85    8.87</time>
   <time name="diis">   24.14   24.56</time>
   <time name="orth">    0.49    0.49</time>
   <time name="total">   37.39   37.84</time>
   <energy>
    <i name="e_fr_energy">   -293.15100824 </i>
    <i name="e_wo_entrp">   -293.13717756 </i>
    <i name="e_0_energy">   -293.14639801 </i>
   </energy>
  </scstep>
  <scstep>
   <time name="diag">    8.85    8.86</time>
   <time name="diis">   23.19   23.23</time>
   <time name="orth">    0.48    0.48</time>
   <time name="total">   36.49   36.60</time>
   <energy>
    <i name="e_fr_energy">   -293.15956750 </i>
    <i name="e_wo_entrp">   -293.15360999 </i>
    <i name="e_0_energy">   -293.15758166 </i>
   </energy>
  </scstep>
  <scstep>
   <time name="diag">    9.04    9.09</time>
   <time name="diis">   23.18   23.41</time>
   <time name="orth">    0.49    0.50</time>
   <time name="total">   36.70   36.99</time>
   <energy>
    <i name="e_fr_energy">   -293.16289107 </i>
    <i name="e_wo_entrp">   -293.16381897 </i>
    <i name="e_0_energy">   -293.16320037 </i>
   </energy>
  </scstep>
  <scstep>
   <time name="diag">    8.92    8.94</time>
   <time name="diis">   24.84   25.19</time>
   <time name="orth">    0.49    0.49</time>
   <time name="total">   38.23   38.61</time>
   <energy>
    <i name="e_fr_energy">   -293.14407071 </i>
    <i name="e_wo_entrp">   -293.14393681 </i>
    <i name="e_0_energy">   -293.14402607 </i>
   </energy>
  </scstep>
  <scstep>
   <time name="diag">    8.93    8.94</time>
   <time name="diis">   25.35   25.39</time>
   <time name="orth">    0.49    0.49</time>
   <time name="total">   38.76   38.82</time>
   <energy>
    <i name="e_fr_energy">   -293.12906969 </i>
    <i name="e_wo_entrp">   -293.12201761 </i>
    <i name="e_0_energy">   -293.12671900 </i>
   </energy>
  </scstep>
  <scstep>
   <time name="diag">    8.92    8.97</time>
   <time name="diis">   23.82   24.05</time>
   <time name="orth">    0.48    0.48</time>
   <time name="total">   37.17   37.46</time>
   <energy>
    <i name="e_fr_energy">   -293.13073302 </i>
    <i name="e_wo_entrp">   -293.11650460 </i>
    <i name="e_0_energy">   -293.12599021 </i>
   </energy>
  </scstep>
  <scstep>
   <time name="diag">    8.84    8.85</time>
   <time name="diis">   23.18   23.28</time>
   <time name="orth">    0.48    0.48</time>
   <time name="total">   36.48   36.62</time>
   <energy>
    <i name="e_fr_energy">   -293.13985608 </i>
    <i name="e_wo_entrp">   -293.11980039 </i>
    <i name="e_0_energy">   -293.13317085 </i>
   </energy>
  </scstep>
  <scstep>
   <time name="diag">    8.97    9.19</time>
   <time name="diis">   22.40   22.44</time>
   <time name="orth">    0.48    0.48</time>
   <time name="total">   35.82   36.09</time>
   <energy>
    <i name="e_fr_energy">   -293.14842332 </i>
    <i name="e_wo_entrp">   -293.12602788 </i>
    <i name="e_0_energy">   -293.14095817 </i>
   </energy>
  </scstep>
  <scstep>
   <time name="diag">    8.86    8.89</time>
   <time name="diis">   23.81   24.13</time>
   <time name="orth">    0.48    0.49</time>
   <time name="total">   37.12   37.47</time>
   <energy>
    <i name="e_fr_energy">   -293.14448819 </i>
    <i name="e_wo_entrp">   -293.12140381 </i>
    <i name="e_0_energy">   -293.13679340 </i>
   </energy>
  </scstep>
  <scstep>
   <time name="diag">    8.86    8.89</time>
   <time name="diis">   23.91   23.95</time>
   <time name="orth">    0.48    0.49</time>
   <time name="total">   37.28   37.38</time>
   <energy>
    <i name="e_fr_energy">   -293.14094336 </i>
    <i name="e_wo_entrp">   -293.11885109 </i>
    <i name="e_0_energy">   -293.13357927 </i>
   </energy>
  </scstep>
  <scstep>
   <time name="diag">    8.93    8.96</time>
   <time name="diis">   22.01   22.25</time>
   <time name="orth">    0.48    0.49</time>
   <time name="total">   35.38   35.65</time>
   <energy>
    <i name="e_fr_energy">   -293.14386340 </i>
    <i name="e_wo_entrp">   -293.12298821 </i>
    <i name="e_0_energy">   -293.13690500 </i>
   </energy>
  </scstep>
  <scstep>
   <time name="diag">    8.86    8.87</time>
   <time name="diis">   21.72   21.81</time>
   <time name="orth">    0.51    0.51</time>
   <time name="total">   35.17   35.43</time>
   <energy>
    <i name="e_fr_energy">   -293.14466526 </i>
    <i name="e_wo_entrp">   -293.12404979 </i>
    <i name="e_0_energy">   -293.13779344 </i>
   </energy>
  </scstep>
  <scstep>
   <time name="diag">    8.86    8.88</time>
   <time name="diis">   17.04   17.07</time>
   <time name="orth">    0.48    0.48</time>
   <time name="total">   30.35   30.43</time>
   <energy>
    <i name="e_fr_energy">   -293.14478767 </i>
    <i name="e_wo_entrp">   -293.12404480 </i>
    <i name="e_0_energy">   -293.13787338 </i>
   </energy>
  </scstep>
  <scstep>
   <time name="diag">    8.85    8.86</time>
   <time name="diis">   14.95   15.05</time>
   <time name="orth">    0.48    0.48</time>
   <time name="total">   28.29   28.41</time>
   <energy>
    <i name="e_fr_energy">   -293.14477650 </i>
    <i name="e_wo_entrp">   -293.12396312 </i>
    <i name="e_0_energy">   -293.13783870 </i>
   </energy>
  </scstep>
  <scstep>
   <time name="diag">    9.04    9.28</time>
   <time name="diis">   14.56   14.58</time>
   <time name="orth">    0.48    0.48</time>
   <time name="total">   28.02   28.30</time>
   <energy>
    <i name="e_fr_energy">   -293.14474954 </i>
    <i name="e_wo_entrp">   -293.12400883 </i>
    <i name="e_0_energy">   -293.13783597 </i>
   </energy>
  </scstep>
  <scstep>
   <time name="diag">    8.89    8.91</time>
   <time name="diis">   14.48   14.55</time>
   <time name="orth">    0.48    0.48</time>
   <time name="total">   27.84   28.00</time>
   <energy>
    <i name="e_fr_energy">   -293.14476543 </i>
    <i name="e_wo_entrp">   -293.12424681 </i>
    <i name="e_0_energy">   -293.13792589 </i>
   </energy>
  </scstep>
  <scstep>
   <time name="diag">    9.19    9.52</time>
   <time name="diis">   14.81   14.85</time>
   <time name="orth">    0.48    0.49</time>
   <time name="total">   28.44   28.81</time>
   <energy>
    <i name="e_fr_energy">   -293.14483287 </i>
    <i name="e_wo_entrp">   -293.12457882 </i>
    <i name="e_0_energy">   -293.13808152 </i>
   </energy>
  </scstep>
  <scstep>
   <time name="diag">    8.85    8.86</time>
   <time name="diis">   14.80   14.87</time>
   <time name="orth">    0.49    0.49</time>
   <time name="total">   28.10   28.19</time>
   <energy>
    <i name="e_fr_energy">   -293.14486882 </i>
    <i name="e_wo_entrp">   -293.12479423 </i>
    <i name="e_0_energy">   -293.13817729 </i>
   </energy>
  </scstep>
  <scstep>
   <time name="diag">    9.30    9.56</time>
   <time name="diis">   14.53   14.56</time>
   <time name="orth">    0.48    0.48</time>
   <time name="total">   28.27   28.56</time>
   <energy>
    <i name="e_fr_energy">   -293.14484956 </i>
    <i name="e_wo_entrp">   -293.12480918 </i>
    <i name="e_0_energy">   -293.13816944 </i>
   </energy>
  </scstep>
  <scstep>
   <time name="diag">    8.85    8.86</time>
   <time name="diis">   14.38   14.41</time>
   <time name="orth">    0.48    0.49</time>
   <time name="total">   27.68   27.75</time>
   <energy>
    <i name="e_fr_energy">   -293.14483592 </i>
    <i name="e_wo_entrp">   -293.12463794 </i>
    <i name="e_0_energy">   -293.13810326 </i>
   </energy>
  </scstep>
  <scstep>
   <time name="diag">    8.95    8.99</time>
   <time name="diis">   14.41   14.68</time>
   <time name="orth">    0.49    0.49</time>
   <time name="total">   27.84   28.16</time>
   <energy>
    <i name="e_fr_energy">   -293.14486900 </i>
    <i name="e_wo_entrp">   -293.12449744 </i>
    <i name="e_0_energy">   -293.13807848 </i>
   </energy>
  </scstep>
  <scstep>
   <time name="diag">    8.86    8.87</time>
   <time name="diis">   14.20   14.22</time>
   <time name="orth">    0.49    0.49</time>
   <time name="total">   24.08   24.12</time>
   <energy>
    <i name="alphaZ">    477.09650995 </i>
    <i name="ewald"> 394133.82187533 </i>
    <i name="hartreedc">-427845.16613218 </i>
    <i name="XCdc">   1612.95248430 </i>
    <i name="pawpsdc">  38077.84529212 </i>
    <i name="pawaedc"> -38783.65264459 </i>
    <i name="eentropy">     -0.02049208 </i>
    <i name="bandstr">  -5918.95497945 </i>
    <i name="atom">  37952.93320877 </i>
    <i name="e_fr_energy">   -293.14487782 </i>
    <i name="e_wo_entrp">   -293.12438575 </i>
    <i name="e_0_energy">   -293.13804713 </i>
   </energy>
  </scstep>
  <structure>
   <crystal>
    <varray name="basis" >
     <v>       2.87357350      -2.87357350       4.70833511 </v>
     <v>       5.74714699       0.00000000       0.00000000 </v>
     <v>       0.00000000      33.06569101      20.18052901 </v>
    </varray>
    <i name="volume">   1228.01926054 </i>
    <varray name="rec_basis" >
     <v>       0.00000000      -0.09444515       0.15474789 </v>
     <v>       0.17399938       0.04722258      -0.07737394 </v>
     <v>       0.00000000       0.02203507       0.01344836 </v>
    </varray>
   </crystal>
   <varray name="positions" >
    <v>       0.22067121       0.89240241       0.08901558 </v>
    <v>       0.66322629       0.16756028       0.21822923 </v>
    <v>       0.94927612       0.02809995       0.15233499 </v>
    <v>       0.37601015       0.31505590       0.28544034 </v>
    <v>       0.44927612       0.52809995       0.15233499 </v>
    <v>       0.89465135       0.30566770       0.28174690 </v>
    <v>       0.44927612       0.02809995       0.15233499 </v>
    <v>       0.89253253       0.80143452       0.28130721 </v>
    <v>       0.90282244       0.55132680       0.10484543 </v>
    <v>       0.35262799       0.82293949       0.23372441 </v>
    <v>       0.99279155       0.50429186       0.20056378 </v>
    <v>       0.42076749       0.79482007       0.33422174 </v>
    <v>       0.53851998       0.23347802       0.07318573 </v>
    <v>       0.01886892       0.48647684       0.35002654 </v>
    <v>       0.76980217       0.61408472       0.30947215 </v>
    <v>       0.87926422       0.06310591       0.05527763 </v>
    <v>       0.33998548       0.33062987       0.18270368 </v>
    <v>       0.58246139       0.21150732       0.12452493 </v>
    <v>       0.03087175       0.48811702       0.25347623 </v>
    <v>       0.68081762       0.71450384       0.37254722 </v>
    <v>       0.09516526       0.72856013       0.12156099 </v>
    <v>       0.54174294       0.44999985       0.25318238 </v>
    <v>       0.74296124       0.12512419       0.31154878 </v>
    <v>       0.85888103       0.57329750       0.05350623 </v>
    <v>       0.31362887       0.84616703       0.18070178 </v>
    <v>       0.56207820       0.72169891       0.12275353 </v>
    <v>       0.00286529       0.99901702       0.25287347 </v>
    <v>       0.79448696       0.32562383       0.18430410 </v>
    <v>       0.22074500       0.62064405       0.31568657 </v>
    <v>       0.34617716       0.60305419       0.05647018 </v>
    <v>       0.21666918       0.16898581       0.31531389 </v>
    <v>       0.79548153       0.88025236       0.18401974 </v>
    <v>       0.34617716       0.05624469       0.05647018 </v>
    <v>       0.53947252       0.00921542       0.25310629 </v>
    <v>       0.09516526       0.18175063       0.12156099 </v>
    <v>       0.19990099       0.35232154       0.39152929 </v>
    <v>       0.34047062       0.60391201       0.02782883 </v>
    <v>       0.92434681       0.68523651       0.03696881 </v>
    <v>       0.34363348       0.06399961       0.02783421 </v>
    <v>       0.88838126       0.05560908       0.02665597 </v>
    <v>       0.64368648       0.77811835       0.39618679 </v>
    <v>       0.75853727       0.10017335       0.33645003 </v>
    <v>       0.09232918       0.41816289       0.41149774 </v>
   </varray>
  </structure>
  <varray name="forces" >
   <v>       0.11021075      -1.75827547      -1.61616616 </v>
   <v>       0.00114405      -0.06681441      -0.03776510 </v>
   <v>      -0.12472349       0.63085872      -0.00148271 </v>
   <v>      -0.01058846       0.02505169       0.00044951 </v>
   <v>      -0.01968781       0.34701476       0.11187170 </v>
   <v>      -0.05790536       0.05773471       0.01560910 </v>
   <v>      -0.07338350       0.22063034       0.10353869 </v>
   <v>       0.02424002       0.12330508       0.01239967 </v>
   <v>      -0.01902083      -1.33319503      -0.85663034 </v>
   <v>       0.03249591      -0.02657290       0.00626860 </v>
   <v>       0.01504020      -0.00467868      -0.01902701 </v>
   <v>       0.00667634      -0.02248703      -0.03945496 </v>
   <v>       0.00394511      -0.50751007       0.26495918 </v>
   <v>       0.03949610       0.06098533      -0.03059995 </v>
   <v>       0.02964865      -0.02182254      -0.02754527 </v>
   <v>      -0.31182259      -3.61890462      -1.95897648 </v>
   <v>      -0.04708780       0.06946310      -0.02544250 </v>
   <v>      -0.07619454       0.27043240       0.37657537 </v>
   <v>      -0.00931024      -0.08948693       0.01419951 </v>
   <v>       0.06944098       0.05040221       0.10803653 </v>
   <v>       0.36225503       0.37646839       0.55370184 </v>
   <v>       0.04459851       0.05207297       0.02658855 </v>
   <v>      -0.03415339       0.00790608      -0.06359278 </v>
   <v>       2.68279064      -2.53509616      -0.25218377 </v>
   <v>       0.05079168       0.05440836      -0.03269585 </v>
   <v>       0.11412754       0.34162524      -0.34729768 </v>
   <v>       0.01788884      -0.04024092      -0.00863954 </v>
   <v>       0.02268473      -0.02350027       0.03589658 </v>
   <v>       0.11851360      -0.02727682       0.04797000 </v>
   <v>      -0.94581301      -3.57997591      -2.15502821 </v>
   <v>      -0.09578377      -0.03394690       0.04016019 </v>
   <v>      -0.02890143       0.00316874       0.03233683 </v>
   <v>       1.04779667      -3.64048015      -1.93027592 </v>
   <v>      -0.06177245       0.05444095      -0.01972804 </v>
   <v>      -0.15468840       0.35512590       0.46193568 </v>
   <v>      -0.02872676       0.04654765       0.04205160 </v>
   <v>       0.56495273       3.80212882       2.31540286 </v>
   <v>      -2.88776580       3.07816812       0.46230730 </v>
   <v>      -0.65601810       3.94374971       2.09668523 </v>
   <v>       0.36431304       3.68041045       2.17547505 </v>
   <v>      -0.03486502      -0.15463003      -0.01167906 </v>
   <v>      -0.00665901       0.02117967       0.04057886 </v>
   <v>      -0.03817940      -0.18838456       0.08921292 </v>
  </varray>
  <energy>
   <i name="e_fr_energy">   -293.14487782 </i>
   <i name="e_wo_entrp">   -293.13804713 </i>
   <i name="e_0_energy">     -0.02049208 </i>
  </energy>
  <time name="totalsc">  957.59  964.60</time>
 </calculation>
 <calculation>
  <scstep>
   <time name="dav">   47.28   47.39</time>
   <time name="total">   51.31   51.45</time>
   <energy>
    <i name="alphaZ">    477.09650995 </i>
    <i name="ewald"> 394121.20635631 </i>
    <i name="hartreedc">-427832.68579859 </i>
    <i name="XCdc">   1612.95041130 </i>
    <i name="pawpsdc">  38077.85682643 </i>
    <i name="pawaedc"> -38783.66439423 </i>
    <i name="eentropy">     -0.01953861 </i>
    <i name="bandstr">  -5918.80922233 </i>
    <i name="atom">  37952.93320877 </i>
    <i name="e_fr_energy">   -293.13564099 </i>
    <i name="e_wo_entrp">   -293.11610238 </i>
    <i name="e_0_energy">   -293.12912812 </i>
   </energy>
  </scstep>
  <scstep>
   <time name="diag">    9.06    9.24</time>
   <time name="diis">   29.66   29.71</time>
   <time name="orth">    0.49    0.49</time>
   <time name="total">   43.23   43.46</time>
   <energy>
    <i name="e_fr_energy">   -293.14885994 </i>
    <i name="e_wo_entrp">   -293.12701601 </i>
    <i name="e_0_energy">   -293.14157863 </i>
   </energy>
  </scstep>
  <scstep>
   <time name="diag">    8.98    9.05</time>
   <time name="diis">   25.57   25.85</time>
   <time name="orth">    0.48    0.48</time>
   <time name="total">   38.98   39.34</time>
   <energy>
    <i name="e_fr_energy">   -293.14372751 </i>
    <i name="e_wo_entrp">   -293.12262784 </i>
    <i name="e_0_energy">   -293.13669428 </i>
   </energy>
  </scstep>
  <scstep>
   <time name="diag">    8.83    8.84</time>
   <time name="diis">   25.11   25.25</time>
   <time name="orth">    0.49    0.49</time>
   <time name="total">   38.42   38.60</time>
   <energy>
    <i name="e_fr_energy">   -293.14770409 </i>
    <i name="e_wo_entrp">   -293.13018796 </i>
    <i name="e_0_energy">   -293.14186538 </i>
   </energy>
  </scstep>
  <scstep>
   <time name="diag">    9.06    9.29</time>
   <time name="diis">   23.52   23.55</time>
   <time name="orth">    0.48    0.48</time>
   <time name="total">   37.03   37.30</time>
   <energy>
    <i name="e_fr_energy">   -293.14575168 </i>
    <i name="e_wo_entrp">   -293.12820783 </i>
    <i name="e_0_energy">   -293.13990373 </i>
   </energy>
  </scstep>
  <scstep>
   <time name="diag">    8.86    8.87</time>
   <time name="diis">   23.77   24.07</time>
   <time name="orth">    0.49    0.49</time>
   <time name="total">   37.07   37.39</time>
   <energy>
    <i name="e_fr_energy">   -293.14501775 </i>
    <i name="e_wo_entrp">   -293.12527342 </i>
    <i name="e_0_energy">   -293.13843630 </i>
   </energy>
  </scstep>
  <scstep>
   <time name="diag">    8.88    8.89</time>
   <time name="diis">   22.00   22.03</time>
   <time name="orth">    0.48    0.49</time>
   <time name="total">   35.33   35.40</time>
   <energy>
    <i name="e_fr_energy">   -293.14718610 </i>
    <i name="e_wo_entrp">   -293.12578018 </i>
    <i name="e_0_energy">   -293.14005079 </i>
   </energy>
  </scstep>
  <scstep>
   <time name="diag">    8.90    9.09</time>
   <time name="diis">   23.43   23.79</time>
   <time name="orth">    0.49    0.49</time>
   <time name="total">   36.79   37.34</time>
   <energy>
    <i name="e_fr_energy">   -293.14544479 </i>
    <i name="e_wo_entrp">   -293.12392195 </i>
    <i name="e_0_energy">   -293.13827051 </i>
   </energy>
  </scstep>
  <scstep>
   <time name="diag">    8.86    8.87</time>
   <time name="diis">   23.05   23.22</time>
   <time name="orth">    0.50    0.50</time>
   <time name="total">   36.45   36.72</time>
   <energy>
    <i name="e_fr_energy">   -293.14534957 </i>
    <i name="e_wo_entrp">   -293.12507031 </i>
    <i name="e_0_energy">   -293.13858981 </i>
   </energy>
  </scstep>
  <scstep>
   <time name="diag">    8.89    8.93</time>
   <time name="diis">   19.80   19.84</time>
   <time name="orth">    0.49    0.49</time>
   <time name="total">   33.15   33.28</time>
   <energy>
    <i name="e_fr_energy">   -293.14625224 </i>
    <i name="e_wo_entrp">   -293.12700189 </i>
    <i name="e_0_energy">   -293.13983546 </i>
   </energy>
  </scstep>
  <scstep>
   <time name="diag">    8.89    8.93</time>
   <time name="diis">   20.11   20.45</time>
   <time name="orth">    0.49    0.49</time>
   <time name="total">   33.45   33.83</time>
   <energy>
    <i name="e_fr_energy">   -293.14617390 </i>
    <i name="e_wo_entrp">   -293.12732782 </i>
    <i name="e_0_energy">   -293.13989187 </i>
   </energy>
  </scstep>
  <scstep>
   <time name="diag">    8.87    8.89</time>
   <time name="diis">   18.09   18.11</time>
   <time name="orth">    0.48    0.49</time>
   <time name="total">   31.42   31.51</time>
   <energy>
    <i name="e_fr_energy">   -293.14593728 </i>
    <i name="e_wo_entrp">   -293.12702408 </i>
    <i name="e_0_energy">   -293.13963288 </i>
   </energy>
  </scstep>
  <scstep>
   <time name="diag">    8.91    8.99</time>
   <time name="diis">   18.51   18.86</time>
   <time name="orth">    0.48    0.48</time>
   <time name="total">   31.85   32.29</time>
   <energy>
    <i name="e_fr_energy">   -293.14582986 </i>
    <i name="e_wo_entrp">   -293.12639563 </i>
    <i name="e_0_energy">   -293.13935178 </i>
   </energy>
  </scstep>
  <scstep>
   <time name="diag">    8.83    8.86</time>
   <time name="diis">   18.14   18.17</time>
   <time name="orth">    0.48    0.48</time>
   <time name="total">   31.41   31.49</time>
   <energy>
    <i name="e_fr_energy">   -293.14608802 </i>
    <i name="e_wo_entrp">   -293.12582325 </i>
    <i name="e_0_energy">   -293.13933310 </i>
   </energy>
  </scstep>
  <scstep>
   <time name="diag">    8.88    8.91</time>
   <time name="diis">   17.13   17.44</time>
   <time name="orth">    0.49    0.49</time>
   <time name="total">   30.46   30.81</time>
   <energy>
    <i name="e_fr_energy">   -293.14632684 </i>
    <i name="e_wo_entrp">   -293.12544635 </i>
    <i name="e_0_energy">   -293.13936668 </i>
   </energy>
  </scstep>
  <scstep>
   <time name="diag">    8.91    8.94</time>
   <time name="diis">   17.45   17.47</time>
   <time name="orth">    0.48    0.48</time>
   <time name="total">   30.82   30.88</time>
   <energy>
    <i name="e_fr_energy">   -293.14615422 </i>
    <i name="e_wo_entrp">   -293.12498806 </i>
    <i name="e_0_energy">   -293.13909883 </i>
   </energy>
  </scstep>
  <scstep>
   <time name="diag">    8.91    8.97</time>
   <time name="diis">   15.52   15.82</time>
   <time name="orth">    0.48    0.49</time>
   <time name="total">   28.86   29.23</time>
   <energy>
    <i name="e_fr_energy">   -293.14611100 </i>
    <i name="e_wo_entrp">   -293.12473470 </i>
    <i name="e_0_energy">   -293.13898556 </i>
   </energy>
  </scstep>
  <scstep>
   <time name="diag">    8.88    8.90</time>
   <time name="diis">   14.88   14.94</time>
   <time name="orth">    0.48    0.48</time>
   <time name="total">   28.19   28.27</time>
   <energy>
    <i name="e_fr_energy">   -293.14600236 </i>
    <i name="e_wo_entrp">   -293.12447579 </i>
    <i name="e_0_energy">   -293.13882684 </i>
   </energy>
  </scstep>
  <scstep>
   <time name="diag">    8.87    8.90</time>
   <time name="diis">   14.94   15.31</time>
   <time name="orth">    0.48    0.48</time>
   <time name="total">   28.23   28.65</time>
   <energy>
    <i name="e_fr_energy">   -293.14597182 </i>
    <i name="e_wo_entrp">   -293.12431129 </i>
    <i name="e_0_energy">   -293.13875164 </i>
   </energy>
  </scstep>
  <scstep>
   <time name="diag">    8.87    8.89</time>
   <time name="diis">   14.42   14.44</time>
   <time name="orth">    0.49    0.49</time>
   <time name="total">   27.72   27.77</time>
   <energy>
    <i name="e_fr_energy">   -293.14588791 </i>
    <i name="e_wo_entrp">   -293.12411891 </i>
    <i name="e_0_energy">   -293.13863158 </i>
   </energy>
  </scstep>
  <scstep>
   <time name="diag">    8.86    8.98</time>
   <time name="diis">   14.43   14.70</time>
   <time name="orth">    0.48    0.48</time>
   <time name="total">   27.74   28.13</time>
   <energy>
    <i name="e_fr_energy">   -293.14584608 </i>
    <i name="e_wo_entrp">   -293.12398466 </i>
    <i name="e_0_energy">   -293.13855894 </i>
   </energy>
  </scstep>
  <scstep>
   <time name="diag">    8.87    8.94</time>
   <time name="diis">   13.98   14.00</time>
   <time name="orth">    0.48    0.48</time>
   <time name="total">   27.30   27.42</time>
   <energy>
    <i name="e_fr_energy">   -293.14578713 </i>
    <i name="e_wo_entrp">   -293.12384744 </i>
    <i name="e_0_energy">   -293.13847390 </i>
   </energy>
  </scstep>
  <scstep>
   <time name="diag">    8.86    8.88</time>
   <time name="diis">   13.84   13.91</time>
   <time name="orth">    0.50    0.50</time>
   <time name="total">   27.27   27.46</time>
   <energy>
    <i name="e_fr_energy">   -293.14573789 </i>
    <i name="e_wo_entrp">   -293.12373484 </i>
    <i name="e_0_energy">   -293.13840354 </i>
   </energy>
  </scstep>
  <scstep>
   <time name="diag">    8.85    8.86</time>
   <time name="diis">   13.37   13.40</time>
   <time name="orth">    0.48    0.48</time>
   <time name="total">   26.67   26.76</time>
   <energy>
    <i name="e_fr_energy">   -293.14569825 </i>
    <i name="e_wo_entrp">   -293.12364060 </i>
    <i name="e_0_energy">   -293.13834570 </i>
   </energy>
  </scstep>
  <scstep>
   <time name="diag">    8.85    8.86</time>
   <time name="diis">   13.02   13.25</time>
   <time name="orth">    0.49    0.49</time>
   <time name="total">   26.31   26.55</time>
   <energy>
    <i name="e_fr_energy">   -293.14565442 </i>
    <i name="e_wo_entrp">   -293.12355236 </i>
    <i name="e_0_energy">   -293.13828707 </i>
   </energy>
  </scstep>
  <scstep>
   <time name="diag">    9.18    9.54</time>
   <time name="diis">   12.74   12.75</time>
   <time name="orth">    0.48    0.48</time>
   <time name="total">   26.38   26.79</time>
   <energy>
    <i name="e_fr_energy">   -293.14562627 </i>
    <i name="e_wo_entrp">   -293.12348544 </i>
    <i name="e_0_energy">   -293.13824599 </i>
   </energy>
  </scstep>
  <scstep>
   <time name="diag">    8.83    8.84</time>
   <time name="diis">   12.53   12.56</time>
   <time name="orth">    0.48    0.48</time>
   <time name="total">   25.82   25.95</time>
   <energy>
    <i name="e_fr_energy">   -293.14559216 </i>
    <i name="e_wo_entrp">   -293.12341914 </i>
    <i name="e_0_energy">   -293.13820115 </i>
   </energy>
  </scstep>
  <scstep>
   <time name="diag">    8.91    8.95</time>
   <time name="diis">   12.25   12.50</time>
   <time name="orth">    0.48    0.48</time>
   <time name="total">   25.57   25.86</time>
   <energy>
    <i name="e_fr_energy">   -293.14556682 </i>
    <i name="e_wo_entrp">   -293.12336683 </i>
    <i name="e_0_energy">   -293.13816682 </i>
   </energy>
  </scstep>
  <scstep>
   <time name="diag">    8.84    8.87</time>
   <time name="diis">   11.91   11.93</time>
   <time name="orth">    0.48    0.48</time>
   <time name="total">   25.17   25.22</time>
   <energy>
    <i name="e_fr_energy">   -293.14554415 </i>
    <i name="e_wo_entrp">   -293.12332142 </i>
    <i name="e_0_energy">   -293.13813658 </i>
   </energy>
  </scstep>
  <scstep>
   <time name="diag">    8.88    8.98</time>
   <time name="diis">   11.75   11.79</time>
   <time name="orth">    0.49    0.50</time>
   <time name="total">   25.14   25.38</time>
   <energy>
    <i name="e_fr_energy">   -293.14553118 </i>
    <i name="e_wo_entrp">   -293.12328650 </i>
    <i name="e_0_energy">   -293.13811629 </i>
   </energy>
  </scstep>
  <scstep>
   <time name="diag">    8.87    8.88</time>
   <time name="diis">   11.84   11.86</time>
   <time name="orth">    0.48    0.48</time>
   <time name="total">   25.14   25.18</time>
   <energy>
    <i name="e_fr_energy">   -293.14551361 </i>
    <i name="e_wo_entrp">   -293.12324921 </i>
    <i name="e_0_energy">   -293.13809214 </i>
   </energy>
  </scstep>
  <scstep>
   <time name="diag">    8.88    8.90</time>
   <time name="diis">   11.44   11.49</time>
   <time name="orth">    0.48    0.49</time>
   <time name="total">   24.76   24.84</time>
   <energy>
    <i name="e_fr_energy">   -293.14549206 </i>
    <i name="e_wo_entrp">   -293.12321161 </i>
    <i name="e_0_energy">   -293.13806524 </i>
   </energy>
  </scstep>
  <scstep>
   <time name="diag">    9.22    9.45</time>
   <time name="diis">   11.16   11.18</time>
   <time name="orth">    0.50    0.50</time>
   <time name="total">   24.91   25.18</time>
   <energy>
    <i name="e_fr_energy">   -293.14547292 </i>
    <i name="e_wo_entrp">   -293.12318094 </i>
    <i name="e_0_energy">   -293.13804226 </i>
   </energy>
  </scstep>
  <scstep>
   <time name="diag">    8.88    8.89</time>
   <time name="diis">   10.86   10.92</time>
   <time name="orth">    0.49    0.49</time>
   <time name="total">   20.76   20.84</time>
   <energy>
    <i name="alphaZ">    477.09650995 </i>
    <i name="ewald"> 394121.20635631 </i>
    <i name="hartreedc">-427834.58157137 </i>
    <i name="XCdc">   1612.93964487 </i>
    <i name="pawpsdc">  38076.62229307 </i>
    <i name="pawaedc"> -38782.44721725 </i>
    <i name="eentropy">     -0.02230416 </i>
    <i name="bandstr">  -5916.89239399 </i>
    <i name="atom">  37952.93320877 </i>
    <i name="e_fr_energy">   -293.14547378 </i>
    <i name="e_wo_entrp">   -293.12316963 </i>
    <i name="e_0_energy">   -293.13803907 </i>
   </energy>
  </scstep>
  <structure>
   <crystal>
    <varray name="basis" >
     <v>       2.87357350      -2.87357350       4.70833511 </v>
     <v>       5.74714699       0.00000000       0.00000000 </v>
     <v>       0.00000000      33.06569101      20.18052901 </v>
    </varray>
    <i name="volume">   1228.01926054 </i>
    <varray name="rec_basis" >
     <v>       0.00000000      -0.09444515       0.15474789 </v>
     <v>       0.17399938       0.04722258      -0.07737394 </v>
     <v>       0.00000000       0.02203507       0.01344836 </v>
    </varray>
   </crystal>
   <varray name="positions" >
    <v>       0.22067121       0.89240241       0.08901558 </v>
    <v>       0.66329765       0.16734453       0.21820417 </v>
    <v>       0.94927612       0.02809995       0.15233499 </v>
    <v>       0.37614102       0.31494570       0.28544666 </v>
    <v>       0.44927612       0.52809995       0.15233499 </v>
    <v>       0.89438150       0.30575029       0.28176831 </v>
    <v>       0.44927612       0.02809995       0.15233499 </v>
    <v>       0.89231665       0.80169400       0.28134854 </v>
    <v>       0.90282244       0.55132680       0.10484543 </v>
    <v>       0.35267361       0.82276585       0.23372066 </v>
    <v>       0.99294296       0.50403616       0.20055472 </v>
    <v>       0.42066068       0.79504826       0.33433740 </v>
    <v>       0.53851998       0.23347802       0.07318573 </v>
    <v>       0.01859062       0.48665583       0.35001011 </v>
    <v>       0.76998095       0.61415555       0.30949671 </v>
    <v>       0.87926422       0.06310591       0.05527763 </v>
    <v>       0.34012104       0.33057110       0.18269965 </v>
    <v>       0.58246139       0.21150732       0.12452493 </v>
    <v>       0.03090379       0.48799876       0.25344842 </v>
    <v>       0.68112556       0.71538434       0.37260345 </v>
    <v>       0.09516526       0.72856013       0.12156099 </v>
    <v>       0.54171798       0.44986276       0.25315852 </v>
    <v>       0.74314367       0.12512029       0.31152318 </v>
    <v>       0.85888103       0.57329750       0.05350623 </v>
    <v>       0.31379662       0.84609247       0.18069635 </v>
    <v>       0.56207820       0.72169891       0.12275353 </v>
    <v>       0.00289085       0.99897467       0.25285847 </v>
    <v>       0.79438655       0.32551601       0.18430464 </v>
    <v>       0.22082643       0.62071417       0.31566905 </v>
    <v>       0.34617716       0.60305419       0.05647018 </v>
    <v>       0.21666290       0.16913866       0.31532354 </v>
    <v>       0.79552259       0.88013140       0.18401497 </v>
    <v>       0.34617716       0.05624469       0.05647018 </v>
    <v>       0.53946287       0.00908288       0.25309965 </v>
    <v>       0.09516526       0.18175063       0.12156099 </v>
    <v>       0.20101848       0.35167983       0.39134545 </v>
    <v>       0.34047062       0.60391201       0.02782883 </v>
    <v>       0.92434681       0.68523651       0.03696881 </v>
    <v>       0.34363348       0.06399961       0.02783421 </v>
    <v>       0.88838126       0.05560908       0.02665597 </v>
    <v>       0.64383006       0.77786911       0.39626106 </v>
    <v>       0.75891323       0.09970631       0.33642649 </v>
    <v>       0.09359115       0.41696722       0.41143732 </v>
   </varray>
  </structure>
  <varray name="forces" >
   <v>       0.11019296      -1.76155425      -1.61120516 </v>
   <v>       0.00256627      -0.05041726      -0.03272923 </v>
   <v>      -0.12965185       0.63182172      -0.00261546 </v>
   <v>      -0.01364405       0.02668206      -0.02403010 </v>
   <v>      -0.02101576       0.33899213       0.11280258 </v>
   <v>      -0.02662419       0.01189612       0.02596176 </v>
   <v>      -0.06943538       0.21487086       0.10561541 </v>
   <v>      -0.00949425       0.05214899       0.01967041 </v>
   <v>      -0.02717376      -1.33112550      -0.86024849 </v>
   <v>       0.03473578      -0.02361299       0.00509160 </v>
   <v>       0.01717101      -0.00202113      -0.02463450 </v>
   <v>       0.01251999      -0.03939263      -0.04873064 </v>
   <v>       0.00825923      -0.51192742       0.25966688 </v>
   <v>       0.07491667      -0.04235941       0.00983251 </v>
   <v>       0.01726246      -0.01137440      -0.10849986 </v>
   <v>      -0.31327699      -3.58913836      -1.94653350 </v>
   <v>      -0.04870652       0.07478073      -0.02924334 </v>
   <v>      -0.07544301       0.26910817       0.37585054 </v>
   <v>      -0.00401408      -0.04546290       0.01876988 </v>
   <v>       0.06670632       0.07717678       0.05375777 </v>
   <v>       0.35643129       0.37144258       0.55142921 </v>
   <v>       0.04216676       0.05480147       0.03378446 </v>
   <v>      -0.03465713       0.05231587      -0.04838260 </v>
   <v>       2.58621796      -2.43359712      -0.25527271 </v>
   <v>       0.05064701       0.06158232      -0.03640054 </v>
   <v>       0.11177371       0.32814756      -0.34425970 </v>
   <v>       0.02139503      -0.01562990      -0.00959983 </v>
   <v>       0.03348697      -0.03098866       0.04169990 </v>
   <v>       0.13681557      -0.02608610       0.05259679 </v>
   <v>      -0.95056307      -3.57279023      -2.14682620 </v>
   <v>      -0.13504636      -0.06924024       0.04330410 </v>
   <v>      -0.03284960      -0.00327758       0.03607266 </v>
   <v>       1.05419617      -3.62951138      -1.92342424 </v>
   <v>      -0.05606114       0.05545950      -0.01384021 </v>
   <v>      -0.14396635       0.36058060       0.46065584 </v>
   <v>      -0.03031996       0.32792414       0.09227626 </v>
   <v>       0.56584610       3.79569796       2.31178924 </v>
   <v>      -2.81291446       2.99575689       0.46171476 </v>
   <v>      -0.65606786       3.93223542       2.09150027 </v>
   <v>       0.36367137       3.65765787       2.16353497 </v>
   <v>      -0.02306009      -0.13078785      -0.01597941 </v>
   <v>      -0.00124543       0.00989965       0.02803015 </v>
   <v>      -0.05174735      -0.38068409       0.12704778 </v>
  </varray>
  <energy>
   <i name="e_fr_energy">   -293.14547378 </i>
   <i name="e_wo_entrp">   -293.13803907 </i>
   <i name="e_0_energy">     -0.02230416 </i>
  </energy>
  <time name="totalsc"> 1070.70 1078.64</time>
 </calculation>
 <calculation>
  <scstep>
   <time name="dav">   46.82   46.97</time>
   <time name="total">   50.79   50.95</time>
   <energy>
    <i name="alphaZ">    477.09650995 </i>
    <i name="ewald"> 394091.12005706 </i>
    <i name="hartreedc">-427804.30459942 </i>
    <i name="XCdc">   1612.94828136 </i>
    <i name="pawpsdc">  38076.62246230 </i>
    <i name="pawaedc"> -38782.44748118 </i>
    <i name="eentropy">     -0.02218522 </i>
    <i name="bandstr">  -5917.07256224 </i>
    <i name="atom">  37952.93320877 </i>
    <i name="e_fr_energy">   -293.12630861 </i>
    <i name="e_wo_entrp">   -293.10412340 </i>
    <i name="e_0_energy">   -293.11891354 </i>
   </energy>
  </scstep>
  <scstep>
   <time name="diag">    9.04    9.40</time>
   <time name="diis">   29.77   29.82</time>
   <time name="orth">    0.48    0.48</time>
   <time name="total">   43.25   43.67</time>
   <energy>
    <i name="e_fr_energy">   -293.24211350 </i>
    <i name="e_wo_entrp">   -293.25295854 </i>
    <i name="e_0_energy">   -293.24572852 </i>
   </energy>
  </scstep>
  <scstep>
   <time name="diag">    8.88    8.91</time>
   <time name="diis">   25.82   26.19</time>
   <time name="orth">    0.49    0.49</time>
   <time name="total">   39.13   39.56</time>
   <energy>
    <i name="e_fr_energy">   -293.16121047 </i>
    <i name="e_wo_entrp">   -293.16805264 </i>
    <i name="e_0_energy">   -293.16349119 </i>
   </energy>
  </scstep>
  <scstep>
   <time name="diag">    8.83    8.85</time>
   <time name="diis">   26.50   26.56</time>
   <time name="orth">    0.48    0.49</time>
   <time name="total">   39.83   39.96</time>
   <energy>
    <i name="e_fr_energy">   -293.11539466 </i>
    <i name="e_wo_entrp">   -293.10573866 </i>
    <i name="e_0_energy">   -293.11217600 </i>
   </energy>
  </scstep>
  <scstep>
   <time name="diag">    9.16    9.44</time>
   <time name="diis">   25.36   25.41</time>
   <time name="orth">    0.48    0.48</time>
   <time name="total">   38.93   39.27</time>
   <energy>
    <i name="e_fr_energy">   -293.13839497 </i>
    <i name="e_wo_entrp">   -293.11880591 </i>
    <i name="e_0_energy">   -293.13186528 </i>
   </energy>
  </scstep>
  <scstep>
   <time name="diag">    8.83    8.85</time>
   <time name="diis">   24.04   24.38</time>
   <time name="orth">    0.48    0.48</time>
   <time name="total">   37.32   37.68</time>
   <energy>
    <i name="e_fr_energy">   -293.15651806 </i>
    <i name="e_wo_entrp">   -293.13404217 </i>
    <i name="e_0_energy">   -293.14902609 </i>
   </energy>
  </scstep>
  <scstep>
   <time name="diag">    8.84    8.85</time>
   <time name="diis">   22.92   23.01</time>
   <time name="orth">    0.48    0.48</time>
   <time name="total">   36.21   36.35</time>
   <energy>
    <i name="e_fr_energy">   -293.15492563 </i>
    <i name="e_wo_entrp">   -293.13204763 </i>
    <i name="e_0_energy">   -293.14729963 </i>
   </energy>
  </scstep>
  <scstep>
   <time name="diag">    8.93    9.00</time>
   <time name="diis">   23.87   24.05</time>
   <time name="orth">    0.49    0.49</time>
   <time name="total">   37.26   37.50</time>
   <energy>
    <i name="e_fr_energy">   -293.16854825 </i>
    <i name="e_wo_entrp">   -293.15044754 </i>
    <i name="e_0_energy">   -293.16251468 </i>
   </energy>
  </scstep>
  <scstep>
   <time name="diag">    8.88    8.90</time>
   <time name="diis">   22.40   22.55</time>
   <time name="orth">    0.51    0.54</time>
   <time name="total">   35.88   36.24</time>
   <energy>
    <i name="e_fr_energy">   -293.16472968 </i>
    <i name="e_wo_entrp">   -293.15040995 </i>
    <i name="e_0_energy">   -293.15995644 </i>
   </energy>
  </scstep>
  <scstep>
   <time name="diag">    8.85    8.86</time>
   <time name="diis">   23.89   23.94</time>
   <time name="orth">    0.48    0.49</time>
   <time name="total">   37.18   37.25</time>
   <energy>
    <i name="e_fr_energy">   -293.18254512 </i>
    <i name="e_wo_entrp">   -293.17727438 </i>
    <i name="e_0_energy">   -293.18078820 </i>
   </energy>
  </scstep>
  <scstep>
   <time name="diag">    8.89    8.95</time>
   <time name="diis">   23.07   23.42</time>
   <time name="orth">    0.49    0.49</time>
   <time name="total">   36.46   36.88</time>
   <energy>
    <i name="e_fr_energy">   -293.19627030 </i>
    <i name="e_wo_entrp">   -293.19811346 </i>
    <i name="e_0_energy">   -293.19688469 </i>
   </energy>
  </scstep>
  <scstep>
   <time name="diag">    8.87    8.88</time>
   <time name="diis">   21.93   22.00</time>
   <time name="orth">    0.49    0.49</time>
   <time name="total">   35.26   35.35</time>
   <energy>
    <i name="e_fr_energy">   -293.19662722 </i>
    <i name="e_wo_entrp">   -293.19999835 </i>
    <i name="e_0_energy">   -293.19775093 </i>
   </energy>
  </scstep>
  <scstep>
   <time name="diag">    9.16    9.31</time>
   <time name="diis">   23.23   23.27</time>
   <time name="orth">    0.49    0.49</time>
   <time name="total">   36.83   37.02</time>
   <energy>
    <i name="e_fr_energy">   -293.20920231 </i>
    <i name="e_wo_entrp">   -293.21393745 </i>
    <i name="e_0_energy">   -293.21078069 </i>
   </energy>
  </scstep>
  <scstep>
   <time name="diag">    8.88    8.90</time>
   <time name="diis">   17.45   17.53</time>
   <time name="orth">    0.50    0.50</time>
   <time name="total">   31.03   31.17</time>
   <energy>
    <i name="e_fr_energy">   -293.21036008 </i>
    <i name="e_wo_entrp">   -293.21520243 </i>
    <i name="e_0_energy">   -293.21197420 </i>
   </energy>
  </scstep>
  <scstep>
   <time name="diag">    8.98    9.04</time>
   <time name="diis">   16.36   16.39</time>
   <time name="orth">    0.48    0.48</time>
   <time name="total">   29.85   30.03</time>
   <energy>
    <i name="e_fr_energy">   -293.21214231 </i>
    <i name="e_wo_entrp">   -293.21715582 </i>
    <i name="e_0_energy">   -293.21381348 </i>
   </energy>
  </scstep>
  <scstep>
   <time name="diag">    8.88    8.90</time>
   <time name="diis">   20.61   20.75</time>
   <time name="orth">    0.63    0.73</time>
   <time name="total">   34.20   34.53</time>
   <energy>
    <i name="e_fr_energy">   -293.21967086 </i>
    <i name="e_wo_entrp">   -293.22494236 </i>
    <i name="e_0_energy">   -293.22142802 </i>
   </energy>
  </scstep>
  <scstep>
   <time name="diag">    8.85    8.87</time>
   <time name="diis">   22.08   22.11</time>
   <time name="orth">    0.48    0.48</time>
   <time name="total">   35.34   35.40</time>
   <energy>
    <i name="e_fr_energy">   -293.20894326 </i>
    <i name="e_wo_entrp">   -293.21366790 </i>
    <i name="e_0_energy">   -293.21051814 </i>
   </energy>
  </scstep>
  <scstep>
   <time name="diag">    8.88    8.93</time>
   <time name="diis">   21.91   22.18</time>
   <time name="orth">    0.48    0.48</time>
   <time name="total">   35.24   35.57</time>
   <energy>
    <i name="e_fr_energy">   -293.20467430 </i>
    <i name="e_wo_entrp">   -293.20895493 </i>
    <i name="e_0_energy">   -293.20610118 </i>
   </energy>
  </scstep>
  <scstep>
   <time name="diag">    8.83    8.85</time>
   <time name="diis">   16.92   16.94</time>
   <time name="orth">    0.49    0.50</time>
   <time name="total">   30.19   30.25</time>
   <energy>
    <i name="e_fr_energy">   -293.21026136 </i>
    <i name="e_wo_entrp">   -293.21485414 </i>
    <i name="e_0_energy">   -293.21179229 </i>
   </energy>
  </scstep>
  <scstep>
   <time name="diag">    9.15    9.20</time>
   <time name="diis">   23.37   23.71</time>
   <time name="orth">    0.49    0.49</time>
   <time name="total">   36.95   37.39</time>
   <energy>
    <i name="e_fr_energy">   -293.20727086 </i>
    <i name="e_wo_entrp">   -293.21162541 </i>
    <i name="e_0_energy">   -293.20872237 </i>
   </energy>
  </scstep>
  <scstep>
   <time name="diag">    8.83    8.84</time>
   <time name="diis">   22.75   22.85</time>
   <time name="orth">    0.49    0.50</time>
   <time name="total">   36.10   36.26</time>
   <energy>
    <i name="e_fr_energy">   -293.19884383 </i>
    <i name="e_wo_entrp">   -293.20274624 </i>
    <i name="e_0_energy">   -293.20014463 </i>
   </energy>
  </scstep>
  <scstep>
   <time name="diag">    8.95    9.10</time>
   <time name="diis">   23.03   23.06</time>
   <time name="orth">    0.48    0.48</time>
   <time name="total">   36.47   36.69</time>
   <energy>
    <i name="e_fr_energy">   -293.18930182 </i>
    <i name="e_wo_entrp">   -293.19242721 </i>
    <i name="e_0_energy">   -293.19034362 </i>
   </energy>
  </scstep>
  <scstep>
   <time name="diag">    8.86    8.90</time>
   <time name="diis">   24.33   24.71</time>
   <time name="orth">    0.48    0.48</time>
   <time name="total">   37.65   38.08</time>
   <energy>
    <i name="e_fr_energy">   -293.15675823 </i>
    <i name="e_wo_entrp">   -293.15429567 </i>
    <i name="e_0_energy">   -293.15593738 </i>
   </energy>
  </scstep>
  <scstep>
   <time name="diag">    8.86    8.87</time>
   <time name="diis">   25.44   25.52</time>
   <time name="orth">    0.49    0.49</time>
   <time name="total">   38.77   38.90</time>
   <energy>
    <i name="e_fr_energy">   -293.11156428 </i>
    <i name="e_wo_entrp">   -293.09530225 </i>
    <i name="e_0_energy">   -293.10614360 </i>
   </energy>
  </scstep>
  <scstep>
   <time name="diag">    9.33    9.46</time>
   <time name="diis">   24.90   24.95</time>
   <time name="orth">    0.48    0.48</time>
   <time name="total">   38.66   38.85</time>
   <energy>
    <i name="e_fr_energy">   -293.10367128 </i>
    <i name="e_wo_entrp">   -293.07936208 </i>
    <i name="e_0_energy">   -293.09556821 </i>
   </energy>
  </scstep>
  <scstep>
   <time name="diag">    8.86    8.89</time>
   <time name="diis">   24.66   24.93</time>
   <time name="orth">    0.48    0.49</time>
   <time name="total">   37.98   38.29</time>
   <energy>
    <i name="e_fr_energy">   -293.15162741 </i>
    <i name="e_wo_entrp">   -293.13903708 </i>
    <i name="e_0_energy">   -293.14743063 </i>
   </energy>
  </scstep>
  <scstep>
   <time name="diag">    8.90    8.92</time>
   <time name="diis">   23.49   23.53</time>
   <time name="orth">    0.48    0.49</time>
   <time name="total">   36.85   36.96</time>
   <energy>
    <i name="e_fr_energy">   -293.21580628 </i>
    <i name="e_wo_entrp">   -293.22468838 </i>
    <i name="e_0_energy">   -293.21876698 </i>
   </energy>
  </scstep>
  <scstep>
   <time name="diag">    8.88    8.93</time>
   <time name="diis">   22.95   23.18</time>
   <time name="orth">    0.48    0.48</time>
   <time name="total">   36.29   36.57</time>
   <energy>
    <i name="e_fr_energy">   -293.22735002 </i>
    <i name="e_wo_entrp">   -293.24576309 </i>
    <i name="e_0_energy">   -293.23348771 </i>
   </energy>
  </scstep>
  <scstep>
   <time name="diag">    8.85    8.86</time>
   <time name="diis">   25.03   25.16</time>
   <time name="orth">    0.50    0.50</time>
   <time name="total">   38.51   38.95</time>
   <energy>
    <i name="e_fr_energy">   -293.18733125 </i>
    <i name="e_wo_entrp">   -293.20497740 </i>
    <i name="e_0_energy">   -293.19321330 </i>
   </energy>
  </scstep>
  <scstep>
   <time name="diag">    8.87    8.88</time>
   <time name="diis">   25.32   25.36</time>
   <time name="orth">    0.49    0.49</time>
   <time name="total">   38.65   38.70</time>
   <energy>
    <i name="e_fr_energy">   -293.14976394 </i>
    <i name="e_wo_entrp">   -293.16131624 </i>
    <i name="e_0_energy">   -293.15361471 </i>
   </energy>
  </scstep>
  <scstep>
   <time name="diag">    8.88    8.94</time>
   <time name="diis">   25.21   25.53</time>
   <time name="orth">    0.48    0.48</time>
   <time name="total">   38.50   38.88</time>
   <energy>
    <i name="e_fr_energy">   -293.13546695 </i>
    <i name="e_wo_entrp">   -293.13994630 </i>
    <i name="e_0_energy">   -293.13696007 </i>
   </energy>
  </scstep>
  <scstep>
   <time name="diag">    8.83    8.83</time>
   <time name="diis">   25.36   25.46</time>
   <time name="orth">    0.50    0.50</time>
   <time name="total">   38.69   38.81</time>
   <energy>
    <i name="e_fr_energy">   -293.12032975 </i>
    <i name="e_wo_entrp">   -293.11272340 </i>
    <i name="e_0_energy">   -293.11779430 </i>
   </energy>
  </scstep>
  <scstep>
   <time name="diag">    9.00    9.17</time>
   <time name="diis">   23.73   23.78</time>
   <time name="orth">    0.48    0.48</time>
   <time name="total">   37.18   37.47</time>
   <energy>
    <i name="e_fr_energy">   -293.13378300 </i>
    <i name="e_wo_entrp">   -293.11541970 </i>
    <i name="e_0_energy">   -293.12766190 </i>
   </energy>
  </scstep>
  <scstep>
   <time name="diag">    8.82    8.84</time>
   <time name="diis">   23.17   23.53</time>
   <time name="orth">    0.48    0.48</time>
   <time name="total">   36.48   36.87</time>
   <energy>
    <i name="e_fr_energy">   -293.16427185 </i>
    <i name="e_wo_entrp">   -293.14324476 </i>
    <i name="e_0_energy">   -293.15726282 </i>
   </energy>
  </scstep>
  <scstep>
   <time name="diag">    8.89    8.91</time>
   <time name="diis">   23.48   23.56</time>
   <time name="orth">    0.49    0.49</time>
   <time name="total">   36.83   36.94</time>
   <energy>
    <i name="e_fr_energy">   -293.15943941 </i>
    <i name="e_wo_entrp">   -293.13833619 </i>
    <i name="e_0_energy">   -293.15240500 </i>
   </energy>
  </scstep>
  <scstep>
   <time name="diag">    9.09    9.29</time>
   <time name="diis">   23.75   23.80</time>
   <time name="orth">    0.48    0.49</time>
   <time name="total">   37.31   37.57</time>
   <energy>
    <i name="e_fr_energy">   -293.14480981 </i>
    <i name="e_wo_entrp">   -293.12280403 </i>
    <i name="e_0_energy">   -293.13747455 </i>
   </energy>
  </scstep>
  <scstep>
   <time name="diag">    8.93    8.94</time>
   <time name="diis">   23.90   24.24</time>
   <time name="orth">    0.49    0.49</time>
   <time name="total">   37.27   37.64</time>
   <energy>
    <i name="e_fr_energy">   -293.14307388 </i>
    <i name="e_wo_entrp">   -293.12077111 </i>
    <i name="e_0_energy">   -293.13563963 </i>
   </energy>
  </scstep>
  <scstep>
   <time name="diag">    8.87    8.90</time>
   <time name="diis">   16.15   16.17</time>
   <time name="orth">    0.48    0.48</time>
   <time name="total">   29.48   29.53</time>
   <energy>
    <i name="e_fr_energy">   -293.14388911 </i>
    <i name="e_wo_entrp">   -293.12150608 </i>
    <i name="e_0_energy">   -293.13642810 </i>
   </energy>
  </scstep>
  <scstep>
   <time name="diag">    8.86    8.88</time>
   <time name="diis">   15.76   16.05</time>
   <time name="orth">    0.49    0.50</time>
   <time name="total">   29.13   29.46</time>
   <energy>
    <i name="e_fr_energy">   -293.14396095 </i>
    <i name="e_wo_entrp">   -293.12144933 </i>
    <i name="e_0_energy">   -293.13645708 </i>
   </energy>
  </scstep>
  <scstep>
   <time name="diag">    8.87    8.88</time>
   <time name="diis">   14.82   14.85</time>
   <time name="orth">    0.48    0.48</time>
   <time name="total">   28.16   28.21</time>
   <energy>
    <i name="e_fr_energy">   -293.14451885 </i>
    <i name="e_wo_entrp">   -293.12197782 </i>
    <i name="e_0_energy">   -293.13700517 </i>
   </energy>
  </scstep>
  <scstep>
   <time name="diag">    8.89    8.92</time>
   <time name="diis">   18.20   18.54</time>
   <time name="orth">    0.50    0.56</time>
   <time name="total">   31.57   32.01</time>
   <energy>
    <i name="e_fr_energy">   -293.14224742 </i>
    <i name="e_wo_entrp">   -293.11920856 </i>
    <i name="e_0_energy">   -293.13456780 </i>
   </energy>
  </scstep>
  <scstep>
   <time name="diag">    8.87    8.88</time>
   <time name="diis">   21.78   21.82</time>
   <time name="orth">    0.48    0.48</time>
   <time name="total">   35.09   35.15</time>
   <energy>
    <i name="e_fr_energy">   -293.14030177 </i>
    <i name="e_wo_entrp">   -293.11671531 </i>
    <i name="e_0_energy">   -293.13243962 </i>
   </energy>
  </scstep>
  <scstep>
   <time name="diag">    8.92    8.97</time>
   <time name="diis">   20.19   20.45</time>
   <time name="orth">    0.48    0.49</time>
   <time name="total">   33.58   33.92</time>
   <energy>
    <i name="e_fr_energy">   -293.14186429 </i>
    <i name="e_wo_entrp">   -293.11825734 </i>
    <i name="e_0_energy">   -293.13399531 </i>
   </energy>
  </scstep>
  <scstep>
   <time name="diag">    8.84    8.85</time>
   <time name="diis">   21.12   21.14</time>
   <time name="orth">    0.48    0.49</time>
   <time name="total">   34.45   34.52</time>
   <energy>
    <i name="e_fr_energy">   -293.14560687 </i>
    <i name="e_wo_entrp">   -293.12220619 </i>
    <i name="e_0_energy">   -293.13780664 </i>
   </energy>
  </scstep>
  <scstep>
   <time name="diag">    9.01    9.15</time>
   <time name="diis">   22.70   22.95</time>
   <time name="orth">    0.50    0.51</time>
   <time name="total">   36.17   36.58</time>
   <energy>
    <i name="e_fr_energy">   -293.14852892 </i>
    <i name="e_wo_entrp">   -293.12518923 </i>
    <i name="e_0_energy">   -293.14074902 </i>
   </energy>
  </scstep>
  <scstep>
   <time name="diag">    8.83    8.84</time>
   <time name="diis">   22.04   22.32</time>
   <time name="orth">    0.50    0.50</time>
   <time name="total">   35.48   36.05</time>
   <energy>
    <i name="e_fr_energy">   -293.14654933 </i>
    <i name="e_wo_entrp">   -293.12305429 </i>
    <i name="e_0_energy">   -293.13871765 </i>
   </energy>
  </scstep>
  <scstep>
   <time name="diag">    8.71    8.72</time>
   <time name="diis">   22.97   23.01</time>
   <time name="orth">    0.48    0.48</time>
   <time name="total">   36.07   36.16</time>
   <energy>
    <i name="e_fr_energy">   -293.14417066 </i>
    <i name="e_wo_entrp">   -293.12063116 </i>
    <i name="e_0_energy">   -293.13632416 </i>
   </energy>
  </scstep>
  <scstep>
   <time name="diag">    8.79    8.82</time>
   <time name="diis">   23.24   23.58</time>
   <time name="orth">    0.49    0.49</time>
   <time name="total">   36.53   36.93</time>
   <energy>
    <i name="e_fr_energy">   -293.14490130 </i>
    <i name="e_wo_entrp">   -293.12179382 </i>
    <i name="e_0_energy">   -293.13719880 </i>
   </energy>
  </scstep>
  <scstep>
   <time name="diag">    8.91    8.93</time>
   <time name="diis">   22.29   22.37</time>
   <time name="orth">    0.49    0.53</time>
   <time name="total">   35.68   35.82</time>
   <energy>
    <i name="e_fr_energy">   -293.14624631 </i>
    <i name="e_wo_entrp">   -293.12390290 </i>
    <i name="e_0_energy">   -293.13879851 </i>
   </energy>
  </scstep>
  <scstep>
   <time name="diag">    9.00    9.08</time>
   <time name="diis">   20.51   20.66</time>
   <time name="orth">    0.48    0.48</time>
   <time name="total">   33.90   34.14</time>
   <energy>
    <i name="e_fr_energy">   -293.14797442 </i>
    <i name="e_wo_entrp">   -293.12630757 </i>
    <i name="e_0_energy">   -293.14075213 </i>
   </energy>
  </scstep>
  <scstep>
   <time name="diag">    8.69    8.70</time>
   <time name="diis">   18.87   18.94</time>
   <time name="orth">    0.49    0.49</time>
   <time name="total">   32.02   32.11</time>
   <energy>
    <i name="e_fr_energy">   -293.14876337 </i>
    <i name="e_wo_entrp">   -293.12749258 </i>
    <i name="e_0_energy">   -293.14167311 </i>
   </energy>
  </scstep>
  <scstep>
   <time name="diag">    9.13    9.40</time>
   <time name="diis">   19.89   19.94</time>
   <time name="orth">    0.48    0.48</time>
   <time name="total">   33.49   33.82</time>
   <energy>
    <i name="e_fr_energy">   -293.14908616 </i>
    <i name="e_wo_entrp">   -293.12806441 </i>
    <i name="e_0_energy">   -293.14207891 </i>
   </energy>
  </scstep>
  <scstep>
   <time name="diag">    8.86    8.87</time>
   <time name="diis">   20.36   20.51</time>
   <time name="orth">    0.57    0.67</time>
   <time name="total">   33.85   34.20</time>
   <energy>
    <i name="e_fr_energy">   -293.14909642 </i>
    <i name="e_wo_entrp">   -293.12867216 </i>
    <i name="e_0_energy">   -293.14228833 </i>
   </energy>
  </scstep>
  <scstep>
   <time name="diag">    8.85    8.87</time>
   <time name="diis">   17.18   17.20</time>
   <time name="orth">    0.48    0.49</time>
   <time name="total">   30.50   30.54</time>
   <energy>
    <i name="e_fr_energy">   -293.14949234 </i>
    <i name="e_wo_entrp">   -293.12981369 </i>
    <i name="e_0_energy">   -293.14293279 </i>
   </energy>
  </scstep>
  <scstep>
   <time name="diag">    8.86    8.88</time>
   <time name="diis">   17.52   17.75</time>
   <time name="orth">    0.48    0.48</time>
   <time name="total">   30.84   31.10</time>
   <energy>
    <i name="e_fr_energy">   -293.14962128 </i>
    <i name="e_wo_entrp">   -293.13043336 </i>
    <i name="e_0_energy">   -293.14322530 </i>
   </energy>
  </scstep>
  <scstep>
   <time name="diag">    8.78    8.79</time>
   <time name="diis">   16.06   16.08</time>
   <time name="orth">    0.48    0.48</time>
   <time name="total">   29.25   29.29</time>
   <energy>
    <i name="e_fr_energy">   -293.14954200 </i>
    <i name="e_wo_entrp">   -293.13061387 </i>
    <i name="e_0_energy">   -293.14323262 </i>
   </energy>
  </scstep>
  <scstep>
   <time name="diag">    8.78    8.80</time>
   <time name="diis">   17.60   17.88</time>
   <time name="orth">    0.48    0.48</time>
   <time name="total">   30.76   31.06</time>
   <energy>
    <i name="e_fr_energy">   -293.14937678 </i>
    <i name="e_wo_entrp">   -293.13036649 </i>
    <i name="e_0_energy">   -293.14304001 </i>
   </energy>
  </scstep>
  <scstep>
   <time name="diag">    8.75    8.77</time>
   <time name="diis">   15.16   15.19</time>
   <time name="orth">    0.48    0.48</time>
   <time name="total">   28.31   28.36</time>
   <energy>
    <i name="e_fr_energy">   -293.14934633 </i>
    <i name="e_wo_entrp">   -293.13004310 </i>
    <i name="e_0_energy">   -293.14291192 </i>
   </energy>
  </scstep>
  <scstep>
   <time name="diag">    8.79    8.81</time>
   <time name="diis">   14.85   14.94</time>
   <time name="orth">    0.51    0.53</time>
   <time name="total">   28.15   28.42</time>
   <energy>
    <i name="e_fr_energy">   -293.14942783 </i>
    <i name="e_wo_entrp">   -293.12982119 </i>
    <i name="e_0_energy">   -293.14289228 </i>
   </energy>
  </scstep>
  <scstep>
   <time name="diag">    8.87    8.88</time>
   <time name="diis">   14.75   14.79</time>
   <time name="orth">    0.48    0.49</time>
   <time name="total">   24.64   24.69</time>
   <energy>
    <i name="alphaZ">    477.09650995 </i>
    <i name="ewald"> 394091.12005706 </i>
    <i name="hartreedc">-427805.89539484 </i>
    <i name="XCdc">   1612.95257012 </i>
    <i name="pawpsdc">  38074.81908470 </i>
    <i name="pawaedc"> -38780.62068291 </i>
    <i name="eentropy">     -0.01983390 </i>
    <i name="bandstr">  -5915.53502150 </i>
    <i name="atom">  37952.93320877 </i>
    <i name="e_fr_energy">   -293.14950255 </i>
    <i name="e_wo_entrp">   -293.12966865 </i>
    <i name="e_0_energy">   -293.14289125 </i>
   </energy>
  </scstep>
  <structure>
   <crystal>
    <varray name="basis" >
     <v>       2.87357350      -2.87357350       4.70833511 </v>
     <v>       5.74714699       0.00000000       0.00000000 </v>
     <v>       0.00000000      33.06569101      20.18052901 </v>
    </varray>
    <i name="volume">   1228.01926054 </i>
    <varray name="rec_basis" >
     <v>       0.00000000      -0.09444515       0.15474789 </v>
     <v>       0.17399938       0.04722258      -0.07737394 </v>
     <v>       0.00000000       0.02203507       0.01344836 </v>
    </varray>
   </crystal>
   <varray name="positions" >
    <v>       0.22067121       0.89240241       0.08901558 </v>
    <v>       0.66340171       0.16702553       0.21814500 </v>
    <v>       0.94927612       0.02809995       0.15233499 </v>
    <v>       0.37625436       0.31478878       0.28545984 </v>
    <v>       0.44927612       0.52809995       0.15233499 </v>
    <v>       0.89401179       0.30579260       0.28180912 </v>
    <v>       0.44927612       0.02809995       0.15233499 </v>
    <v>       0.89196363       0.80207776       0.28143048 </v>
    <v>       0.90282244       0.55132680       0.10484543 </v>
    <v>       0.35278396       0.82256442       0.23370880 </v>
    <v>       0.99312316       0.50371389       0.20053585 </v>
    <v>       0.42044661       0.79545004       0.33449198 </v>
    <v>       0.53851998       0.23347802       0.07318573 </v>
    <v>       0.01824394       0.48706740       0.34997425 </v>
    <v>       0.77003765       0.61441113       0.30951063 </v>
    <v>       0.87926422       0.06310591       0.05527763 </v>
    <v>       0.34016851       0.33044540       0.18271066 </v>
    <v>       0.58246139       0.21150732       0.12452493 </v>
    <v>       0.03105058       0.48776082       0.25339603 </v>
    <v>       0.68160656       0.71687078       0.37272177 </v>
    <v>       0.09516526       0.72856013       0.12156099 </v>
    <v>       0.54168085       0.44975460       0.25314501 </v>
    <v>       0.74325077       0.12511687       0.31149121 </v>
    <v>       0.85888103       0.57329750       0.05350623 </v>
    <v>       0.31389481       0.84617770       0.18069994 </v>
    <v>       0.56207820       0.72169891       0.12275353 </v>
    <v>       0.00292947       0.99896131       0.25282928 </v>
    <v>       0.79436225       0.32536803       0.18430380 </v>
    <v>       0.22109454       0.62107293       0.31564428 </v>
    <v>       0.34617716       0.60305419       0.05647018 </v>
    <v>       0.21683399       0.16895958       0.31532530 </v>
    <v>       0.79566523       0.87982983       0.18401336 </v>
    <v>       0.34617716       0.05624469       0.05647018 </v>
    <v>       0.53934757       0.00879918       0.25310371 </v>
    <v>       0.09516526       0.18175063       0.12156099 </v>
    <v>       0.20248527       0.35074867       0.39118219 </v>
    <v>       0.34047062       0.60391201       0.02782883 </v>
    <v>       0.92434681       0.68523651       0.03696881 </v>
    <v>       0.34363348       0.06399961       0.02783421 </v>
    <v>       0.88838126       0.05560908       0.02665597 </v>
    <v>       0.64418254       0.77736906       0.39633145 </v>
    <v>       0.75952971       0.09897195       0.33639893 </v>
    <v>       0.09626338       0.41465203       0.41125458 </v>
   </varray>
  </structure>
  <varray name="forces" >
   <v>       0.11001140      -1.75848804      -1.61621563 </v>
   <v>       0.00299080       0.00984539      -0.01279191 </v>
   <v>      -0.13878791       0.62343988      -0.00159856 </v>
   <v>       0.00256144       0.01112817      -0.05585240 </v>
   <v>      -0.01697529       0.34360157       0.11131121 </v>
   <v>      -0.01023788      -0.09043856       0.02448215 </v>
   <v>      -0.07537278       0.20790268       0.10410091 </v>
   <v>      -0.02912591      -0.09567593       0.01367595 </v>
   <v>      -0.01780183      -1.33318082      -0.85774942 </v>
   <v>       0.03015358      -0.00920183       0.00154045 </v>
   <v>       0.01677378       0.01219800      -0.02480124 </v>
   <v>       0.00274917      -0.04336031      -0.03570280 </v>
   <v>       0.00347814      -0.50676414       0.26598393 </v>
   <v>       0.03340626       0.03503559       0.02103665 </v>
   <v>       0.00930424       0.05894015      -0.04690900 </v>
   <v>      -0.31155938      -3.62140123      -1.96001095 </v>
   <v>      -0.04324648       0.06229331      -0.02749358 </v>
   <v>      -0.07655927       0.26957790       0.37596609 </v>
   <v>       0.00682769       0.03797615       0.02575397 </v>
   <v>      -0.02072593      -0.22730328      -0.01018453 </v>
   <v>       0.36412345       0.37720091       0.55559155 </v>
   <v>       0.02463129       0.05104504       0.03928782 </v>
   <v>      -0.03588274       0.12106404      -0.01804424 </v>
   <v>       2.69056278      -2.54406230      -0.25227664 </v>
   <v>       0.04117069       0.05754116      -0.04309418 </v>
   <v>       0.11276263       0.34053338      -0.34846622 </v>
   <v>       0.01500847       0.03160361      -0.01335262 </v>
   <v>       0.03886475      -0.04120798       0.03744724 </v>
   <v>       0.10800922      -0.00627360       0.05406176 </v>
   <v>      -0.94536538      -3.58100761      -2.15601060 </v>
   <v>      -0.08547937      -0.01399174       0.03223545 </v>
   <v>      -0.02993544      -0.01614406       0.02985187 </v>
   <v>       1.04719675      -3.64151797      -1.93099602 </v>
   <v>      -0.03352381       0.04646827      -0.00140246 </v>
   <v>      -0.15380314       0.35615196       0.46176562 </v>
   <v>      -0.03818156      -0.02677988       0.03579087 </v>
   <v>       0.56486986       3.80286577       2.31569131 </v>
   <v>      -2.89385445       3.08526824       0.46222797 </v>
   <v>      -0.65596002       3.94484285       2.09704021 </v>
   <v>       0.36436996       3.68232457       2.17646515 </v>
   <v>       0.04345153       0.08933972       0.08247721 </v>
   <v>       0.00567667      -0.00616175       0.00521827 </v>
   <v>      -0.02657597      -0.09522728       0.08394940 </v>
  </varray>
  <energy>
   <i name="e_fr_energy">   -293.14950255 </i>
   <i name="e_wo_entrp">   -293.14289125 </i>
   <i name="e_0_energy">     -0.01983390 </i>
  </energy>
  <time name="totalsc"> 2133.95 2148.19</time>
 </calculation>
 <calculation>
  <scstep>
   <time name="dav">   48.40   48.81</time>
   <time name="total">   52.42   52.87</time>
   <energy>
    <i name="alphaZ">    477.09650995 </i>
    <i name="ewald"> 394086.56461534 </i>
    <i name="hartreedc">-427801.33578960 </i>
    <i name="XCdc">   1612.95400391 </i>
    <i name="pawpsdc">  38074.82635845 </i>
    <i name="pawaedc"> -38780.62841823 </i>
    <i name="eentropy">     -0.01996695 </i>
    <i name="bandstr">  -5915.53968414 </i>
    <i name="atom">  37952.93320877 </i>
    <i name="e_fr_energy">   -293.14916250 </i>
    <i name="e_wo_entrp">   -293.12919556 </i>
    <i name="e_0_energy">   -293.14250685 </i>
   </energy>
  </scstep>
  <scstep>
   <time name="diag">    8.92    8.98</time>
   <time name="diis">   29.57   29.91</time>
   <time name="orth">    0.49    0.49</time>
   <time name="total">   42.94   43.34</time>
   <energy>
    <i name="e_fr_energy">   -293.14989437 </i>
    <i name="e_wo_entrp">   -293.13087418 </i>
    <i name="e_0_energy">   -293.14355431 </i>
   </energy>
  </scstep>
  <scstep>
   <time name="diag">    8.88    8.89</time>
   <time name="diis">   23.91   24.04</time>
   <time name="orth">    0.50    0.58</time>
   <time name="total">   37.38   37.78</time>
   <energy>
    <i name="e_fr_energy">   -293.14947729 </i>
    <i name="e_wo_entrp">   -293.13015084 </i>
    <i name="e_0_energy">   -293.14303514 </i>
   </energy>
  </scstep>
  <scstep>
   <time name="diag">    8.89    8.90</time>
   <time name="diis">   23.04   23.08</time>
   <time name="orth">    0.48    0.48</time>
   <time name="total">   36.36   36.42</time>
   <energy>
    <i name="e_fr_energy">   -293.14974514 </i>
    <i name="e_wo_entrp">   -293.12939629 </i>
    <i name="e_0_energy">   -293.14296219 </i>
   </energy>
  </scstep>
  <scstep>
   <time name="diag">    8.90    8.95</time>
   <time name="diis">   21.82   22.10</time>
   <time name="orth">    0.48    0.49</time>
   <time name="total">   35.15   35.51</time>
   <energy>
    <i name="e_fr_energy">   -293.14967190 </i>
    <i name="e_wo_entrp">   -293.12908835 </i>
    <i name="e_0_energy">   -293.14281072 </i>
   </energy>
  </scstep>
  <scstep>
   <time name="diag">    8.86    8.87</time>
   <time name="diis">   17.37   17.40</time>
   <time name="orth">    0.48    0.48</time>
   <time name="total">   30.67   30.73</time>
   <energy>
    <i name="e_fr_energy">   -293.14954963 </i>
    <i name="e_wo_entrp">   -293.12915769 </i>
    <i name="e_0_energy">   -293.14275232 </i>
   </energy>
  </scstep>
  <scstep>
   <time name="diag">    8.90    8.96</time>
   <time name="diis">   16.40   16.87</time>
   <time name="orth">    0.49    0.49</time>
   <time name="total">   29.75   30.29</time>
   <energy>
    <i name="e_fr_energy">   -293.14960248 </i>
    <i name="e_wo_entrp">   -293.12958801 </i>
    <i name="e_0_energy">   -293.14293099 </i>
   </energy>
  </scstep>
  <scstep>
   <time name="diag">    8.86    8.87</time>
   <time name="diis">   15.75   15.79</time>
   <time name="orth">    0.48    0.48</time>
   <time name="total">   29.03   29.09</time>
   <energy>
    <i name="e_fr_energy">   -293.14972473 </i>
    <i name="e_wo_entrp">   -293.13014946 </i>
    <i name="e_0_energy">   -293.14319964 </i>
   </energy>
  </scstep>
  <scstep>
   <time name="diag">    8.95    9.13</time>
   <time name="diis">   16.11   16.23</time>
   <time name="orth">    0.49    0.49</time>
   <time name="total">   26.08   26.38</time>
   <energy>
    <i name="alphaZ">    477.09650995 </i>
    <i name="ewald"> 394086.56461534 </i>
    <i name="hartreedc">-427801.66500380 </i>
    <i name="XCdc">   1612.95715060 </i>
    <i name="pawpsdc">  38074.64897359 </i>
    <i name="pawaedc"> -38780.44360056 </i>
    <i name="eentropy">     -0.01934742 </i>
    <i name="bandstr">  -5915.22222386 </i>
    <i name="atom">  37952.93320877 </i>
    <i name="e_fr_energy">   -293.14971739 </i>
    <i name="e_wo_entrp">   -293.13036997 </i>
    <i name="e_0_energy">   -293.14326825 </i>
   </energy>
  </scstep>
  <structure>
   <crystal>
    <varray name="basis" >
     <v>       2.87357350      -2.87357350       4.70833511 </v>
     <v>       5.74714699       0.00000000       0.00000000 </v>
     <v>       0.00000000      33.06569101      20.18052901 </v>
    </varray>
    <i name="volume">   1228.01926054 </i>
    <varray name="rec_basis" >
     <v>       0.00000000      -0.09444515       0.15474789 </v>
     <v>       0.17399938       0.04722258      -0.07737394 </v>
     <v>       0.00000000       0.02203507       0.01344836 </v>
    </varray>
   </crystal>
   <varray name="positions" >
    <v>       0.22067121       0.89240241       0.08901558 </v>
    <v>       0.66341746       0.16697727       0.21813605 </v>
    <v>       0.94927612       0.02809995       0.15233499 </v>
    <v>       0.37627151       0.31476504       0.28546184 </v>
    <v>       0.44927612       0.52809995       0.15233499 </v>
    <v>       0.89395585       0.30579901       0.28181530 </v>
    <v>       0.44927612       0.02809995       0.15233499 </v>
    <v>       0.89191022       0.80213582       0.28144288 </v>
    <v>       0.90282244       0.55132680       0.10484543 </v>
    <v>       0.35280066       0.82253394       0.23370701 </v>
    <v>       0.99315042       0.50366513       0.20053299 </v>
    <v>       0.42041422       0.79551083       0.33451537 </v>
    <v>       0.53851998       0.23347802       0.07318573 </v>
    <v>       0.01819149       0.48712967       0.34996883 </v>
    <v>       0.77004623       0.61444980       0.30951273 </v>
    <v>       0.87926422       0.06310591       0.05527763 </v>
    <v>       0.34017569       0.33042638       0.18271233 </v>
    <v>       0.58246139       0.21150732       0.12452493 </v>
    <v>       0.03107279       0.48772481       0.25338810 </v>
    <v>       0.68167933       0.71709567       0.37273967 </v>
    <v>       0.09516526       0.72856013       0.12156099 </v>
    <v>       0.54167524       0.44973824       0.25314296 </v>
    <v>       0.74326697       0.12511636       0.31148637 </v>
    <v>       0.85888103       0.57329750       0.05350623 </v>
    <v>       0.31390966       0.84619060       0.18070048 </v>
    <v>       0.56207820       0.72169891       0.12275353 </v>
    <v>       0.00293531       0.99895928       0.25282486 </v>
    <v>       0.79435858       0.32534564       0.18430367 </v>
    <v>       0.22113510       0.62112721       0.31564054 </v>
    <v>       0.34617716       0.60305419       0.05647018 </v>
    <v>       0.21685988       0.16893248       0.31532557 </v>
    <v>       0.79568682       0.87978420       0.18401312 </v>
    <v>       0.34617716       0.05624469       0.05647018 </v>
    <v>       0.53933013       0.00875625       0.25310432 </v>
    <v>       0.09516526       0.18175063       0.12156099 </v>
    <v>       0.20270719       0.35060778       0.39115749 </v>
    <v>       0.34047062       0.60391201       0.02782883 </v>
    <v>       0.92434681       0.68523651       0.03696881 </v>
    <v>       0.34363348       0.06399961       0.02783421 </v>
    <v>       0.88838126       0.05560908       0.02665597 </v>
    <v>       0.64423587       0.77729341       0.39634210 </v>
    <v>       0.75962298       0.09886084       0.33639476 </v>
    <v>       0.09666769       0.41430174       0.41122693 </v>
   </varray>
  </structure>
  <varray name="forces" >
   <v>       0.10989705      -1.75704260      -1.61670615 </v>
   <v>       0.00314123       0.02029465      -0.00909860 </v>
   <v>      -0.14026906       0.62397950      -0.00122420 </v>
   <v>       0.00524243       0.01027864      -0.06042526 </v>
   <v>      -0.01662474       0.34511006       0.11155997 </v>
   <v>      -0.00826308      -0.10545745       0.02447912 </v>
   <v>      -0.07618361       0.20756284       0.10433701 </v>
   <v>      -0.03178467      -0.11648866       0.01306050 </v>
   <v>      -0.01641883      -1.33369450      -0.85708201 </v>
   <v>       0.02918242      -0.00610377       0.00147247 </v>
   <v>       0.01643803       0.01565833      -0.02394956 </v>
   <v>       0.00175670      -0.04196053      -0.03286156 </v>
   <v>       0.00243692      -0.50555024       0.26727945 </v>
   <v>       0.02638552       0.04938456       0.02043668 </v>
   <v>       0.00860468       0.06952127      -0.03752738 </v>
   <v>      -0.31133468      -3.62811775      -1.96305038 </v>
   <v>      -0.04238932       0.05934991      -0.02748839 </v>
   <v>      -0.07672799       0.26921045       0.37562845 </v>
   <v>       0.00823106       0.04923717       0.02624279 </v>
   <v>      -0.03258144      -0.27356821      -0.01866606 </v>
   <v>       0.36476499       0.37720522       0.55545693 </v>
   <v>       0.02133146       0.04960118       0.03960303 </v>
   <v>      -0.03647426       0.13085544      -0.01383960 </v>
   <v>       2.71167496      -2.56552613      -0.25066351 </v>
   <v>       0.03967028       0.05607173      -0.04463665 </v>
   <v>       0.11282726       0.34164976      -0.34917238 </v>
   <v>       0.01404281       0.03755233      -0.01434083 </v>
   <v>       0.03945812      -0.04396901       0.03614579 </v>
   <v>       0.10388698      -0.00451932       0.05451807 </v>
   <v>      -0.94464020      -3.58248494      -2.15772021 </v>
   <v>      -0.07771433      -0.00594860       0.03069309 </v>
   <v>      -0.02930673      -0.01936037       0.02836766 </v>
   <v>       1.04611335      -3.64407639      -1.93266284 </v>
   <v>      -0.03023549       0.04404557      -0.00018411 </v>
   <v>      -0.15481478       0.35445411       0.46111954 </v>
   <v>      -0.03934194      -0.08375481       0.02826228 </v>
   <v>       0.56464559       3.80405858       2.31631536 </v>
   <v>      -2.91002984       3.10337032       0.46228134 </v>
   <v>      -0.65600995       3.94726916       2.09819501 </v>
   <v>       0.36445967       3.68738006       2.17911601 </v>
   <v>       0.05302187       0.12349432       0.09800942 </v>
   <v>       0.00670019      -0.00837018       0.00175598 </v>
   <v>      -0.02276865      -0.05060170       0.07696374 </v>
  </varray>
  <energy>
   <i name="e_fr_energy">   -293.14971739 </i>
   <i name="e_wo_entrp">   -293.14326825 </i>
   <i name="e_0_energy">     -0.01934742 </i>
  </energy>
  <time name="totalsc">  341.31  344.02</time>
 </calculation>
 <calculation>
  <scstep>
   <time name="dav">   47.51   47.92</time>
   <time name="total">   51.49   51.91</time>
   <energy>
    <i name="alphaZ">    477.09650995 </i>
    <i name="ewald"> 394077.45106669 </i>
    <i name="hartreedc">-427792.46066489 </i>
    <i name="XCdc">   1612.95821206 </i>
    <i name="pawpsdc">  38074.58215082 </i>
    <i name="pawaedc"> -38780.37767265 </i>
    <i name="eentropy">     -0.01939708 </i>
    <i name="bandstr">  -5915.31096203 </i>
    <i name="atom">  37952.93320877 </i>
    <i name="e_fr_energy">   -293.14754835 </i>
    <i name="e_wo_entrp">   -293.12815127 </i>
    <i name="e_0_energy">   -293.14108266 </i>
   </energy>
  </scstep>
  <scstep>
   <time name="diag">    8.92    8.94</time>
   <time name="diis">   29.73   30.03</time>
   <time name="orth">    0.49    0.49</time>
   <time name="total">   43.09   43.41</time>
   <energy>
    <i name="e_fr_energy">   -293.15168469 </i>
    <i name="e_wo_entrp">   -293.13013503 </i>
    <i name="e_0_energy">   -293.14450147 </i>
   </energy>
  </scstep>
  <scstep>
   <time name="diag">    8.89    8.93</time>
   <time name="diis">   24.78   24.83</time>
   <time name="orth">    0.49    0.49</time>
   <time name="total">   38.19   38.34</time>
   <energy>
    <i name="e_fr_energy">   -293.14879586 </i>
    <i name="e_wo_entrp">   -293.12686394 </i>
    <i name="e_0_energy">   -293.14148522 </i>
   </energy>
  </scstep>
  <scstep>
   <time name="diag">    8.99    9.04</time>
   <time name="diis">   25.52   25.78</time>
   <time name="orth">    0.49    0.49</time>
   <time name="total">   38.97   39.28</time>
   <energy>
    <i name="e_fr_energy">   -293.14913263 </i>
    <i name="e_wo_entrp">   -293.13048905 </i>
    <i name="e_0_energy">   -293.14291810 </i>
   </energy>
  </scstep>
  <scstep>
   <time name="diag">    8.88    8.89</time>
   <time name="diis">   23.61   23.95</time>
   <time name="orth">    0.51    0.55</time>
   <time name="total">   36.99   37.39</time>
   <energy>
    <i name="e_fr_energy">   -293.15036402 </i>
    <i name="e_wo_entrp">   -293.13300092 </i>
    <i name="e_0_energy">   -293.14457632 </i>
   </energy>
  </scstep>
  <scstep>
   <time name="diag">    8.92    8.93</time>
   <time name="diis">   23.02   23.12</time>
   <time name="orth">    0.49    0.49</time>
   <time name="total">   36.39   36.51</time>
   <energy>
    <i name="e_fr_energy">   -293.14915098 </i>
    <i name="e_wo_entrp">   -293.13156475 </i>
    <i name="e_0_energy">   -293.14328890 </i>
   </energy>
  </scstep>
  <scstep>
   <time name="diag">    8.93    9.02</time>
   <time name="diis">   24.89   25.19</time>
   <time name="orth">    0.49    0.50</time>
   <time name="total">   38.24   38.66</time>
   <energy>
    <i name="e_fr_energy">   -293.14861818 </i>
    <i name="e_wo_entrp">   -293.12941468 </i>
    <i name="e_0_energy">   -293.14221701 </i>
   </energy>
  </scstep>
  <scstep>
   <time name="diag">    8.83    8.84</time>
   <time name="diis">   21.39   21.47</time>
   <time name="orth">    0.48    0.48</time>
   <time name="total">   34.64   34.74</time>
   <energy>
    <i name="e_fr_energy">   -293.15020013 </i>
    <i name="e_wo_entrp">   -293.12933377 </i>
    <i name="e_0_energy">   -293.14324468 </i>
   </energy>
  </scstep>
  <scstep>
   <time name="diag">    9.14    9.40</time>
   <time name="diis">   21.65   21.68</time>
   <time name="orth">    0.48    0.48</time>
   <time name="total">   35.23   35.54</time>
   <energy>
    <i name="e_fr_energy">   -293.15016703 </i>
    <i name="e_wo_entrp">   -293.12853293 </i>
    <i name="e_0_energy">   -293.14295566 </i>
   </energy>
  </scstep>
  <scstep>
   <time name="diag">    8.85    8.86</time>
   <time name="diis">   21.77   22.00</time>
   <time name="orth">    0.49    0.56</time>
   <time name="total">   35.07   35.39</time>
   <energy>
    <i name="e_fr_energy">   -293.14925533 </i>
    <i name="e_wo_entrp">   -293.12749709 </i>
    <i name="e_0_energy">   -293.14200258 </i>
   </energy>
  </scstep>
  <scstep>
   <time name="diag">    8.85    8.86</time>
   <time name="diis">   22.53   22.57</time>
   <time name="orth">    0.48    0.48</time>
   <time name="total">   35.82   35.88</time>
   <energy>
    <i name="e_fr_energy">   -293.14859112 </i>
    <i name="e_wo_entrp">   -293.12731047 </i>
    <i name="e_0_energy">   -293.14149757 </i>
   </energy>
  </scstep>
  <scstep>
   <time name="diag">    8.84    9.01</time>
   <time name="diis">   17.89   18.19</time>
   <time name="orth">    0.48    0.49</time>
   <time name="total">   31.16   31.64</time>
   <energy>
    <i name="e_fr_energy">   -293.14905558 </i>
    <i name="e_wo_entrp">   -293.12849875 </i>
    <i name="e_0_energy">   -293.14220330 </i>
   </energy>
  </scstep>
  <scstep>
   <time name="diag">    8.88    8.91</time>
   <time name="diis">   17.06   17.08</time>
   <time name="orth">    0.48    0.49</time>
   <time name="total">   30.40   30.48</time>
   <energy>
    <i name="e_fr_energy">   -293.14952780 </i>
    <i name="e_wo_entrp">   -293.12959527 </i>
    <i name="e_0_energy">   -293.14288362 </i>
   </energy>
  </scstep>
  <scstep>
   <time name="diag">    8.96    9.01</time>
   <time name="diis">   16.91   17.19</time>
   <time name="orth">    0.49    0.49</time>
   <time name="total">   30.34   30.73</time>
   <energy>
    <i name="e_fr_energy">   -293.14975340 </i>
    <i name="e_wo_entrp">   -293.13032946 </i>
    <i name="e_0_energy">   -293.14327875 </i>
   </energy>
  </scstep>
  <scstep>
   <time name="diag">    8.85    8.88</time>
   <time name="diis">   16.27   16.31</time>
   <time name="orth">    0.48    0.48</time>
   <time name="total">   29.57   29.67</time>
   <energy>
    <i name="e_fr_energy">   -293.14973626 </i>
    <i name="e_wo_entrp">   -293.13059894 </i>
    <i name="e_0_energy">   -293.14335715 </i>
   </energy>
  </scstep>
  <scstep>
   <time name="diag">    8.94    9.04</time>
   <time name="diis">   15.68   15.90</time>
   <time name="orth">    0.48    0.48</time>
   <time name="total">   29.04   29.37</time>
   <energy>
    <i name="e_fr_energy">   -293.14965253 </i>
    <i name="e_wo_entrp">   -293.13060463 </i>
    <i name="e_0_energy">   -293.14330323 </i>
   </energy>
  </scstep>
  <scstep>
   <time name="diag">    8.83    8.86</time>
   <time name="diis">   14.52   14.59</time>
   <time name="orth">    0.48    0.48</time>
   <time name="total">   27.79   27.88</time>
   <energy>
    <i name="e_fr_energy">   -293.14959242 </i>
    <i name="e_wo_entrp">   -293.13048548 </i>
    <i name="e_0_energy">   -293.14322344 </i>
   </energy>
  </scstep>
  <scstep>
   <time name="diag">    8.84    8.93</time>
   <time name="diis">   15.24   15.57</time>
   <time name="orth">    0.48    0.48</time>
   <time name="total">   28.51   28.94</time>
   <energy>
    <i name="e_fr_energy">   -293.14955240 </i>
    <i name="e_wo_entrp">   -293.13018234 </i>
    <i name="e_0_energy">   -293.14309571 </i>
   </energy>
  </scstep>
  <scstep>
   <time name="diag">    8.86    8.88</time>
   <time name="diis">   15.03   15.05</time>
   <time name="orth">    0.48    0.49</time>
   <time name="total">   28.33   28.38</time>
   <energy>
    <i name="e_fr_energy">   -293.14961553 </i>
    <i name="e_wo_entrp">   -293.12983012 </i>
    <i name="e_0_energy">   -293.14302039 </i>
   </energy>
  </scstep>
  <scstep>
   <time name="diag">    8.85    8.87</time>
   <time name="diis">   15.40   15.67</time>
   <time name="orth">    0.49    0.49</time>
   <time name="total">   28.68   28.98</time>
   <energy>
    <i name="e_fr_energy">   -293.14972098 </i>
    <i name="e_wo_entrp">   -293.12958892 </i>
    <i name="e_0_energy">   -293.14301029 </i>
   </energy>
  </scstep>
  <scstep>
   <time name="diag">    8.84    8.86</time>
   <time name="diis">   15.13   15.15</time>
   <time name="orth">    0.48    0.49</time>
   <time name="total">   28.42   28.51</time>
   <energy>
    <i name="e_fr_energy">   -293.14970666 </i>
    <i name="e_wo_entrp">   -293.12941591 </i>
    <i name="e_0_energy">   -293.14294308 </i>
   </energy>
  </scstep>
  <scstep>
   <time name="diag">    8.84    8.86</time>
   <time name="diis">   14.72   14.82</time>
   <time name="orth">    0.49    0.58</time>
   <time name="total">   28.01   28.27</time>
   <energy>
    <i name="e_fr_energy">   -293.14967281 </i>
    <i name="e_wo_entrp">   -293.12935036 </i>
    <i name="e_0_energy">   -293.14289866 </i>
   </energy>
  </scstep>
  <scstep>
   <time name="diag">    8.84    8.84</time>
   <time name="diis">   13.97   14.00</time>
   <time name="orth">    0.48    0.48</time>
   <time name="total">   27.24   27.28</time>
   <energy>
    <i name="e_fr_energy">   -293.14965316 </i>
    <i name="e_wo_entrp">   -293.12939545 </i>
    <i name="e_0_energy">   -293.14290059 </i>
   </energy>
  </scstep>
  <scstep>
   <time name="diag">    8.85    8.87</time>
   <time name="diis">   14.35   14.44</time>
   <time name="orth">    0.48    0.49</time>
   <time name="total">   24.22   24.33</time>
   <energy>
    <i name="alphaZ">    477.09650995 </i>
    <i name="ewald"> 394077.45106669 </i>
    <i name="hartreedc">-427792.95524469 </i>
    <i name="XCdc">   1612.96088150 </i>
    <i name="pawpsdc">  38074.09213646 </i>
    <i name="pawaedc"> -38779.88953349 </i>
    <i name="eentropy">     -0.02009535 </i>
    <i name="bandstr">  -5914.81859124 </i>
    <i name="atom">  37952.93320877 </i>
    <i name="e_fr_energy">   -293.14966139 </i>
    <i name="e_wo_entrp">   -293.12956604 </i>
    <i name="e_0_energy">   -293.14296294 </i>
   </energy>
  </scstep>
  <structure>
   <crystal>
    <varray name="basis" >
     <v>       2.87357350      -2.87357350       4.70833511 </v>
     <v>       5.74714699       0.00000000       0.00000000 </v>
     <v>       0.00000000      33.06569101      20.18052901 </v>
    </varray>
    <i name="volume">   1228.01926054 </i>
    <varray name="rec_basis" >
     <v>       0.00000000      -0.09444515       0.15474789 </v>
     <v>       0.17399938       0.04722258      -0.07737394 </v>
     <v>       0.00000000       0.02203507       0.01344836 </v>
    </varray>
   </crystal>
   <varray name="positions" >
    <v>       0.22067121       0.89240241       0.08901558 </v>
    <v>       0.66344895       0.16688074       0.21811814 </v>
    <v>       0.94927612       0.02809995       0.15233499 </v>
    <v>       0.37630581       0.31471755       0.28546583 </v>
    <v>       0.44927612       0.52809995       0.15233499 </v>
    <v>       0.89384398       0.30581181       0.28182764 </v>
    <v>       0.44927612       0.02809995       0.15233499 </v>
    <v>       0.89180340       0.80225194       0.28146767 </v>
    <v>       0.90282244       0.55132680       0.10484543 </v>
    <v>       0.35283405       0.82247299       0.23370342 </v>
    <v>       0.99320494       0.50356761       0.20052728 </v>
    <v>       0.42034945       0.79563241       0.33456215 </v>
    <v>       0.53851998       0.23347802       0.07318573 </v>
    <v>       0.01808659       0.48725422       0.34995798 </v>
    <v>       0.77006339       0.61452714       0.30951694 </v>
    <v>       0.87926422       0.06310591       0.05527763 </v>
    <v>       0.34019006       0.33038835       0.18271566 </v>
    <v>       0.58246139       0.21150732       0.12452493 </v>
    <v>       0.03111721       0.48765281       0.25337225 </v>
    <v>       0.68182488       0.71754547       0.37277548 </v>
    <v>       0.09516526       0.72856013       0.12156099 </v>
    <v>       0.54166400       0.44970551       0.25313888 </v>
    <v>       0.74329938       0.12511532       0.31147670 </v>
    <v>       0.85888103       0.57329750       0.05350623 </v>
    <v>       0.31393937       0.84621639       0.18070157 </v>
    <v>       0.56207820       0.72169891       0.12275353 </v>
    <v>       0.00294700       0.99895524       0.25281602 </v>
    <v>       0.79435122       0.32530087       0.18430342 </v>
    <v>       0.22121623       0.62123577       0.31563304 </v>
    <v>       0.34617716       0.60305419       0.05647018 </v>
    <v>       0.21691165       0.16887829       0.31532610 </v>
    <v>       0.79572998       0.87969295       0.18401263 </v>
    <v>       0.34617716       0.05624469       0.05647018 </v>
    <v>       0.53929524       0.00867040       0.25310555 </v>
    <v>       0.09516526       0.18175063       0.12156099 </v>
    <v>       0.20315105       0.35032601       0.39110808 </v>
    <v>       0.34047062       0.60391201       0.02782883 </v>
    <v>       0.92434681       0.68523651       0.03696881 </v>
    <v>       0.34363348       0.06399961       0.02783421 </v>
    <v>       0.88838126       0.05560908       0.02665597 </v>
    <v>       0.64434253       0.77714209       0.39636340 </v>
    <v>       0.75980953       0.09863862       0.33638641 </v>
    <v>       0.09747631       0.41360116       0.41117164 </v>
   </varray>
  </structure>
  <varray name="forces" >
   <v>       0.10989305      -1.75765903      -1.61506592 </v>
   <v>       0.00373954       0.03760983      -0.00310238 </v>
   <v>      -0.14270183       0.62414268      -0.00080695 </v>
   <v>       0.00628140       0.00814165      -0.07036922 </v>
   <v>      -0.01673774       0.34589603       0.11177734 </v>
   <v>       0.00512483      -0.13049411       0.02697191 </v>
   <v>      -0.07519301       0.20698239       0.10503378 </v>
   <v>      -0.04322254      -0.15737402       0.01336675 </v>
   <v>      -0.01879199      -1.33261684      -0.85778628 </v>
   <v>       0.02847797      -0.00179508       0.00111331 </v>
   <v>       0.01694667       0.01923444      -0.02430371 </v>
   <v>       0.00281544      -0.04887034      -0.02889235 </v>
   <v>       0.00387074      -0.50652838       0.26570842 </v>
   <v>       0.03389557       0.02658087       0.04480907 </v>
   <v>       0.00097298       0.07905568      -0.05635198 </v>
   <v>      -0.31180580      -3.61969429      -1.95943613 </v>
   <v>      -0.03991842       0.05535139      -0.02701228 </v>
   <v>      -0.07646796       0.26918496       0.37567314 </v>
   <v>       0.01204930       0.07444850       0.02913277 </v>
   <v>      -0.05012961      -0.32458252      -0.05641893 </v>
   <v>       0.36354273       0.37581417       0.55542619 </v>
   <v>       0.01647611       0.04767921       0.04160309 </v>
   <v>      -0.03628301       0.15259080      -0.00417812 </v>
   <v>       2.68474951      -2.53723204      -0.25200025 </v>
   <v>       0.03679511       0.05457436      -0.04640010 </v>
   <v>       0.11201973       0.33797583      -0.34837057 </v>
   <v>       0.01293694       0.05135939      -0.01571546 </v>
   <v>       0.04153068      -0.04741157       0.03461382 </v>
   <v>       0.09966349      -0.00217979       0.05227216 </v>
   <v>      -0.94589865      -3.58065928      -2.15541881 </v>
   <v>      -0.07969554      -0.01199696       0.02690393 </v>
   <v>      -0.02766742      -0.02315856       0.02654027 </v>
   <v>       1.04777226      -3.64107833      -1.93064028 </v>
   <v>      -0.02215403       0.04100954       0.00369651 </v>
   <v>      -0.15181678       0.35570869       0.46079588 </v>
   <v>      -0.04468989      -0.12137968       0.03957585 </v>
   <v>       0.56487508       3.80223470       2.31539720 </v>
   <v>      -2.88905212       3.07976413       0.46228398 </v>
   <v>      -0.65600904       3.94393418       2.09675920 </v>
   <v>       0.36428141       3.68068089       2.17564109 </v>
   <v>       0.06949914       0.18095169       0.11527158 </v>
   <v>       0.00914162      -0.01408708      -0.00523127 </v>
   <v>      -0.01911589       0.00789190       0.07713371 </v>
  </varray>
  <energy>
   <i name="e_fr_energy">   -293.14966139 </i>
   <i name="e_wo_entrp">   -293.14296294 </i>
   <i name="e_0_energy">     -0.02009535 </i>
  </energy>
  <time name="totalsc">  817.39  823.34</time>
 </calculation>
 <calculation>
  <scstep>
   <time name="dav">   44.95   45.27</time>
   <time name="total">   48.93   49.26</time>
   <energy>
    <i name="alphaZ">    477.09650995 </i>
    <i name="ewald"> 394070.50395047 </i>
    <i name="hartreedc">-427786.28240768 </i>
    <i name="XCdc">   1612.95283787 </i>
    <i name="pawpsdc">  38074.10091679 </i>
    <i name="pawaedc"> -38779.89670455 </i>
    <i name="eentropy">     -0.01915692 </i>
    <i name="bandstr">  -5914.53014378 </i>
    <i name="atom">  37952.93320877 </i>
    <i name="e_fr_energy">   -293.14098907 </i>
    <i name="e_wo_entrp">   -293.12183214 </i>
    <i name="e_0_energy">   -293.13460343 </i>
   </energy>
  </scstep>
  <scstep>
   <time name="diag">    8.85    8.87</time>
   <time name="diis">   29.67   29.73</time>
   <time name="orth">    0.48    0.48</time>
   <time name="total">   42.97   43.23</time>
   <energy>
    <i name="e_fr_energy">   -293.15485733 </i>
    <i name="e_wo_entrp">   -293.13360394 </i>
    <i name="e_0_energy">   -293.14777286 </i>
   </energy>
  </scstep>
  <scstep>
   <time name="diag">    8.93    8.98</time>
   <time name="diis">   25.77   26.07</time>
   <time name="orth">    0.48    0.48</time>
   <time name="total">   39.10   39.46</time>
   <energy>
    <i name="e_fr_energy">   -293.15162815 </i>
    <i name="e_wo_entrp">   -293.13222636 </i>
    <i name="e_0_energy">   -293.14516089 </i>
   </energy>
  </scstep>
  <scstep>
   <time name="diag">    8.83    8.84</time>
   <time name="diis">   25.06   25.24</time>
   <time name="orth">    0.48    0.48</time>
   <time name="total">   38.31   38.50</time>
   <energy>
    <i name="e_fr_energy">   -293.15450365 </i>
    <i name="e_wo_entrp">   -293.13763557 </i>
    <i name="e_0_energy">   -293.14888096 </i>
   </energy>
  </scstep>
  <scstep>
   <time name="diag">    8.83    8.84</time>
   <time name="diis">   23.42   23.45</time>
   <time name="orth">    0.48    0.48</time>
   <time name="total">   36.66   36.72</time>
   <energy>
    <i name="e_fr_energy">   -293.15199367 </i>
    <i name="e_wo_entrp">   -293.13430623 </i>
    <i name="e_0_energy">   -293.14609785 </i>
   </energy>
  </scstep>
  <scstep>
   <time name="diag">    8.91    8.96</time>
   <time name="diis">   24.92   25.20</time>
   <time name="orth">    0.49    0.49</time>
   <time name="total">   38.27   38.62</time>
   <energy>
    <i name="e_fr_energy">   -293.15327837 </i>
    <i name="e_wo_entrp">   -293.13274263 </i>
    <i name="e_0_energy">   -293.14643312 </i>
   </energy>
  </scstep>
  <scstep>
   <time name="diag">    8.83    8.84</time>
   <time name="diis">   22.60   22.72</time>
   <time name="orth">    0.48    0.48</time>
   <time name="total">   35.95   36.09</time>
   <energy>
    <i name="e_fr_energy">   -293.15482571 </i>
    <i name="e_wo_entrp">   -293.13296958 </i>
    <i name="e_0_energy">   -293.14754033 </i>
   </energy>
  </scstep>
  <scstep>
   <time name="diag">    9.03    9.18</time>
   <time name="diis">   23.63   23.72</time>
   <time name="orth">    0.48    0.48</time>
   <time name="total">   37.12   37.45</time>
   <energy>
    <i name="e_fr_energy">   -293.15060441 </i>
    <i name="e_wo_entrp">   -293.12898709 </i>
    <i name="e_0_energy">   -293.14339864 </i>
   </energy>
  </scstep>
  <scstep>
   <time name="diag">    8.88    8.90</time>
   <time name="diis">   23.20   23.52</time>
   <time name="orth">    0.49    0.49</time>
   <time name="total">   36.53   36.88</time>
   <energy>
    <i name="e_fr_energy">   -293.15155427 </i>
    <i name="e_wo_entrp">   -293.13171200 </i>
    <i name="e_0_energy">   -293.14494018 </i>
   </energy>
  </scstep>
  <scstep>
   <time name="diag">    8.88    8.90</time>
   <time name="diis">   21.40   21.42</time>
   <time name="orth">    0.48    0.49</time>
   <time name="total">   34.80   35.17</time>
   <energy>
    <i name="e_fr_energy">   -293.15337169 </i>
    <i name="e_wo_entrp">   -293.13514356 </i>
    <i name="e_0_energy">   -293.14729565 </i>
   </energy>
  </scstep>
  <scstep>
   <time name="diag">    8.88    8.89</time>
   <time name="diis">   21.34   21.50</time>
   <time name="orth">    0.49    0.49</time>
   <time name="total">   34.68   34.86</time>
   <energy>
    <i name="e_fr_energy">   -293.15328302 </i>
    <i name="e_wo_entrp">   -293.13592813 </i>
    <i name="e_0_energy">   -293.14749805 </i>
   </energy>
  </scstep>
  <scstep>
   <time name="diag">    8.91    8.97</time>
   <time name="diis">   19.68   19.77</time>
   <time name="orth">    0.49    0.50</time>
   <time name="total">   33.10   33.28</time>
   <energy>
    <i name="e_fr_energy">   -293.15283588 </i>
    <i name="e_wo_entrp">   -293.13583720 </i>
    <i name="e_0_energy">   -293.14716965 </i>
   </energy>
  </scstep>
  <scstep>
   <time name="diag">    9.01    9.24</time>
   <time name="diis">   15.40   15.43</time>
   <time name="orth">    0.48    0.48</time>
   <time name="total">   28.86   29.13</time>
   <energy>
    <i name="e_fr_energy">   -293.15278036 </i>
    <i name="e_wo_entrp">   -293.13614850 </i>
    <i name="e_0_energy">   -293.14723641 </i>
   </energy>
  </scstep>
  <scstep>
   <time name="diag">    8.82    8.83</time>
   <time name="diis">   22.24   22.35</time>
   <time name="orth">    0.50    0.50</time>
   <time name="total">   35.71   36.08</time>
   <energy>
    <i name="e_fr_energy">   -293.15192525 </i>
    <i name="e_wo_entrp">   -293.13479604 </i>
    <i name="e_0_energy">   -293.14621552 </i>
   </energy>
  </scstep>
  <scstep>
   <time name="diag">    8.85    8.86</time>
   <time name="diis">   22.19   22.24</time>
   <time name="orth">    0.48    0.48</time>
   <time name="total">   35.48   35.56</time>
   <energy>
    <i name="e_fr_energy">   -293.15176210 </i>
    <i name="e_wo_entrp">   -293.13338869 </i>
    <i name="e_0_energy">   -293.14563763 </i>
   </energy>
  </scstep>
  <scstep>
   <time name="diag">    8.85    8.87</time>
   <time name="diis">   18.48   19.01</time>
   <time name="orth">    0.48    0.49</time>
   <time name="total">   31.76   32.31</time>
   <energy>
    <i name="e_fr_energy">   -293.15258083 </i>
    <i name="e_wo_entrp">   -293.13293475 </i>
    <i name="e_0_energy">   -293.14603214 </i>
   </energy>
  </scstep>
  <scstep>
   <time name="diag">    8.89    8.97</time>
   <time name="diis">   18.53   18.55</time>
   <time name="orth">    0.48    0.48</time>
   <time name="total">   31.85   31.95</time>
   <energy>
    <i name="e_fr_energy">   -293.15314142 </i>
    <i name="e_wo_entrp">   -293.13268367 </i>
    <i name="e_0_energy">   -293.14632217 </i>
   </energy>
  </scstep>
  <scstep>
   <time name="diag">    9.02    9.07</time>
   <time name="diis">   20.49   20.78</time>
   <time name="orth">    0.49    0.49</time>
   <time name="total">   34.02   34.40</time>
   <energy>
    <i name="e_fr_energy">   -293.15291417 </i>
    <i name="e_wo_entrp">   -293.13215140 </i>
    <i name="e_0_energy">   -293.14599325 </i>
   </energy>
  </scstep>
  <scstep>
   <time name="diag">    8.86    8.87</time>
   <time name="diis">   16.12   16.14</time>
   <time name="orth">    0.48    0.48</time>
   <time name="total">   29.40   29.47</time>
   <energy>
    <i name="e_fr_energy">   -293.15270558 </i>
    <i name="e_wo_entrp">   -293.13189932 </i>
    <i name="e_0_energy">   -293.14577016 </i>
   </energy>
  </scstep>
  <scstep>
   <time name="diag">    8.94    9.16</time>
   <time name="diis">   15.33   15.56</time>
   <time name="orth">    0.48    0.48</time>
   <time name="total">   28.72   29.16</time>
   <energy>
    <i name="e_fr_energy">   -293.15258321 </i>
    <i name="e_wo_entrp">   -293.13190347 </i>
    <i name="e_0_energy">   -293.14568996 </i>
   </energy>
  </scstep>
  <scstep>
   <time name="diag">    8.84    8.86</time>
   <time name="diis">   15.73   15.77</time>
   <time name="orth">    0.48    0.48</time>
   <time name="total">   29.00   29.07</time>
   <energy>
    <i name="e_fr_energy">   -293.15255838 </i>
    <i name="e_wo_entrp">   -293.13224135 </i>
    <i name="e_0_energy">   -293.14578604 </i>
   </energy>
  </scstep>
  <scstep>
   <time name="diag">    9.01    9.07</time>
   <time name="diis">   16.10   16.42</time>
   <time name="orth">    0.48    0.48</time>
   <time name="total">   29.56   29.95</time>
   <energy>
    <i name="e_fr_energy">   -293.15275267 </i>
    <i name="e_wo_entrp">   -293.13301011 </i>
    <i name="e_0_energy">   -293.14617182 </i>
   </energy>
  </scstep>
  <scstep>
   <time name="diag">    8.85    8.86</time>
   <time name="diis">   16.01   16.03</time>
   <time name="orth">    0.48    0.48</time>
   <time name="total">   29.30   29.35</time>
   <energy>
    <i name="e_fr_energy">   -293.15297861 </i>
    <i name="e_wo_entrp">   -293.13375395 </i>
    <i name="e_0_energy">   -293.14657039 </i>
   </energy>
  </scstep>
  <scstep>
   <time name="diag">    8.89    8.93</time>
   <time name="diis">   16.80   17.13</time>
   <time name="orth">    0.49    0.49</time>
   <time name="total">   30.16   30.54</time>
   <energy>
    <i name="e_fr_energy">   -293.15294147 </i>
    <i name="e_wo_entrp">   -293.13388223 </i>
    <i name="e_0_energy">   -293.14658839 </i>
   </energy>
  </scstep>
  <scstep>
   <time name="diag">    8.89    8.92</time>
   <time name="diis">   14.90   14.97</time>
   <time name="orth">    0.48    0.48</time>
   <time name="total">   28.25   28.35</time>
   <energy>
    <i name="e_fr_energy">   -293.15288061 </i>
    <i name="e_wo_entrp">   -293.13376819 </i>
    <i name="e_0_energy">   -293.14650980 </i>
   </energy>
  </scstep>
  <scstep>
   <time name="diag">    8.91    9.03</time>
   <time name="diis">   13.94   14.18</time>
   <time name="orth">    0.48    0.49</time>
   <time name="total">   23.88   24.24</time>
   <energy>
    <i name="alphaZ">    477.09650995 </i>
    <i name="ewald"> 394070.50395047 </i>
    <i name="hartreedc">-427788.05098417 </i>
    <i name="XCdc">   1612.93897410 </i>
    <i name="pawpsdc">  38069.90056846 </i>
    <i name="pawaedc"> -38775.68618158 </i>
    <i name="eentropy">     -0.01926574 </i>
    <i name="bandstr">  -5912.76965331 </i>
    <i name="atom">  37952.93320877 </i>
    <i name="e_fr_energy">   -293.15287306 </i>
    <i name="e_wo_entrp">   -293.13360732 </i>
    <i name="e_0_energy">   -293.14645114 </i>
   </energy>
  </scstep>
  <structure>
   <crystal>
    <varray name="basis" >
     <v>       2.87357350      -2.87357350       4.70833511 </v>
     <v>       5.74714699       0.00000000       0.00000000 </v>
     <v>       0.00000000      33.06569101      20.18052901 </v>
    </varray>
    <i name="volume">   1228.01926054 </i>
    <varray name="rec_basis" >
     <v>       0.00000000      -0.09444515       0.15474789 </v>
     <v>       0.17399938       0.04722258      -0.07737394 </v>
     <v>       0.00000000       0.02203507       0.01344836 </v>
    </varray>
   </crystal>
   <varray name="positions" >
    <v>       0.22067121       0.89240241       0.08901558 </v>
    <v>       0.66348028       0.16664047       0.21807793 </v>
    <v>       0.94927612       0.02809995       0.15233499 </v>
    <v>       0.37623180       0.31468284       0.28546599 </v>
    <v>       0.44927612       0.52809995       0.15233499 </v>
    <v>       0.89376502       0.30573946       0.28182607 </v>
    <v>       0.44927612       0.02809995       0.15233499 </v>
    <v>       0.89174553       0.80235085       0.28149066 </v>
    <v>       0.90282244       0.55132680       0.10484543 </v>
    <v>       0.35293598       0.82236740       0.23369265 </v>
    <v>       0.99328009       0.50337016       0.20051216 </v>
    <v>       0.42016373       0.79599123       0.33467601 </v>
    <v>       0.53851998       0.23347802       0.07318573 </v>
    <v>       0.01784817       0.48767025       0.34994420 </v>
    <v>       0.76987229       0.61487438       0.30954380 </v>
    <v>       0.87926422       0.06310591       0.05527763 </v>
    <v>       0.34009174       0.33024468       0.18273806 </v>
    <v>       0.58246139       0.21150732       0.12452493 </v>
    <v>       0.03120848       0.48749396       0.25335651 </v>
    <v>       0.68257324       0.71855705       0.37276160 </v>
    <v>       0.09516526       0.72856013       0.12156099 </v>
    <v>       0.54166021       0.44963886       0.25315098 </v>
    <v>       0.74316930       0.12513041       0.31149784 </v>
    <v>       0.85888103       0.57329750       0.05350623 </v>
    <v>       0.31384200       0.84647823       0.18071333 </v>
    <v>       0.56207820       0.72169891       0.12275353 </v>
    <v>       0.00287253       0.99903118       0.25280410 </v>
    <v>       0.79447623       0.32520536       0.18429406 </v>
    <v>       0.22157495       0.62174693       0.31562106 </v>
    <v>       0.34617716       0.60305419       0.05647018 </v>
    <v>       0.21714061       0.16847538       0.31532909 </v>
    <v>       0.79594882       0.87930983       0.18400894 </v>
    <v>       0.34617716       0.05624469       0.05647018 </v>
    <v>       0.53914493       0.00838862       0.25312330 </v>
    <v>       0.09516526       0.18175063       0.12156099 </v>
    <v>       0.20470000       0.34926227       0.39093293 </v>
    <v>       0.34047062       0.60391201       0.02782883 </v>
    <v>       0.92434681       0.68523651       0.03696881 </v>
    <v>       0.34363348       0.06399961       0.02783421 </v>
    <v>       0.88838126       0.05560908       0.02665597 </v>
    <v>       0.64466300       0.77687763       0.39650757 </v>
    <v>       0.76035831       0.09801394       0.33635656 </v>
    <v>       0.09998796       0.41143661       0.41102929 </v>
   </varray>
  </structure>
  <varray name="forces" >
   <v>       0.11006860      -1.75921005      -1.61755512 </v>
   <v>       0.00608715       0.07554835       0.00931805 </v>
   <v>      -0.14949268       0.61401058       0.00130180 </v>
   <v>       0.01442674       0.00765247      -0.06671391 </v>
   <v>      -0.01447682       0.35907042       0.10916205 </v>
   <v>       0.02662006      -0.12361979       0.02685187 </v>
   <v>      -0.07771340       0.20662854       0.10230556 </v>
   <v>      -0.04777857      -0.18386102       0.00747016 </v>
   <v>      -0.01733857      -1.33394039      -0.85818032 </v>
   <v>       0.02021957       0.01045830      -0.00219928 </v>
   <v>       0.01549467       0.03021599      -0.01999700 </v>
   <v>       0.00055017      -0.06043550      -0.01717548 </v>
   <v>       0.00299899      -0.50690453       0.26632020 </v>
   <v>       0.01843950      -0.00078335       0.06517268 </v>
   <v>      -0.02161477       0.06361021      -0.03569610 </v>
   <v>      -0.31138000      -3.62405454      -1.96115422 </v>
   <v>      -0.02602581       0.03303146      -0.01802489 </v>
   <v>      -0.07640616       0.27206629       0.37676637 </v>
   <v>       0.01876451       0.10031706       0.03183498 </v>
   <v>      -0.00334346      -0.11944954       0.00805705 </v>
   <v>       0.36558401       0.37816885       0.55846748 </v>
   <v>       0.00072980       0.03500745       0.03903892 </v>
   <v>      -0.02553680       0.09178782      -0.04019176 </v>
   <v>       2.69993321      -2.55421806      -0.25183748 </v>
   <v>       0.02006758       0.04044353      -0.04745567 </v>
   <v>       0.11110076       0.34186935      -0.34858956 </v>
   <v>       0.00490911       0.05569822      -0.01585990 </v>
   <v>       0.03345863      -0.04160674       0.02351310 </v>
   <v>       0.05459238       0.00660591       0.03557721 </v>
   <v>      -0.94514487      -3.58149499      -2.15659480 </v>
   <v>      -0.03283854       0.00548225       0.00014048 </v>
   <v>      -0.01175419      -0.02434504       0.01428261 </v>
   <v>       1.04643881      -3.64230769      -1.93153104 </v>
   <v>       0.00529410       0.02767921       0.01227186 </v>
   <v>      -0.15374440       0.35527643       0.46119118 </v>
   <v>      -0.04840410      -0.24434445       0.03025245 </v>
   <v>       0.56467260       3.80355451       2.31603639 </v>
   <v>      -2.90138302       3.09394307       0.46239106 </v>
   <v>      -0.65605366       3.94614124       2.09764238 </v>
   <v>       0.36429197       3.68481946       2.17772700 </v>
   <v>       0.02182831      -0.01658166       0.05584917 </v>
   <v>       0.00365873       0.04493678       0.03166009 </v>
   <v>      -0.00980014       0.13313359       0.06815439 </v>
  </varray>
  <energy>
   <i name="e_fr_energy">   -293.15287306 </i>
   <i name="e_wo_entrp">   -293.14645114 </i>
   <i name="e_0_energy">     -0.01926574 </i>
  </energy>
  <time name="totalsc">  903.70  910.45</time>
 </calculation>
 <calculation>
  <scstep>
   <time name="dav">   44.80   45.17</time>
   <time name="total">   48.78   49.16</time>
   <energy>
    <i name="alphaZ">    477.09650995 </i>
    <i name="ewald"> 394061.77818312 </i>
    <i name="hartreedc">-427779.66660573 </i>
    <i name="XCdc">   1612.92821223 </i>
    <i name="pawpsdc">  38069.90087962 </i>
    <i name="pawaedc"> -38775.68741950 </i>
    <i name="eentropy">     -0.01851958 </i>
    <i name="bandstr">  -5912.39924975 </i>
    <i name="atom">  37952.93320877 </i>
    <i name="e_fr_energy">   -293.13480087 </i>
    <i name="e_wo_entrp">   -293.11628128 </i>
    <i name="e_0_energy">   -293.12862767 </i>
   </energy>
  </scstep>
  <scstep>
   <time name="diag">    8.92    8.94</time>
   <time name="diis">   30.25   30.37</time>
   <time name="orth">    0.50    0.50</time>
   <time name="total">   43.89   44.22</time>
   <energy>
    <i name="e_fr_energy">   -293.15770296 </i>
    <i name="e_wo_entrp">   -293.13648428 </i>
    <i name="e_0_energy">   -293.15063007 </i>
   </energy>
  </scstep>
  <scstep>
   <time name="diag">    8.91    8.92</time>
   <time name="diis">   25.86   25.92</time>
   <time name="orth">    0.49    0.49</time>
   <time name="total">   39.28   39.43</time>
   <energy>
    <i name="e_fr_energy">   -293.15027197 </i>
    <i name="e_wo_entrp">   -293.13024153 </i>
    <i name="e_0_energy">   -293.14359516 </i>
   </energy>
  </scstep>
  <scstep>
   <time name="diag">    8.91    8.97</time>
   <time name="diis">   25.65   25.94</time>
   <time name="orth">    0.49    0.49</time>
   <time name="total">   38.99   39.36</time>
   <energy>
    <i name="e_fr_energy">   -293.15643228 </i>
    <i name="e_wo_entrp">   -293.14074798 </i>
    <i name="e_0_energy">   -293.15120418 </i>
   </energy>
  </scstep>
  <scstep>
   <time name="diag">    8.86    8.87</time>
   <time name="diis">   23.85   23.97</time>
   <time name="orth">    0.50    0.51</time>
   <time name="total">   37.22   37.38</time>
   <energy>
    <i name="e_fr_energy">   -293.15267977 </i>
    <i name="e_wo_entrp">   -293.13656461 </i>
    <i name="e_0_energy">   -293.14730805 </i>
   </energy>
  </scstep>
  <scstep>
   <time name="diag">    9.07    9.26</time>
   <time name="diis">   24.80   24.84</time>
   <time name="orth">    0.49    0.49</time>
   <time name="total">   38.41   38.65</time>
   <energy>
    <i name="e_fr_energy">   -293.15285550 </i>
    <i name="e_wo_entrp">   -293.13293942 </i>
    <i name="e_0_energy">   -293.14621681 </i>
   </energy>
  </scstep>
  <scstep>
   <time name="diag">    8.87    8.88</time>
   <time name="diis">   22.76   23.17</time>
   <time name="orth">    0.48    0.48</time>
   <time name="total">   36.06   36.49</time>
   <energy>
    <i name="e_fr_energy">   -293.15776259 </i>
    <i name="e_wo_entrp">   -293.13614485 </i>
    <i name="e_0_energy">   -293.15055667 </i>
   </energy>
  </scstep>
  <scstep>
   <time name="diag">    8.85    8.88</time>
   <time name="diis">   23.62   23.65</time>
   <time name="orth">    0.48    0.50</time>
   <time name="total">   36.88   37.01</time>
   <energy>
    <i name="e_fr_energy">   -293.15114962 </i>
    <i name="e_wo_entrp">   -293.12897285 </i>
    <i name="e_0_energy">   -293.14375737 </i>
   </energy>
  </scstep>
  <scstep>
   <time name="diag">    8.99    9.02</time>
   <time name="diis">   24.41   24.75</time>
   <time name="orth">    0.49    0.49</time>
   <time name="total">   37.85   38.22</time>
   <energy>
    <i name="e_fr_energy">   -293.14972470 </i>
    <i name="e_wo_entrp">   -293.12961194 </i>
    <i name="e_0_energy">   -293.14302045 </i>
   </energy>
  </scstep>
  <scstep>
   <time name="diag">    8.86    8.88</time>
   <time name="diis">   22.09   22.20</time>
   <time name="orth">    0.49    0.49</time>
   <time name="total">   35.54   35.94</time>
   <energy>
    <i name="e_fr_energy">   -293.15414659 </i>
    <i name="e_wo_entrp">   -293.13655761 </i>
    <i name="e_0_energy">   -293.14828360 </i>
   </energy>
  </scstep>
  <scstep>
   <time name="diag">    8.85    8.86</time>
   <time name="diis">   22.10   22.13</time>
   <time name="orth">    0.49    0.49</time>
   <time name="total">   35.40   35.44</time>
   <energy>
    <i name="e_fr_energy">   -293.15406280 </i>
    <i name="e_wo_entrp">   -293.13754159 </i>
    <i name="e_0_energy">   -293.14855573 </i>
   </energy>
  </scstep>
  <scstep>
   <time name="diag">    8.93    9.00</time>
   <time name="diis">   21.83   22.08</time>
   <time name="orth">    0.49    0.49</time>
   <time name="total">   35.22   35.55</time>
   <energy>
    <i name="e_fr_energy">   -293.15325826 </i>
    <i name="e_wo_entrp">   -293.13695858 </i>
    <i name="e_0_energy">   -293.14782503 </i>
   </energy>
  </scstep>
  <scstep>
   <time name="diag">    8.86    8.87</time>
   <time name="diis">   18.10   18.14</time>
   <time name="orth">    0.49    0.49</time>
   <time name="total">   31.41   31.46</time>
   <energy>
    <i name="e_fr_energy">   -293.15283532 </i>
    <i name="e_wo_entrp">   -293.13635567 </i>
    <i name="e_0_energy">   -293.14734211 </i>
   </energy>
  </scstep>
  <scstep>
   <time name="diag">    8.90    8.96</time>
   <time name="diis">   24.01   24.30</time>
   <time name="orth">    0.49    0.49</time>
   <time name="total">   37.36   37.73</time>
   <energy>
    <i name="e_fr_energy">   -293.15208573 </i>
    <i name="e_wo_entrp">   -293.13415536 </i>
    <i name="e_0_energy">   -293.14610894 </i>
   </energy>
  </scstep>
  <scstep>
   <time name="diag">    8.87    8.88</time>
   <time name="diis">   22.32   22.56</time>
   <time name="orth">    0.50    0.51</time>
   <time name="total">   35.75   36.12</time>
   <energy>
    <i name="e_fr_energy">   -293.15339401 </i>
    <i name="e_wo_entrp">   -293.13358822 </i>
    <i name="e_0_energy">   -293.14679208 </i>
   </energy>
  </scstep>
  <scstep>
   <time name="diag">    8.90    8.98</time>
   <time name="diis">   21.27   21.33</time>
   <time name="orth">    0.49    0.49</time>
   <time name="total">   34.69   34.91</time>
   <energy>
    <i name="e_fr_energy">   -293.15421617 </i>
    <i name="e_wo_entrp">   -293.13338371 </i>
    <i name="e_0_energy">   -293.14727201 </i>
   </energy>
  </scstep>
  <scstep>
   <time name="diag">    8.88    8.92</time>
   <time name="diis">   21.43   21.87</time>
   <time name="orth">    0.48    0.48</time>
   <time name="total">   34.74   35.23</time>
   <energy>
    <i name="e_fr_energy">   -293.15355424 </i>
    <i name="e_wo_entrp">   -293.13234592 </i>
    <i name="e_0_energy">   -293.14648480 </i>
   </energy>
  </scstep>
  <scstep>
   <time name="diag">    8.86    8.88</time>
   <time name="diis">   17.30   17.33</time>
   <time name="orth">    0.48    0.48</time>
   <time name="total">   30.59   30.64</time>
   <energy>
    <i name="e_fr_energy">   -293.15319789 </i>
    <i name="e_wo_entrp">   -293.13185347 </i>
    <i name="e_0_energy">   -293.14608308 </i>
   </energy>
  </scstep>
  <scstep>
   <time name="diag">    8.89    9.00</time>
   <time name="diis">   15.22   15.60</time>
   <time name="orth">    0.48    0.48</time>
   <time name="total">   28.54   29.06</time>
   <energy>
    <i name="e_fr_energy">   -293.15308955 </i>
    <i name="e_wo_entrp">   -293.13165529 </i>
    <i name="e_0_energy">   -293.14594480 </i>
   </energy>
  </scstep>
  <scstep>
   <time name="diag">    8.88    8.90</time>
   <time name="diis">   14.79   14.82</time>
   <time name="orth">    0.48    0.48</time>
   <time name="total">   28.16   28.21</time>
   <energy>
    <i name="e_fr_energy">   -293.15286915 </i>
    <i name="e_wo_entrp">   -293.13140560 </i>
    <i name="e_0_energy">   -293.14571463 </i>
   </energy>
  </scstep>
  <scstep>
   <time name="diag">    8.84    8.89</time>
   <time name="diis">   15.15   15.41</time>
   <time name="orth">    0.48    0.48</time>
   <time name="total">   28.42   28.73</time>
   <energy>
    <i name="e_fr_energy">   -293.15262813 </i>
    <i name="e_wo_entrp">   -293.13124394 </i>
    <i name="e_0_energy">   -293.14550007 </i>
   </energy>
  </scstep>
  <scstep>
   <time name="diag">    8.86    8.87</time>
   <time name="diis">   15.33   15.35</time>
   <time name="orth">    0.48    0.48</time>
   <time name="total">   28.64   28.68</time>
   <energy>
    <i name="e_fr_energy">   -293.15247017 </i>
    <i name="e_wo_entrp">   -293.13132930 </i>
    <i name="e_0_energy">   -293.14542321 </i>
   </energy>
  </scstep>
  <scstep>
   <time name="diag">    8.83    8.85</time>
   <time name="diis">   20.95   21.39</time>
   <time name="orth">    0.48    0.49</time>
   <time name="total">   34.23   34.70</time>
   <energy>
    <i name="e_fr_energy">   -293.15241396 </i>
    <i name="e_wo_entrp">   -293.13189817 </i>
    <i name="e_0_energy">   -293.14557537 </i>
   </energy>
  </scstep>
  <scstep>
   <time name="diag">    8.90    8.92</time>
   <time name="diis">   20.67   20.71</time>
   <time name="orth">    0.49    0.50</time>
   <time name="total">   34.02   34.10</time>
   <energy>
    <i name="e_fr_energy">   -293.15306653 </i>
    <i name="e_wo_entrp">   -293.13371190 </i>
    <i name="e_0_energy">   -293.14661499 </i>
   </energy>
  </scstep>
  <scstep>
   <time name="diag">    8.92    8.95</time>
   <time name="diis">   18.97   19.28</time>
   <time name="orth">    0.49    0.49</time>
   <time name="total">   32.36   32.71</time>
   <energy>
    <i name="e_fr_energy">   -293.15410789 </i>
    <i name="e_wo_entrp">   -293.13623408 </i>
    <i name="e_0_energy">   -293.14814995 </i>
   </energy>
  </scstep>
  <scstep>
   <time name="diag">    8.88    8.89</time>
   <time name="diis">   19.14   19.16</time>
   <time name="orth">    0.50    0.53</time>
   <time name="total">   32.49   32.60</time>
   <energy>
    <i name="e_fr_energy">   -293.15428940 </i>
    <i name="e_wo_entrp">   -293.13762968 </i>
    <i name="e_0_energy">   -293.14873616 </i>
   </energy>
  </scstep>
  <scstep>
   <time name="diag">    8.91    8.95</time>
   <time name="diis">   20.39   20.59</time>
   <time name="orth">    0.49    0.49</time>
   <time name="total">   33.75   33.99</time>
   <energy>
    <i name="e_fr_energy">   -293.15361950 </i>
    <i name="e_wo_entrp">   -293.13747770 </i>
    <i name="e_0_energy">   -293.14823890 </i>
   </energy>
  </scstep>
  <scstep>
   <time name="diag">    8.86    8.87</time>
   <time name="diis">   17.32   17.38</time>
   <time name="orth">    0.49    0.49</time>
   <time name="total">   30.66   30.75</time>
   <energy>
    <i name="e_fr_energy">   -293.15311559 </i>
    <i name="e_wo_entrp">   -293.13705827 </i>
    <i name="e_0_energy">   -293.14776315 </i>
   </energy>
  </scstep>
  <scstep>
   <time name="diag">    9.19    9.41</time>
   <time name="diis">   15.67   15.69</time>
   <time name="orth">    0.49    0.49</time>
   <time name="total">   29.30   29.55</time>
   <energy>
    <i name="e_fr_energy">   -293.15279193 </i>
    <i name="e_wo_entrp">   -293.13651059 </i>
    <i name="e_0_energy">   -293.14736482 </i>
   </energy>
  </scstep>
  <scstep>
   <time name="diag">    8.85    8.85</time>
   <time name="diis">   14.56   14.63</time>
   <time name="orth">    0.49    0.49</time>
   <time name="total">   27.84   27.92</time>
   <energy>
    <i name="e_fr_energy">   -293.15274607 </i>
    <i name="e_wo_entrp">   -293.13611517 </i>
    <i name="e_0_energy">   -293.14720243 </i>
   </energy>
  </scstep>
  <scstep>
   <time name="diag">    9.07    9.32</time>
   <time name="diis">   17.74   17.78</time>
   <time name="orth">    0.48    0.49</time>
   <time name="total">   31.26   31.55</time>
   <energy>
    <i name="e_fr_energy">   -293.15257947 </i>
    <i name="e_wo_entrp">   -293.13520857 </i>
    <i name="e_0_energy">   -293.14678917 </i>
   </energy>
  </scstep>
  <scstep>
   <time name="diag">    8.85    8.86</time>
   <time name="diis">   16.74   16.80</time>
   <time name="orth">    0.49    0.49</time>
   <time name="total">   30.07   30.15</time>
   <energy>
    <i name="e_fr_energy">   -293.15285325 </i>
    <i name="e_wo_entrp">   -293.13458550 </i>
    <i name="e_0_energy">   -293.14676400 </i>
   </energy>
  </scstep>
  <scstep>
   <time name="diag">    9.12    9.46</time>
   <time name="diis">   16.73   16.75</time>
   <time name="orth">    0.49    0.49</time>
   <time name="total">   30.32   30.69</time>
   <energy>
    <i name="e_fr_energy">   -293.15330261 </i>
    <i name="e_wo_entrp">   -293.13432416 </i>
    <i name="e_0_energy">   -293.14697646 </i>
   </energy>
  </scstep>
  <scstep>
   <time name="diag">    8.89    8.90</time>
   <time name="diis">   17.81   17.88</time>
   <time name="orth">    0.48    0.49</time>
   <time name="total">   31.23   31.37</time>
   <energy>
    <i name="e_fr_energy">   -293.15353546 </i>
    <i name="e_wo_entrp">   -293.13425785 </i>
    <i name="e_0_energy">   -293.14710959 </i>
   </energy>
  </scstep>
  <scstep>
   <time name="diag">    9.06    9.37</time>
   <time name="diis">   18.49   18.51</time>
   <time name="orth">    0.49    0.49</time>
   <time name="total">   32.02   32.36</time>
   <energy>
    <i name="e_fr_energy">   -293.15358458 </i>
    <i name="e_wo_entrp">   -293.13447407 </i>
    <i name="e_0_energy">   -293.14721441 </i>
   </energy>
  </scstep>
  <scstep>
   <time name="diag">    8.90    8.91</time>
   <time name="diis">   16.29   16.35</time>
   <time name="orth">    0.50    0.52</time>
   <time name="total">   29.70   29.80</time>
   <energy>
    <i name="e_fr_energy">   -293.15370072 </i>
    <i name="e_wo_entrp">   -293.13510399 </i>
    <i name="e_0_energy">   -293.14750181 </i>
   </energy>
  </scstep>
  <scstep>
   <time name="diag">    8.98    9.21</time>
   <time name="diis">   15.57   15.60</time>
   <time name="orth">    0.48    0.48</time>
   <time name="total">   28.97   29.24</time>
   <energy>
    <i name="e_fr_energy">   -293.15378709 </i>
    <i name="e_wo_entrp">   -293.13578437 </i>
    <i name="e_0_energy">   -293.14778618 </i>
   </energy>
  </scstep>
  <scstep>
   <time name="diag">    8.84    8.85</time>
   <time name="diis">   15.69   15.77</time>
   <time name="orth">    0.48    0.48</time>
   <time name="total">   29.01   29.12</time>
   <energy>
    <i name="e_fr_energy">   -293.15367628 </i>
    <i name="e_wo_entrp">   -293.13607322 </i>
    <i name="e_0_energy">   -293.14780859 </i>
   </energy>
  </scstep>
  <scstep>
   <time name="diag">    9.14    9.38</time>
   <time name="diis">   15.67   15.70</time>
   <time name="orth">    0.48    0.48</time>
   <time name="total">   29.27   29.54</time>
   <energy>
    <i name="e_fr_energy">   -293.15344184 </i>
    <i name="e_wo_entrp">   -293.13593577 </i>
    <i name="e_0_energy">   -293.14760648 </i>
   </energy>
  </scstep>
  <scstep>
   <time name="diag">    8.88    8.89</time>
   <time name="diis">   14.35   14.40</time>
   <time name="orth">    0.48    0.48</time>
   <time name="total">   27.67   27.76</time>
   <energy>
    <i name="e_fr_energy">   -293.15331003 </i>
    <i name="e_wo_entrp">   -293.13571162 </i>
    <i name="e_0_energy">   -293.14744389 </i>
   </energy>
  </scstep>
  <scstep>
   <time name="diag">    9.08    9.38</time>
   <time name="diis">   14.09   14.12</time>
   <time name="orth">    0.48    0.48</time>
   <time name="total">   27.61   27.94</time>
   <energy>
    <i name="e_fr_energy">   -293.15325054 </i>
    <i name="e_wo_entrp">   -293.13541182 </i>
    <i name="e_0_energy">   -293.14730430 </i>
   </energy>
  </scstep>
  <scstep>
   <time name="diag">    8.83    8.85</time>
   <time name="diis">   14.18   14.21</time>
   <time name="orth">    0.48    0.48</time>
   <time name="total">   27.50   27.60</time>
   <energy>
    <i name="e_fr_energy">   -293.15329732 </i>
    <i name="e_wo_entrp">   -293.13517254 </i>
    <i name="e_0_energy">   -293.14725572 </i>
   </energy>
  </scstep>
  <scstep>
   <time name="diag">    8.87    8.91</time>
   <time name="diis">   14.76   15.04</time>
   <time name="orth">    0.49    0.49</time>
   <time name="total">   28.16   28.50</time>
   <energy>
    <i name="e_fr_energy">   -293.15338051 </i>
    <i name="e_wo_entrp">   -293.13498247 </i>
    <i name="e_0_energy">   -293.14724783 </i>
   </energy>
  </scstep>
  <scstep>
   <time name="diag">    8.93    8.94</time>
   <time name="diis">   14.58   14.60</time>
   <time name="orth">    0.49    0.49</time>
   <time name="total">   27.99   28.03</time>
   <energy>
    <i name="e_fr_energy">   -293.15345733 </i>
    <i name="e_wo_entrp">   -293.13480451 </i>
    <i name="e_0_energy">   -293.14723972 </i>
   </energy>
  </scstep>
  <scstep>
   <time name="diag">    8.94    9.00</time>
   <time name="diis">   14.94   15.25</time>
   <time name="orth">    0.48    0.48</time>
   <time name="total">   28.30   28.70</time>
   <energy>
    <i name="e_fr_energy">   -293.15352535 </i>
    <i name="e_wo_entrp">   -293.13464898 </i>
    <i name="e_0_energy">   -293.14723323 </i>
   </energy>
  </scstep>
  <scstep>
   <time name="diag">    8.71    8.73</time>
   <time name="diis">   14.31   14.34</time>
   <time name="orth">    0.48    0.48</time>
   <time name="total">   27.43   27.48</time>
   <energy>
    <i name="e_fr_energy">   -293.15358186 </i>
    <i name="e_wo_entrp">   -293.13455530 </i>
    <i name="e_0_energy">   -293.14723967 </i>
   </energy>
  </scstep>
  <scstep>
   <time name="diag">    8.79    8.83</time>
   <time name="diis">   14.37   14.65</time>
   <time name="orth">    0.48    0.49</time>
   <time name="total">   27.62   27.95</time>
   <energy>
    <i name="e_fr_energy">   -293.15361095 </i>
    <i name="e_wo_entrp">   -293.13447083 </i>
    <i name="e_0_energy">   -293.14723091 </i>
   </energy>
  </scstep>
  <scstep>
   <time name="diag">    8.93    8.95</time>
   <time name="diis">   13.98   14.00</time>
   <time name="orth">    0.49    0.49</time>
   <time name="total">   27.42   27.50</time>
   <energy>
    <i name="e_fr_energy">   -293.15362726 </i>
    <i name="e_wo_entrp">   -293.13439966 </i>
    <i name="e_0_energy">   -293.14721806 </i>
   </energy>
  </scstep>
  <scstep>
   <time name="diag">    8.91    8.93</time>
   <time name="diis">   13.97   14.13</time>
   <time name="orth">    0.55    0.64</time>
   <time name="total">   23.97   24.24</time>
   <energy>
    <i name="alphaZ">    477.09650995 </i>
    <i name="ewald"> 394061.77818312 </i>
    <i name="hartreedc">-427782.16810404 </i>
    <i name="XCdc">   1612.91296510 </i>
    <i name="pawpsdc">  38064.70463119 </i>
    <i name="pawaedc"> -38770.47946792 </i>
    <i name="eentropy">     -0.01925295 </i>
    <i name="bandstr">  -5909.91230772 </i>
    <i name="atom">  37952.93320877 </i>
    <i name="e_fr_energy">   -293.15363450 </i>
    <i name="e_wo_entrp">   -293.13438155 </i>
    <i name="e_0_energy">   -293.14721685 </i>
   </energy>
  </scstep>
  <structure>
   <crystal>
    <varray name="basis" >
     <v>       2.87357350      -2.87357350       4.70833511 </v>
     <v>       5.74714699       0.00000000       0.00000000 </v>
     <v>       0.00000000      33.06569101      20.18052901 </v>
    </varray>
    <i name="volume">   1228.01926054 </i>
    <varray name="rec_basis" >
     <v>       0.00000000      -0.09444515       0.15474789 </v>
     <v>       0.17399938       0.04722258      -0.07737394 </v>
     <v>       0.00000000       0.02203507       0.01344836 </v>
    </varray>
   </crystal>
   <varray name="positions" >
    <v>       0.22067121       0.89240241       0.08901558 </v>
    <v>       0.66351947       0.16633988       0.21802762 </v>
    <v>       0.94927612       0.02809995       0.15233499 </v>
    <v>       0.37613921       0.31463941       0.28546619 </v>
    <v>       0.44927612       0.52809995       0.15233499 </v>
    <v>       0.89366623       0.30564896       0.28182410 </v>
    <v>       0.44927612       0.02809995       0.15233499 </v>
    <v>       0.89167315       0.80247458       0.28151942 </v>
    <v>       0.90282244       0.55132680       0.10484543 </v>
    <v>       0.35306349       0.82223530       0.23367918 </v>
    <v>       0.99337409       0.50312314       0.20049324 </v>
    <v>       0.41993140       0.79644013       0.33481845 </v>
    <v>       0.53851998       0.23347802       0.07318573 </v>
    <v>       0.01754991       0.48819073       0.34992695 </v>
    <v>       0.76963322       0.61530880       0.30957741 </v>
    <v>       0.87926422       0.06310591       0.05527763 </v>
    <v>       0.33996873       0.33006494       0.18276609 </v>
    <v>       0.58246139       0.21150732       0.12452493 </v>
    <v>       0.03132267       0.48729523       0.25333682 </v>
    <v>       0.68350945       0.71982258       0.37274424 </v>
    <v>       0.09516526       0.72856013       0.12156099 </v>
    <v>       0.54165546       0.44955548       0.25316612 </v>
    <v>       0.74300657       0.12514930       0.31152428 </v>
    <v>       0.85888103       0.57329750       0.05350623 </v>
    <v>       0.31372019       0.84680580       0.18072804 </v>
    <v>       0.56207820       0.72169891       0.12275353 </v>
    <v>       0.00277937       0.99912620       0.25278918 </v>
    <v>       0.79463262       0.32508588       0.18428235 </v>
    <v>       0.22202372       0.62238642       0.31560606 </v>
    <v>       0.34617716       0.60305419       0.05647018 </v>
    <v>       0.21742705       0.16797133       0.31533284 </v>
    <v>       0.79622260       0.87883053       0.18400432 </v>
    <v>       0.34617716       0.05624469       0.05647018 </v>
    <v>       0.53895690       0.00803611       0.25314550 </v>
    <v>       0.09516526       0.18175063       0.12156099 </v>
    <v>       0.20663780       0.34793148       0.39071381 </v>
    <v>       0.34047062       0.60391201       0.02782883 </v>
    <v>       0.92434681       0.68523651       0.03696881 </v>
    <v>       0.34363348       0.06399961       0.02783421 </v>
    <v>       0.88838126       0.05560908       0.02665597 </v>
    <v>       0.64506392       0.77654677       0.39668793 </v>
    <v>       0.76104485       0.09723245       0.33631920 </v>
    <v>       0.10313013       0.40872868       0.41085121 </v>
   </varray>
  </structure>
  <varray name="forces" >
   <v>       0.11026573      -1.76085126      -1.61831956 </v>
   <v>       0.00913964       0.12485618       0.02630173 </v>
   <v>      -0.15789133       0.60556611       0.00423365 </v>
   <v>       0.02205538       0.01109092      -0.06219423 </v>
   <v>      -0.01264062       0.37601998       0.10695770 </v>
   <v>       0.05794996      -0.11143840       0.02871523 </v>
   <v>      -0.07901246       0.20799322       0.10037472 </v>
   <v>      -0.05682706      -0.21357384       0.00246172 </v>
   <v>      -0.01835070      -1.33422518      -0.85908184 </v>
   <v>       0.01009986       0.02716714      -0.00505817 </v>
   <v>       0.01393168       0.04520378      -0.01306299 </v>
   <v>       0.00004430      -0.07727461      -0.00237776 </v>
   <v>       0.00358872      -0.50800224       0.26525632 </v>
   <v>       0.00909995      -0.05778494       0.10151421 </v>
   <v>      -0.04919439       0.04003637      -0.03033695 </v>
   <v>      -0.31139580      -3.62076554      -1.95976237 </v>
   <v>      -0.00822806       0.00361557      -0.00599037 </v>
   <v>      -0.07594071       0.27534748       0.37794984 </v>
   <v>       0.02611184       0.13066931       0.03398209 </v>
   <v>       0.05028145       0.15475576       0.07930710 </v>
   <v>       0.36613172       0.37864591       0.56126511 </v>
   <v>      -0.01848258       0.01771704       0.03533530 </v>
   <v>      -0.01116162       0.01563228      -0.08525463 </v>
   <v>       2.68964623      -2.54373809      -0.25257315 </v>
   <v>      -0.00084177       0.02194793      -0.04829997 </v>
   <v>       0.10940295       0.34213584      -0.34797080 </v>
   <v>      -0.00478433       0.05999492      -0.01610304 </v>
   <v>       0.02305954      -0.03597451       0.00948568 </v>
   <v>      -0.00251304       0.01701137       0.00957297 </v>
   <v>      -0.94567435      -3.58062731      -2.15564682 </v>
   <v>       0.01825606       0.01501215      -0.03342343 </v>
   <v>       0.00757138      -0.02736265      -0.00066832 </v>
   <v>       1.04681117      -3.64076333      -1.93071718 </v>
   <v>       0.04224619       0.00683727       0.02224445 </v>
   <v>      -0.15231585       0.35532339       0.46085584 </v>
   <v>      -0.05331976      -0.36207834       0.03142444 </v>
   <v>       0.56470981       3.80294737       2.31559987 </v>
   <v>      -2.89366081       3.08548875       0.46235254 </v>
   <v>      -0.65609007       3.94500224       2.09703491 </v>
   <v>       0.36414272       3.68260889       2.17639909 </v>
   <v>      -0.03226382      -0.26761703      -0.02422250 </v>
   <v>      -0.00327817       0.11762441       0.07808983 </v>
   <v>      -0.00067895       0.27582568       0.06434975 </v>
  </varray>
  <energy>
   <i name="e_fr_energy">   -293.15363450 </i>
   <i name="e_wo_entrp">   -293.14721685 </i>
   <i name="e_0_energy">     -0.01925295 </i>
  </energy>
  <time name="totalsc"> 1603.35 1614.93</time>
 </calculation>
 <calculation>
  <scstep>
   <time name="dav">   43.74   44.08</time>
   <time name="total">   47.75   48.10</time>
   <energy>
    <i name="alphaZ">    477.09650995 </i>
    <i name="ewald"> 394068.65678617 </i>
    <i name="hartreedc">-427789.44622550 </i>
    <i name="XCdc">   1612.90091179 </i>
    <i name="pawpsdc">  38064.71985141 </i>
    <i name="pawaedc"> -38770.49402454 </i>
    <i name="eentropy">     -0.01818516 </i>
    <i name="bandstr">  -5909.49726359 </i>
    <i name="atom">  37952.93320877 </i>
    <i name="e_fr_energy">   -293.14843071 </i>
    <i name="e_wo_entrp">   -293.13024555 </i>
    <i name="e_0_energy">   -293.14236899 </i>
   </energy>
  </scstep>
  <scstep>
   <time name="diag">    8.95    8.97</time>
   <time name="diis">   29.99   30.08</time>
   <time name="orth">    0.49    0.49</time>
   <time name="total">   43.46   43.59</time>
   <energy>
    <i name="e_fr_energy">   -293.16220264 </i>
    <i name="e_wo_entrp">   -293.14124882 </i>
    <i name="e_0_energy">   -293.15521804 </i>
   </energy>
  </scstep>
  <scstep>
   <time name="diag">    9.22    9.44</time>
   <time name="diis">   25.38   25.42</time>
   <time name="orth">    0.49    0.49</time>
   <time name="total">   39.09   39.36</time>
   <energy>
    <i name="e_fr_energy">   -293.15371060 </i>
    <i name="e_wo_entrp">   -293.13232149 </i>
    <i name="e_0_energy">   -293.14658090 </i>
   </energy>
  </scstep>
  <scstep>
   <time name="diag">    8.91    8.94</time>
   <time name="diis">   25.97   26.26</time>
   <time name="orth">    0.48    0.48</time>
   <time name="total">   39.32   39.63</time>
   <energy>
    <i name="e_fr_energy">   -293.15842935 </i>
    <i name="e_wo_entrp">   -293.14301929 </i>
    <i name="e_0_energy">   -293.15329266 </i>
   </energy>
  </scstep>
  <scstep>
   <time name="diag">    8.89    8.90</time>
   <time name="diis">   23.99   24.03</time>
   <time name="orth">    0.48    0.49</time>
   <time name="total">   37.34   37.45</time>
   <energy>
    <i name="e_fr_energy">   -293.15827958 </i>
    <i name="e_wo_entrp">   -293.14466217 </i>
    <i name="e_0_energy">   -293.15374044 </i>
   </energy>
  </scstep>
  <scstep>
   <time name="diag">    9.03    9.09</time>
   <time name="diis">   24.23   24.43</time>
   <time name="orth">    0.49    0.49</time>
   <time name="total">   37.74   38.02</time>
   <energy>
    <i name="e_fr_energy">   -293.15444698 </i>
    <i name="e_wo_entrp">   -293.13962966 </i>
    <i name="e_0_energy">   -293.14950787 </i>
   </energy>
  </scstep>
  <scstep>
   <time name="diag">    8.91    8.96</time>
   <time name="diis">   25.96   26.35</time>
   <time name="orth">    0.49    0.49</time>
   <time name="total">   39.34   39.78</time>
   <energy>
    <i name="e_fr_energy">   -293.15415328 </i>
    <i name="e_wo_entrp">   -293.13529391 </i>
    <i name="e_0_energy">   -293.14786682 </i>
   </energy>
  </scstep>
  <scstep>
   <time name="diag">    8.96    8.98</time>
   <time name="diis">   22.15   22.23</time>
   <time name="orth">    0.49    0.49</time>
   <time name="total">   35.59   35.71</time>
   <energy>
    <i name="e_fr_energy">   -293.16091812 </i>
    <i name="e_wo_entrp">   -293.13981777 </i>
    <i name="e_0_energy">   -293.15388467 </i>
   </energy>
  </scstep>
  <scstep>
   <time name="diag">    8.93    9.00</time>
   <time name="diis">   23.11   23.39</time>
   <time name="orth">    0.49    0.49</time>
   <time name="total">   36.51   36.86</time>
   <energy>
    <i name="e_fr_energy">   -293.15859188 </i>
    <i name="e_wo_entrp">   -293.13660655 </i>
    <i name="e_0_energy">   -293.15126344 </i>
   </energy>
  </scstep>
  <scstep>
   <time name="diag">    8.93    8.94</time>
   <time name="diis">   22.54   22.67</time>
   <time name="orth">    0.49    0.50</time>
   <time name="total">   35.97   36.13</time>
   <energy>
    <i name="e_fr_energy">   -293.15556268 </i>
    <i name="e_wo_entrp">   -293.13333788 </i>
    <i name="e_0_energy">   -293.14815441 </i>
   </energy>
  </scstep>
  <scstep>
   <time name="diag">    9.10    9.32</time>
   <time name="diis">   24.06   24.10</time>
   <time name="orth">    0.48    0.49</time>
   <time name="total">   37.62   37.89</time>
   <energy>
    <i name="e_fr_energy">   -293.15228098 </i>
    <i name="e_wo_entrp">   -293.13004198 </i>
    <i name="e_0_energy">   -293.14486798 </i>
   </energy>
  </scstep>
  <scstep>
   <time name="diag">    8.87    8.89</time>
   <time name="diis">   23.73   24.07</time>
   <time name="orth">    0.49    0.49</time>
   <time name="total">   37.06   37.41</time>
   <energy>
    <i name="e_fr_energy">   -293.15181257 </i>
    <i name="e_wo_entrp">   -293.13041796 </i>
    <i name="e_0_energy">   -293.14468103 </i>
   </energy>
  </scstep>
  <scstep>
   <time name="diag">    8.88    8.91</time>
   <time name="diis">   20.95   20.99</time>
   <time name="orth">    0.49    0.49</time>
   <time name="total">   34.33   34.42</time>
   <energy>
    <i name="e_fr_energy">   -293.15462563 </i>
    <i name="e_wo_entrp">   -293.13425486 </i>
    <i name="e_0_energy">   -293.14783538 </i>
   </energy>
  </scstep>
  <scstep>
   <time name="diag">    8.88    8.91</time>
   <time name="diis">   21.34   21.63</time>
   <time name="orth">    0.49    0.49</time>
   <time name="total">   34.65   35.03</time>
   <energy>
    <i name="e_fr_energy">   -293.15594189 </i>
    <i name="e_wo_entrp">   -293.13602647 </i>
    <i name="e_0_energy">   -293.14930342 </i>
   </energy>
  </scstep>
  <scstep>
   <time name="diag">    8.85    8.87</time>
   <time name="diis">   16.93   17.03</time>
   <time name="orth">    0.48    0.48</time>
   <time name="total">   30.22   30.35</time>
   <energy>
    <i name="e_fr_energy">   -293.15620761 </i>
    <i name="e_wo_entrp">   -293.13661499 </i>
    <i name="e_0_energy">   -293.14967674 </i>
   </energy>
  </scstep>
  <scstep>
   <time name="diag">    9.15    9.40</time>
   <time name="diis">   18.09   18.13</time>
   <time name="orth">    0.48    0.48</time>
   <time name="total">   31.69   31.99</time>
   <energy>
    <i name="e_fr_energy">   -293.15641578 </i>
    <i name="e_wo_entrp">   -293.13762881 </i>
    <i name="e_0_energy">   -293.15015346 </i>
   </energy>
  </scstep>
  <scstep>
   <time name="diag">    8.87    8.88</time>
   <time name="diis">   17.81   17.89</time>
   <time name="orth">    0.48    0.49</time>
   <time name="total">   31.23   31.36</time>
   <energy>
    <i name="e_fr_energy">   -293.15698266 </i>
    <i name="e_wo_entrp">   -293.13935949 </i>
    <i name="e_0_energy">   -293.15110827 </i>
   </energy>
  </scstep>
  <scstep>
   <time name="diag">    9.11    9.33</time>
   <time name="diis">   17.96   17.99</time>
   <time name="orth">    0.49    0.49</time>
   <time name="total">   31.53   31.78</time>
   <energy>
    <i name="e_fr_energy">   -293.15715302 </i>
    <i name="e_wo_entrp">   -293.14062020 </i>
    <i name="e_0_energy">   -293.15164208 </i>
   </energy>
  </scstep>
  <scstep>
   <time name="diag">    8.91    8.92</time>
   <time name="diis">   17.38   17.45</time>
   <time name="orth">    0.50    0.50</time>
   <time name="total">   30.82   30.92</time>
   <energy>
    <i name="e_fr_energy">   -293.15707121 </i>
    <i name="e_wo_entrp">   -293.14149877 </i>
    <i name="e_0_energy">   -293.15188040 </i>
   </energy>
  </scstep>
  <scstep>
   <time name="diag">    9.12    9.30</time>
   <time name="diis">   16.93   16.97</time>
   <time name="orth">    0.49    0.49</time>
   <time name="total">   30.52   30.75</time>
   <energy>
    <i name="e_fr_energy">   -293.15683275 </i>
    <i name="e_wo_entrp">   -293.14206129 </i>
    <i name="e_0_energy">   -293.15190893 </i>
   </energy>
  </scstep>
  <scstep>
   <time name="diag">    8.88    8.90</time>
   <time name="diis">   16.22   16.31</time>
   <time name="orth">    0.50    0.50</time>
   <time name="total">   29.62   29.74</time>
   <energy>
    <i name="e_fr_energy">   -293.15656246 </i>
    <i name="e_wo_entrp">   -293.14243019 </i>
    <i name="e_0_energy">   -293.15185170 </i>
   </energy>
  </scstep>
  <scstep>
   <time name="diag">    8.93    9.20</time>
   <time name="diis">   15.47   15.50</time>
   <time name="orth">    0.48    0.48</time>
   <time name="total">   28.84   29.18</time>
   <energy>
    <i name="e_fr_energy">   -293.15634739 </i>
    <i name="e_wo_entrp">   -293.14274322 </i>
    <i name="e_0_energy">   -293.15181266 </i>
   </energy>
  </scstep>
  <scstep>
   <time name="diag">    8.88    8.90</time>
   <time name="diis">   15.15   15.20</time>
   <time name="orth">    0.49    0.50</time>
   <time name="total">   28.51   28.61</time>
   <energy>
    <i name="e_fr_energy">   -293.15612464 </i>
    <i name="e_wo_entrp">   -293.14293700 </i>
    <i name="e_0_energy">   -293.15172876 </i>
   </energy>
  </scstep>
  <scstep>
   <time name="diag">    9.27    9.56</time>
   <time name="diis">   14.74   14.76</time>
   <time name="orth">    0.48    0.48</time>
   <time name="total">   28.47   28.79</time>
   <energy>
    <i name="e_fr_energy">   -293.15595929 </i>
    <i name="e_wo_entrp">   -293.14311409 </i>
    <i name="e_0_energy">   -293.15167756 </i>
   </energy>
  </scstep>
  <scstep>
   <time name="diag">    8.84    8.85</time>
   <time name="diis">   14.59   14.68</time>
   <time name="orth">    0.48    0.48</time>
   <time name="total">   27.87   27.98</time>
   <energy>
    <i name="e_fr_energy">   -293.15580446 </i>
    <i name="e_wo_entrp">   -293.14323043 </i>
    <i name="e_0_energy">   -293.15161312 </i>
   </energy>
  </scstep>
  <scstep>
   <time name="diag">    9.22    9.62</time>
   <time name="diis">   14.24   14.29</time>
   <time name="orth">    0.48    0.48</time>
   <time name="total">   27.90   28.35</time>
   <energy>
    <i name="e_fr_energy">   -293.15569267 </i>
    <i name="e_wo_entrp">   -293.14334268 </i>
    <i name="e_0_energy">   -293.15157601 </i>
   </energy>
  </scstep>
  <scstep>
   <time name="diag">    8.83    8.84</time>
   <time name="diis">   13.86   13.88</time>
   <time name="orth">    0.48    0.48</time>
   <time name="total">   27.15   27.26</time>
   <energy>
    <i name="e_fr_energy">   -293.15557930 </i>
    <i name="e_wo_entrp">   -293.14340169 </i>
    <i name="e_0_energy">   -293.15152010 </i>
   </energy>
  </scstep>
  <scstep>
   <time name="diag">    8.94    9.00</time>
   <time name="diis">   13.44   13.64</time>
   <time name="orth">    0.48    0.48</time>
   <time name="total">   26.83   27.11</time>
   <energy>
    <i name="e_fr_energy">   -293.15551171 </i>
    <i name="e_wo_entrp">   -293.14347969 </i>
    <i name="e_0_energy">   -293.15150104 </i>
   </energy>
  </scstep>
  <scstep>
   <time name="diag">    8.84    8.86</time>
   <time name="diis">   13.30   13.31</time>
   <time name="orth">    0.48    0.48</time>
   <time name="total">   26.59   26.64</time>
   <energy>
    <i name="e_fr_energy">   -293.15542025 </i>
    <i name="e_wo_entrp">   -293.14349014 </i>
    <i name="e_0_energy">   -293.15144355 </i>
   </energy>
  </scstep>
  <scstep>
   <time name="diag">    8.86    8.97</time>
   <time name="diis">   12.49   12.81</time>
   <time name="orth">    0.48    0.48</time>
   <time name="total">   25.79   26.23</time>
   <energy>
    <i name="e_fr_energy">   -293.15537462 </i>
    <i name="e_wo_entrp">   -293.14352730 </i>
    <i name="e_0_energy">   -293.15142551 </i>
   </energy>
  </scstep>
  <scstep>
   <time name="diag">    8.90    8.93</time>
   <time name="diis">   12.32   12.33</time>
   <time name="orth">    0.48    0.48</time>
   <time name="total">   25.67   25.76</time>
   <energy>
    <i name="e_fr_energy">   -293.15532128 </i>
    <i name="e_wo_entrp">   -293.14353127 </i>
    <i name="e_0_energy">   -293.15139127 </i>
   </energy>
  </scstep>
  <scstep>
   <time name="diag">    8.85    8.87</time>
   <time name="diis">   11.62   11.70</time>
   <time name="orth">    0.49    0.49</time>
   <time name="total">   25.07   25.24</time>
   <energy>
    <i name="e_fr_energy">   -293.15525772 </i>
    <i name="e_wo_entrp">   -293.14349040 </i>
    <i name="e_0_energy">   -293.15133528 </i>
   </energy>
  </scstep>
  <scstep>
   <time name="diag">    8.91    9.00</time>
   <time name="diis">   14.53   14.57</time>
   <time name="orth">    0.48    0.48</time>
   <time name="total">   27.87   28.05</time>
   <energy>
    <i name="e_fr_energy">   -293.15478541 </i>
    <i name="e_wo_entrp">   -293.14274423 </i>
    <i name="e_0_energy">   -293.15077168 </i>
   </energy>
  </scstep>
  <scstep>
   <time name="diag">    8.82    8.84</time>
   <time name="diis">   15.49   15.57</time>
   <time name="orth">    0.48    0.48</time>
   <time name="total">   28.81   28.93</time>
   <energy>
    <i name="e_fr_energy">   -293.15418410 </i>
    <i name="e_wo_entrp">   -293.14143695 </i>
    <i name="e_0_energy">   -293.14993505 </i>
   </energy>
  </scstep>
  <scstep>
   <time name="diag">    9.04    9.26</time>
   <time name="diis">   17.26   17.29</time>
   <time name="orth">    0.48    0.49</time>
   <time name="total">   30.77   31.03</time>
   <energy>
    <i name="e_fr_energy">   -293.15381973 </i>
    <i name="e_wo_entrp">   -293.13995400 </i>
    <i name="e_0_energy">   -293.14919782 </i>
   </energy>
  </scstep>
  <scstep>
   <time name="diag">    8.86    8.92</time>
   <time name="diis">   16.95   17.07</time>
   <time name="orth">    0.48    0.49</time>
   <time name="total">   30.33   30.52</time>
   <energy>
    <i name="e_fr_energy">   -293.15408624 </i>
    <i name="e_wo_entrp">   -293.13897731 </i>
    <i name="e_0_energy">   -293.14904993 </i>
   </energy>
  </scstep>
  <scstep>
   <time name="diag">    8.95    9.07</time>
   <time name="diis">   17.06   17.11</time>
   <time name="orth">    0.49    0.49</time>
   <time name="total">   30.48   30.72</time>
   <energy>
    <i name="e_fr_energy">   -293.15472462 </i>
    <i name="e_wo_entrp">   -293.13848830 </i>
    <i name="e_0_energy">   -293.14931251 </i>
   </energy>
  </scstep>
  <scstep>
   <time name="diag">    8.86    8.88</time>
   <time name="diis">   16.96   17.07</time>
   <time name="orth">    0.48    0.49</time>
   <time name="total">   30.38   30.58</time>
   <energy>
    <i name="e_fr_energy">   -293.15540670 </i>
    <i name="e_wo_entrp">   -293.13825698 </i>
    <i name="e_0_energy">   -293.14969013 </i>
   </energy>
  </scstep>
  <scstep>
   <time name="diag">    8.99    9.07</time>
   <time name="diis">   17.06   17.12</time>
   <time name="orth">    0.48    0.48</time>
   <time name="total">   30.52   30.71</time>
   <energy>
    <i name="e_fr_energy">   -293.15598665 </i>
    <i name="e_wo_entrp">   -293.13825247 </i>
    <i name="e_0_energy">   -293.15007526 </i>
   </energy>
  </scstep>
  <scstep>
   <time name="diag">    8.86    8.87</time>
   <time name="diis">   16.91   17.00</time>
   <time name="orth">    0.48    0.49</time>
   <time name="total">   30.41   30.67</time>
   <energy>
    <i name="e_fr_energy">   -293.15631882 </i>
    <i name="e_wo_entrp">   -293.13834940 </i>
    <i name="e_0_energy">   -293.15032902 </i>
   </energy>
  </scstep>
  <scstep>
   <time name="diag">    8.85    8.86</time>
   <time name="diis">   15.90   15.94</time>
   <time name="orth">    0.48    0.48</time>
   <time name="total">   29.20   29.25</time>
   <energy>
    <i name="e_fr_energy">   -293.15650876 </i>
    <i name="e_wo_entrp">   -293.13864034 </i>
    <i name="e_0_energy">   -293.15055262 </i>
   </energy>
  </scstep>
  <scstep>
   <time name="diag">    8.86    8.88</time>
   <time name="diis">   14.67   14.77</time>
   <time name="orth">    0.50    0.50</time>
   <time name="total">   28.06   28.20</time>
   <energy>
    <i name="e_fr_energy">   -293.15657464 </i>
    <i name="e_wo_entrp">   -293.13895127 </i>
    <i name="e_0_energy">   -293.15070018 </i>
   </energy>
  </scstep>
  <scstep>
   <time name="diag">    9.09    9.32</time>
   <time name="diis">   14.42   14.45</time>
   <time name="orth">    0.49    0.49</time>
   <time name="total">   27.97   28.24</time>
   <energy>
    <i name="e_fr_energy">   -293.15653177 </i>
    <i name="e_wo_entrp">   -293.13911536 </i>
    <i name="e_0_energy">   -293.15072630 </i>
   </energy>
  </scstep>
  <scstep>
   <time name="diag">    8.85    8.86</time>
   <time name="diis">   14.33   14.37</time>
   <time name="orth">    0.48    0.48</time>
   <time name="total">   27.65   27.73</time>
   <energy>
    <i name="e_fr_energy">   -293.15647540 </i>
    <i name="e_wo_entrp">   -293.13920857 </i>
    <i name="e_0_energy">   -293.15071979 </i>
   </energy>
  </scstep>
  <scstep>
   <time name="diag">    9.21    9.48</time>
   <time name="diis">   13.87   13.90</time>
   <time name="orth">    0.49    0.49</time>
   <time name="total">   27.53   27.83</time>
   <energy>
    <i name="e_fr_energy">   -293.15643468 </i>
    <i name="e_wo_entrp">   -293.13928821 </i>
    <i name="e_0_energy">   -293.15071919 </i>
   </energy>
  </scstep>
  <scstep>
   <time name="diag">    8.82    8.83</time>
   <time name="diis">   13.37   13.40</time>
   <time name="orth">    0.51    0.52</time>
   <time name="total">   26.68   26.77</time>
   <energy>
    <i name="e_fr_energy">   -293.15640059 </i>
    <i name="e_wo_entrp">   -293.13935658 </i>
    <i name="e_0_energy">   -293.15071925 </i>
   </energy>
  </scstep>
  <scstep>
   <time name="diag">    8.79    8.83</time>
   <time name="diis">   13.35   13.63</time>
   <time name="orth">    0.48    0.48</time>
   <time name="total">   26.51   26.87</time>
   <energy>
    <i name="e_fr_energy">   -293.15636605 </i>
    <i name="e_wo_entrp">   -293.13940464 </i>
    <i name="e_0_energy">   -293.15071225 </i>
   </energy>
  </scstep>
  <scstep>
   <time name="diag">    8.69    8.71</time>
   <time name="diis">   12.73   12.75</time>
   <time name="orth">    0.48    0.48</time>
   <time name="total">   25.82   25.87</time>
   <energy>
    <i name="e_fr_energy">   -293.15634149 </i>
    <i name="e_wo_entrp">   -293.13945194 </i>
    <i name="e_0_energy">   -293.15071164 </i>
   </energy>
  </scstep>
  <scstep>
   <time name="diag">    8.75    8.80</time>
   <time name="diis">   13.09   13.42</time>
   <time name="orth">    0.48    0.49</time>
   <time name="total">   26.29   26.67</time>
   <energy>
    <i name="e_fr_energy">   -293.15632122 </i>
    <i name="e_wo_entrp">   -293.13949705 </i>
    <i name="e_0_energy">   -293.15071317 </i>
   </energy>
  </scstep>
  <scstep>
   <time name="diag">    8.86    8.91</time>
   <time name="diis">   12.34   12.36</time>
   <time name="orth">    0.49    0.49</time>
   <time name="total">   25.67   25.73</time>
   <energy>
    <i name="e_fr_energy">   -293.15630119 </i>
    <i name="e_wo_entrp">   -293.13953555 </i>
    <i name="e_0_energy">   -293.15071265 </i>
   </energy>
  </scstep>
  <scstep>
   <time name="diag">    8.86    8.87</time>
   <time name="diis">   12.12   12.22</time>
   <time name="orth">    0.50    0.50</time>
   <time name="total">   25.58   25.86</time>
   <energy>
    <i name="e_fr_energy">   -293.15628335 </i>
    <i name="e_wo_entrp">   -293.13957051 </i>
    <i name="e_0_energy">   -293.15071241 </i>
   </energy>
  </scstep>
  <scstep>
   <time name="diag">    8.86    8.91</time>
   <time name="diis">   13.25   13.30</time>
   <time name="orth">    0.48    0.48</time>
   <time name="total">   26.57   26.74</time>
   <energy>
    <i name="e_fr_energy">   -293.15632313 </i>
    <i name="e_wo_entrp">   -293.13972623 </i>
    <i name="e_0_energy">   -293.15079083 </i>
   </energy>
  </scstep>
  <scstep>
   <time name="diag">    8.85    8.86</time>
   <time name="diis">   13.70   13.97</time>
   <time name="orth">    0.48    0.49</time>
   <time name="total">   27.06   27.36</time>
   <energy>
    <i name="e_fr_energy">   -293.15621602 </i>
    <i name="e_wo_entrp">   -293.13962989 </i>
    <i name="e_0_energy">   -293.15068731 </i>
   </energy>
  </scstep>
  <scstep>
   <time name="diag">    9.17    9.49</time>
   <time name="diis">   11.26   11.28</time>
   <time name="orth">    0.49    0.50</time>
   <time name="total">   24.90   25.25</time>
   <energy>
    <i name="e_fr_energy">   -293.15617145 </i>
    <i name="e_wo_entrp">   -293.13953525 </i>
    <i name="e_0_energy">   -293.15062605 </i>
   </energy>
  </scstep>
  <scstep>
   <time name="diag">    8.85    8.87</time>
   <time name="diis">   12.50   12.51</time>
   <time name="orth">    0.48    0.48</time>
   <time name="total">   25.83   25.87</time>
   <energy>
    <i name="e_fr_energy">   -293.15614910 </i>
    <i name="e_wo_entrp">   -293.13941489 </i>
    <i name="e_0_energy">   -293.15057103 </i>
   </energy>
  </scstep>
  <scstep>
   <time name="diag">    8.90    9.12</time>
   <time name="diis">   13.96   14.27</time>
   <time name="orth">    0.49    0.49</time>
   <time name="total">   27.33   27.88</time>
   <energy>
    <i name="e_fr_energy">   -293.15612143 </i>
    <i name="e_wo_entrp">   -293.13921183 </i>
    <i name="e_0_energy">   -293.15048490 </i>
   </energy>
  </scstep>
  <scstep>
   <time name="diag">    8.89    8.91</time>
   <time name="diis">   14.20   14.23</time>
   <time name="orth">    0.49    0.49</time>
   <time name="total">   27.55   27.60</time>
   <energy>
    <i name="e_fr_energy">   -293.15613518 </i>
    <i name="e_wo_entrp">   -293.13899021 </i>
    <i name="e_0_energy">   -293.15042019 </i>
   </energy>
  </scstep>
  <scstep>
   <time name="diag">    9.27    9.43</time>
   <time name="diis">   14.60   14.88</time>
   <time name="orth">    0.49    0.49</time>
   <time name="total">   28.36   28.81</time>
   <energy>
    <i name="e_fr_energy">   -293.15619014 </i>
    <i name="e_wo_entrp">   -293.13878297 </i>
    <i name="e_0_energy">   -293.15038775 </i>
   </energy>
  </scstep>
  <scstep>
   <time name="diag">    8.93    8.95</time>
   <time name="diis">   14.47   14.48</time>
   <time name="orth">    0.50    0.50</time>
   <time name="total">   27.91   27.96</time>
   <energy>
    <i name="e_fr_energy">   -293.15627046 </i>
    <i name="e_wo_entrp">   -293.13861299 </i>
    <i name="e_0_energy">   -293.15038464 </i>
   </energy>
  </scstep>
  <scstep>
   <time name="diag">    8.98    9.03</time>
   <time name="diis">   14.72   15.00</time>
   <time name="orth">    0.49    0.49</time>
   <time name="total">   24.73   25.05</time>
   <energy>
    <i name="alphaZ">    477.09650995 </i>
    <i name="ewald"> 394068.65678617 </i>
    <i name="hartreedc">-427791.09229879 </i>
    <i name="XCdc">   1612.88444927 </i>
    <i name="pawpsdc">  38060.74562649 </i>
    <i name="pawaedc"> -38766.50024656 </i>
    <i name="eentropy">     -0.01789572 </i>
    <i name="bandstr">  -5907.86248114 </i>
    <i name="atom">  37952.93320877 </i>
    <i name="e_fr_energy">   -293.15634154 </i>
    <i name="e_wo_entrp">   -293.13844583 </i>
    <i name="e_0_energy">   -293.15037630 </i>
   </energy>
  </scstep>
  <structure>
   <crystal>
    <varray name="basis" >
     <v>       2.87357350      -2.87357350       4.70833511 </v>
     <v>       5.74714699       0.00000000       0.00000000 </v>
     <v>       0.00000000      33.06569101      20.18052901 </v>
    </varray>
    <i name="volume">   1228.01926054 </i>
    <varray name="rec_basis" >
     <v>       0.00000000      -0.09444515       0.15474789 </v>
     <v>       0.17399938       0.04722258      -0.07737394 </v>
     <v>       0.00000000       0.02203507       0.01344836 </v>
    </varray>
   </crystal>
   <varray name="positions" >
    <v>       0.22067121       0.89240241       0.08901558 </v>
    <v>       0.66347354       0.16618390       0.21802223 </v>
    <v>       0.94927612       0.02809995       0.15233499 </v>
    <v>       0.37597443       0.31469613       0.28546073 </v>
    <v>       0.44927612       0.52809995       0.15233499 </v>
    <v>       0.89373952       0.30561104       0.28180318 </v>
    <v>       0.44927612       0.02809995       0.15233499 </v>
    <v>       0.89181742       0.80236942       0.28149511 </v>
    <v>       0.90282244       0.55132680       0.10484543 </v>
    <v>       0.35311987       0.82217655       0.23367489 </v>
    <v>       0.99337953       0.50300525       0.20048794 </v>
    <v>       0.41983651       0.79671733       0.33490039 </v>
    <v>       0.53851998       0.23347802       0.07318573 </v>
    <v>       0.01754406       0.48846497       0.34991592 </v>
    <v>       0.76938808       0.61556783       0.30960509 </v>
    <v>       0.87926422       0.06310591       0.05527763 </v>
    <v>       0.33987183       0.32993332       0.18278543 </v>
    <v>       0.58246139       0.21150732       0.12452493 </v>
    <v>       0.03133456       0.48723446       0.25335477 </v>
    <v>       0.68413360       0.72078997       0.37277457 </v>
    <v>       0.09516526       0.72856013       0.12156099 </v>
    <v>       0.54168805       0.44944958       0.25318475 </v>
    <v>       0.74275558       0.12521330       0.31153496 </v>
    <v>       0.85888103       0.57329750       0.05350623 </v>
    <v>       0.31354586       0.84707566       0.18073663 </v>
    <v>       0.56207820       0.72169891       0.12275353 </v>
    <v>       0.00263795       0.99922247       0.25278932 </v>
    <v>       0.79478657       0.32501833       0.18426798 </v>
    <v>       0.22233233       0.62282433       0.31560047 </v>
    <v>       0.34617716       0.60305419       0.05647018 </v>
    <v>       0.21756250       0.16768454       0.31533431 </v>
    <v>       0.79643504       0.87850039       0.18399534 </v>
    <v>       0.34617716       0.05624469       0.05647018 </v>
    <v>       0.53885352       0.00784902       0.25316508 </v>
    <v>       0.09516526       0.18175063       0.12156099 </v>
    <v>       0.20834468       0.34674054       0.39049112 </v>
    <v>       0.34047062       0.60391201       0.02782883 </v>
    <v>       0.92434681       0.68523651       0.03696881 </v>
    <v>       0.34363348       0.06399961       0.02783421 </v>
    <v>       0.88838126       0.05560908       0.02665597 </v>
    <v>       0.64554414       0.77616358       0.39675362 </v>
    <v>       0.76152800       0.09668296       0.33632784 </v>
    <v>       0.10514715       0.40693426       0.41079390 </v>
   </varray>
  </structure>
  <varray name="forces" >
   <v>       0.11035213      -1.76181947      -1.62141826 </v>
   <v>       0.01289023       0.12573817       0.02852424 </v>
   <v>      -0.16270545       0.59546003       0.00608416 </v>
   <v>       0.02714461       0.01381225      -0.03964902 </v>
   <v>      -0.01069028       0.38822085       0.10464916 </v>
   <v>       0.05647587      -0.06246352       0.02610151 </v>
   <v>      -0.08214314       0.20770868       0.09774979 </v>
   <v>      -0.04436466      -0.16702859      -0.00441537 </v>
   <v>      -0.01542733      -1.33642349      -0.85875465 </v>
   <v>       0.00293001       0.03316666      -0.00768863 </v>
   <v>       0.01257597       0.04965660      -0.00793279 </v>
   <v>       0.00004615      -0.08247973       0.01787590 </v>
   <v>       0.00197621      -0.50802250       0.26663917 </v>
   <v>      -0.00613596      -0.06613992       0.08013399 </v>
   <v>      -0.05606807       0.01415577       0.00707222 </v>
   <v>      -0.31059439      -3.63053300      -1.96358374 </v>
   <v>       0.00498125      -0.01183568       0.00287750 </v>
   <v>      -0.07586203       0.27829799       0.37899871 </v>
   <v>       0.02691929       0.11229834       0.03101673 </v>
   <v>       0.03602198       0.12234493       0.07455106 </v>
   <v>       0.36867754       0.38097781       0.56452654 </v>
   <v>      -0.02205040       0.00880971       0.02776728 </v>
   <v>      -0.01382027       0.00856969      -0.06673095 </v>
   <v>       2.72140659      -2.57787584      -0.25114748 </v>
   <v>      -0.01577930       0.01133162      -0.04320513 </v>
   <v>       0.10894366       0.34854120      -0.34867850 </v>
   <v>      -0.00772154       0.03877664      -0.01379692 </v>
   <v>       0.01103766      -0.01881243       0.00008913 </v>
   <v>      -0.04216714       0.02281545      -0.00609039 </v>
   <v>      -0.94422530      -3.58253659      -2.15790099 </v>
   <v>       0.06030853       0.03169767      -0.05590029 </v>
   <v>       0.02192916      -0.01683869      -0.00967954 </v>
   <v>       1.04467457      -3.64392714      -1.93279446 </v>
   <v>       0.05727249      -0.00411128       0.02243943 </v>
   <v>      -0.15572825       0.35345844       0.46168259 </v>
   <v>      -0.04340981      -0.17492328       0.00500906 </v>
   <v>       0.56444757       3.80493898       2.31677074 </v>
   <v>      -2.91855698       3.11350312       0.46251329 </v>
   <v>      -0.65611717       3.94888898       2.09889244 </v>
   <v>       0.36427764       3.69057230       2.18067483 </v>
   <v>      -0.02288387      -0.25263974      -0.01088574 </v>
   <v>      -0.00082247       0.10183187       0.06135574 </v>
   <v>      -0.00801529       0.09283713       0.07625765 </v>
  </varray>
  <energy>
   <i name="e_fr_energy">   -293.15634154 </i>
   <i name="e_wo_entrp">   -293.15037630 </i>
   <i name="e_0_energy">     -0.01789572 </i>
  </energy>
  <time name="totalsc"> 1848.30 1861.73</time>
 </calculation>
 <calculation>
  <scstep>
   <time name="dav">   43.75   44.14</time>
   <time name="total">   47.70   48.09</time>
   <energy>
    <i name="alphaZ">    477.09650995 </i>
    <i name="ewald"> 394078.46290485 </i>
    <i name="hartreedc">-427801.45042153 </i>
    <i name="XCdc">   1612.86604123 </i>
    <i name="pawpsdc">  38060.74805901 </i>
    <i name="pawaedc"> -38766.50439209 </i>
    <i name="eentropy">     -0.01658954 </i>
    <i name="bandstr">  -5907.27631713 </i>
    <i name="atom">  37952.93320877 </i>
    <i name="e_fr_energy">   -293.14099647 </i>
    <i name="e_wo_entrp">   -293.12440693 </i>
    <i name="e_0_energy">   -293.13546662 </i>
   </energy>
  </scstep>
  <scstep>
   <time name="diag">    8.85    8.86</time>
   <time name="diis">   29.92   30.01</time>
   <time name="orth">    0.48    0.48</time>
   <time name="total">   43.21   43.33</time>
   <energy>
    <i name="e_fr_energy">   -293.18961829 </i>
    <i name="e_wo_entrp">   -293.17272495 </i>
    <i name="e_0_energy">   -293.18398718 </i>
   </energy>
  </scstep>
  <scstep>
   <time name="diag">    8.99    9.21</time>
   <time name="diis">   25.40   25.43</time>
   <time name="orth">    0.48    0.48</time>
   <time name="total">   38.81   39.07</time>
   <energy>
    <i name="e_fr_energy">   -293.14991883 </i>
    <i name="e_wo_entrp">   -293.12802577 </i>
    <i name="e_0_energy">   -293.14262114 </i>
   </energy>
  </scstep>
  <scstep>
   <time name="diag">    8.82    8.85</time>
   <time name="diis">   26.31   26.62</time>
   <time name="orth">    0.49    0.49</time>
   <time name="total">   39.58   39.92</time>
   <energy>
    <i name="e_fr_energy">   -293.13852854 </i>
    <i name="e_wo_entrp">   -293.11985481 </i>
    <i name="e_0_energy">   -293.13230396 </i>
   </energy>
  </scstep>
  <scstep>
   <time name="diag">    8.88    8.91</time>
   <time name="diis">   23.97   24.07</time>
   <time name="orth">    0.49    0.49</time>
   <time name="total">   37.29   37.43</time>
   <energy>
    <i name="e_fr_energy">   -293.16555814 </i>
    <i name="e_wo_entrp">   -293.15405190 </i>
    <i name="e_0_energy">   -293.16172273 </i>
   </energy>
  </scstep>
  <scstep>
   <time name="diag">    9.18    9.62</time>
   <time name="diis">   23.48   23.52</time>
   <time name="orth">    0.48    0.48</time>
   <time name="total">   37.12   37.59</time>
   <energy>
    <i name="e_fr_energy">   -293.16350348 </i>
    <i name="e_wo_entrp">   -293.15557130 </i>
    <i name="e_0_energy">   -293.16085942 </i>
   </energy>
  </scstep>
  <scstep>
   <time name="diag">    8.88    8.89</time>
   <time name="diis">   24.80   25.09</time>
   <time name="orth">    0.49    0.49</time>
   <time name="total">   38.12   38.43</time>
   <energy>
    <i name="e_fr_energy">   -293.15786154 </i>
    <i name="e_wo_entrp">   -293.15031977 </i>
    <i name="e_0_energy">   -293.15534762 </i>
   </energy>
  </scstep>
  <scstep>
   <time name="diag">    8.87    8.89</time>
   <time name="diis">   25.47   25.51</time>
   <time name="orth">    0.49    0.49</time>
   <time name="total">   38.88   38.99</time>
   <energy>
    <i name="e_fr_energy">   -293.14673228 </i>
    <i name="e_wo_entrp">   -293.13192931 </i>
    <i name="e_0_energy">   -293.14179795 </i>
   </energy>
  </scstep>
  <scstep>
   <time name="diag">    9.00    9.03</time>
   <time name="diis">   23.97   24.27</time>
   <time name="orth">    0.49    0.49</time>
   <time name="total">   37.40   37.74</time>
   <energy>
    <i name="e_fr_energy">   -293.15999620 </i>
    <i name="e_wo_entrp">   -293.14008537 </i>
    <i name="e_0_energy">   -293.15335925 </i>
   </energy>
  </scstep>
  <scstep>
   <time name="diag">    8.85    8.86</time>
   <time name="diis">   23.75   23.87</time>
   <time name="orth">    0.49    0.49</time>
   <time name="total">   37.43   37.82</time>
   <energy>
    <i name="e_fr_energy">   -293.16200831 </i>
    <i name="e_wo_entrp">   -293.14078405 </i>
    <i name="e_0_energy">   -293.15493356 </i>
   </energy>
  </scstep>
  <scstep>
   <time name="diag">    8.88    8.89</time>
   <time name="diis">   24.15   24.36</time>
   <time name="orth">    0.49    0.49</time>
   <time name="total">   37.47   37.69</time>
   <energy>
    <i name="e_fr_energy">   -293.15348555 </i>
    <i name="e_wo_entrp">   -293.13176121 </i>
    <i name="e_0_energy">   -293.14624411 </i>
   </energy>
  </scstep>
  <scstep>
   <time name="diag">    8.89    8.92</time>
   <time name="diis">   24.71   25.19</time>
   <time name="orth">    0.49    0.49</time>
   <time name="total">   38.04   38.57</time>
   <energy>
    <i name="e_fr_energy">   -293.15225340 </i>
    <i name="e_wo_entrp">   -293.13218868 </i>
    <i name="e_0_energy">   -293.14556516 </i>
   </energy>
  </scstep>
  <scstep>
   <time name="diag">    8.84    8.85</time>
   <time name="diis">   22.54   22.61</time>
   <time name="orth">    0.48    0.48</time>
   <time name="total">   35.84   35.94</time>
   <energy>
    <i name="e_fr_energy">   -293.15894331 </i>
    <i name="e_wo_entrp">   -293.14302841 </i>
    <i name="e_0_energy">   -293.15363835 </i>
   </energy>
  </scstep>
  <scstep>
   <time name="diag">    9.12    9.50</time>
   <time name="diis">   22.40   22.44</time>
   <time name="orth">    0.48    0.48</time>
   <time name="total">   35.97   36.39</time>
   <energy>
    <i name="e_fr_energy">   -293.16029995 </i>
    <i name="e_wo_entrp">   -293.14698679 </i>
    <i name="e_0_energy">   -293.15586223 </i>
   </energy>
  </scstep>
  <scstep>
   <time name="diag">    8.85    8.87</time>
   <time name="diis">   22.58   22.85</time>
   <time name="orth">    0.49    0.49</time>
   <time name="total">   35.87   36.15</time>
   <energy>
    <i name="e_fr_energy">   -293.15812251 </i>
    <i name="e_wo_entrp">   -293.14565510 </i>
    <i name="e_0_energy">   -293.15396671 </i>
   </energy>
  </scstep>
  <scstep>
   <time name="diag">    8.87    8.89</time>
   <time name="diis">   18.61   18.64</time>
   <time name="orth">    0.49    0.49</time>
   <time name="total">   31.93   31.99</time>
   <energy>
    <i name="e_fr_energy">   -293.15881308 </i>
    <i name="e_wo_entrp">   -293.14769458 </i>
    <i name="e_0_energy">   -293.15510692 </i>
   </energy>
  </scstep>
  <scstep>
   <time name="diag">    8.88    8.92</time>
   <time name="diis">   18.36   18.65</time>
   <time name="orth">    0.48    0.48</time>
   <time name="total">   31.67   32.01</time>
   <energy>
    <i name="e_fr_energy">   -293.15776605 </i>
    <i name="e_wo_entrp">   -293.14741023 </i>
    <i name="e_0_energy">   -293.15431411 </i>
   </energy>
  </scstep>
  <scstep>
   <time name="diag">    8.84    8.89</time>
   <time name="diis">   16.00   16.04</time>
   <time name="orth">    0.50    0.50</time>
   <time name="total">   29.29   29.39</time>
   <energy>
    <i name="e_fr_energy">   -293.15746578 </i>
    <i name="e_wo_entrp">   -293.14772055 </i>
    <i name="e_0_energy">   -293.15421737 </i>
   </energy>
  </scstep>
  <scstep>
   <time name="diag">    8.89    8.97</time>
   <time name="diis">   15.81   16.10</time>
   <time name="orth">    0.48    0.50</time>
   <time name="total">   29.12   29.52</time>
   <energy>
    <i name="e_fr_energy">   -293.15712520 </i>
    <i name="e_wo_entrp">   -293.14782043 </i>
    <i name="e_0_energy">   -293.15402361 </i>
   </energy>
  </scstep>
  <scstep>
   <time name="diag">    8.88    8.92</time>
   <time name="diis">   14.82   14.83</time>
   <time name="orth">    0.49    0.49</time>
   <time name="total">   28.14   28.21</time>
   <energy>
    <i name="e_fr_energy">   -293.15698401 </i>
    <i name="e_wo_entrp">   -293.14805800 </i>
    <i name="e_0_energy">   -293.15400868 </i>
   </energy>
  </scstep>
  <scstep>
   <time name="diag">    8.94    9.00</time>
   <time name="diis">   14.80   15.04</time>
   <time name="orth">    0.49    0.49</time>
   <time name="total">   28.16   28.48</time>
   <energy>
    <i name="e_fr_energy">   -293.15677291 </i>
    <i name="e_wo_entrp">   -293.14812145 </i>
    <i name="e_0_energy">   -293.15388909 </i>
   </energy>
  </scstep>
  <scstep>
   <time name="diag">    8.86    8.87</time>
   <time name="diis">   14.19   14.22</time>
   <time name="orth">    0.49    0.49</time>
   <time name="total">   27.48   27.53</time>
   <energy>
    <i name="e_fr_energy">   -293.15667529 </i>
    <i name="e_wo_entrp">   -293.14825358 </i>
    <i name="e_0_energy">   -293.15386806 </i>
   </energy>
  </scstep>
  <scstep>
   <time name="diag">    8.88    8.90</time>
   <time name="diis">   14.21   14.31</time>
   <time name="orth">    0.49    0.49</time>
   <time name="total">   27.61   27.95</time>
   <energy>
    <i name="e_fr_energy">   -293.15685708 </i>
    <i name="e_wo_entrp">   -293.14876547 </i>
    <i name="e_0_energy">   -293.15415987 </i>
   </energy>
  </scstep>
  <scstep>
   <time name="diag">    8.87    8.88</time>
   <time name="diis">   14.15   14.17</time>
   <time name="orth">    0.49    0.49</time>
   <time name="total">   27.47   27.51</time>
   <energy>
    <i name="e_fr_energy">   -293.15670362 </i>
    <i name="e_wo_entrp">   -293.14885843 </i>
    <i name="e_0_energy">   -293.15408856 </i>
   </energy>
  </scstep>
  <scstep>
   <time name="diag">    8.88    8.89</time>
   <time name="diis">   13.59   13.63</time>
   <time name="orth">    0.48    0.48</time>
   <time name="total">   26.93   27.01</time>
   <energy>
    <i name="e_fr_energy">   -293.15662360 </i>
    <i name="e_wo_entrp">   -293.14898512 </i>
    <i name="e_0_energy">   -293.15407744 </i>
   </energy>
  </scstep>
  <scstep>
   <time name="diag">    9.18    9.50</time>
   <time name="diis">   13.14   13.16</time>
   <time name="orth">    0.48    0.48</time>
   <time name="total">   26.77   27.12</time>
   <energy>
    <i name="e_fr_energy">   -293.15651428 </i>
    <i name="e_wo_entrp">   -293.14903110 </i>
    <i name="e_0_energy">   -293.15401989 </i>
   </energy>
  </scstep>
  <scstep>
   <time name="diag">    8.84    8.85</time>
   <time name="diis">   14.67   14.73</time>
   <time name="orth">    0.49    0.49</time>
   <time name="total">   27.92   28.01</time>
   <energy>
    <i name="e_fr_energy">   -293.15694129 </i>
    <i name="e_wo_entrp">   -293.14982949 </i>
    <i name="e_0_energy">   -293.15457069 </i>
   </energy>
  </scstep>
  <scstep>
   <time name="diag">    9.18    9.49</time>
   <time name="diis">   15.19   15.22</time>
   <time name="orth">    0.48    0.48</time>
   <time name="total">   28.81   29.15</time>
   <energy>
    <i name="e_fr_energy">   -293.15710702 </i>
    <i name="e_wo_entrp">   -293.15043893 </i>
    <i name="e_0_energy">   -293.15488432 </i>
   </energy>
  </scstep>
  <scstep>
   <time name="diag">    8.83    8.84</time>
   <time name="diis">   15.39   15.41</time>
   <time name="orth">    0.48    0.48</time>
   <time name="total">   28.67   28.76</time>
   <energy>
    <i name="e_fr_energy">   -293.15738192 </i>
    <i name="e_wo_entrp">   -293.15126572 </i>
    <i name="e_0_energy">   -293.15534319 </i>
   </energy>
  </scstep>
  <scstep>
   <time name="diag">    9.03    9.57</time>
   <time name="diis">   15.29   15.43</time>
   <time name="orth">    0.49    0.49</time>
   <time name="total">   28.79   29.48</time>
   <energy>
    <i name="e_fr_energy">   -293.15698593 </i>
    <i name="e_wo_entrp">   -293.15121741 </i>
    <i name="e_0_energy">   -293.15506309 </i>
   </energy>
  </scstep>
  <scstep>
   <time name="diag">    8.85    8.87</time>
   <time name="diis">   14.68   14.70</time>
   <time name="orth">    0.49    0.49</time>
   <time name="total">   28.03   28.27</time>
   <energy>
    <i name="e_fr_energy">   -293.15704364 </i>
    <i name="e_wo_entrp">   -293.15163846 </i>
    <i name="e_0_energy">   -293.15524191 </i>
   </energy>
  </scstep>
  <scstep>
   <time name="diag">    8.91    8.94</time>
   <time name="diis">   14.77   15.05</time>
   <time name="orth">    0.48    0.49</time>
   <time name="total">   28.16   28.48</time>
   <energy>
    <i name="e_fr_energy">   -293.15683967 </i>
    <i name="e_wo_entrp">   -293.15169080 </i>
    <i name="e_0_energy">   -293.15512338 </i>
   </energy>
  </scstep>
  <scstep>
   <time name="diag">    8.85    8.87</time>
   <time name="diis">   14.54   14.56</time>
   <time name="orth">    0.48    0.48</time>
   <time name="total">   27.85   27.90</time>
   <energy>
    <i name="e_fr_energy">   -293.15646297 </i>
    <i name="e_wo_entrp">   -293.15140172 </i>
    <i name="e_0_energy">   -293.15477589 </i>
   </energy>
  </scstep>
  <scstep>
   <time name="diag">    8.91    9.03</time>
   <time name="diis">   12.94   13.25</time>
   <time name="orth">    0.49    0.49</time>
   <time name="total">   26.31   26.75</time>
   <energy>
    <i name="e_fr_energy">   -293.15649431 </i>
    <i name="e_wo_entrp">   -293.15154176 </i>
    <i name="e_0_energy">   -293.15484346 </i>
   </energy>
  </scstep>
  <scstep>
   <time name="diag">    8.89    8.92</time>
   <time name="diis">   15.32   15.35</time>
   <time name="orth">    0.49    0.49</time>
   <time name="total">   28.67   28.73</time>
   <energy>
    <i name="e_fr_energy">   -293.15727156 </i>
    <i name="e_wo_entrp">   -293.15276967 </i>
    <i name="e_0_energy">   -293.15577093 </i>
   </energy>
  </scstep>
  <scstep>
   <time name="diag">    8.90    9.03</time>
   <time name="diis">   14.91   15.23</time>
   <time name="orth">    0.49    0.49</time>
   <time name="total">   28.27   28.74</time>
   <energy>
    <i name="e_fr_energy">   -293.15704648 </i>
    <i name="e_wo_entrp">   -293.15285136 </i>
    <i name="e_0_energy">   -293.15564811 </i>
   </energy>
  </scstep>
  <scstep>
   <time name="diag">    8.87    8.90</time>
   <time name="diis">   14.49   14.51</time>
   <time name="orth">    0.49    0.49</time>
   <time name="total">   27.82   27.89</time>
   <energy>
    <i name="e_fr_energy">   -293.15688967 </i>
    <i name="e_wo_entrp">   -293.15292023 </i>
    <i name="e_0_energy">   -293.15556652 </i>
   </energy>
  </scstep>
  <scstep>
   <time name="diag">    8.86    8.87</time>
   <time name="diis">   14.36   14.52</time>
   <time name="orth">    0.49    0.61</time>
   <time name="total">   27.72   28.09</time>
   <energy>
    <i name="e_fr_energy">   -293.15698589 </i>
    <i name="e_wo_entrp">   -293.15327601 </i>
    <i name="e_0_energy">   -293.15574927 </i>
   </energy>
  </scstep>
  <scstep>
   <time name="diag">    8.88    8.89</time>
   <time name="diis">   13.91   13.96</time>
   <time name="orth">    0.49    0.49</time>
   <time name="total">   27.25   27.33</time>
   <energy>
    <i name="e_fr_energy">   -293.15695029 </i>
    <i name="e_wo_entrp">   -293.15346718 </i>
    <i name="e_0_energy">   -293.15578925 </i>
   </energy>
  </scstep>
  <scstep>
   <time name="diag">    8.86    8.88</time>
   <time name="diis">   13.67   13.86</time>
   <time name="orth">    0.50    0.50</time>
   <time name="total">   27.08   27.30</time>
   <energy>
    <i name="e_fr_energy">   -293.15681221 </i>
    <i name="e_wo_entrp">   -293.15348288 </i>
    <i name="e_0_energy">   -293.15570243 </i>
   </energy>
  </scstep>
  <scstep>
   <time name="diag">    9.11    9.35</time>
   <time name="diis">   12.65   12.67</time>
   <time name="orth">    0.49    0.49</time>
   <time name="total">   26.22   26.49</time>
   <energy>
    <i name="e_fr_energy">   -293.15673348 </i>
    <i name="e_wo_entrp">   -293.15351879 </i>
    <i name="e_0_energy">   -293.15566192 </i>
   </energy>
  </scstep>
  <scstep>
   <time name="diag">    8.85    8.86</time>
   <time name="diis">   12.83   12.92</time>
   <time name="orth">    0.47    0.47</time>
   <time name="total">   26.11   26.22</time>
   <energy>
    <i name="e_fr_energy">   -293.15659412 </i>
    <i name="e_wo_entrp">   -293.15343262 </i>
    <i name="e_0_energy">   -293.15554029 </i>
   </energy>
  </scstep>
  <scstep>
   <time name="diag">    9.00    9.24</time>
   <time name="diis">   13.95   13.99</time>
   <time name="orth">    0.48    0.48</time>
   <time name="total">   27.39   27.68</time>
   <energy>
    <i name="e_fr_energy">   -293.15661535 </i>
    <i name="e_wo_entrp">   -293.15352699 </i>
    <i name="e_0_energy">   -293.15558590 </i>
   </energy>
  </scstep>
  <scstep>
   <time name="diag">    8.82    8.84</time>
   <time name="diis">   15.99   16.02</time>
   <time name="orth">    0.48    0.49</time>
   <time name="total">   29.27   29.38</time>
   <energy>
    <i name="e_fr_energy">   -293.15737335 </i>
    <i name="e_wo_entrp">   -293.15467271 </i>
    <i name="e_0_energy">   -293.15647314 </i>
   </energy>
  </scstep>
  <scstep>
   <time name="diag">    8.96    8.99</time>
   <time name="diis">   14.77   15.27</time>
   <time name="orth">    0.49    0.49</time>
   <time name="total">   28.18   28.73</time>
   <energy>
    <i name="e_fr_energy">   -293.15750323 </i>
    <i name="e_wo_entrp">   -293.15518763 </i>
    <i name="e_0_energy">   -293.15673136 </i>
   </energy>
  </scstep>
  <scstep>
   <time name="diag">    8.85    8.87</time>
   <time name="diis">   14.15   14.18</time>
   <time name="orth">    0.48    0.50</time>
   <time name="total">   27.46   27.52</time>
   <energy>
    <i name="e_fr_energy">   -293.15725905 </i>
    <i name="e_wo_entrp">   -293.15518803 </i>
    <i name="e_0_energy">   -293.15656871 </i>
   </energy>
  </scstep>
  <scstep>
   <time name="diag">    8.88    9.00</time>
   <time name="diis">   14.68   14.93</time>
   <time name="orth">    0.48    0.48</time>
   <time name="total">   28.01   28.39</time>
   <energy>
    <i name="e_fr_energy">   -293.15647660 </i>
    <i name="e_wo_entrp">   -293.15432675 </i>
    <i name="e_0_energy">   -293.15575999 </i>
   </energy>
  </scstep>
  <scstep>
   <time name="diag">    8.85    8.87</time>
   <time name="diis">   12.54   12.57</time>
   <time name="orth">    0.48    0.48</time>
   <time name="total">   25.84   25.90</time>
   <energy>
    <i name="e_fr_energy">   -293.15644190 </i>
    <i name="e_wo_entrp">   -293.15423150 </i>
    <i name="e_0_energy">   -293.15570510 </i>
   </energy>
  </scstep>
  <scstep>
   <time name="diag">    8.88    8.97</time>
   <time name="diis">   14.46   14.78</time>
   <time name="orth">    0.49    0.49</time>
   <time name="total">   27.82   28.23</time>
   <energy>
    <i name="e_fr_energy">   -293.15675739 </i>
    <i name="e_wo_entrp">   -293.15463068 </i>
    <i name="e_0_energy">   -293.15604849 </i>
   </energy>
  </scstep>
  <scstep>
   <time name="diag">    8.91    8.93</time>
   <time name="diis">   19.29   19.32</time>
   <time name="orth">    0.49    0.49</time>
   <time name="total">   32.73   32.79</time>
   <energy>
    <i name="e_fr_energy">   -293.15842281 </i>
    <i name="e_wo_entrp">   -293.15703150 </i>
    <i name="e_0_energy">   -293.15795904 </i>
   </energy>
  </scstep>
  <scstep>
   <time name="diag">    8.83    8.91</time>
   <time name="diis">   15.66   16.00</time>
   <time name="orth">    0.49    0.49</time>
   <time name="total">   28.96   29.39</time>
   <energy>
    <i name="e_fr_energy">   -293.15869037 </i>
    <i name="e_wo_entrp">   -293.15800974 </i>
    <i name="e_0_energy">   -293.15846349 </i>
   </energy>
  </scstep>
  <scstep>
   <time name="diag">    8.83    8.85</time>
   <time name="diis">   23.56   23.60</time>
   <time name="orth">    0.48    0.48</time>
   <time name="total">   36.88   36.98</time>
   <energy>
    <i name="e_fr_energy">   -293.16207845 </i>
    <i name="e_wo_entrp">   -293.16321565 </i>
    <i name="e_0_energy">   -293.16245751 </i>
   </energy>
  </scstep>
  <scstep>
   <time name="diag">    8.95    8.99</time>
   <time name="diis">   16.96   17.28</time>
   <time name="orth">    0.48    0.49</time>
   <time name="total">   30.40   30.95</time>
   <energy>
    <i name="e_fr_energy">   -293.16091510 </i>
    <i name="e_wo_entrp">   -293.16306054 </i>
    <i name="e_0_energy">   -293.16163024 </i>
   </energy>
  </scstep>
  <scstep>
   <time name="diag">    8.84    8.86</time>
   <time name="diis">   15.71   15.74</time>
   <time name="orth">    0.48    0.49</time>
   <time name="total">   29.02   29.07</time>
   <energy>
    <i name="e_fr_energy">   -293.16039868 </i>
    <i name="e_wo_entrp">   -293.16322248 </i>
    <i name="e_0_energy">   -293.16133995 </i>
   </energy>
  </scstep>
  <scstep>
   <time name="diag">    9.14    9.21</time>
   <time name="diis">   15.54   15.82</time>
   <time name="orth">    0.49    0.49</time>
   <time name="total">   29.16   29.54</time>
   <energy>
    <i name="e_fr_energy">   -293.16009178 </i>
    <i name="e_wo_entrp">   -293.16338858 </i>
    <i name="e_0_energy">   -293.16119071 </i>
   </energy>
  </scstep>
  <scstep>
   <time name="diag">    8.87    8.88</time>
   <time name="diis">   14.64   14.80</time>
   <time name="orth">    0.49    0.49</time>
   <time name="total">   27.99   28.19</time>
   <energy>
    <i name="e_fr_energy">   -293.15988830 </i>
    <i name="e_wo_entrp">   -293.16351526 </i>
    <i name="e_0_energy">   -293.16109728 </i>
   </energy>
  </scstep>
  <scstep>
   <time name="diag">    8.94    9.06</time>
   <time name="diis">   22.40   22.71</time>
   <time name="orth">    0.48    0.48</time>
   <time name="total">   35.78   36.21</time>
   <energy>
    <i name="e_fr_energy">   -293.16093247 </i>
    <i name="e_wo_entrp">   -293.16523149 </i>
    <i name="e_0_energy">   -293.16236548 </i>
   </energy>
  </scstep>
  <scstep>
   <time name="diag">    8.84    8.85</time>
   <time name="diis">   16.04   16.11</time>
   <time name="orth">    0.48    0.48</time>
   <time name="total">   29.36   29.48</time>
   <energy>
    <i name="e_fr_energy">   -293.16122137 </i>
    <i name="e_wo_entrp">   -293.16612434 </i>
    <i name="e_0_energy">   -293.16285569 </i>
   </energy>
  </scstep>
  <scstep>
   <time name="diag">    9.41    9.71</time>
   <time name="diis">   15.30   15.33</time>
   <time name="orth">    0.49    0.49</time>
   <time name="total">   29.16   29.50</time>
   <energy>
    <i name="e_fr_energy">   -293.16189314 </i>
    <i name="e_wo_entrp">   -293.16743309 </i>
    <i name="e_0_energy">   -293.16373979 </i>
   </energy>
  </scstep>
  <scstep>
   <time name="diag">    8.88    8.90</time>
   <time name="diis">   15.03   15.09</time>
   <time name="orth">    0.49    0.49</time>
   <time name="total">   24.94   25.02</time>
   <energy>
    <i name="alphaZ">    477.09650995 </i>
    <i name="ewald"> 394078.46290485 </i>
    <i name="hartreedc">-427805.12827371 </i>
    <i name="XCdc">   1612.87626994 </i>
    <i name="pawpsdc">  38055.15445087 </i>
    <i name="pawaedc"> -38760.70782128 </i>
    <i name="eentropy">      0.00572446 </i>
    <i name="bandstr">  -5903.85388739 </i>
    <i name="atom">  37952.93320877 </i>
    <i name="e_fr_energy">   -293.16091353 </i>
    <i name="e_wo_entrp">   -293.16663800 </i>
    <i name="e_0_energy">   -293.16282169 </i>
   </energy>
  </scstep>
  <structure>
   <crystal>
    <varray name="basis" >
     <v>       2.87357350      -2.87357350       4.70833511 </v>
     <v>       5.74714699       0.00000000       0.00000000 </v>
     <v>       0.00000000      33.06569101      20.18052901 </v>
    </varray>
    <i name="volume">   1228.01926054 </i>
    <varray name="rec_basis" >
     <v>       0.00000000      -0.09444515       0.15474789 </v>
     <v>       0.17399938       0.04722258      -0.07737394 </v>
     <v>       0.00000000       0.02203507       0.01344836 </v>
    </varray>
   </crystal>
   <varray name="positions" >
    <v>       0.22067121       0.89240241       0.08901558 </v>
    <v>       0.66340780       0.16596061       0.21801453 </v>
    <v>       0.94927612       0.02809995       0.15233499 </v>
    <v>       0.37573854       0.31477733       0.28545291 </v>
    <v>       0.44927612       0.52809995       0.15233499 </v>
    <v>       0.89384442       0.30555676       0.28177323 </v>
    <v>       0.44927612       0.02809995       0.15233499 </v>
    <v>       0.89202396       0.80221888       0.28146030 </v>
    <v>       0.90282244       0.55132680       0.10484543 </v>
    <v>       0.35320058       0.82209244       0.23366876 </v>
    <v>       0.99338732       0.50283650       0.20048035 </v>
    <v>       0.41970068       0.79711416       0.33501768 </v>
    <v>       0.53851998       0.23347802       0.07318573 </v>
    <v>       0.01753570       0.48885755       0.34990012 </v>
    <v>       0.76903714       0.61593865       0.30964471 </v>
    <v>       0.87926422       0.06310591       0.05527763 </v>
    <v>       0.33973311       0.32974491       0.18281311 </v>
    <v>       0.58246139       0.21150732       0.12452493 </v>
    <v>       0.03135158       0.48714746       0.25338045 </v>
    <v>       0.68502709       0.72217482       0.37281798 </v>
    <v>       0.09516526       0.72856013       0.12156099 </v>
    <v>       0.54173471       0.44929800       0.25321142 </v>
    <v>       0.74239629       0.12530492       0.31155024 </v>
    <v>       0.85888103       0.57329750       0.05350623 </v>
    <v>       0.31329630       0.84746198       0.18074892 </v>
    <v>       0.56207820       0.72169891       0.12275353 </v>
    <v>       0.00243550       0.99936029       0.25278953 </v>
    <v>       0.79500694       0.32492163       0.18424740 </v>
    <v>       0.22277412       0.62345122       0.31559247 </v>
    <v>       0.34617716       0.60305419       0.05647018 </v>
    <v>       0.21775641       0.16727398       0.31533640 </v>
    <v>       0.79673916       0.87802778       0.18398250 </v>
    <v>       0.34617716       0.05624469       0.05647018 </v>
    <v>       0.53870554       0.00758120       0.25319311 </v>
    <v>       0.09516526       0.18175063       0.12156099 </v>
    <v>       0.21078814       0.34503565       0.39017235 </v>
    <v>       0.34047062       0.60391201       0.02782883 </v>
    <v>       0.92434681       0.68523651       0.03696881 </v>
    <v>       0.34363348       0.06399961       0.02783421 </v>
    <v>       0.88838126       0.05560908       0.02665597 </v>
    <v>       0.64623160       0.77561503       0.39684766 </v>
    <v>       0.76221965       0.09589635       0.33634020 </v>
    <v>       0.10803459       0.40436548       0.41071186 </v>
   </varray>
  </structure>
  <varray name="forces" >
   <v>       0.10935774      -1.75120430      -1.64516663 </v>
   <v>       0.01605665       0.14504616       0.03840080 </v>
   <v>      -0.16835862       0.58339044       0.00992623 </v>
   <v>       0.05815800       0.01340778      -0.00331605 </v>
   <v>      -0.00104358       0.41527621       0.10212643 </v>
   <v>       0.01001922      -0.02387232       0.01204592 </v>
   <v>      -0.10091038       0.20627461       0.09271421 </v>
   <v>      -0.00100040      -0.11729806      -0.01973470 </v>
   <v>       0.02535929      -1.36025866      -0.86437630 </v>
   <v>      -0.00936538       0.05030077      -0.01076449 </v>
   <v>       0.00903881       0.06668316       0.00314992 </v>
   <v>      -0.02518410      -0.06763959       0.04569127 </v>
   <v>      -0.03114547      -0.50062725       0.30539053 </v>
   <v>      -0.16425817       0.16955303      -0.06469456 </v>
   <v>      -0.03935580       0.04415563       0.27237578 </v>
   <v>      -0.29970653      -3.76494171      -2.02043822 </v>
   <v>       0.02055507      -0.03575615       0.01170487 </v>
   <v>      -0.07957137       0.27977060       0.37809395 </v>
   <v>       0.03529985       0.08392869       0.02237834 </v>
   <v>      -0.03465432      -0.14973401       0.17623767 </v>
   <v>       0.38307546       0.38928115       0.56992104 </v>
   <v>      -0.02866095      -0.00539797       0.01508751 </v>
   <v>      -0.02434262      -0.00109144      -0.04334951 </v>
   <v>       3.14409571      -3.02813539      -0.20500628 </v>
   <v>      -0.03641566      -0.00711390      -0.04067553 </v>
   <v>       0.11291793       0.40091305      -0.36219381 </v>
   <v>      -0.02107482       0.00542099      -0.01084388 </v>
   <v>      -0.00942622       0.00068847      -0.01878576 </v>
   <v>      -0.12385207       0.03056854      -0.01785957 </v>
   <v>      -0.92864690      -3.60179296      -2.18586409 </v>
   <v>       0.22572634       0.18038559      -0.09650434 </v>
   <v>       0.04186527      -0.00761448      -0.02726830 </v>
   <v>       1.02773783      -3.68648531      -1.96978373 </v>
   <v>       0.07144043      -0.02034884       0.01844111 </v>
   <v>      -0.19899820       0.32868294       0.46459546 </v>
   <v>       0.00989188      -0.23988469      -0.21238479 </v>
   <v>       0.56246453       3.82538863       2.32557781 </v>
   <v>      -3.23737996       3.49442669       0.45276118 </v>
   <v>      -0.65726485       3.99728151       2.12154127 </v>
   <v>       0.36642575       3.80524108       2.24228884 </v>
   <v>      -0.00674215      -0.19152245       0.07291738 </v>
   <v>       0.00039205       0.08370653       0.03611957 </v>
   <v>      -0.00251931      -0.03905276       0.02952346 </v>
  </varray>
  <energy>
   <i name="e_fr_energy">   -293.16091353 </i>
   <i name="e_wo_entrp">   -293.16282169 </i>
   <i name="e_0_energy">      0.00572446 </i>
  </energy>
  <time name="totalsc"> 1887.22 1902.70</time>
 </calculation>
 <calculation>
  <scstep>
   <time name="dav">   43.55   43.69</time>
   <time name="total">   47.53   47.69</time>
   <energy>
    <i name="alphaZ">    477.09650995 </i>
    <i name="ewald"> 394097.93153798 </i>
    <i name="hartreedc">-427825.80702330 </i>
    <i name="XCdc">   1612.83884701 </i>
    <i name="pawpsdc">  38055.17108029 </i>
    <i name="pawaedc"> -38760.72325046 </i>
    <i name="eentropy">      0.00880285 </i>
    <i name="bandstr">  -5902.53911185 </i>
    <i name="atom">  37952.93320877 </i>
    <i name="e_fr_energy">   -293.08939875 </i>
    <i name="e_wo_entrp">   -293.09820160 </i>
    <i name="e_0_energy">   -293.09233303 </i>
   </energy>
  </scstep>
  <scstep>
   <time name="diag">    9.04    9.34</time>
   <time name="diis">   29.08   29.12</time>
   <time name="orth">    0.49    0.52</time>
   <time name="total">   42.59   42.98</time>
   <energy>
    <i name="e_fr_energy">   -294.87842820 </i>
    <i name="e_wo_entrp">   -294.86882583 </i>
    <i name="e_0_energy">   -294.87522741 </i>
   </energy>
  </scstep>
  <scstep>
   <time name="diag">    8.93    9.02</time>
   <time name="diis">   25.74   26.08</time>
   <time name="orth">    0.49    0.49</time>
   <time name="total">   39.16   39.61</time>
   <energy>
    <i name="e_fr_energy">   -292.92378817 </i>
    <i name="e_wo_entrp">   -292.91619745 </i>
    <i name="e_0_energy">   -292.92125793 </i>
   </energy>
  </scstep>
  <scstep>
   <time name="diag">    8.92    8.93</time>
   <time name="diis">   25.67   25.75</time>
   <time name="orth">    0.49    0.51</time>
   <time name="total">   39.06   39.19</time>
   <energy>
    <i name="e_fr_energy">   -293.17578963 </i>
    <i name="e_wo_entrp">   -293.16573139 </i>
    <i name="e_0_energy">   -293.17243688 </i>
   </energy>
  </scstep>
  <scstep>
   <time name="diag">    9.16    9.40</time>
   <time name="diis">   25.58   25.62</time>
   <time name="orth">    0.48    0.48</time>
   <time name="total">   39.19   39.49</time>
   <energy>
    <i name="e_fr_energy">   -293.09654642 </i>
    <i name="e_wo_entrp">   -293.07139774 </i>
    <i name="e_0_energy">   -293.08816353 </i>
   </energy>
  </scstep>
  <scstep>
   <time name="diag">    8.86    8.88</time>
   <time name="diis">   26.68   26.95</time>
   <time name="orth">    0.50    0.51</time>
   <time name="total">   40.00   40.30</time>
   <energy>
    <i name="e_fr_energy">   -293.08643785 </i>
    <i name="e_wo_entrp">   -293.06208852 </i>
    <i name="e_0_energy">   -293.07832141 </i>
   </energy>
  </scstep>
  <scstep>
   <time name="diag">    8.74    8.76</time>
   <time name="diis">   24.31   24.38</time>
   <time name="orth">    0.48    0.48</time>
   <time name="total">   37.49   37.60</time>
   <energy>
    <i name="e_fr_energy">   -293.15211294 </i>
    <i name="e_wo_entrp">   -293.14094392 </i>
    <i name="e_0_energy">   -293.14838994 </i>
   </energy>
  </scstep>
  <scstep>
   <time name="diag">    9.14    9.36</time>
   <time name="diis">   24.21   24.24</time>
   <time name="orth">    0.48    0.48</time>
   <time name="total">   37.77   38.03</time>
   <energy>
    <i name="e_fr_energy">   -293.16550623 </i>
    <i name="e_wo_entrp">   -293.16296179 </i>
    <i name="e_0_energy">   -293.16465808 </i>
   </energy>
  </scstep>
  <scstep>
   <time name="diag">    8.85    8.87</time>
   <time name="diis">   24.97   25.29</time>
   <time name="orth">    0.49    0.49</time>
   <time name="total">   38.26   38.61</time>
   <energy>
    <i name="e_fr_energy">   -293.16200665 </i>
    <i name="e_wo_entrp">   -293.16442345 </i>
    <i name="e_0_energy">   -293.16281225 </i>
   </energy>
  </scstep>
  <scstep>
   <time name="diag">    8.90    8.92</time>
   <time name="diis">   23.27   23.31</time>
   <time name="orth">    0.48    0.49</time>
   <time name="total">   36.63   36.74</time>
   <energy>
    <i name="e_fr_energy">   -293.16332872 </i>
    <i name="e_wo_entrp">   -293.16982847 </i>
    <i name="e_0_energy">   -293.16549531 </i>
   </energy>
  </scstep>
  <scstep>
   <time name="diag">    8.94    8.97</time>
   <time name="diis">   25.83   26.18</time>
   <time name="orth">    0.49    0.49</time>
   <time name="total">   39.27   39.66</time>
   <energy>
    <i name="e_fr_energy">   -293.13484371 </i>
    <i name="e_wo_entrp">   -293.13452898 </i>
    <i name="e_0_energy">   -293.13473880 </i>
   </energy>
  </scstep>
  <scstep>
   <time name="diag">    8.92    8.93</time>
   <time name="diis">   25.18   25.59</time>
   <time name="orth">    0.48    0.49</time>
   <time name="total">   38.53   38.95</time>
   <energy>
    <i name="e_fr_energy">   -293.13031911 </i>
    <i name="e_wo_entrp">   -293.12050489 </i>
    <i name="e_0_energy">   -293.12704770 </i>
   </energy>
  </scstep>
  <scstep>
   <time name="diag">    8.86    8.87</time>
   <time name="diis">   23.24   23.27</time>
   <time name="orth">    0.48    0.48</time>
   <time name="total">   36.55   36.61</time>
   <energy>
    <i name="e_fr_energy">   -293.14023794 </i>
    <i name="e_wo_entrp">   -293.12471531 </i>
    <i name="e_0_energy">   -293.13506373 </i>
   </energy>
  </scstep>
  <scstep>
   <time name="diag">    8.89    8.94</time>
   <time name="diis">   23.98   24.32</time>
   <time name="orth">    0.48    0.49</time>
   <time name="total">   37.30   37.70</time>
   <energy>
    <i name="e_fr_energy">   -293.14684094 </i>
    <i name="e_wo_entrp">   -293.12743615 </i>
    <i name="e_0_energy">   -293.14037268 </i>
   </energy>
  </scstep>
  <scstep>
   <time name="diag">    8.88    8.89</time>
   <time name="diis">   24.39   24.52</time>
   <time name="orth">    0.50    0.51</time>
   <time name="total">   37.75   37.93</time>
   <energy>
    <i name="e_fr_energy">   -293.14895439 </i>
    <i name="e_wo_entrp">   -293.12927756 </i>
    <i name="e_0_energy">   -293.14239545 </i>
   </energy>
  </scstep>
  <scstep>
   <time name="diag">    9.14    9.47</time>
   <time name="diis">   24.58   24.62</time>
   <time name="orth">    0.48    0.48</time>
   <time name="total">   38.14   38.51</time>
   <energy>
    <i name="e_fr_energy">   -293.14876266 </i>
    <i name="e_wo_entrp">   -293.13197940 </i>
    <i name="e_0_energy">   -293.14316824 </i>
   </energy>
  </scstep>
  <scstep>
   <time name="diag">    8.83    8.85</time>
   <time name="diis">   22.94   23.36</time>
   <time name="orth">    0.48    0.48</time>
   <time name="total">   36.20   36.65</time>
   <energy>
    <i name="e_fr_energy">   -293.14998160 </i>
    <i name="e_wo_entrp">   -293.13495951 </i>
    <i name="e_0_energy">   -293.14497424 </i>
   </energy>
  </scstep>
  <scstep>
   <time name="diag">    8.86    8.88</time>
   <time name="diis">   22.43   22.47</time>
   <time name="orth">    0.48    0.51</time>
   <time name="total">   35.76   35.96</time>
   <energy>
    <i name="e_fr_energy">   -293.14843205 </i>
    <i name="e_wo_entrp">   -293.13329665 </i>
    <i name="e_0_energy">   -293.14338692 </i>
   </energy>
  </scstep>
  <scstep>
   <time name="diag">    8.97    9.00</time>
   <time name="diis">   23.53   23.75</time>
   <time name="orth">    0.48    0.49</time>
   <time name="total">   36.95   37.21</time>
   <energy>
    <i name="e_fr_energy">   -293.14754373 </i>
    <i name="e_wo_entrp">   -293.13093109 </i>
    <i name="e_0_energy">   -293.14200618 </i>
   </energy>
  </scstep>
  <scstep>
   <time name="diag">    8.88    8.90</time>
   <time name="diis">   21.42   21.51</time>
   <time name="orth">    0.50    0.50</time>
   <time name="total">   34.93   35.31</time>
   <energy>
    <i name="e_fr_energy">   -293.14863827 </i>
    <i name="e_wo_entrp">   -293.13130835 </i>
    <i name="e_0_energy">   -293.14286163 </i>
   </energy>
  </scstep>
  <scstep>
   <time name="diag">    8.86    8.87</time>
   <time name="diis">   20.62   20.66</time>
   <time name="orth">    0.48    0.48</time>
   <time name="total">   33.95   34.00</time>
   <energy>
    <i name="e_fr_energy">   -293.14902536 </i>
    <i name="e_wo_entrp">   -293.13165289 </i>
    <i name="e_0_energy">   -293.14323454 </i>
   </energy>
  </scstep>
  <scstep>
   <time name="diag">    8.89    8.90</time>
   <time name="diis">   16.07   16.38</time>
   <time name="orth">    0.49    0.56</time>
   <time name="total">   29.40   29.80</time>
   <energy>
    <i name="e_fr_energy">   -293.14908354 </i>
    <i name="e_wo_entrp">   -293.13174427 </i>
    <i name="e_0_energy">   -293.14330378 </i>
   </energy>
  </scstep>
  <scstep>
   <time name="diag">    8.85    8.86</time>
   <time name="diis">   14.98   15.03</time>
   <time name="orth">    0.48    0.49</time>
   <time name="total">   28.26   28.32</time>
   <energy>
    <i name="e_fr_energy">   -293.14912690 </i>
    <i name="e_wo_entrp">   -293.13188494 </i>
    <i name="e_0_energy">   -293.14337958 </i>
   </energy>
  </scstep>
  <scstep>
   <time name="diag">    8.86    8.88</time>
   <time name="diis">   14.65   14.76</time>
   <time name="orth">    0.50    0.50</time>
   <time name="total">   28.18   28.53</time>
   <energy>
    <i name="e_fr_energy">   -293.14916747 </i>
    <i name="e_wo_entrp">   -293.13209216 </i>
    <i name="e_0_energy">   -293.14347570 </i>
   </energy>
  </scstep>
  <scstep>
   <time name="diag">    8.84    8.85</time>
   <time name="diis">   14.60   14.66</time>
   <time name="orth">    0.49    0.49</time>
   <time name="total">   24.46   24.53</time>
   <energy>
    <i name="alphaZ">    477.09650995 </i>
    <i name="ewald"> 394097.93153798 </i>
    <i name="hartreedc">-427828.35437860 </i>
    <i name="XCdc">   1612.75412228 </i>
    <i name="pawpsdc">  38043.46252174 </i>
    <i name="pawaedc"> -38749.16865144 </i>
    <i name="eentropy">     -0.01704900 </i>
    <i name="bandstr">  -5899.78697924 </i>
    <i name="atom">  37952.93320877 </i>
    <i name="e_fr_energy">   -293.14915756 </i>
    <i name="e_wo_entrp">   -293.13210855 </i>
    <i name="e_0_energy">   -293.14347456 </i>
   </energy>
  </scstep>
  <structure>
   <crystal>
    <varray name="basis" >
     <v>       2.87357350      -2.87357350       4.70833511 </v>
     <v>       5.74714699       0.00000000       0.00000000 </v>
     <v>       0.00000000      33.06569101      20.18052901 </v>
    </varray>
    <i name="volume">   1228.01926054 </i>
    <varray name="rec_basis" >
     <v>       0.00000000      -0.09444515       0.15474789 </v>
     <v>       0.17399938       0.04722258      -0.07737394 </v>
     <v>       0.00000000       0.02203507       0.01344836 </v>
    </varray>
   </crystal>
   <varray name="positions" >
    <v>       0.22067121       0.89240241       0.08901558 </v>
    <v>       0.66327630       0.16551403       0.21799911 </v>
    <v>       0.94927612       0.02809995       0.15233499 </v>
    <v>       0.37526676       0.31493974       0.28543729 </v>
    <v>       0.44927612       0.52809995       0.15233499 </v>
    <v>       0.89405424       0.30544821       0.28171333 </v>
    <v>       0.44927612       0.02809995       0.15233499 </v>
    <v>       0.89243703       0.80191779       0.28139069 </v>
    <v>       0.90282244       0.55132680       0.10484543 </v>
    <v>       0.35336199       0.82192422       0.23365649 </v>
    <v>       0.99340289       0.50249899       0.20046516 </v>
    <v>       0.41942901       0.79790782       0.33525227 </v>
    <v>       0.53851998       0.23347802       0.07318573 </v>
    <v>       0.01751897       0.48964271       0.34986853 </v>
    <v>       0.76833528       0.61668030       0.30972396 </v>
    <v>       0.87926422       0.06310591       0.05527763 </v>
    <v>       0.33945567       0.32936809       0.18286848 </v>
    <v>       0.58246139       0.21150732       0.12452493 </v>
    <v>       0.03138562       0.48697346       0.25343182 </v>
    <v>       0.68681406       0.72494452       0.37290481 </v>
    <v>       0.09516526       0.72856013       0.12156099 </v>
    <v>       0.54182802       0.44899482       0.25326477 </v>
    <v>       0.74167770       0.12548817       0.31158080 </v>
    <v>       0.85888103       0.57329750       0.05350623 </v>
    <v>       0.31279719       0.84823461       0.18077351 </v>
    <v>       0.56207820       0.72169891       0.12275353 </v>
    <v>       0.00203060       0.99963592       0.25278996 </v>
    <v>       0.79544770       0.32472823       0.18420626 </v>
    <v>       0.22365770       0.62470499       0.31557646 </v>
    <v>       0.34617716       0.60305419       0.05647018 </v>
    <v>       0.21814421       0.16645287       0.31534060 </v>
    <v>       0.79734739       0.87708255       0.18395681 </v>
    <v>       0.34617716       0.05624469       0.05647018 </v>
    <v>       0.53840957       0.00704555       0.25324917 </v>
    <v>       0.09516526       0.18175063       0.12156099 </v>
    <v>       0.21567507       0.34162589       0.38953480 </v>
    <v>       0.34047062       0.60391201       0.02782883 </v>
    <v>       0.92434681       0.68523651       0.03696881 </v>
    <v>       0.34363348       0.06399961       0.02783421 </v>
    <v>       0.88838126       0.05560908       0.02665597 </v>
    <v>       0.64760651       0.77451793       0.39703574 </v>
    <v>       0.76360295       0.09432314       0.33636493 </v>
    <v>       0.11380947       0.39922792       0.41054778 </v>
   </varray>
  </structure>
  <varray name="forces" >
   <v>       0.11150877      -1.76705913      -1.62604518 </v>
   <v>       0.02955731       0.13344006       0.04059955 </v>
   <v>      -0.18278574       0.56438413       0.01454942 </v>
   <v>       0.03787029       0.03769389       0.05763728 </v>
   <v>      -0.00633177       0.44038293       0.09804139 </v>
   <v>       0.07076941       0.16470561       0.02376077 </v>
   <v>      -0.08735677       0.21303590       0.09057789 </v>
   <v>      -0.00658506       0.04676396      -0.02582261 </v>
   <v>      -0.01732641      -1.33865464      -0.85984164 </v>
   <v>      -0.02626020       0.06252335      -0.01631711 </v>
   <v>       0.00783116       0.07115298       0.01556252 </v>
   <v>       0.01606356      -0.11398726       0.10468578 </v>
   <v>       0.00348252      -0.51212055       0.26408301 </v>
   <v>      -0.01529885      -0.20390880       0.04645533 </v>
   <v>      -0.10088187      -0.12890098       0.05603144 </v>
   <v>      -0.30991599      -3.62346543      -1.96010256 </v>
   <v>       0.06174235      -0.08038761       0.03956478 </v>
   <v>      -0.07350058       0.28929738       0.38194591 </v>
   <v>       0.03090679       0.02669590       0.01718135 </v>
   <v>      -0.00622224       0.13436391       0.03044096 </v>
   <v>       0.37029753       0.38148189       0.57341768 </v>
   <v>      -0.03592620      -0.03529185      -0.00965091 </v>
   <v>      -0.02235652      -0.01728255       0.01547583 </v>
   <v>       2.70069993      -2.55774382      -0.25321016 </v>
   <v>      -0.07552565      -0.03865176      -0.02421339 </v>
   <v>       0.10450361       0.35398597      -0.34652699 </v>
   <v>      -0.01902554      -0.05882417       0.00048486 </v>
   <v>      -0.03873964       0.04657764      -0.04208344 </v>
   <v>      -0.20144424       0.03616010      -0.08916996 </v>
   <v>      -0.94484943      -3.58085238      -2.15558693 </v>
   <v>       0.19672673       0.03457211      -0.15539157 </v>
   <v>       0.08617468       0.02045377      -0.04650650 </v>
   <v>       1.04521029      -3.64032232      -1.93039601 </v>
   <v>       0.12004561      -0.05297067       0.02454821 </v>
   <v>      -0.15256627       0.35058895       0.46154938 </v>
   <v>      -0.02471075       0.74203077       0.01159200 </v>
   <v>       0.56486024       3.80425228       2.31653385 </v>
   <v>      -2.90315772       3.09788606       0.46305377 </v>
   <v>      -0.65586389       3.94709851       2.09819515 </v>
   <v>       0.36426992       3.68676489       2.17851295 </v>
   <v>       0.00451983      -0.24501718       0.00266304 </v>
   <v>       0.01235225       0.02776236      -0.01791675 </v>
   <v>      -0.03276147      -0.71861419       0.13163763 </v>
  </varray>
  <energy>
   <i name="e_fr_energy">   -293.14915756 </i>
   <i name="e_wo_entrp">   -293.14347456 </i>
   <i name="e_0_energy">     -0.01704900 </i>
  </energy>
  <time name="totalsc">  934.85  941.58</time>
 </calculation>
 <calculation>
  <scstep>
   <time name="dav">   43.90   44.29</time>
   <time name="total">   47.89   48.31</time>
   <energy>
    <i name="alphaZ">    477.09650995 </i>
    <i name="ewald"> 394083.35607527 </i>
    <i name="hartreedc">-427812.86270011 </i>
    <i name="XCdc">   1612.78145951 </i>
    <i name="pawpsdc">  38043.45075417 </i>
    <i name="pawaedc"> -38749.15819383 </i>
    <i name="eentropy">     -0.01920494 </i>
    <i name="bandstr">  -5900.69704236 </i>
    <i name="atom">  37952.93320877 </i>
    <i name="e_fr_energy">   -293.11913357 </i>
    <i name="e_wo_entrp">   -293.09992862 </i>
    <i name="e_0_energy">   -293.11273192 </i>
   </energy>
  </scstep>
  <scstep>
   <time name="diag">    8.92    8.94</time>
   <time name="diis">   30.59   31.12</time>
   <time name="orth">    0.49    0.49</time>
   <time name="total">   43.96   44.51</time>
   <energy>
    <i name="e_fr_energy">   -293.17265567 </i>
    <i name="e_wo_entrp">   -293.16353268 </i>
    <i name="e_0_energy">   -293.16961467 </i>
   </energy>
  </scstep>
  <scstep>
   <time name="diag">    8.88    8.90</time>
   <time name="diis">   26.21   26.33</time>
   <time name="orth">    0.50    0.51</time>
   <time name="total">   39.72   40.02</time>
   <energy>
    <i name="e_fr_energy">   -293.14979804 </i>
    <i name="e_wo_entrp">   -293.13489927 </i>
    <i name="e_0_energy">   -293.14483178 </i>
   </energy>
  </scstep>
  <scstep>
   <time name="diag">    8.92    8.93</time>
   <time name="diis">   26.24   26.29</time>
   <time name="orth">    0.49    0.49</time>
   <time name="total">   39.61   39.71</time>
   <energy>
    <i name="e_fr_energy">   -293.16439092 </i>
    <i name="e_wo_entrp">   -293.14446274 </i>
    <i name="e_0_energy">   -293.15774820 </i>
   </energy>
  </scstep>
  <scstep>
   <time name="diag">    8.89    8.94</time>
   <time name="diis">   25.15   25.42</time>
   <time name="orth">    0.48    0.49</time>
   <time name="total">   38.47   38.80</time>
   <energy>
    <i name="e_fr_energy">   -293.15566361 </i>
    <i name="e_wo_entrp">   -293.13367990 </i>
    <i name="e_0_energy">   -293.14833571 </i>
   </energy>
  </scstep>
  <scstep>
   <time name="diag">    8.87    8.87</time>
   <time name="diis">   25.36   25.57</time>
   <time name="orth">    0.48    0.48</time>
   <time name="total">   38.72   38.96</time>
   <energy>
    <i name="e_fr_energy">   -293.15061002 </i>
    <i name="e_wo_entrp">   -293.13111461 </i>
    <i name="e_0_energy">   -293.14411155 </i>
   </energy>
  </scstep>
  <scstep>
   <time name="diag">    8.99    9.41</time>
   <time name="diis">   24.07   24.12</time>
   <time name="orth">    0.48    0.49</time>
   <time name="total">   37.50   38.04</time>
   <energy>
    <i name="e_fr_energy">   -293.16203171 </i>
    <i name="e_wo_entrp">   -293.14889756 </i>
    <i name="e_0_energy">   -293.15765366 </i>
   </energy>
  </scstep>
  <scstep>
   <time name="diag">    8.84    8.86</time>
   <time name="diis">   23.61   24.04</time>
   <time name="orth">    0.48    0.49</time>
   <time name="total">   36.90   37.37</time>
   <energy>
    <i name="e_fr_energy">   -293.16528816 </i>
    <i name="e_wo_entrp">   -293.15764475 </i>
    <i name="e_0_energy">   -293.16274035 </i>
   </energy>
  </scstep>
  <scstep>
   <time name="diag">    8.83    8.84</time>
   <time name="diis">   24.00   24.16</time>
   <time name="orth">    0.48    0.48</time>
   <time name="total">   37.25   37.44</time>
   <energy>
    <i name="e_fr_energy">   -293.15556309 </i>
    <i name="e_wo_entrp">   -293.14765391 </i>
    <i name="e_0_energy">   -293.15292670 </i>
   </energy>
  </scstep>
  <scstep>
   <time name="diag">    9.13    9.39</time>
   <time name="diis">   24.89   24.93</time>
   <time name="orth">    0.48    0.48</time>
   <time name="total">   38.45   38.74</time>
   <energy>
    <i name="e_fr_energy">   -293.14700455 </i>
    <i name="e_wo_entrp">   -293.13325549 </i>
    <i name="e_0_energy">   -293.14242153 </i>
   </energy>
  </scstep>
  <scstep>
   <time name="diag">    8.84    8.86</time>
   <time name="diis">   23.04   23.34</time>
   <time name="orth">    0.48    0.48</time>
   <time name="total">   36.33   36.64</time>
   <energy>
    <i name="e_fr_energy">   -293.15403812 </i>
    <i name="e_wo_entrp">   -293.13566359 </i>
    <i name="e_0_energy">   -293.14791327 </i>
   </energy>
  </scstep>
  <scstep>
   <time name="diag">    8.87    8.90</time>
   <time name="diis">   22.71   22.74</time>
   <time name="orth">    0.48    0.48</time>
   <time name="total">   36.02   36.08</time>
   <energy>
    <i name="e_fr_energy">   -293.15827773 </i>
    <i name="e_wo_entrp">   -293.13826137 </i>
    <i name="e_0_energy">   -293.15160561 </i>
   </energy>
  </scstep>
  <scstep>
   <time name="diag">    8.89    8.97</time>
   <time name="diis">   23.18   23.49</time>
   <time name="orth">    0.49    0.49</time>
   <time name="total">   36.51   36.91</time>
   <energy>
    <i name="e_fr_energy">   -293.15650108 </i>
    <i name="e_wo_entrp">   -293.13617903 </i>
    <i name="e_0_energy">   -293.14972706 </i>
   </energy>
  </scstep>
  <scstep>
   <time name="diag">    8.85    8.87</time>
   <time name="diis">   23.52   23.59</time>
   <time name="orth">    0.48    0.49</time>
   <time name="total">   36.87   36.98</time>
   <energy>
    <i name="e_fr_energy">   -293.15539328 </i>
    <i name="e_wo_entrp">   -293.13563553 </i>
    <i name="e_0_energy">   -293.14880737 </i>
   </energy>
  </scstep>
  <scstep>
   <time name="diag">    9.06    9.36</time>
   <time name="diis">   23.26   23.30</time>
   <time name="orth">    0.48    0.48</time>
   <time name="total">   36.77   37.12</time>
   <energy>
    <i name="e_fr_energy">   -293.15626066 </i>
    <i name="e_wo_entrp">   -293.13844274 </i>
    <i name="e_0_energy">   -293.15032135 </i>
   </energy>
  </scstep>
  <scstep>
   <time name="diag">    8.86    8.94</time>
   <time name="diis">   21.44   21.78</time>
   <time name="orth">    0.48    0.49</time>
   <time name="total">   34.75   35.17</time>
   <energy>
    <i name="e_fr_energy">   -293.15847953 </i>
    <i name="e_wo_entrp">   -293.14311942 </i>
    <i name="e_0_energy">   -293.15335950 </i>
   </energy>
  </scstep>
  <scstep>
   <time name="diag">    8.85    8.89</time>
   <time name="diis">   22.04   22.07</time>
   <time name="orth">    0.48    0.49</time>
   <time name="total">   35.34   35.43</time>
   <energy>
    <i name="e_fr_energy">   -293.15754912 </i>
    <i name="e_wo_entrp">   -293.14324308 </i>
    <i name="e_0_energy">   -293.15278044 </i>
   </energy>
  </scstep>
  <scstep>
   <time name="diag">    8.92    8.97</time>
   <time name="diis">   19.36   19.63</time>
   <time name="orth">    0.50    0.51</time>
   <time name="total">   32.75   33.08</time>
   <energy>
    <i name="e_fr_energy">   -293.15715181 </i>
    <i name="e_wo_entrp">   -293.14357700 </i>
    <i name="e_0_energy">   -293.15262687 </i>
   </energy>
  </scstep>
  <scstep>
   <time name="diag">    8.89    8.90</time>
   <time name="diis">   16.44   16.48</time>
   <time name="orth">    0.49    0.49</time>
   <time name="total">   29.91   29.99</time>
   <energy>
    <i name="e_fr_energy">   -293.15690998 </i>
    <i name="e_wo_entrp">   -293.14394919 </i>
    <i name="e_0_energy">   -293.15258972 </i>
   </energy>
  </scstep>
  <scstep>
   <time name="diag">    8.98    9.01</time>
   <time name="diis">   16.01   16.29</time>
   <time name="orth">    0.49    0.49</time>
   <time name="total">   29.46   29.78</time>
   <energy>
    <i name="e_fr_energy">   -293.15668782 </i>
    <i name="e_wo_entrp">   -293.14423457 </i>
    <i name="e_0_energy">   -293.15253674 </i>
   </energy>
  </scstep>
  <scstep>
   <time name="diag">    8.89    8.90</time>
   <time name="diis">   15.52   15.54</time>
   <time name="orth">    0.49    0.49</time>
   <time name="total">   28.90   28.95</time>
   <energy>
    <i name="e_fr_energy">   -293.15628040 </i>
    <i name="e_wo_entrp">   -293.14409133 </i>
    <i name="e_0_energy">   -293.15221737 </i>
   </energy>
  </scstep>
  <scstep>
   <time name="diag">    8.98    9.11</time>
   <time name="diis">   14.92   15.21</time>
   <time name="orth">    0.49    0.49</time>
   <time name="total">   28.37   28.79</time>
   <energy>
    <i name="e_fr_energy">   -293.15620301 </i>
    <i name="e_wo_entrp">   -293.14425614 </i>
    <i name="e_0_energy">   -293.15222072 </i>
   </energy>
  </scstep>
  <scstep>
   <time name="diag">    8.86    8.89</time>
   <time name="diis">   14.55   14.59</time>
   <time name="orth">    0.48    0.49</time>
   <time name="total">   27.88   27.97</time>
   <energy>
    <i name="e_fr_energy">   -293.15601324 </i>
    <i name="e_wo_entrp">   -293.14420747 </i>
    <i name="e_0_energy">   -293.15207798 </i>
   </energy>
  </scstep>
  <scstep>
   <time name="diag">    8.93    8.99</time>
   <time name="diis">   14.10   14.35</time>
   <time name="orth">    0.49    0.49</time>
   <time name="total">   27.47   27.79</time>
   <energy>
    <i name="e_fr_energy">   -293.15589761 </i>
    <i name="e_wo_entrp">   -293.14417086 </i>
    <i name="e_0_energy">   -293.15198869 </i>
   </energy>
  </scstep>
  <scstep>
   <time name="diag">    8.87    8.90</time>
   <time name="diis">   13.08   13.10</time>
   <time name="orth">    0.48    0.49</time>
   <time name="total">   26.42   26.47</time>
   <energy>
    <i name="e_fr_energy">   -293.15599161 </i>
    <i name="e_wo_entrp">   -293.14441979 </i>
    <i name="e_0_energy">   -293.15213434 </i>
   </energy>
  </scstep>
  <scstep>
   <time name="diag">    8.87    8.90</time>
   <time name="diis">   13.86   14.30</time>
   <time name="orth">    0.52    0.54</time>
   <time name="total">   23.79   24.29</time>
   <energy>
    <i name="alphaZ">    477.09650995 </i>
    <i name="ewald"> 394083.35607527 </i>
    <i name="hartreedc">-427810.43164013 </i>
    <i name="XCdc">   1612.82413908 </i>
    <i name="pawpsdc">  38052.18397558 </i>
    <i name="pawaedc"> -38757.88193812 </i>
    <i name="eentropy">     -0.01139937 </i>
    <i name="bandstr">  -5903.22492773 </i>
    <i name="atom">  37952.93320877 </i>
    <i name="e_fr_energy">   -293.15599670 </i>
    <i name="e_wo_entrp">   -293.14459733 </i>
    <i name="e_0_energy">   -293.15219691 </i>
   </energy>
  </scstep>
  <structure>
   <crystal>
    <varray name="basis" >
     <v>       2.87357350      -2.87357350       4.70833511 </v>
     <v>       5.74714699       0.00000000       0.00000000 </v>
     <v>       0.00000000      33.06569101      20.18052901 </v>
    </varray>
    <i name="volume">   1228.01926054 </i>
    <varray name="rec_basis" >
     <v>       0.00000000      -0.09444515       0.15474789 </v>
     <v>       0.17399938       0.04722258      -0.07737394 </v>
     <v>       0.00000000       0.02203507       0.01344836 </v>
    </varray>
   </crystal>
   <varray name="positions" >
    <v>       0.22067121       0.89240241       0.08901558 </v>
    <v>       0.66337487       0.16584878       0.21801067 </v>
    <v>       0.94927612       0.02809995       0.15233499 </v>
    <v>       0.37562040       0.31481800       0.28544900 </v>
    <v>       0.44927612       0.52809995       0.15233499 </v>
    <v>       0.89389696       0.30552958       0.28175823 </v>
    <v>       0.44927612       0.02809995       0.15233499 </v>
    <v>       0.89212739       0.80214348       0.28144287 </v>
    <v>       0.90282244       0.55132680       0.10484543 </v>
    <v>       0.35324100       0.82205031       0.23366569 </v>
    <v>       0.99339122       0.50275198       0.20047655 </v>
    <v>       0.41963265       0.79731291       0.33507643 </v>
    <v>       0.53851998       0.23347802       0.07318573 </v>
    <v>       0.01753151       0.48905417       0.34989221 </v>
    <v>       0.76886139       0.61612437       0.30966455 </v>
    <v>       0.87926422       0.06310591       0.05527763 </v>
    <v>       0.33966363       0.32965055       0.18282698 </v>
    <v>       0.58246139       0.21150732       0.12452493 </v>
    <v>       0.03136010       0.48710389       0.25339332 </v>
    <v>       0.68547457       0.72286839       0.37283972 </v>
    <v>       0.09516526       0.72856013       0.12156099 </v>
    <v>       0.54175808       0.44922208       0.25322478 </v>
    <v>       0.74221634       0.12535081       0.31155789 </v>
    <v>       0.85888103       0.57329750       0.05350623 </v>
    <v>       0.31317132       0.84765546       0.18075508 </v>
    <v>       0.56207820       0.72169891       0.12275353 </v>
    <v>       0.00233411       0.99942931       0.25278964 </v>
    <v>       0.79511732       0.32487320       0.18423710 </v>
    <v>       0.22299539       0.62376518       0.31558846 </v>
    <v>       0.34617716       0.60305419       0.05647018 </v>
    <v>       0.21785352       0.16706836       0.31533745 </v>
    <v>       0.79689147       0.87779108       0.18397606 </v>
    <v>       0.34617716       0.05624469       0.05647018 </v>
    <v>       0.53863142       0.00744706       0.25320715 </v>
    <v>       0.09516526       0.18175063       0.12156099 </v>
    <v>       0.21201191       0.34418180       0.39001270 </v>
    <v>       0.34047062       0.60391201       0.02782883 </v>
    <v>       0.92434681       0.68523651       0.03696881 </v>
    <v>       0.34363348       0.06399961       0.02783421 </v>
    <v>       0.88838126       0.05560908       0.02665597 </v>
    <v>       0.64657590       0.77534030       0.39689476 </v>
    <v>       0.76256605       0.09550240       0.33634640 </v>
    <v>       0.10948071       0.40307896       0.41067077 </v>
   </varray>
  </structure>
  <varray name="forces" >
   <v>       0.11107532      -1.76033114      -1.63312306 </v>
   <v>       0.02016475       0.13474411       0.03649372 </v>
   <v>      -0.17292178       0.57707569       0.01055378 </v>
   <v>       0.04285343       0.02120081       0.01017120 </v>
   <v>      -0.00537577       0.41754606       0.10078231 </v>
   <v>       0.04376450       0.03612228       0.01908691 </v>
   <v>      -0.09148503       0.20823783       0.09262183 </v>
   <v>      -0.01250926      -0.06967577      -0.01932482 </v>
   <v>      -0.00107683      -1.34549311      -0.85966022 </v>
   <v>      -0.01271890       0.05040338      -0.01237870 </v>
   <v>       0.00933011       0.06360503       0.00466167 </v>
   <v>      -0.00446774      -0.08823139       0.06170066 </v>
   <v>      -0.00772131      -0.50662293       0.27740618 </v>
   <v>      -0.06929897      -0.03185956       0.01585976 </v>
   <v>      -0.06758717      -0.02691134       0.13036645 </v>
   <v>      -0.30660049      -3.67155765      -1.98085378 </v>
   <v>       0.03195145      -0.04524974       0.02082496 </v>
   <v>      -0.07636985       0.28380233       0.38016898 </v>
   <v>       0.02984714       0.07117986       0.02269311 </v>
   <v>      -0.00696475       0.01260204       0.09504526 </v>
   <v>       0.37640944       0.38705812       0.57168680 </v>
   <v>      -0.02945936      -0.01274080       0.00841706 </v>
   <v>      -0.01941169      -0.00669586      -0.02810465 </v>
   <v>       2.86791140      -2.73219554      -0.23949584 </v>
   <v>      -0.04649696      -0.01263439      -0.03459519 </v>
   <v>       0.10886441       0.37105874      -0.35311735 </v>
   <v>      -0.01582654      -0.00929182      -0.00744171 </v>
   <v>      -0.01514565       0.01397625      -0.02248139 </v>
   <v>      -0.13413375       0.03591744      -0.04293783 </v>
   <v>      -0.93813655      -3.59146481      -2.16822486 </v>
   <v>       0.17671242       0.09320976      -0.10874948 </v>
   <v>       0.05284509       0.00095705      -0.02968874 </v>
   <v>       1.03671083      -3.65853344      -1.94279819 </v>
   <v>       0.08687580      -0.02818457       0.02259196 </v>
   <v>      -0.17054202       0.34419174       0.46351872 </v>
   <v>      -0.01545736       0.12713169      -0.08377086 </v>
   <v>       0.56331646       3.81401982       2.32127326 </v>
   <v>      -3.03077006       3.24404209       0.46090086 </v>
   <v>      -0.65611723       3.96659226       2.10667847 </v>
   <v>       0.36513492       3.72627678       2.19953545 </v>
   <v>      -0.00523375      -0.21894474       0.02966106 </v>
   <v>       0.00440374       0.06781670       0.02313536 </v>
   <v>      -0.01634246      -0.25214923       0.08091088 </v>
  </varray>
  <energy>
   <i name="e_fr_energy">   -293.15599670 </i>
   <i name="e_wo_entrp">   -293.15219691 </i>
   <i name="e_0_energy">     -0.01139937 </i>
  </energy>
  <time name="totalsc">  927.34  934.77</time>
 </calculation>
 <calculation>
  <scstep>
   <time name="dav">   44.93   45.47</time>
   <time name="total">   48.90   49.45</time>
   <energy>
    <i name="alphaZ">    477.09650995 </i>
    <i name="ewald"> 394089.24749539 </i>
    <i name="hartreedc">-427816.24432085 </i>
    <i name="XCdc">   1612.83588188 </i>
    <i name="pawpsdc">  38052.17117343 </i>
    <i name="pawaedc"> -38757.86898167 </i>
    <i name="eentropy">     -0.01060657 </i>
    <i name="bandstr">  -5903.31336838 </i>
    <i name="atom">  37952.93320877 </i>
    <i name="e_fr_energy">   -293.15300805 </i>
    <i name="e_wo_entrp">   -293.14240148 </i>
    <i name="e_0_energy">   -293.14947252 </i>
   </energy>
  </scstep>
  <scstep>
   <time name="diag">    8.86    8.89</time>
   <time name="diis">   27.99   28.08</time>
   <time name="orth">    0.49    0.49</time>
   <time name="total">   41.28   41.40</time>
   <energy>
    <i name="e_fr_energy">   -293.47459509 </i>
    <i name="e_wo_entrp">   -293.46943321 </i>
    <i name="e_0_energy">   -293.47287447 </i>
   </energy>
  </scstep>
  <scstep>
   <time name="diag">    9.16    9.47</time>
   <time name="diis">   25.63   25.68</time>
   <time name="orth">    0.49    0.49</time>
   <time name="total">   39.21   39.57</time>
   <energy>
    <i name="e_fr_energy">   -293.18323128 </i>
    <i name="e_wo_entrp">   -293.17799937 </i>
    <i name="e_0_energy">   -293.18148731 </i>
   </energy>
  </scstep>
  <scstep>
   <time name="diag">    8.83    8.85</time>
   <time name="diis">   27.93   28.28</time>
   <time name="orth">    0.49    0.49</time>
   <time name="total">   41.18   41.58</time>
   <energy>
    <i name="e_fr_energy">   -293.14388336 </i>
    <i name="e_wo_entrp">   -293.13094555 </i>
    <i name="e_0_energy">   -293.13957076 </i>
   </energy>
  </scstep>
  <scstep>
   <time name="diag">    8.83    8.84</time>
   <time name="diis">   26.78   26.84</time>
   <time name="orth">    0.49    0.49</time>
   <time name="total">   40.12   40.23</time>
   <energy>
    <i name="e_fr_energy">   -293.11642969 </i>
    <i name="e_wo_entrp">   -293.09506582 </i>
    <i name="e_0_energy">   -293.10930840 </i>
   </energy>
  </scstep>
  <scstep>
   <time name="diag">    9.15    9.42</time>
   <time name="diis">   24.39   24.43</time>
   <time name="orth">    0.48    0.48</time>
   <time name="total">   37.99   38.31</time>
   <energy>
    <i name="e_fr_energy">   -293.13160854 </i>
    <i name="e_wo_entrp">   -293.10977342 </i>
    <i name="e_0_energy">   -293.12433017 </i>
   </energy>
  </scstep>
  <scstep>
   <time name="diag">    8.89    8.92</time>
   <time name="diis">   23.82   24.22</time>
   <time name="orth">    0.49    0.49</time>
   <time name="total">   37.17   37.60</time>
   <energy>
    <i name="e_fr_energy">   -293.15066333 </i>
    <i name="e_wo_entrp">   -293.13148620 </i>
    <i name="e_0_energy">   -293.14427095 </i>
   </energy>
  </scstep>
  <scstep>
   <time name="diag">    8.90    8.92</time>
   <time name="diis">   22.77   22.81</time>
   <time name="orth">    0.49    0.49</time>
   <time name="total">   36.15   36.29</time>
   <energy>
    <i name="e_fr_energy">   -293.16192570 </i>
    <i name="e_wo_entrp">   -293.14764897 </i>
    <i name="e_0_energy">   -293.15716679 </i>
   </energy>
  </scstep>
  <scstep>
   <time name="diag">    8.96    8.99</time>
   <time name="diis">   22.35   22.66</time>
   <time name="orth">    0.49    0.49</time>
   <time name="total">   35.76   36.11</time>
   <energy>
    <i name="e_fr_energy">   -293.16856156 </i>
    <i name="e_wo_entrp">   -293.16040475 </i>
    <i name="e_0_energy">   -293.16584262 </i>
   </energy>
  </scstep>
  <scstep>
   <time name="diag">    8.88    8.89</time>
   <time name="diis">   22.29   22.41</time>
   <time name="orth">    0.49    0.49</time>
   <time name="total">   35.69   35.84</time>
   <energy>
    <i name="e_fr_energy">   -293.16759112 </i>
    <i name="e_wo_entrp">   -293.16356880 </i>
    <i name="e_0_energy">   -293.16625035 </i>
   </energy>
  </scstep>
  <scstep>
   <time name="diag">    9.09    9.32</time>
   <time name="diis">   21.82   21.86</time>
   <time name="orth">    0.49    0.49</time>
   <time name="total">   35.39   35.70</time>
   <energy>
    <i name="e_fr_energy">   -293.16695077 </i>
    <i name="e_wo_entrp">   -293.16615793 </i>
    <i name="e_0_energy">   -293.16668649 </i>
   </energy>
  </scstep>
  <scstep>
   <time name="diag">    8.89    8.90</time>
   <time name="diis">   22.62   22.93</time>
   <time name="orth">    0.48    0.48</time>
   <time name="total">   35.93   36.27</time>
   <energy>
    <i name="e_fr_energy">   -293.16252669 </i>
    <i name="e_wo_entrp">   -293.16294034 </i>
    <i name="e_0_energy">   -293.16266457 </i>
   </energy>
  </scstep>
  <scstep>
   <time name="diag">    8.83    8.86</time>
   <time name="diis">   19.51   19.67</time>
   <time name="orth">    0.48    0.48</time>
   <time name="total">   32.76   32.97</time>
   <energy>
    <i name="e_fr_energy">   -293.16122775 </i>
    <i name="e_wo_entrp">   -293.16233481 </i>
    <i name="e_0_energy">   -293.16159677 </i>
   </energy>
  </scstep>
  <scstep>
   <time name="diag">    8.82    8.89</time>
   <time name="diis">   19.72   20.01</time>
   <time name="orth">    0.48    0.49</time>
   <time name="total">   32.99   33.35</time>
   <energy>
    <i name="e_fr_energy">   -293.15989962 </i>
    <i name="e_wo_entrp">   -293.16126337 </i>
    <i name="e_0_energy">   -293.16035420 </i>
   </energy>
  </scstep>
  <scstep>
   <time name="diag">    8.83    8.84</time>
   <time name="diis">   15.66   15.71</time>
   <time name="orth">    0.48    0.49</time>
   <time name="total">   28.91   28.99</time>
   <energy>
    <i name="e_fr_energy">   -293.16005225 </i>
    <i name="e_wo_entrp">   -293.16176396 </i>
    <i name="e_0_energy">   -293.16062282 </i>
   </energy>
  </scstep>
  <scstep>
   <time name="diag">    8.90    8.94</time>
   <time name="diis">   20.90   21.15</time>
   <time name="orth">    0.48    0.49</time>
   <time name="total">   34.24   34.56</time>
   <energy>
    <i name="e_fr_energy">   -293.15711372 </i>
    <i name="e_wo_entrp">   -293.15803879 </i>
    <i name="e_0_energy">   -293.15742208 </i>
   </energy>
  </scstep>
  <scstep>
   <time name="diag">    8.82    8.83</time>
   <time name="diis">   23.23   23.35</time>
   <time name="orth">    0.49    0.49</time>
   <time name="total">   36.55   36.69</time>
   <energy>
    <i name="e_fr_energy">   -293.15277466 </i>
    <i name="e_wo_entrp">   -293.15139628 </i>
    <i name="e_0_energy">   -293.15231520 </i>
   </energy>
  </scstep>
  <scstep>
   <time name="diag">    9.10    9.34</time>
   <time name="diis">   23.84   23.89</time>
   <time name="orth">    0.48    0.48</time>
   <time name="total">   37.37   37.66</time>
   <energy>
    <i name="e_fr_energy">   -293.14475817 </i>
    <i name="e_wo_entrp">   -293.13736927 </i>
    <i name="e_0_energy">   -293.14229520 </i>
   </energy>
  </scstep>
  <scstep>
   <time name="diag">    8.85    8.86</time>
   <time name="diis">   24.94   25.41</time>
   <time name="orth">    0.48    0.48</time>
   <time name="total">   38.22   38.70</time>
   <energy>
    <i name="e_fr_energy">   -293.14646854 </i>
    <i name="e_wo_entrp">   -293.13079037 </i>
    <i name="e_0_energy">   -293.14124248 </i>
   </energy>
  </scstep>
  <scstep>
   <time name="diag">    8.87    8.90</time>
   <time name="diis">   22.45   22.49</time>
   <time name="orth">    0.48    0.49</time>
   <time name="total">   35.81   35.95</time>
   <energy>
    <i name="e_fr_energy">   -293.16298814 </i>
    <i name="e_wo_entrp">   -293.14334839 </i>
    <i name="e_0_energy">   -293.15644156 </i>
   </energy>
  </scstep>
  <scstep>
   <time name="diag">    9.16    9.31</time>
   <time name="diis">   22.92   23.08</time>
   <time name="orth">    0.48    0.48</time>
   <time name="total">   36.52   36.83</time>
   <energy>
    <i name="e_fr_energy">   -293.16760796 </i>
    <i name="e_wo_entrp">   -293.14725566 </i>
    <i name="e_0_energy">   -293.16082386 </i>
   </energy>
  </scstep>
  <scstep>
   <time name="diag">    8.86    8.92</time>
   <time name="diis">   23.03   23.20</time>
   <time name="orth">    0.58    0.73</time>
   <time name="total">   36.50   36.97</time>
   <energy>
    <i name="e_fr_energy">   -293.15962729 </i>
    <i name="e_wo_entrp">   -293.13877750 </i>
    <i name="e_0_energy">   -293.15267736 </i>
   </energy>
  </scstep>
  <scstep>
   <time name="diag">    8.87    8.98</time>
   <time name="diis">   24.36   24.39</time>
   <time name="orth">    0.48    0.48</time>
   <time name="total">   37.66   37.80</time>
   <energy>
    <i name="e_fr_energy">   -293.14923547 </i>
    <i name="e_wo_entrp">   -293.12763984 </i>
    <i name="e_0_energy">   -293.14203693 </i>
   </energy>
  </scstep>
  <scstep>
   <time name="diag">    8.88    8.93</time>
   <time name="diis">   23.61   23.90</time>
   <time name="orth">    0.49    0.49</time>
   <time name="total">   36.96   37.32</time>
   <energy>
    <i name="e_fr_energy">   -293.15163138 </i>
    <i name="e_wo_entrp">   -293.13208790 </i>
    <i name="e_0_energy">   -293.14511689 </i>
   </energy>
  </scstep>
  <scstep>
   <time name="diag">    8.89    8.90</time>
   <time name="diis">   21.77   21.85</time>
   <time name="orth">    0.49    0.49</time>
   <time name="total">   35.16   35.29</time>
   <energy>
    <i name="e_fr_energy">   -293.15987967 </i>
    <i name="e_wo_entrp">   -293.14386440 </i>
    <i name="e_0_energy">   -293.15454125 </i>
   </energy>
  </scstep>
  <scstep>
   <time name="diag">    9.07    9.42</time>
   <time name="diis">   21.88   21.93</time>
   <time name="orth">    0.49    0.49</time>
   <time name="total">   35.41   35.82</time>
   <energy>
    <i name="e_fr_energy">   -293.16184512 </i>
    <i name="e_wo_entrp">   -293.14832914 </i>
    <i name="e_0_energy">   -293.15733979 </i>
   </energy>
  </scstep>
  <scstep>
   <time name="diag">    8.89    8.92</time>
   <time name="diis">   22.48   22.93</time>
   <time name="orth">    0.48    0.48</time>
   <time name="total">   35.81   36.29</time>
   <energy>
    <i name="e_fr_energy">   -293.15997771 </i>
    <i name="e_wo_entrp">   -293.14726518 </i>
    <i name="e_0_energy">   -293.15574020 </i>
   </energy>
  </scstep>
  <scstep>
   <time name="diag">    8.86    8.88</time>
   <time name="diis">   22.68   22.72</time>
   <time name="orth">    0.48    0.48</time>
   <time name="total">   35.99   36.05</time>
   <energy>
    <i name="e_fr_energy">   -293.15788005 </i>
    <i name="e_wo_entrp">   -293.14443257 </i>
    <i name="e_0_energy">   -293.15339756 </i>
   </energy>
  </scstep>
  <scstep>
   <time name="diag">    8.89    8.92</time>
   <time name="diis">   23.05   23.42</time>
   <time name="orth">    0.48    0.48</time>
   <time name="total">   36.37   36.78</time>
   <energy>
    <i name="e_fr_energy">   -293.15701843 </i>
    <i name="e_wo_entrp">   -293.14168620 </i>
    <i name="e_0_energy">   -293.15190768 </i>
   </energy>
  </scstep>
  <scstep>
   <time name="diag">    8.84    8.86</time>
   <time name="diis">   21.49   21.57</time>
   <time name="orth">    0.48    0.48</time>
   <time name="total">   35.08   35.25</time>
   <energy>
    <i name="e_fr_energy">   -293.15831757 </i>
    <i name="e_wo_entrp">   -293.14094559 </i>
    <i name="e_0_energy">   -293.15252691 </i>
   </energy>
  </scstep>
  <scstep>
   <time name="diag">    9.02    9.30</time>
   <time name="diis">   20.24   20.28</time>
   <time name="orth">    0.48    0.48</time>
   <time name="total">   33.70   34.02</time>
   <energy>
    <i name="e_fr_energy">   -293.15987606 </i>
    <i name="e_wo_entrp">   -293.14120060 </i>
    <i name="e_0_energy">   -293.15365090 </i>
   </energy>
  </scstep>
  <scstep>
   <time name="diag">    8.85    8.86</time>
   <time name="diis">   21.73   21.84</time>
   <time name="orth">    0.53    0.65</time>
   <time name="total">   35.14   35.47</time>
   <energy>
    <i name="e_fr_energy">   -293.15972828 </i>
    <i name="e_wo_entrp">   -293.14055215 </i>
    <i name="e_0_energy">   -293.15333624 </i>
   </energy>
  </scstep>
  <scstep>
   <time name="diag">    8.92    8.95</time>
   <time name="diis">   18.94   18.97</time>
   <time name="orth">    0.49    0.49</time>
   <time name="total">   32.33   32.44</time>
   <energy>
    <i name="e_fr_energy">   -293.15936033 </i>
    <i name="e_wo_entrp">   -293.14006648 </i>
    <i name="e_0_energy">   -293.15292905 </i>
   </energy>
  </scstep>
  <scstep>
   <time name="diag">    8.91    8.94</time>
   <time name="diis">   15.72   15.88</time>
   <time name="orth">    0.49    0.49</time>
   <time name="total">   29.10   29.29</time>
   <energy>
    <i name="e_fr_energy">   -293.15924204 </i>
    <i name="e_wo_entrp">   -293.13993804 </i>
    <i name="e_0_energy">   -293.15280737 </i>
   </energy>
  </scstep>
  <scstep>
   <time name="diag">    8.90    8.93</time>
   <time name="diis">   14.65   14.66</time>
   <time name="orth">    0.48    0.49</time>
   <time name="total">   28.00   28.05</time>
   <energy>
    <i name="e_fr_energy">   -293.15915734 </i>
    <i name="e_wo_entrp">   -293.13992021 </i>
    <i name="e_0_energy">   -293.15274496 </i>
   </energy>
  </scstep>
  <scstep>
   <time name="diag">    8.88    8.90</time>
   <time name="diis">   16.21   16.36</time>
   <time name="orth">    0.55    0.65</time>
   <time name="total">   29.63   29.95</time>
   <energy>
    <i name="e_fr_energy">   -293.15907431 </i>
    <i name="e_wo_entrp">   -293.14006217 </i>
    <i name="e_0_energy">   -293.15273693 </i>
   </energy>
  </scstep>
  <scstep>
   <time name="diag">    8.86    8.86</time>
   <time name="diis">   18.22   18.26</time>
   <time name="orth">    0.48    0.48</time>
   <time name="total">   31.55   31.61</time>
   <energy>
    <i name="e_fr_energy">   -293.15909341 </i>
    <i name="e_wo_entrp">   -293.14062297 </i>
    <i name="e_0_energy">   -293.15293660 </i>
   </energy>
  </scstep>
  <scstep>
   <time name="diag">    8.86    8.88</time>
   <time name="diis">   17.79   18.17</time>
   <time name="orth">    0.48    0.49</time>
   <time name="total">   31.11   31.51</time>
   <energy>
    <i name="e_fr_energy">   -293.15946521 </i>
    <i name="e_wo_entrp">   -293.14182685 </i>
    <i name="e_0_energy">   -293.15358576 </i>
   </energy>
  </scstep>
  <scstep>
   <time name="diag">    8.89    8.91</time>
   <time name="diis">   16.85   16.87</time>
   <time name="orth">    0.49    0.49</time>
   <time name="total">   30.23   30.28</time>
   <energy>
    <i name="e_fr_energy">   -293.15982212 </i>
    <i name="e_wo_entrp">   -293.14298021 </i>
    <i name="e_0_energy">   -293.15420815 </i>
   </energy>
  </scstep>
  <scstep>
   <time name="diag">    8.86    8.88</time>
   <time name="diis">   18.52   18.85</time>
   <time name="orth">    0.48    0.48</time>
   <time name="total">   31.82   32.18</time>
   <energy>
    <i name="e_fr_energy">   -293.15967439 </i>
    <i name="e_wo_entrp">   -293.14319192 </i>
    <i name="e_0_energy">   -293.15418023 </i>
   </energy>
  </scstep>
  <scstep>
   <time name="diag">    8.88    8.90</time>
   <time name="diis">   16.52   16.55</time>
   <time name="orth">    0.48    0.48</time>
   <time name="total">   29.85   29.90</time>
   <energy>
    <i name="e_fr_energy">   -293.15946582 </i>
    <i name="e_wo_entrp">   -293.14298006 </i>
    <i name="e_0_energy">   -293.15397057 </i>
   </energy>
  </scstep>
  <scstep>
   <time name="diag">    8.89    9.25</time>
   <time name="diis">   15.04   15.26</time>
   <time name="orth">    0.48    0.48</time>
   <time name="total">   28.36   28.94</time>
   <energy>
    <i name="e_fr_energy">   -293.15937107 </i>
    <i name="e_wo_entrp">   -293.14267350 </i>
    <i name="e_0_energy">   -293.15380521 </i>
   </energy>
  </scstep>
  <scstep>
   <time name="diag">    8.84    8.86</time>
   <time name="diis">   14.94   14.95</time>
   <time name="orth">    0.48    0.48</time>
   <time name="total">   24.79   24.83</time>
   <energy>
    <i name="alphaZ">    477.09650995 </i>
    <i name="ewald"> 394089.24749539 </i>
    <i name="hartreedc">-427816.59559174 </i>
    <i name="XCdc">   1612.82861707 </i>
    <i name="pawpsdc">  38052.79962152 </i>
    <i name="pawaedc"> -38758.53338923 </i>
    <i name="eentropy">     -0.01708536 </i>
    <i name="bandstr">  -5902.91875269 </i>
    <i name="atom">  37952.93320877 </i>
    <i name="e_fr_energy">   -293.15936631 </i>
    <i name="e_wo_entrp">   -293.14228096 </i>
    <i name="e_0_energy">   -293.15367120 </i>
   </energy>
  </scstep>
  <structure>
   <crystal>
    <varray name="basis" >
     <v>       2.87357350      -2.87357350       4.70833511 </v>
     <v>       5.74714699       0.00000000       0.00000000 </v>
     <v>       0.00000000      33.06569101      20.18052901 </v>
    </varray>
    <i name="volume">   1228.01926054 </i>
    <varray name="rec_basis" >
     <v>       0.00000000      -0.09444515       0.15474789 </v>
     <v>       0.17399938       0.04722258      -0.07737394 </v>
     <v>       0.00000000       0.02203507       0.01344836 </v>
    </varray>
   </crystal>
   <varray name="positions" >
    <v>       0.22067121       0.89240241       0.08901558 </v>
    <v>       0.66323947       0.16580902       0.21805276 </v>
    <v>       0.94927612       0.02809995       0.15233499 </v>
    <v>       0.37547200       0.31497074       0.28545244 </v>
    <v>       0.44927612       0.52809995       0.15233499 </v>
    <v>       0.89395420       0.30560276       0.28175435 </v>
    <v>       0.44927612       0.02809995       0.15233499 </v>
    <v>       0.89230077       0.80199880       0.28139757 </v>
    <v>       0.90282244       0.55132680       0.10484543 </v>
    <v>       0.35319958       0.82201467       0.23367473 </v>
    <v>       0.99332450       0.50270761       0.20049174 </v>
    <v>       0.41979215       0.79742149       0.33513228 </v>
    <v>       0.53851998       0.23347802       0.07318573 </v>
    <v>       0.01760027       0.48909165       0.34987606 </v>
    <v>       0.76895618       0.61603616       0.30970419 </v>
    <v>       0.87926422       0.06310591       0.05527763 </v>
    <v>       0.33968106       0.32956113       0.18283403 </v>
    <v>       0.58246139       0.21150732       0.12452493 </v>
    <v>       0.03132700       0.48714316       0.25343416 </v>
    <v>       0.68619740       0.72359790       0.37288699 </v>
    <v>       0.09516526       0.72856013       0.12156099 </v>
    <v>       0.54182014       0.44904424       0.25323864 </v>
    <v>       0.74194891       0.12538567       0.31156003 </v>
    <v>       0.85888103       0.57329750       0.05350623 </v>
    <v>       0.31296423       0.84780779       0.18075247 </v>
    <v>       0.56207820       0.72169891       0.12275353 </v>
    <v>       0.00220801       0.99947727       0.25278565 </v>
    <v>       0.79518570       0.32481155       0.18422474 </v>
    <v>       0.22312685       0.62389660       0.31558651 </v>
    <v>       0.34617716       0.60305419       0.05647018 </v>
    <v>       0.21762438       0.16740883       0.31534671 </v>
    <v>       0.79701202       0.87766126       0.18396319 </v>
    <v>       0.34617716       0.05624469       0.05647018 </v>
    <v>       0.53862517       0.00744781       0.25321981 </v>
    <v>       0.09516526       0.18175063       0.12156099 </v>
    <v>       0.21315169       0.34328347       0.38984261 </v>
    <v>       0.34047062       0.60391201       0.02782883 </v>
    <v>       0.92434681       0.68523651       0.03696881 </v>
    <v>       0.34363348       0.06399961       0.02783421 </v>
    <v>       0.88838126       0.05560908       0.02665597 </v>
    <v>       0.64733295       0.77482564       0.39689181 </v>
    <v>       0.76294602       0.09505629       0.33637827 </v>
    <v>       0.11171731       0.40124208       0.41056080 </v>
   </varray>
  </structure>
  <varray name="forces" >
   <v>       0.11104086      -1.76524044      -1.62507191 </v>
   <v>       0.02514186       0.07751293       0.02328361 </v>
   <v>      -0.17482273       0.57473198       0.01053020 </v>
   <v>       0.02975515       0.02657340       0.02916791 </v>
   <v>      -0.00883866       0.41861103       0.10066105 </v>
   <v>       0.03954878       0.08563568       0.02277628 </v>
   <v>      -0.08628776       0.20970078       0.09317820 </v>
   <v>      -0.01114695       0.00749161      -0.01539537 </v>
   <v>      -0.01631969      -1.33818376      -0.85926946 </v>
   <v>      -0.01207259       0.04071750      -0.01381662 </v>
   <v>       0.01049439       0.05166766       0.00393070 </v>
   <v>       0.01658458      -0.10119812       0.06106178 </v>
   <v>       0.00284655      -0.51082506       0.26492751 </v>
   <v>      -0.00776878      -0.14670352       0.05809854 </v>
   <v>      -0.06944027      -0.07734957       0.01963225 </v>
   <v>      -0.31015088      -3.62510591      -1.96101107 </v>
   <v>       0.03895970      -0.03984743       0.02206640 </v>
   <v>      -0.07414746       0.28514470       0.38020539 </v>
   <v>       0.02471056       0.03393093       0.01694454 </v>
   <v>      -0.02274521      -0.02140869      -0.01584836 </v>
   <v>       0.36937110       0.38089471       0.57006787 </v>
   <v>      -0.01251158      -0.00965504       0.00311113 </v>
   <v>      -0.02644729       0.03048688       0.02479778 </v>
   <v>       2.70692721      -2.56396731      -0.25275069 </v>
   <v>      -0.05046300      -0.01302406      -0.02223603 </v>
   <v>       0.10614621       0.35344324      -0.34736241 </v>
   <v>      -0.00432096      -0.02441984      -0.00059827 </v>
   <v>      -0.01833815       0.03657751      -0.02139938 </v>
   <v>      -0.11212730       0.03003679      -0.04761830 </v>
   <v>      -0.94457871      -3.58144127      -2.15632409 </v>
   <v>       0.11037327       0.02693613      -0.09685428 </v>
   <v>       0.05749564       0.02089995      -0.02772319 </v>
   <v>       1.04497182      -3.64137022      -1.93096748 </v>
   <v>       0.07727198      -0.02139069       0.01886864 </v>
   <v>      -0.15372923       0.35167680       0.46213065 </v>
   <v>      -0.04141844       0.23418492       0.02542346 </v>
   <v>       0.56469824       3.80471438       2.31672002 </v>
   <v>      -2.90794961       3.10296592       0.46283006 </v>
   <v>      -0.65594541       3.94781237       2.09840637 </v>
   <v>       0.36426733       3.68783436       2.17909344 </v>
   <v>       0.02606961      -0.09782981       0.04913162 </v>
   <v>       0.01269225       0.00664484      -0.02644152 </v>
   <v>      -0.01779640      -0.24786626       0.10364301 </v>
  </varray>
  <energy>
   <i name="e_fr_energy">   -293.15936631 </i>
   <i name="e_wo_entrp">   -293.15367120 </i>
   <i name="e_0_energy">     -0.01708536 </i>
  </energy>
  <time name="totalsc"> 1519.98 1531.51</time>
 </calculation>
 <calculation>
  <scstep>
   <time name="dav">   44.77   45.07</time>
   <time name="total">   48.71   49.04</time>
   <energy>
    <i name="alphaZ">    477.09650995 </i>
    <i name="ewald"> 394091.23880593 </i>
    <i name="hartreedc">-427818.56627664 </i>
    <i name="XCdc">   1612.83256359 </i>
    <i name="pawpsdc">  38052.80000977 </i>
    <i name="pawaedc"> -38758.53593828 </i>
    <i name="eentropy">     -0.01725398 </i>
    <i name="bandstr">  -5902.94093981 </i>
    <i name="atom">  37952.93320877 </i>
    <i name="e_fr_energy">   -293.15931069 </i>
    <i name="e_wo_entrp">   -293.14205671 </i>
    <i name="e_0_energy">   -293.15355936 </i>
   </energy>
  </scstep>
  <scstep>
   <time name="diag">    8.87    8.96</time>
   <time name="diis">   29.35   29.65</time>
   <time name="orth">    0.49    0.49</time>
   <time name="total">   42.67   43.06</time>
   <energy>
    <i name="e_fr_energy">   -293.16108247 </i>
    <i name="e_wo_entrp">   -293.14219230 </i>
    <i name="e_0_energy">   -293.15478575 </i>
   </energy>
  </scstep>
  <scstep>
   <time name="diag">    8.87    8.88</time>
   <time name="diis">   24.34   24.63</time>
   <time name="orth">    0.53    0.58</time>
   <time name="total">   37.66   38.04</time>
   <energy>
    <i name="e_fr_energy">   -293.15989468 </i>
    <i name="e_wo_entrp">   -293.14066986 </i>
    <i name="e_0_energy">   -293.15348641 </i>
   </energy>
  </scstep>
  <scstep>
   <time name="diag">    8.82    8.83</time>
   <time name="diis">   23.68   23.73</time>
   <time name="orth">    0.48    0.48</time>
   <time name="total">   36.93   36.98</time>
   <energy>
    <i name="e_fr_energy">   -293.15918741 </i>
    <i name="e_wo_entrp">   -293.14111633 </i>
    <i name="e_0_energy">   -293.15316371 </i>
   </energy>
  </scstep>
  <scstep>
   <time name="diag">    8.91    9.03</time>
   <time name="diis">   22.17   22.59</time>
   <time name="orth">    0.49    0.49</time>
   <time name="total">   35.49   36.06</time>
   <energy>
    <i name="e_fr_energy">   -293.16007549 </i>
    <i name="e_wo_entrp">   -293.14264016 </i>
    <i name="e_0_energy">   -293.15426371 </i>
   </energy>
  </scstep>
  <scstep>
   <time name="diag">    8.82    8.83</time>
   <time name="diis">   19.83   20.12</time>
   <time name="orth">    0.48    0.49</time>
   <time name="total">   33.07   33.38</time>
   <energy>
    <i name="e_fr_energy">   -293.16012773 </i>
    <i name="e_wo_entrp">   -293.14277214 </i>
    <i name="e_0_energy">   -293.15434253 </i>
   </energy>
  </scstep>
  <scstep>
   <time name="diag">    9.08    9.54</time>
   <time name="diis">   19.66   19.69</time>
   <time name="orth">    0.48    0.48</time>
   <time name="total">   29.76   30.25</time>
   <energy>
    <i name="alphaZ">    477.09650995 </i>
    <i name="ewald"> 394091.23880593 </i>
    <i name="hartreedc">-427818.75114397 </i>
    <i name="XCdc">   1612.83211090 </i>
    <i name="pawpsdc">  38053.03246673 </i>
    <i name="pawaedc"> -38758.76782342 </i>
    <i name="eentropy">     -0.01774146 </i>
    <i name="bandstr">  -5902.75652232 </i>
    <i name="atom">  37952.93320877 </i>
    <i name="e_fr_energy">   -293.16012889 </i>
    <i name="e_wo_entrp">   -293.14238743 </i>
    <i name="e_0_energy">   -293.15421507 </i>
   </energy>
  </scstep>
  <structure>
   <crystal>
    <varray name="basis" >
     <v>       2.87357350      -2.87357350       4.70833511 </v>
     <v>       5.74714699       0.00000000       0.00000000 </v>
     <v>       0.00000000      33.06569101      20.18052901 </v>
    </varray>
    <i name="volume">   1228.01926054 </i>
    <varray name="rec_basis" >
     <v>       0.00000000      -0.09444515       0.15474789 </v>
     <v>       0.17399938       0.04722258      -0.07737394 </v>
     <v>       0.00000000       0.02203507       0.01344836 </v>
    </varray>
   </crystal>
   <varray name="positions" >
    <v>       0.22067121       0.89240241       0.08901558 </v>
    <v>       0.66319364       0.16579557       0.21806701 </v>
    <v>       0.94927612       0.02809995       0.15233499 </v>
    <v>       0.37542177       0.31502244       0.28545360 </v>
    <v>       0.44927612       0.52809995       0.15233499 </v>
    <v>       0.89397357       0.30562753       0.28175303 </v>
    <v>       0.44927612       0.02809995       0.15233499 </v>
    <v>       0.89235945       0.80194983       0.28138224 </v>
    <v>       0.90282244       0.55132680       0.10484543 </v>
    <v>       0.35318556       0.82200260       0.23367780 </v>
    <v>       0.99330191       0.50269259       0.20049688 </v>
    <v>       0.41984614       0.79745825       0.33515118 </v>
    <v>       0.53851998       0.23347802       0.07318573 </v>
    <v>       0.01762355       0.48910434       0.34987059 </v>
    <v>       0.76898827       0.61600631       0.30971760 </v>
    <v>       0.87926422       0.06310591       0.05527763 </v>
    <v>       0.33968696       0.32953086       0.18283641 </v>
    <v>       0.58246139       0.21150732       0.12452493 </v>
    <v>       0.03131580       0.48715646       0.25344799 </v>
    <v>       0.68644205       0.72384481       0.37290299 </v>
    <v>       0.09516526       0.72856013       0.12156099 </v>
    <v>       0.54184115       0.44898405       0.25324334 </v>
    <v>       0.74185839       0.12539747       0.31156076 </v>
    <v>       0.85888103       0.57329750       0.05350623 </v>
    <v>       0.31289414       0.84785935       0.18075158 </v>
    <v>       0.56207820       0.72169891       0.12275353 </v>
    <v>       0.00216533       0.99949350       0.25278430 </v>
    <v>       0.79520884       0.32479069       0.18422056 </v>
    <v>       0.22317134       0.62394108       0.31558585 </v>
    <v>       0.34617716       0.60305419       0.05647018 </v>
    <v>       0.21754683       0.16752407       0.31534985 </v>
    <v>       0.79705282       0.87761732       0.18395883 </v>
    <v>       0.34617716       0.05624469       0.05647018 </v>
    <v>       0.53862305       0.00744806       0.25322409 </v>
    <v>       0.09516526       0.18175063       0.12156099 </v>
    <v>       0.21353746       0.34297942       0.38978504 </v>
    <v>       0.34047062       0.60391201       0.02782883 </v>
    <v>       0.92434681       0.68523651       0.03696881 </v>
    <v>       0.34363348       0.06399961       0.02783421 </v>
    <v>       0.88838126       0.05560908       0.02665597 </v>
    <v>       0.64758918       0.77465145       0.39689081 </v>
    <v>       0.76307462       0.09490530       0.33638906 </v>
    <v>       0.11247432       0.40062035       0.41052357 </v>
   </varray>
  </structure>
  <varray name="forces" >
   <v>       0.11108959      -1.76617076      -1.62387078 </v>
   <v>       0.02590354       0.06103227       0.01956940 </v>
   <v>      -0.17535753       0.57410471       0.01043228 </v>
   <v>       0.02743949       0.02882801       0.03456114 </v>
   <v>      -0.00959581       0.41942678       0.10063713 </v>
   <v>       0.03554503       0.09952812       0.02296642 </v>
   <v>      -0.08547143       0.20980345       0.09337356 </v>
   <v>      -0.00942978       0.02969783      -0.01460210 </v>
   <v>      -0.01899869      -1.33712850      -0.85934428 </v>
   <v>      -0.01218379       0.03851404      -0.01418346 </v>
   <v>       0.01012478       0.04944589       0.00419528 </v>
   <v>       0.02353328      -0.10154396       0.06315453 </v>
   <v>       0.00438308      -0.51197997       0.26313670 </v>
   <v>       0.00336097      -0.16745001       0.06472987 </v>
   <v>      -0.06916704      -0.08923713      -0.00179575 </v>
   <v>      -0.31060865      -3.61719126      -1.95762576 </v>
   <v>       0.04072167      -0.03869806       0.02207490 </v>
   <v>      -0.07364884       0.28538835       0.38002722 </v>
   <v>       0.02325399       0.02196106       0.01548329 </v>
   <v>      -0.02987356      -0.05060448      -0.04626209 </v>
   <v>       0.36777104       0.37927992       0.56963770 </v>
   <v>      -0.00666791      -0.00846702       0.00101892 </v>
   <v>      -0.02979054       0.04355817       0.04236890 </v>
   <v>       2.67784267      -2.53423089      -0.25462616 </v>
   <v>      -0.05172864      -0.01354765      -0.01864148 </v>
   <v>       0.10551504       0.35039242      -0.34628060 </v>
   <v>      -0.00096360      -0.02937168       0.00122338 </v>
   <v>      -0.01971996       0.04305965      -0.02167155 </v>
   <v>      -0.10708039       0.02886221      -0.04867706 </v>
   <v>      -0.94580803      -3.57962641      -2.15423096 </v>
   <v>       0.09597713       0.01427642      -0.09287884 </v>
   <v>       0.05893852       0.02754303      -0.02733069 </v>
   <v>       1.04662482      -3.63837065      -1.92911519 </v>
   <v>       0.07382514      -0.01928706       0.01722534 </v>
   <v>      -0.15060694       0.35260876       0.46175716 </v>
   <v>      -0.04726221       0.24261248       0.04833624 </v>
   <v>       0.56498160       3.80282993       2.31572643 </v>
   <v>      -2.88580186       3.07820680       0.46284961 </v>
   <v>      -0.65592800       3.94436213       2.09688131 </v>
   <v>       0.36410884       3.68128619       2.17561773 </v>
   <v>       0.03654380      -0.05308748       0.06050126 </v>
   <v>       0.01541715      -0.01354097      -0.04327701 </v>
   <v>      -0.01720796      -0.23707469       0.10692806 </v>
  </varray>
  <energy>
   <i name="e_fr_energy">   -293.16012889 </i>
   <i name="e_wo_entrp">   -293.15421507 </i>
   <i name="e_0_energy">     -0.01774146 </i>
  </energy>
  <time name="totalsc">  285.36  287.93</time>
 </calculation>
 <calculation>
  <scstep>
   <time name="dav">   45.03   45.46</time>
   <time name="total">   48.99   49.43</time>
   <energy>
    <i name="alphaZ">    477.09650995 </i>
    <i name="ewald"> 394095.21723423 </i>
    <i name="hartreedc">-427822.71296445 </i>
    <i name="XCdc">   1612.84102531 </i>
    <i name="pawpsdc">  38053.08037505 </i>
    <i name="pawaedc"> -38758.81784522 </i>
    <i name="eentropy">     -0.01756957 </i>
    <i name="bandstr">  -5902.77778612 </i>
    <i name="atom">  37952.93320877 </i>
    <i name="e_fr_energy">   -293.15781205 </i>
    <i name="e_wo_entrp">   -293.14024248 </i>
    <i name="e_0_energy">   -293.15195553 </i>
   </energy>
  </scstep>
  <scstep>
   <time name="diag">    8.85    8.86</time>
   <time name="diis">   29.47   29.74</time>
   <time name="orth">    0.48    0.49</time>
   <time name="total">   42.75   43.04</time>
   <energy>
    <i name="e_fr_energy">   -293.16133396 </i>
    <i name="e_wo_entrp">   -293.14553755 </i>
    <i name="e_0_energy">   -293.15606849 </i>
   </energy>
  </scstep>
  <scstep>
   <time name="diag">    8.84    8.89</time>
   <time name="diis">   25.80   25.91</time>
   <time name="orth">    0.48    0.48</time>
   <time name="total">   39.09   39.31</time>
   <energy>
    <i name="e_fr_energy">   -293.16011868 </i>
    <i name="e_wo_entrp">   -293.14328849 </i>
    <i name="e_0_energy">   -293.15450862 </i>
   </energy>
  </scstep>
  <scstep>
   <time name="diag">    9.05    9.42</time>
   <time name="diis">   23.68   23.74</time>
   <time name="orth">    0.49    0.49</time>
   <time name="total">   37.22   37.66</time>
   <energy>
    <i name="e_fr_energy">   -293.16092562 </i>
    <i name="e_wo_entrp">   -293.14284597 </i>
    <i name="e_0_energy">   -293.15489907 </i>
   </energy>
  </scstep>
  <scstep>
   <time name="diag">    8.92    8.93</time>
   <time name="diis">   23.06   23.42</time>
   <time name="orth">    0.48    0.48</time>
   <time name="total">   36.36   36.74</time>
   <energy>
    <i name="e_fr_energy">   -293.16043645 </i>
    <i name="e_wo_entrp">   -293.14237398 </i>
    <i name="e_0_energy">   -293.15441563 </i>
   </energy>
  </scstep>
  <scstep>
   <time name="diag">    8.73    8.75</time>
   <time name="diis">   22.84   22.87</time>
   <time name="orth">    0.48    0.48</time>
   <time name="total">   35.95   36.01</time>
   <energy>
    <i name="e_fr_energy">   -293.16074373 </i>
    <i name="e_wo_entrp">   -293.14427089 </i>
    <i name="e_0_energy">   -293.15525278 </i>
   </energy>
  </scstep>
  <scstep>
   <time name="diag">    8.76    8.86</time>
   <time name="diis">   21.59   21.84</time>
   <time name="orth">    0.48    0.48</time>
   <time name="total">   34.72   35.07</time>
   <energy>
    <i name="e_fr_energy">   -293.16114283 </i>
    <i name="e_wo_entrp">   -293.14578877 </i>
    <i name="e_0_energy">   -293.15602481 </i>
   </energy>
  </scstep>
  <scstep>
   <time name="diag">    8.70    8.72</time>
   <time name="diis">   21.98   22.05</time>
   <time name="orth">    0.48    0.48</time>
   <time name="total">   35.16   35.27</time>
   <energy>
    <i name="e_fr_energy">   -293.16023782 </i>
    <i name="e_wo_entrp">   -293.14470562 </i>
    <i name="e_0_energy">   -293.15506042 </i>
   </energy>
  </scstep>
  <scstep>
   <time name="diag">    9.15    9.41</time>
   <time name="diis">   22.96   23.00</time>
   <time name="orth">    0.49    0.49</time>
   <time name="total">   36.59   36.90</time>
   <energy>
    <i name="e_fr_energy">   -293.15993216 </i>
    <i name="e_wo_entrp">   -293.14322931 </i>
    <i name="e_0_energy">   -293.15436454 </i>
   </energy>
  </scstep>
  <scstep>
   <time name="diag">    8.92    8.93</time>
   <time name="diis">   18.24   18.57</time>
   <time name="orth">    0.52    0.55</time>
   <time name="total">   31.64   32.02</time>
   <energy>
    <i name="e_fr_energy">   -293.16056002 </i>
    <i name="e_wo_entrp">   -293.14297952 </i>
    <i name="e_0_energy">   -293.15469986 </i>
   </energy>
  </scstep>
  <scstep>
   <time name="diag">    8.82    8.83</time>
   <time name="diis">   18.24   18.27</time>
   <time name="orth">    0.48    0.49</time>
   <time name="total">   31.49   31.54</time>
   <energy>
    <i name="e_fr_energy">   -293.16067009 </i>
    <i name="e_wo_entrp">   -293.14269167 </i>
    <i name="e_0_energy">   -293.15467728 </i>
   </energy>
  </scstep>
  <scstep>
   <time name="diag">    8.83    8.85</time>
   <time name="diis">   17.28   17.54</time>
   <time name="orth">    0.48    0.48</time>
   <time name="total">   30.55   30.87</time>
   <energy>
    <i name="e_fr_energy">   -293.16053061 </i>
    <i name="e_wo_entrp">   -293.14246748 </i>
    <i name="e_0_energy">   -293.15450956 </i>
   </energy>
  </scstep>
  <scstep>
   <time name="diag">    8.86    8.92</time>
   <time name="diis">   15.00   15.03</time>
   <time name="orth">    0.48    0.48</time>
   <time name="total">   28.28   28.38</time>
   <energy>
    <i name="e_fr_energy">   -293.16044747 </i>
    <i name="e_wo_entrp">   -293.14249841 </i>
    <i name="e_0_energy">   -293.15446445 </i>
   </energy>
  </scstep>
  <scstep>
   <time name="diag">    8.85    8.87</time>
   <time name="diis">   17.12   17.38</time>
   <time name="orth">    0.48    0.49</time>
   <time name="total">   26.99   27.28</time>
   <energy>
    <i name="alphaZ">    477.09650995 </i>
    <i name="ewald"> 394095.21723423 </i>
    <i name="hartreedc">-427823.25710317 </i>
    <i name="XCdc">   1612.84234042 </i>
    <i name="pawpsdc">  38053.62239490 </i>
    <i name="pawaedc"> -38759.35784228 </i>
    <i name="eentropy">     -0.01753019 </i>
    <i name="bandstr">  -5902.23966924 </i>
    <i name="atom">  37952.93320877 </i>
    <i name="e_fr_energy">   -293.16045660 </i>
    <i name="e_wo_entrp">   -293.14292641 </i>
    <i name="e_0_energy">   -293.15461320 </i>
   </energy>
  </scstep>
  <structure>
   <crystal>
    <varray name="basis" >
     <v>       2.87357350      -2.87357350       4.70833511 </v>
     <v>       5.74714699       0.00000000       0.00000000 </v>
     <v>       0.00000000      33.06569101      20.18052901 </v>
    </varray>
    <i name="volume">   1228.01926054 </i>
    <varray name="rec_basis" >
     <v>       0.00000000      -0.09444515       0.15474789 </v>
     <v>       0.17399938       0.04722258      -0.07737394 </v>
     <v>       0.00000000       0.02203507       0.01344836 </v>
    </varray>
   </crystal>
   <varray name="positions" >
    <v>       0.22067121       0.89240241       0.08901558 </v>
    <v>       0.66310199       0.16576866       0.21809550 </v>
    <v>       0.94927612       0.02809995       0.15233499 </v>
    <v>       0.37532132       0.31512584       0.28545593 </v>
    <v>       0.44927612       0.52809995       0.15233499 </v>
    <v>       0.89401231       0.30567707       0.28175041 </v>
    <v>       0.44927612       0.02809995       0.15233499 </v>
    <v>       0.89247681       0.80185189       0.28135157 </v>
    <v>       0.90282244       0.55132680       0.10484543 </v>
    <v>       0.35315752       0.82197847       0.23368392 </v>
    <v>       0.99325675       0.50266256       0.20050717 </v>
    <v>       0.41995412       0.79753175       0.33518899 </v>
    <v>       0.53851998       0.23347802       0.07318573 </v>
    <v>       0.01767010       0.48912971       0.34985966 </v>
    <v>       0.76905244       0.61594660       0.30974443 </v>
    <v>       0.87926422       0.06310591       0.05527763 </v>
    <v>       0.33969876       0.32947032       0.18284118 </v>
    <v>       0.58246139       0.21150732       0.12452493 </v>
    <v>       0.03129339       0.48718304       0.25347564 </v>
    <v>       0.68693135       0.72433864       0.37293499 </v>
    <v>       0.09516526       0.72856013       0.12156099 </v>
    <v>       0.54188316       0.44886366       0.25325272 </v>
    <v>       0.74167735       0.12542107       0.31156220 </v>
    <v>       0.85888103       0.57329750       0.05350623 </v>
    <v>       0.31275395       0.84796247       0.18074981 </v>
    <v>       0.56207820       0.72169891       0.12275353 </v>
    <v>       0.00207998       0.99952597       0.25278160 </v>
    <v>       0.79525514       0.32474896       0.18421219 </v>
    <v>       0.22326033       0.62403004       0.31558453 </v>
    <v>       0.34617716       0.60305419       0.05647018 </v>
    <v>       0.21739172       0.16775455       0.31535612 </v>
    <v>       0.79713443       0.87752945       0.18395011 </v>
    <v>       0.34617716       0.05624469       0.05647018 </v>
    <v>       0.53861882       0.00744856       0.25323266 </v>
    <v>       0.09516526       0.18175063       0.12156099 </v>
    <v>       0.21430901       0.34237132       0.38966990 </v>
    <v>       0.34047062       0.60391201       0.02782883 </v>
    <v>       0.92434681       0.68523651       0.03696881 </v>
    <v>       0.34363348       0.06399961       0.02783421 </v>
    <v>       0.88838126       0.05560908       0.02665597 </v>
    <v>       0.64810165       0.77430306       0.39688882 </v>
    <v>       0.76333183       0.09460332       0.33641063 </v>
    <v>       0.11398834       0.39937691       0.41044913 </v>
   </varray>
  </structure>
  <varray name="forces" >
   <v>       0.11111688      -1.76494113      -1.62422515 </v>
   <v>       0.02958740       0.02921074       0.01376432 </v>
   <v>      -0.17690322       0.57505805       0.01118847 </v>
   <v>       0.02547093       0.03293383       0.04999704 </v>
   <v>      -0.01025728       0.42390156       0.10126445 </v>
   <v>       0.01814780       0.12427774       0.02284557 </v>
   <v>      -0.08623549       0.21121987       0.09387809 </v>
   <v>       0.00083528       0.08013317      -0.01333271 </v>
   <v>      -0.01848446      -1.33782985      -0.85911865 </v>
   <v>      -0.01231977       0.03526809      -0.01430841 </v>
   <v>       0.01103053       0.04457417       0.00527421 </v>
   <v>       0.02692467      -0.10477374       0.06143063 </v>
   <v>       0.00410674      -0.51189883       0.26336246 </v>
   <v>       0.00359563      -0.16822503       0.05831996 </v>
   <v>      -0.06280233      -0.10213426      -0.00841091 </v>
   <v>      -0.31043905      -3.61888154      -1.95848834 </v>
   <v>       0.04442034      -0.03687498       0.02176088 </v>
   <v>      -0.07319900       0.28567924       0.37952351 </v>
   <v>       0.02005759      -0.00507929       0.00998444 </v>
   <v>      -0.05852939      -0.15552879      -0.09195656 </v>
   <v>       0.36754473       0.37754904       0.56981015 </v>
   <v>       0.00470180      -0.00707734      -0.00445488 </v>
   <v>      -0.03578178       0.06695631       0.07843692 </v>
   <v>       2.68554615      -2.54066490      -0.25353240 </v>
   <v>      -0.05499433      -0.01535326      -0.01112762 </v>
   <v>       0.10520999       0.35128341      -0.34660578 </v>
   <v>       0.00575777      -0.04109899       0.00530904 </v>
   <v>      -0.02288311       0.05611733      -0.02266592 </v>
   <v>      -0.10208314       0.02727865      -0.04860609 </v>
   <v>      -0.94564388      -3.58059391      -2.15463721 </v>
   <v>       0.08446593       0.00880078      -0.08644290 </v>
   <v>       0.06248395       0.03926474      -0.02835658 </v>
   <v>       1.04646233      -3.63949266      -1.92954999 </v>
   <v>       0.06528033      -0.01710587       0.01269126 </v>
   <v>      -0.14975681       0.35041641       0.46129768 </v>
   <v>      -0.05013674       0.20230879       0.06166575 </v>
   <v>       0.56495325       3.80292597       2.31584731 </v>
   <v>      -2.89086229       3.08364961       0.46276537 </v>
   <v>      -0.65586183       3.94478156       2.09718826 </v>
   <v>       0.36419395       3.68220961       2.17612937 </v>
   <v>       0.05820597       0.04706534       0.09700768 </v>
   <v>       0.02041054      -0.05308308      -0.07695305 </v>
   <v>      -0.01333655      -0.18222656       0.10203037 </v>
  </varray>
  <energy>
   <i name="e_fr_energy">   -293.16045660 </i>
   <i name="e_wo_entrp">   -293.15461320 </i>
   <i name="e_0_energy">     -0.01753019 </i>
  </energy>
  <time name="totalsc">  517.27  521.03</time>
 </calculation>
 <calculation>
  <scstep>
   <time name="dav">   48.43   48.81</time>
   <time name="total">   52.47   52.86</time>
   <energy>
    <i name="alphaZ">    477.09650995 </i>
    <i name="ewald"> 394104.23846164 </i>
    <i name="hartreedc">-427831.99139770 </i>
    <i name="XCdc">   1612.86530627 </i>
    <i name="pawpsdc">  38053.64961432 </i>
    <i name="pawaedc"> -38759.38067853 </i>
    <i name="eentropy">     -0.01732505 </i>
    <i name="bandstr">  -5902.55042020 </i>
    <i name="atom">  37952.93320877 </i>
    <i name="e_fr_energy">   -293.15672053 </i>
    <i name="e_wo_entrp">   -293.13939547 </i>
    <i name="e_0_energy">   -293.15094551 </i>
   </energy>
  </scstep>
  <scstep>
   <time name="diag">    8.85    8.86</time>
   <time name="diis">   29.61   29.71</time>
   <time name="orth">    0.49    0.49</time>
   <time name="total">   43.05   43.22</time>
   <energy>
    <i name="e_fr_energy">   -293.16382297 </i>
    <i name="e_wo_entrp">   -293.14563189 </i>
    <i name="e_0_energy">   -293.15775928 </i>
   </energy>
  </scstep>
  <scstep>
   <time name="diag">    9.01    9.14</time>
   <time name="diis">   25.47   25.52</time>
   <time name="orth">    0.50    0.50</time>
   <time name="total">   39.02   39.35</time>
   <energy>
    <i name="e_fr_energy">   -293.16483193 </i>
    <i name="e_wo_entrp">   -293.14927438 </i>
    <i name="e_0_energy">   -293.15964608 </i>
   </energy>
  </scstep>
  <scstep>
   <time name="diag">    8.95    9.01</time>
   <time name="diis">   24.91   25.18</time>
   <time name="orth">    0.49    0.49</time>
   <time name="total">   38.36   38.71</time>
   <energy>
    <i name="e_fr_energy">   -293.16379880 </i>
    <i name="e_wo_entrp">   -293.14862672 </i>
    <i name="e_0_energy">   -293.15874144 </i>
   </energy>
  </scstep>
  <scstep>
   <time name="diag">    8.92    8.93</time>
   <time name="diis">   24.29   24.37</time>
   <time name="orth">    0.49    0.49</time>
   <time name="total">   37.74   37.88</time>
   <energy>
    <i name="e_fr_energy">   -293.16298402 </i>
    <i name="e_wo_entrp">   -293.14649548 </i>
    <i name="e_0_energy">   -293.15748784 </i>
   </energy>
  </scstep>
  <scstep>
   <time name="diag">    9.24    9.48</time>
