unknown system                          
           1
     2.873573   -2.873573    4.708335
     5.747147    0.000000    0.000000
     0.000000   33.065691   20.180529
   Mn   O    H 
  14  22   7
Direct configuration=     1
   0.22067121  0.89240241  0.08901558
   0.66149909  0.17262467  0.21816341
   0.94927612  0.02809995  0.15233499
   0.37416792  0.31693754  0.28561941
   0.44927612  0.52809995  0.15233499
   0.89475405  0.30154553  0.28157972
   0.44927612  0.02809995  0.15233499
   0.89223870  0.80280649  0.28162620
   0.90282244  0.55132680  0.10484543
   0.35202467  0.82622568  0.23324475
   0.99250419  0.50761766  0.20067455
   0.42328239  0.79131596  0.33216585
   0.53851998  0.23347802  0.07318573
   0.02196032  0.48302529  0.35055212
   0.77667623  0.60812853  0.30956090
   0.87926422  0.06310591  0.05527763
   0.33729845  0.33411960  0.18284258
   0.58246139  0.21150732  0.12452493
   0.03644971  0.48551206  0.25340603
   0.67954133  0.69817448  0.37151306
   0.09516526  0.72856013  0.12156099
   0.54320672  0.45510368  0.25353906
   0.73405184  0.12870311  0.31225486
   0.85888103  0.57329750  0.05350623
   0.31236908  0.84642165  0.18079119
   0.56207820  0.72169891  0.12275353
   0.00372891  0.99816852  0.25271433
   0.79340096  0.33141056  0.18449073
   0.21775513  0.62302601  0.31614429
   0.34617716  0.60305419  0.05647018
   0.21364514  0.16569856  0.31540701
   0.79228169  0.88243096  0.18439851
   0.34617716  0.05624469  0.05647018
   0.53828164  0.01178009  0.25311590
   0.09516526  0.18175063  0.12156099
   0.18217073  0.36168378  0.39358446
   0.34047062  0.60391201  0.02782883
   0.92434681  0.68523651  0.03696881
   0.34363348  0.06399961  0.02783421
   0.88838126  0.05560908  0.02665597
   0.64430675  0.78014874  0.39413200
   0.75312601  0.10719796  0.33718203
   0.07187087  0.43743669  0.41303735
Direct configuration=     2
   0.22067121  0.89240241  0.08901558
   0.66120187  0.17178240  0.21850501
   0.94927612  0.02809995  0.15233499
   0.37262885  0.31630996  0.28614315
   0.44927612  0.52809995  0.15233499
   0.89494477  0.30449115  0.28218968
   0.44927612  0.02809995  0.15233499
   0.89217808  0.80061094  0.28190762
   0.90282244  0.55132680  0.10484543
   0.35307092  0.82530982  0.23356508
   0.99076466  0.50870854  0.20095840
   0.42460038  0.79097825  0.33274896
   0.53851998  0.23347802  0.07318573
   0.03564114  0.49406795  0.35166479
   0.77543641  0.60747107  0.30890863
   0.87926422  0.06310591  0.05527763
   0.33724247  0.33619222  0.18281788
   0.58246139  0.21150732  0.12452493
   0.03505483  0.48696003  0.25305915
   0.68334349  0.69504959  0.37072828
   0.09516526  0.72856013  0.12156099
   0.54340236  0.45419684  0.25318146
   0.73452189  0.12751693  0.31170146
   0.85888103  0.57329750  0.05350623
   0.31081550  0.84369426  0.18072185
   0.56207820  0.72169891  0.12275353
   0.00262927  0.99751840  0.25242799
   0.79079053  0.33450905  0.18474055
   0.21509719  0.61937105  0.31562122
   0.34617716  0.60305419  0.05647018
   0.21465611  0.16518750  0.31491654
   0.79006830  0.88028568  0.18473910
   0.34617716  0.05624469  0.05647018
   0.53861715  0.01090756  0.25270033
   0.09516526  0.18175063  0.12156099
   0.17976676  0.35974819  0.39141306
   0.34047062  0.60391201  0.02782883
   0.92434681  0.68523651  0.03696881
   0.34363348  0.06399961  0.02783421
   0.88838126  0.05560908  0.02665597
   0.64453598  0.78044789  0.39447130
   0.75342009  0.10647589  0.33723654
   0.06991227  0.44035031  0.41379816
Direct configuration=     3
   0.22067121  0.89240241  0.08901558
   0.66120505  0.17179141  0.21850135
   0.94927612  0.02809995  0.15233499
   0.37264531  0.31631668  0.28613755
   0.44927612  0.52809995  0.15233499
   0.89494273  0.30445964  0.28218315
   0.44927612  0.02809995  0.15233499
   0.89217873  0.80063442  0.28190461
   0.90282244  0.55132680  0.10484543
   0.35305973  0.82531962  0.23356166
   0.99078326  0.50869687  0.20095537
   0.42458628  0.79098186  0.33274272
   0.53851998  0.23347802  0.07318573
   0.03549482  0.49394985  0.35165289
   0.77544967  0.60747810  0.30891561
   0.87926422  0.06310591  0.05527763
   0.33724307  0.33617005  0.18281815
   0.58246139  0.21150732  0.12452493
   0.03506975  0.48694455  0.25306286
   0.68330283  0.69508302  0.37073667
   0.09516526  0.72856013  0.12156099
   0.54340027  0.45420654  0.25318529
   0.73451686  0.12752962  0.31170738
   0.85888103  0.57329750  0.05350623
   0.31083211  0.84372343  0.18072259
   0.56207820  0.72169891  0.12275353
   0.00264103  0.99752535  0.25243105
   0.79081845  0.33447591  0.18473788
   0.21512562  0.61941014  0.31562682
   0.34617716  0.60305419  0.05647018
   0.21464529  0.16519297  0.31492179
   0.79009197  0.88030862  0.18473546
   0.34617716  0.05624469  0.05647018
   0.53861356  0.01091690  0.25270477
   0.09516526  0.18175063  0.12156099
   0.17979247  0.35976890  0.39143629
   0.34047062  0.60391201  0.02782883
   0.92434681  0.68523651  0.03696881
   0.34363348  0.06399961  0.02783421
   0.88838126  0.05560908  0.02665597
   0.64453352  0.78044469  0.39446767
   0.75341694  0.10648361  0.33723596
   0.06993322  0.44031915  0.41379002
Direct configuration=     4
   0.22067121  0.89240241  0.08901558
   0.66137529  0.17227383  0.21830570
   0.94927612  0.02809995  0.15233499
   0.37352682  0.31667612  0.28583757
   0.44927612  0.52809995  0.15233499
   0.89483349  0.30277252  0.28183380
   0.44927612  0.02809995  0.15233499
   0.89221345  0.80189194  0.28174343
   0.90282244  0.55132680  0.10484543
   0.35246049  0.82584418  0.23337818
   0.99177959  0.50807206  0.20079279
   0.42383140  0.79117529  0.33240874
   0.53851998  0.23347802  0.07318573
   0.02765906  0.48762511  0.35101560
   0.77615978  0.60785467  0.30928919
   0.87926422  0.06310591  0.05527763
   0.33727513  0.33498295  0.18283229
   0.58246139  0.21150732  0.12452493
   0.03586867  0.48611522  0.25326154
   0.68112512  0.69687281  0.37118616
   0.09516526  0.72856013  0.12156099
   0.54328822  0.45472594  0.25339011
   0.73424764  0.12820901  0.31202434
   0.85888103  0.57329750  0.05350623
   0.31172194  0.84528556  0.18076231
   0.56207820  0.72169891  0.12275353
   0.00327086  0.99789771  0.25259505
   0.79231359  0.33270123  0.18459480
   0.21664797  0.62150354  0.31592641
   0.34617716  0.60305419  0.05647018
   0.21406626  0.16548568  0.31520271
   0.79135970  0.88153734  0.18454038
   0.34617716  0.05624469  0.05647018
   0.53842139  0.01141664  0.25294279
   0.09516526  0.18175063  0.12156099
   0.18116936  0.36087751  0.39267996
   0.34047062  0.60391201  0.02782883
   0.92434681  0.68523651  0.03696881
   0.34363348  0.06399961  0.02783421
   0.88838126  0.05560908  0.02665597
   0.64440224  0.78027335  0.39427334
   0.75324851  0.10689718  0.33720474
   0.07105502  0.43865036  0.41335426
Direct configuration=     5
   0.22067121  0.89240241  0.08901558
   0.66142101  0.17240341  0.21825315
   0.94927612  0.02809995  0.15233499
   0.37376360  0.31677267  0.28575700
   0.44927612  0.52809995  0.15233499
   0.89480415  0.30231935  0.28173996
   0.44927612  0.02809995  0.15233499
   0.89222277  0.80222971  0.28170013
   0.90282244  0.55132680  0.10484543
   0.35229953  0.82598508  0.23332890
   0.99204721  0.50790424  0.20074912
   0.42362863  0.79122724  0.33231903
   0.53851998  0.23347802  0.07318573
   0.02555432  0.48592624  0.35084442
   0.77635052  0.60795581  0.30938954
   0.87926422  0.06310591  0.05527763
   0.33728374  0.33466409  0.18283609
   0.58246139  0.21150732  0.12452493
   0.03608327  0.48589245  0.25331490
   0.68054017  0.69735356  0.37130690
   0.09516526  0.72856013  0.12156099
   0.54325812  0.45486545  0.25344512
   0.73417532  0.12839149  0.31210948
   0.85888103  0.57329750  0.05350623
   0.31196095  0.84570515  0.18077298
   0.56207820  0.72169891  0.12275353
   0.00344003  0.99799773  0.25263911
   0.79271519  0.33222455  0.18455636
   0.21705688  0.62206584  0.31600688
   0.34617716  0.60305419  0.05647018
   0.21391073  0.16556430  0.31527817
   0.79170022  0.88186739  0.18448798
   0.34617716  0.05624469  0.05647018
   0.53836978  0.01155087  0.25300673
   0.09516526  0.18175063  0.12156099
   0.18153920  0.36117529  0.39301402
   0.34047062  0.60391201  0.02782883
   0.92434681  0.68523651  0.03696881
   0.34363348  0.06399961  0.02783421
   0.88838126  0.05560908  0.02665597
   0.64436697  0.78022733  0.39422114
   0.75320327  0.10700827  0.33719635
   0.07135634  0.43820211  0.41323722
Direct configuration=     6
   0.22067121  0.89240241  0.08901558
   0.66146005  0.17251404  0.21820828
   0.94927612  0.02809995  0.15233499
   0.37396576  0.31685511  0.28568820
   0.44927612  0.52809995  0.15233499
   0.89477910  0.30193244  0.28165984
   0.44927612  0.02809995  0.15233499
   0.89223074  0.80251810  0.28166316
   0.90282244  0.55132680  0.10484543
   0.35216210  0.82610538  0.23328683
   0.99227570  0.50776095  0.20071184
   0.42345551  0.79127160  0.33224244
   0.53851998  0.23347802  0.07318573
   0.02375732  0.48447577  0.35069827
   0.77651338  0.60804217  0.30947522
   0.87926422  0.06310591  0.05527763
   0.33729109  0.33439184  0.18283934
   0.58246139  0.21150732  0.12452493
   0.03626649  0.48570226  0.25336047
   0.68004075  0.69776402  0.37140998
   0.09516526  0.72856013  0.12156099
   0.54323242  0.45498456  0.25349209
   0.73411358  0.12854730  0.31218217
   0.85888103  0.57329750  0.05350623
   0.31216501  0.84606340  0.18078208
   0.56207820  0.72169891  0.12275353
   0.00358447  0.99808312  0.25267672
   0.79305807  0.33181755  0.18452355
   0.21740601  0.62254593  0.31607559
   0.34617716  0.60305419  0.05647018
   0.21377793  0.16563143  0.31534259
   0.79199096  0.88214917  0.18444325
   0.34617716  0.05624469  0.05647018
   0.53832571  0.01166548  0.25306131
   0.09516526  0.18175063  0.12156099
   0.18185496  0.36142954  0.39329924
   0.34047062  0.60391201  0.02782883
   0.92434681  0.68523651  0.03696881
   0.34363348  0.06399961  0.02783421
   0.88838126  0.05560908  0.02665597
   0.64433686  0.78018804  0.39417657
   0.75316464  0.10710311  0.33718919
   0.07161361  0.43781940  0.41313728
Direct configuration=     7
   0.22067121  0.89240241  0.08901558
   0.66147957  0.17256936  0.21818585
   0.94927612  0.02809995  0.15233499
   0.37406684  0.31689632  0.28565380
   0.44927612  0.52809995  0.15233499
   0.89476657  0.30173898  0.28161978
   0.44927612  0.02809995  0.15233499
   0.89223472  0.80266230  0.28164468
   0.90282244  0.55132680  0.10484543
   0.35209339  0.82616553  0.23326579
   0.99238995  0.50768930  0.20069320
   0.42336895  0.79129378  0.33220414
   0.53851998  0.23347802  0.07318573
   0.02285882  0.48375053  0.35062520
   0.77659480  0.60808535  0.30951806
   0.87926422  0.06310591  0.05527763
   0.33729477  0.33425572  0.18284096
   0.58246139  0.21150732  0.12452493
   0.03635810  0.48560716  0.25338325
   0.67979104  0.69796925  0.37146152
   0.09516526  0.72856013  0.12156099
   0.54321957  0.45504412  0.25351558
   0.73408271  0.12862520  0.31221852
   0.85888103  0.57329750  0.05350623
   0.31226705  0.84624252  0.18078664
   0.56207820  0.72169891  0.12275353
   0.00365669  0.99812582  0.25269552
   0.79322951  0.33161406  0.18450714
   0.21758057  0.62278597  0.31610994
   0.34617716  0.60305419  0.05647018
   0.21371154  0.16566500  0.31537480
   0.79213632  0.88229007  0.18442088
   0.34617716  0.05624469  0.05647018
   0.53830367  0.01172279  0.25308861
   0.09516526  0.18175063  0.12156099
   0.18201285  0.36155666  0.39344185
   0.34047062  0.60391201  0.02782883
   0.92434681  0.68523651  0.03696881
   0.34363348  0.06399961  0.02783421
   0.88838126  0.05560908  0.02665597
   0.64432181  0.78016839  0.39415429
   0.75314533  0.10715054  0.33718561
   0.07174224  0.43762804  0.41308732
Direct configuration=     8
   0.22067121  0.89240241  0.08901558
   0.66148933  0.17259701  0.21817463
   0.94927612  0.02809995  0.15233499
   0.37411738  0.31691693  0.28563661
   0.44927612  0.52809995  0.15233499
   0.89476031  0.30164225  0.28159975
   0.44927612  0.02809995  0.15233499
   0.89223671  0.80273440  0.28163544
   0.90282244  0.55132680  0.10484543
   0.35205903  0.82619560  0.23325527
   0.99244707  0.50765348  0.20068387
   0.42332567  0.79130487  0.33218500
   0.53851998  0.23347802  0.07318573
   0.02240957  0.48338791  0.35058866
   0.77663552  0.60810694  0.30953948
   0.87926422  0.06310591  0.05527763
   0.33729661  0.33418766  0.18284177
   0.58246139  0.21150732  0.12452493
   0.03640390  0.48555961  0.25339464
   0.67966618  0.69807187  0.37148729
   0.09516526  0.72856013  0.12156099
   0.54321315  0.45507390  0.25352732
   0.73406727  0.12866416  0.31223669
   0.85888103  0.57329750  0.05350623
   0.31231806  0.84633209  0.18078892
   0.56207820  0.72169891  0.12275353
   0.00369280  0.99814717  0.25270493
   0.79331523  0.33151231  0.18449894
   0.21766785  0.62290599  0.31612712
   0.34617716  0.60305419  0.05647018
   0.21367834  0.16568178  0.31539091
   0.79220901  0.88236051  0.18440969
   0.34617716  0.05624469  0.05647018
   0.53829265  0.01175144  0.25310225
   0.09516526  0.18175063  0.12156099
   0.18209179  0.36162022  0.39351315
   0.34047062  0.60391201  0.02782883
   0.92434681  0.68523651  0.03696881
   0.34363348  0.06399961  0.02783421
   0.88838126  0.05560908  0.02665597
   0.64431428  0.78015857  0.39414315
   0.75313567  0.10717425  0.33718382
   0.07180656  0.43753236  0.41306233
Direct configuration=     9
   0.22067121  0.89240241  0.08901558
   0.66149421  0.17261084  0.21816902
   0.94927612  0.02809995  0.15233499
   0.37414265  0.31692724  0.28562801
   0.44927612  0.52809995  0.15233499
   0.89475718  0.30159389  0.28158974
   0.44927612  0.02809995  0.15233499
   0.89223770  0.80277045  0.28163082
   0.90282244  0.55132680  0.10484543
   0.35204185  0.82621064  0.23325001
   0.99247563  0.50763557  0.20067921
   0.42330403  0.79131042  0.33217542
   0.53851998  0.23347802  0.07318573
   0.02218495  0.48320660  0.35057039
   0.77665587  0.60811774  0.30955019
   0.87926422  0.06310591  0.05527763
   0.33729753  0.33415363  0.18284217
   0.58246139  0.21150732  0.12452493
   0.03642680  0.48553584  0.25340033
   0.67960376  0.69812318  0.37150018
   0.09516526  0.72856013  0.12156099
   0.54320993  0.45508879  0.25353319
   0.73405955  0.12868363  0.31224578
   0.85888103  0.57329750  0.05350623
   0.31234357  0.84637687  0.18079005
   0.56207820  0.72169891  0.12275353
   0.00371086  0.99815784  0.25270963
   0.79335810  0.33146144  0.18449484
   0.21771149  0.62296600  0.31613571
   0.34617716  0.60305419  0.05647018
   0.21366174  0.16569017  0.31539896
   0.79224535  0.88239574  0.18440410
   0.34617716  0.05624469  0.05647018
   0.53828715  0.01176576  0.25310908
   0.09516526  0.18175063  0.12156099
   0.18213126  0.36165200  0.39354880
   0.34047062  0.60391201  0.02782883
   0.92434681  0.68523651  0.03696881
   0.34363348  0.06399961  0.02783421
   0.88838126  0.05560908  0.02665597
   0.64431052  0.78015365  0.39413758
   0.75313084  0.10718610  0.33718292
   0.07183871  0.43748452  0.41304984
Direct configuration=    10
   0.22067121  0.89240241  0.08901558
   0.66149665  0.17261776  0.21816622
   0.94927612  0.02809995  0.15233499
   0.37415528  0.31693239  0.28562371
   0.44927612  0.52809995  0.15233499
   0.89475562  0.30156971  0.28158473
   0.44927612  0.02809995  0.15233499
   0.89223820  0.80278847  0.28162851
   0.90282244  0.55132680  0.10484543
   0.35203326  0.82621816  0.23324738
   0.99248991  0.50762661  0.20067688
   0.42329321  0.79131319  0.33217063
   0.53851998  0.23347802  0.07318573
   0.02207263  0.48311595  0.35056125
   0.77666605  0.60812313  0.30955554
   0.87926422  0.06310591  0.05527763
   0.33729799  0.33413662  0.18284238
   0.58246139  0.21150732  0.12452493
   0.03643826  0.48552395  0.25340318
   0.67957254  0.69814883  0.37150662
   0.09516526  0.72856013  0.12156099
   0.54320833  0.45509623  0.25353613
   0.73405569  0.12869337  0.31225032
   0.85888103  0.57329750  0.05350623
   0.31235633  0.84639926  0.18079062
   0.56207820  0.72169891  0.12275353
   0.00371989  0.99816318  0.25271198
   0.79337953  0.33143600  0.18449279
   0.21773331  0.62299601  0.31614000
   0.34617716  0.60305419  0.05647018
   0.21365344  0.16569437  0.31540299
   0.79226352  0.88241335  0.18440131
   0.34617716  0.05624469  0.05647018
   0.53828439  0.01177293  0.25311249
   0.09516526  0.18175063  0.12156099
   0.18215099  0.36166789  0.39356663
   0.34047062  0.60391201  0.02782883
   0.92434681  0.68523651  0.03696881
   0.34363348  0.06399961  0.02783421
   0.88838126  0.05560908  0.02665597
   0.64430864  0.78015120  0.39413479
   0.75312843  0.10719203  0.33718247
   0.07185479  0.43746060  0.41304360
Direct configuration=    11
   0.22067121  0.89240241  0.08901558
   0.66132540  0.17226820  0.21825103
   0.94927612  0.02809995  0.15233499
   0.37364698  0.31679518  0.28563040
   0.44927612  0.52809995  0.15233499
   0.89494032  0.30407187  0.28177587
   0.44927612  0.02809995  0.15233499
   0.89245716  0.80072695  0.28159283
   0.90282244  0.55132680  0.10484543
   0.35265954  0.82596692  0.23338064
   0.99205249  0.50801322  0.20077759
   0.42436195  0.79115556  0.33240343
   0.53851998  0.23347802  0.07318573
   0.02101066  0.48487458  0.35064979
   0.77597216  0.60892791  0.30926257
   0.87926422  0.06310591  0.05527763
   0.33839074  0.33262184  0.18273044
   0.58246139  0.21150732  0.12452493
   0.03546390  0.48675697  0.25351077
   0.67993687  0.69898236  0.37159003
   0.09516526  0.72856013  0.12156099
   0.54302661  0.45400893  0.25359160
   0.73485307  0.12777406  0.31206176
   0.85888103  0.57329750  0.05350623
   0.31184715  0.84721231  0.18062211
   0.56207820  0.72169891  0.12275353
   0.00297132  0.99775934  0.25274680
   0.79366895  0.32943918  0.18435356
   0.21773555  0.62141324  0.31594952
   0.34617716  0.60305419  0.05647018
   0.21453088  0.16655830  0.31526662
   0.79256268  0.88321087  0.18429302
   0.34617716  0.05624469  0.05647018
   0.53847655  0.01196901  0.25317506
   0.09516526  0.18175063  0.12156099
   0.18352096  0.36071806  0.39343341
   0.34047062  0.60391201  0.02782883
   0.92434681  0.68523651  0.03696881
   0.34363348  0.06399961  0.02783421
   0.88838126  0.05560908  0.02665597
   0.64437910  0.77974850  0.39418898
   0.75341454  0.10685083  0.33717608
   0.07262518  0.43676669  0.41294917
Direct configuration=    12
   0.22067121  0.89240241  0.08901558
   0.66131128  0.17223937  0.21825803
   0.94927612  0.02809995  0.15233499
   0.37360506  0.31678386  0.28563095
   0.44927612  0.52809995  0.15233499
   0.89495555  0.30427825  0.28179164
   0.44927612  0.02809995  0.15233499
   0.89247522  0.80055692  0.28158989
   0.90282244  0.55132680  0.10484543
   0.35271120  0.82594620  0.23339164
   0.99201641  0.50804510  0.20078590
   0.42445010  0.79114256  0.33242263
   0.53851998  0.23347802  0.07318573
   0.02092307  0.48501963  0.35065709
   0.77591493  0.60899428  0.30923840
   0.87926422  0.06310591  0.05527763
   0.33848087  0.33249690  0.18272120
   0.58246139  0.21150732  0.12452493
   0.03538354  0.48685866  0.25351965
   0.67996692  0.69905111  0.37159691
   0.09516526  0.72856013  0.12156099
   0.54301162  0.45391925  0.25359617
   0.73491884  0.12769823  0.31204621
   0.85888103  0.57329750  0.05350623
   0.31180515  0.84727937  0.18060821
   0.56207820  0.72169891  0.12275353
   0.00290958  0.99772603  0.25274967
   0.79369282  0.32927448  0.18434208
   0.21773574  0.62128269  0.31593381
   0.34617716  0.60305419  0.05647018
   0.21460325  0.16662956  0.31525538
   0.79258735  0.88327665  0.18428409
   0.34617716  0.05624469  0.05647018
   0.53849240  0.01198519  0.25318022
   0.09516526  0.18175063  0.12156099
   0.18363395  0.36063972  0.39342242
   0.34047062  0.60391201  0.02782883
   0.92434681  0.68523651  0.03696881
   0.34363348  0.06399961  0.02783421
   0.88838126  0.05560908  0.02665597
   0.64438492  0.77971528  0.39419345
   0.75343814  0.10682269  0.33717555
   0.07268873  0.43670945  0.41294138
Direct configuration=    13
   0.22067121  0.89240241  0.08901558
   0.66144826  0.17171342  0.21832814
   0.94927612  0.02809995  0.15233499
   0.37379671  0.31629592  0.28557334
   0.44927612  0.52809995  0.15233499
   0.89546986  0.30427747  0.28181776
   0.44927612  0.02809995  0.15233499
   0.89266330  0.80052694  0.28148437
   0.90282244  0.55132680  0.10484543
   0.35308937  0.82576369  0.23351444
   0.99165738  0.50824223  0.20083702
   0.42483951  0.79124075  0.33260060
   0.53851998  0.23347802  0.07318573
   0.02023054  0.48617688  0.35055372
   0.77388937  0.61063170  0.30909919
   0.87926422  0.06310591  0.05527763
   0.33908673  0.33119440  0.18265685
   0.58246139  0.21150732  0.12452493
   0.03457284  0.48769745  0.25355569
   0.67971757  0.70042483  0.37168560
   0.09516526  0.72856013  0.12156099
   0.54267729  0.45308535  0.25365682
   0.73620978  0.12651399  0.31211965
   0.85888103  0.57329750  0.05350623
   0.31136208  0.84810274  0.18049905
   0.56207820  0.72169891  0.12275353
   0.00213821  0.99788472  0.25286185
   0.79426460  0.32746892  0.18421825
   0.21815158  0.62050308  0.31582224
   0.34617716  0.60305419  0.05647018
   0.21568868  0.16671716  0.31516010
   0.79314460  0.88368569  0.18417361
   0.34617716  0.05624469  0.05647018
   0.53853567  0.01197294  0.25325425
   0.09516526  0.18175063  0.12156099
   0.18468151  0.36004729  0.39364507
   0.34047062  0.60391201  0.02782883
   0.92434681  0.68523651  0.03696881
   0.34363348  0.06399961  0.02783421
   0.88838126  0.05560908  0.02665597
   0.64415776  0.77963116  0.39435076
   0.75360048  0.10661532  0.33690373
   0.07486235  0.43489659  0.41265413
Direct configuration=    14
   0.22067121  0.89240241  0.08901558
   0.66138909  0.17194060  0.21829785
   0.94927612  0.02809995  0.15233499
   0.37371393  0.31650668  0.28559823
   0.44927612  0.52809995  0.15233499
   0.89524771  0.30427780  0.28180648
   0.44927612  0.02809995  0.15233499
   0.89258207  0.80053989  0.28152995
   0.90282244  0.55132680  0.10484543
   0.35292603  0.82584252  0.23346140
   0.99181246  0.50815709  0.20081494
   0.42467131  0.79119834  0.33252373
   0.53851998  0.23347802  0.07318573
   0.02052967  0.48567702  0.35059837
   0.77476428  0.60992444  0.30915932
   0.87926422  0.06310591  0.05527763
   0.33882503  0.33175700  0.18268464
   0.58246139  0.21150732  0.12452493
   0.03492301  0.48733515  0.25354012
   0.67982528  0.69983147  0.37164729
   0.09516526  0.72856013  0.12156099
   0.54282170  0.45344554  0.25363062
   0.73565218  0.12702551  0.31208793
   0.85888103  0.57329750  0.05350623
   0.31155346  0.84774710  0.18054620
   0.56207820  0.72169891  0.12275353
   0.00247139  0.99781618  0.25281340
   0.79401763  0.32824881  0.18427173
   0.21797196  0.62083982  0.31587044
   0.34617716  0.60305419  0.05647018
   0.21521984  0.16667932  0.31520125
   0.79290391  0.88350901  0.18422133
   0.34617716  0.05624469  0.05647018
   0.53851698  0.01197823  0.25322228
   0.09516526  0.18175063  0.12156099
   0.18422903  0.36030318  0.39354890
   0.34047062  0.60391201  0.02782883
   0.92434681  0.68523651  0.03696881
   0.34363348  0.06399961  0.02783421
   0.88838126  0.05560908  0.02665597
   0.64425588  0.77966750  0.39428281
   0.75353036  0.10670489  0.33702114
   0.07392348  0.43567963  0.41277820
Direct configuration=    15
   0.22067121  0.89240241  0.08901558
   0.66161599  0.17144373  0.21834269
   0.94927612  0.02809995  0.15233499
   0.37415595  0.31604706  0.28554032
   0.44927612  0.52809995  0.15233499
   0.89568686  0.30339903  0.28178286
   0.44927612  0.02809995  0.15233499
   0.89261702  0.80130574  0.28144505
   0.90282244  0.55132680  0.10484543
   0.35309797  0.82570704  0.23355486
   0.99155787  0.50820377  0.20083172
   0.42460346  0.79136357  0.33265511
   0.53851998  0.23347802  0.07318573
   0.01941786  0.48649371  0.35056784
   0.77313401  0.61130145  0.30915428
   0.87926422  0.06310591  0.05527763
   0.33904253  0.33090367  0.18266076
   0.58246139  0.21150732  0.12452493
   0.03434074  0.48781380  0.25352571
   0.68011262  0.70060294  0.37165825
   0.09516526  0.72856013  0.12156099
   0.54250834  0.45290933  0.25366938
   0.73678191  0.12612863  0.31206093
   0.85888103  0.57329750  0.05350623
   0.31124108  0.84832944  0.18049812
   0.56207820  0.72169891  0.12275353
   0.00198424  0.99812522  0.25290796
   0.79455640  0.32701284  0.18419282
   0.21849391  0.62045572  0.31581829
   0.34617716  0.60305419  0.05647018
   0.21601318  0.16671762  0.31517497
   0.79344319  0.88357082  0.18414182
   0.34617716  0.05624469  0.05647018
   0.53850258  0.01181013  0.25327430
   0.09516526  0.18175063  0.12156099
   0.18616411  0.35919559  0.39344647
   0.34047062  0.60391201  0.02782883
   0.92434681  0.68523651  0.03696881
   0.34363348  0.06399961  0.02783421
   0.88838126  0.05560908  0.02665597
   0.64403877  0.77977544  0.39449400
   0.75375370  0.10641881  0.33686937
   0.07474974  0.43478752  0.41270245
Direct configuration=    16
   0.22067121  0.89240241  0.08901558
   0.66164511  0.17137998  0.21834845
   0.94927612  0.02809995  0.15233499
   0.37421267  0.31598808  0.28553289
   0.44927612  0.52809995  0.15233499
   0.89574321  0.30328627  0.28177983
   0.44927612  0.02809995  0.15233499
   0.89262150  0.80140402  0.28143416
   0.90282244  0.55132680  0.10484543
   0.35312004  0.82568965  0.23356686
   0.99152520  0.50820976  0.20083388
   0.42459476  0.79138477  0.33267197
   0.53851998  0.23347802  0.07318573
   0.01927519  0.48659851  0.35056393
   0.77292482  0.61147814  0.30915363
   0.87926422  0.06310591  0.05527763
   0.33907044  0.33079418  0.18265769
   0.58246139  0.21150732  0.12452493
   0.03426602  0.48787522  0.25352386
   0.68014949  0.70070194  0.37165965
   0.09516526  0.72856013  0.12156099
   0.54246813  0.45284052  0.25367436
   0.73692688  0.12601354  0.31205746
   0.85888103  0.57329750  0.05350623
   0.31120099  0.84840417  0.18049195
   0.56207820  0.72169891  0.12275353
   0.00192173  0.99816487  0.25292009
   0.79462554  0.32685425  0.18418270
   0.21856088  0.62040643  0.31581160
   0.34617716  0.60305419  0.05647018
   0.21611498  0.16672253  0.31517160
   0.79351239  0.88357876  0.18413162
   0.34617716  0.05624469  0.05647018
   0.53850073  0.01178856  0.25328098
   0.09516526  0.18175063  0.12156099
   0.18641241  0.35905347  0.39343333
   0.34047062  0.60391201  0.02782883
   0.92434681  0.68523651  0.03696881
   0.34363348  0.06399961  0.02783421
   0.88838126  0.05560908  0.02665597
   0.64401091  0.77978929  0.39452110
   0.75378236  0.10638211  0.33684989
   0.07485577  0.43467305  0.41269273
Direct configuration=    17
   0.22067121  0.89240241  0.08901558
   0.66186547  0.17100855  0.21833518
   0.94927612  0.02809995  0.15233499
   0.37454490  0.31576863  0.28552019
   0.44927612  0.52809995  0.15233499
   0.89579986  0.30295979  0.28180582
   0.44927612  0.02809995  0.15233499
   0.89243194  0.80188810  0.28144778
   0.90282244  0.55132680  0.10484543
   0.35310565  0.82557288  0.23361069
   0.99141453  0.50808884  0.20080973
   0.42415095  0.79162108  0.33274931
   0.53851998  0.23347802  0.07318573
   0.01889750  0.48679048  0.35054268
   0.77201903  0.61213189  0.30914427
   0.87926422  0.06310591  0.05527763
   0.33892876  0.33056513  0.18267947
   0.58246139  0.21150732  0.12452493
   0.03393023  0.48797838  0.25347662
   0.68011066  0.70178592  0.37180298
   0.09516526  0.72856013  0.12156099
   0.54228304  0.45265556  0.25367098
   0.73764013  0.12567928  0.31184146
   0.85888103  0.57329750  0.05350623
   0.31109168  0.84856783  0.18052187
   0.56207820  0.72169891  0.12275353
   0.00199928  0.99840521  0.25292887
   0.79497087  0.32645767  0.18417841
   0.21902083  0.62041654  0.31579890
   0.34617716  0.60305419  0.05647018
   0.21651889  0.16661272  0.31517037
   0.79390736  0.88325853  0.18411165
   0.34617716  0.05624469  0.05647018
   0.53848654  0.01147103  0.25329285
   0.09516526  0.18175063  0.12156099
   0.18781366  0.35830461  0.39328829
   0.34047062  0.60391201  0.02782883
   0.92434681  0.68523651  0.03696881
   0.34363348  0.06399961  0.02783421
   0.88838126  0.05560908  0.02665597
   0.64400086  0.77951592  0.39458537
   0.75412751  0.10595225  0.33692772
   0.07549995  0.43394510  0.41265638
Direct configuration=    18
   0.22067121  0.89240241  0.08901558
   0.66188014  0.17098382  0.21833430
   0.94927612  0.02809995  0.15233499
   0.37456701  0.31575403  0.28551935
   0.44927612  0.52809995  0.15233499
   0.89580363  0.30293806  0.28180755
   0.44927612  0.02809995  0.15233499
   0.89241932  0.80192032  0.28144869
   0.90282244  0.55132680  0.10484543
   0.35310469  0.82556511  0.23361360
   0.99140717  0.50808079  0.20080813
   0.42412141  0.79163681  0.33275446
   0.53851998  0.23347802  0.07318573
   0.01887236  0.48680325  0.35054127
   0.77195874  0.61217541  0.30914365
   0.87926422  0.06310591  0.05527763
   0.33891933  0.33054989  0.18268092
   0.58246139  0.21150732  0.12452493
   0.03390788  0.48798524  0.25347348
   0.68010807  0.70185807  0.37181252
   0.09516526  0.72856013  0.12156099
   0.54227072  0.45264325  0.25367075
   0.73768760  0.12565703  0.31182708
   0.85888103  0.57329750  0.05350623
   0.31108440  0.84857872  0.18052386
   0.56207820  0.72169891  0.12275353
   0.00200444  0.99842120  0.25292946
   0.79499385  0.32643127  0.18417812
   0.21905144  0.62041721  0.31579805
   0.34617716  0.60305419  0.05647018
   0.21654578  0.16660541  0.31517029
   0.79393364  0.88323721  0.18411032
   0.34617716  0.05624469  0.05647018
   0.53848560  0.01144989  0.25329364
   0.09516526  0.18175063  0.12156099
   0.18790693  0.35825476  0.39327864
   0.34047062  0.60391201  0.02782883
   0.92434681  0.68523651  0.03696881
   0.34363348  0.06399961  0.02783421
   0.88838126  0.05560908  0.02665597
   0.64400019  0.77949772  0.39458965
   0.75415048  0.10592364  0.33693290
   0.07554283  0.43389665  0.41265396
Direct configuration=    19
   0.22067121  0.89240241  0.08901558
   0.66208523  0.17064547  0.21829622
   0.94927612  0.02809995  0.15233499
   0.37475414  0.31570394  0.28552263
   0.44927612  0.52809995  0.15233499
   0.89571966  0.30317965  0.28185011
   0.44927612  0.02809995  0.15233499
   0.89223238  0.80193385  0.28148789
   0.90282244  0.55132680  0.10484543
   0.35300569  0.82541451  0.23363644
   0.99137458  0.50783985  0.20076441
   0.42352061  0.79191605  0.33283097
   0.53851998  0.23347802  0.07318573
   0.01877284  0.48674162  0.35051874
   0.77142252  0.61246632  0.30913691
   0.87926422  0.06310591  0.05527763
   0.33865951  0.33060739  0.18272051
   0.58246139  0.21150732  0.12452493
   0.03358409  0.48796458  0.25342987
   0.68013866  0.70279820  0.37189766
   0.09516526  0.72856013  0.12156099
   0.54214006  0.45257595  0.25363768
   0.73839417  0.12542015  0.31179159
   0.85888103  0.57329750  0.05350623
   0.31110759  0.84850247  0.18058998
   0.56207820  0.72169891  0.12275353
   0.00237710  0.99859222  0.25289071
   0.79522502  0.32641781  0.18421002
   0.21947413  0.62056765  0.31580182
   0.34617716  0.60305419  0.05647018
   0.21675593  0.16651158  0.31518383
   0.79426807  0.88271764  0.18411652
   0.34617716  0.05624469  0.05647018
   0.53849663  0.01105104  0.25328061
   0.09516526  0.18175063  0.12156099
   0.18866396  0.35795811  0.39317990
   0.34047062  0.60391201  0.02782883
   0.92434681  0.68523651  0.03696881
   0.34363348  0.06399961  0.02783421
   0.88838126  0.05560908  0.02665597
   0.64390415  0.77943055  0.39472215
   0.75443243  0.10555280  0.33686723
   0.07679324  0.43273430  0.41253244
Direct configuration=    20
   0.22067121  0.89240241  0.08901558
   0.66250728  0.16994917  0.21821787
   0.94927612  0.02809995  0.15233499
   0.37513925  0.31560085  0.28552940
   0.44927612  0.52809995  0.15233499
   0.89554685  0.30367681  0.28193768
   0.44927612  0.02809995  0.15233499
   0.89184766  0.80196169  0.28156857
   0.90282244  0.55132680  0.10484543
   0.35280196  0.82510459  0.23368344
   0.99130753  0.50734402  0.20067446
   0.42228422  0.79249071  0.33298843
   0.53851998  0.23347802  0.07318573
   0.01856803  0.48661478  0.35047237
   0.77031903  0.61306499  0.30912304
   0.87926422  0.06310591  0.05527763
   0.33812483  0.33072573  0.18280199
   0.58246139  0.21150732  0.12452493
   0.03291775  0.48792204  0.25334012
   0.68020160  0.70473290  0.37207286
   0.09516526  0.72856013  0.12156099
   0.54187116  0.45243745  0.25356963
   0.73984821  0.12493267  0.31171855
   0.85888103  0.57329750  0.05350623
   0.31115529  0.84834557  0.18072604
   0.56207820  0.72169891  0.12275353
   0.00314400  0.99894416  0.25281098
   0.79570075  0.32639010  0.18427567
   0.22034399  0.62087723  0.31580958
   0.34617716  0.60305419  0.05647018
   0.21718840  0.16631849  0.31521170
   0.79495628  0.88164840  0.18412926
   0.34617716  0.05624469  0.05647018
   0.53851933  0.01023026  0.25325378
   0.09516526  0.18175063  0.12156099
   0.19022185  0.35734763  0.39297672
   0.34047062  0.60391201  0.02782883
   0.92434681  0.68523651  0.03696881
   0.34363348  0.06399961  0.02783421
   0.88838126  0.05560908  0.02665597
   0.64370652  0.77929230  0.39499482
   0.75501266  0.10478967  0.33673209
   0.07936646  0.43034229  0.41228236
Direct configuration=    21
   0.22067121  0.89240241  0.08901558
   0.66266665  0.16956613  0.21821737
   0.94927612  0.02809995  0.15233499
   0.37523534  0.31560723  0.28550959
   0.44927612  0.52809995  0.15233499
   0.89560644  0.30403225  0.28190219
   0.44927612  0.02809995  0.15233499
   0.89207016  0.80162877  0.28150745
   0.90282244  0.55132680  0.10484543
   0.35268638  0.82482442  0.23370242
   0.99140548  0.50693429  0.20064021
   0.42180216  0.79282574  0.33313570
   0.53851998  0.23347802  0.07318573
   0.01868696  0.48643157  0.35043062
   0.76987070  0.61331667  0.30917218
   0.87926422  0.06310591  0.05527763
   0.33814759  0.33079940  0.18281276
   0.58246139  0.21150732  0.12452493
   0.03240429  0.48802696  0.25336479
   0.68030602  0.70582476  0.37207636
   0.09516526  0.72856013  0.12156099
   0.54180582  0.45214506  0.25351111
   0.74053863  0.12483544  0.31174834
   0.85888103  0.57329750  0.05350623
   0.31141370  0.84803406  0.18076378
   0.56207820  0.72169891  0.12275353
   0.00327390  0.99908398  0.25281159
   0.79571625  0.32637755  0.18429699
   0.22058835  0.62090701  0.31580927
   0.34617716  0.60305419  0.05647018
   0.21720262  0.16656817  0.31523562
   0.79518935  0.88121290  0.18412009
   0.34617716  0.05624469  0.05647018
   0.53866813  0.00994416  0.25322921
   0.09516526  0.18175063  0.12156099
   0.19173496  0.35660867  0.39272189
   0.34047062  0.60391201  0.02782883
   0.92434681  0.68523651  0.03696881
   0.34363348  0.06399961  0.02783421
   0.88838126  0.05560908  0.02665597
   0.64349520  0.77943755  0.39525406
   0.75541041  0.10424961  0.33662910
   0.08067667  0.42899510  0.41222025
Direct configuration=    22
   0.22067121  0.89240241  0.08901558
   0.66266690  0.16956554  0.21821737
   0.94927612  0.02809995  0.15233499
   0.37523549  0.31560724  0.28550956
   0.44927612  0.52809995  0.15233499
   0.89560653  0.30403280  0.28190213
   0.44927612  0.02809995  0.15233499
   0.89207050  0.80162826  0.28150735
   0.90282244  0.55132680  0.10484543
   0.35268620  0.82482399  0.23370245
   0.99140563  0.50693366  0.20064016
   0.42180142  0.79282625  0.33313593
   0.53851998  0.23347802  0.07318573
   0.01868715  0.48643129  0.35043056
   0.76987001  0.61331706  0.30917226
   0.87926422  0.06310591  0.05527763
   0.33814763  0.33079951  0.18281278
   0.58246139  0.21150732  0.12452493
   0.03240350  0.48802712  0.25336483
   0.68030618  0.70582645  0.37207637
   0.09516526  0.72856013  0.12156099
   0.54180572  0.45214460  0.25351102
   0.74053970  0.12483529  0.31174838
   0.85888103  0.57329750  0.05350623
   0.31141410  0.84803358  0.18076384
   0.56207820  0.72169891  0.12275353
   0.00327410  0.99908420  0.25281159
   0.79571627  0.32637753  0.18429703
   0.22058873  0.62090705  0.31580927
   0.34617716  0.60305419  0.05647018
   0.21720264  0.16656855  0.31523566
   0.79518970  0.88121222  0.18412008
   0.34617716  0.05624469  0.05647018
   0.53866835  0.00994372  0.25322918
   0.09516526  0.18175063  0.12156099
   0.19173729  0.35660753  0.39272150
   0.34047062  0.60391201  0.02782883
   0.92434681  0.68523651  0.03696881
   0.34363348  0.06399961  0.02783421
   0.88838126  0.05560908  0.02665597
   0.64349488  0.77943777  0.39525446
   0.75541102  0.10424878  0.33662894
   0.08067869  0.42899302  0.41222015
Direct configuration=    23
   0.22067121  0.89240241  0.08901558
   0.66266739  0.16956436  0.21821737
   0.94927612  0.02809995  0.15233499
   0.37523579  0.31560726  0.28550950
   0.44927612  0.52809995  0.15233499
   0.89560671  0.30403389  0.28190202
   0.44927612  0.02809995  0.15233499
   0.89207119  0.80162723  0.28150716
   0.90282244  0.55132680  0.10484543
   0.35268584  0.82482312  0.23370251
   0.99140594  0.50693240  0.20064006
   0.42179993  0.79282729  0.33313639
   0.53851998  0.23347802  0.07318573
   0.01868751  0.48643072  0.35043043
   0.76986863  0.61331783  0.30917241
   0.87926422  0.06310591  0.05527763
   0.33814770  0.33079974  0.18281281
   0.58246139  0.21150732  0.12452493
   0.03240191  0.48802745  0.25336491
   0.68030650  0.70582982  0.37207638
   0.09516526  0.72856013  0.12156099
   0.54180552  0.45214370  0.25351084
   0.74054183  0.12483499  0.31174848
   0.85888103  0.57329750  0.05350623
   0.31141490  0.84803262  0.18076396
   0.56207820  0.72169891  0.12275353
   0.00327450  0.99908463  0.25281159
   0.79571632  0.32637749  0.18429709
   0.22058949  0.62090714  0.31580926
   0.34617716  0.60305419  0.05647018
   0.21720268  0.16656932  0.31523573
   0.79519042  0.88121088  0.18412005
   0.34617716  0.05624469  0.05647018
   0.53866881  0.00994284  0.25322910
   0.09516526  0.18175063  0.12156099
   0.19174197  0.35660525  0.39272071
   0.34047062  0.60391201  0.02782883
   0.92434681  0.68523651  0.03696881
   0.34363348  0.06399961  0.02783421
   0.88838126  0.05560908  0.02665597
   0.64349422  0.77943822  0.39525526
   0.75541225  0.10424711  0.33662862
   0.08068273  0.42898886  0.41221996
Direct configuration=    24
   0.22067121  0.89240241  0.08901558
   0.66266838  0.16956199  0.21821736
   0.94927612  0.02809995  0.15233499
   0.37523638  0.31560730  0.28550938
   0.44927612  0.52809995  0.15233499
   0.89560708  0.30403609  0.28190180
   0.44927612  0.02809995  0.15233499
   0.89207256  0.80162518  0.28150679
   0.90282244  0.55132680  0.10484543
   0.35268513  0.82482139  0.23370263
   0.99140654  0.50692987  0.20063984
   0.42179695  0.79282936  0.33313729
   0.53851998  0.23347802  0.07318573
   0.01868825  0.48642959  0.35043017
   0.76986586  0.61331939  0.30917271
   0.87926422  0.06310591  0.05527763
   0.33814784  0.33080019  0.18281287
   0.58246139  0.21150732  0.12452493
   0.03239874  0.48802809  0.25336506
   0.68030714  0.70583656  0.37207640
   0.09516526  0.72856013  0.12156099
   0.54180511  0.45214190  0.25351048
   0.74054609  0.12483439  0.31174866
   0.85888103  0.57329750  0.05350623
   0.31141649  0.84803070  0.18076419
   0.56207820  0.72169891  0.12275353
   0.00327530  0.99908549  0.25281160
   0.79571642  0.32637741  0.18429722
   0.22059099  0.62090733  0.31580926
   0.34617716  0.60305419  0.05647018
   0.21720277  0.16657087  0.31523588
   0.79519186  0.88120819  0.18411999
   0.34617716  0.05624469  0.05647018
   0.53866973  0.00994107  0.25322895
   0.09516526  0.18175063  0.12156099
   0.19175131  0.35660069  0.39271914
   0.34047062  0.60391201  0.02782883
   0.92434681  0.68523651  0.03696881
   0.34363348  0.06399961  0.02783421
   0.88838126  0.05560908  0.02665597
   0.64349292  0.77943912  0.39525686
   0.75541471  0.10424378  0.33662798
   0.08069082  0.42898054  0.41221958
Direct configuration=    25
   0.22067121  0.89240241  0.08901558
   0.66274707  0.16926234  0.21823941
   0.94927612  0.02809995  0.15233499
   0.37529131  0.31558994  0.28548595
   0.44927612  0.52809995  0.15233499
   0.89565144  0.30431569  0.28184114
   0.44927612  0.02809995  0.15233499
   0.89239734  0.80132788  0.28141883
   0.90282244  0.55132680  0.10484543
   0.35262719  0.82453133  0.23371164
   0.99158840  0.50652806  0.20062678
   0.42158339  0.79311993  0.33329129
   0.53851998  0.23347802  0.07318573
   0.01893476  0.48627997  0.35035817
   0.76966291  0.61346771  0.30922856
   0.87926422  0.06310591  0.05527763
   0.33842050  0.33081390  0.18279530
   0.58246139  0.21150732  0.12452493
   0.03198767  0.48815855  0.25341723
   0.68016638  0.70723808  0.37218045
   0.09516526  0.72856013  0.12156099
   0.54180991  0.45176438  0.25345577
   0.74094591  0.12492928  0.31169337
   0.85888103  0.57329750  0.05350623
   0.31176812  0.84767903  0.18076012
   0.56207820  0.72169891  0.12275353
   0.00315930  0.99913464  0.25283998
   0.79554747  0.32630575  0.18429946
   0.22060414  0.62082684  0.31579826
   0.34617716  0.60305419  0.05647018
   0.21709700  0.16697502  0.31525060
   0.79525538  0.88103372  0.18410115
   0.34617716  0.05624469  0.05647018
   0.53885848  0.00984999  0.25320755
   0.09516526  0.18175063  0.12156099
   0.19284073  0.35606968  0.39256265
   0.34047062  0.60391201  0.02782883
   0.92434681  0.68523651  0.03696881
   0.34363348  0.06399961  0.02783421
   0.88838126  0.05560908  0.02665597
   0.64349341  0.77922023  0.39537887
   0.75585863  0.10364468  0.33663537
   0.08231589  0.42746205  0.41211306
Direct configuration=    26
   0.22067121  0.89240241  0.08901558
   0.66287798  0.16876386  0.21827610
   0.94927612  0.02809995  0.15233499
   0.37538268  0.31556108  0.28544698
   0.44927612  0.52809995  0.15233499
   0.89572522  0.30478082  0.28174022
   0.44927612  0.02809995  0.15233499
   0.89293762  0.80083333  0.28127250
   0.90282244  0.55132680  0.10484543
   0.35253080  0.82404880  0.23372663
   0.99189094  0.50585964  0.20060504
   0.42122813  0.79360331  0.33354747
   0.53851998  0.23347802  0.07318573
   0.01934484  0.48603106  0.35023840
   0.76932529  0.61371446  0.30932146
   0.87926422  0.06310591  0.05527763
   0.33887409  0.33083671  0.18276606
   0.58246139  0.21150732  0.12452493
   0.03130383  0.48837555  0.25350401
   0.67993221  0.70956953  0.37235353
   0.09516526  0.72856013  0.12156099
   0.54181788  0.45113639  0.25336477
   0.74161100  0.12508713  0.31160139
   0.85888103  0.57329750  0.05350623
   0.31235307  0.84709402  0.18075334
   0.56207820  0.72169891  0.12275353
   0.00296632  0.99921641  0.25288720
   0.79526643  0.32618654  0.18430317
   0.22062602  0.62069294  0.31577997
   0.34617716  0.60305419  0.05647018
   0.21692104  0.16764733  0.31527510
   0.79536105  0.88074347  0.18406979
   0.34617716  0.05624469  0.05647018
   0.53917245  0.00969848  0.25317197
   0.09516526  0.18175063  0.12156099
   0.19465301  0.35518634  0.39230233
   0.34047062  0.60391201  0.02782883
   0.92434681  0.68523651  0.03696881
   0.34363348  0.06399961  0.02783421
   0.88838126  0.05560908  0.02665597
   0.64349424  0.77885611  0.39558184
   0.75659709  0.10264807  0.33664765
   0.08501921  0.42493601  0.41193587
Direct configuration=    27
   0.22067121  0.89240241  0.08901558
   0.66296502  0.16844620  0.21827287
   0.94927612  0.02809995  0.15233499
   0.37553820  0.31543852  0.28544111
   0.44927612  0.52809995  0.15233499
   0.89548424  0.30505681  0.28173089
   0.44927612  0.02809995  0.15233499
   0.89290933  0.80090874  0.28126240
   0.90282244  0.55132680  0.10484543
   0.35254098  0.82374219  0.23372788
   0.99213414  0.50543195  0.20059507
   0.42111985  0.79391892  0.33372829
   0.53851998  0.23347802  0.07318573
   0.01932514  0.48609434  0.35017066
   0.76939996  0.61380973  0.30936257
   0.87926422  0.06310591  0.05527763
   0.33920236  0.33079403  0.18274567
   0.58246139  0.21150732  0.12452493
   0.03112970  0.48834678  0.25350920
   0.68008400  0.71087406  0.37239285
   0.09516526  0.72856013  0.12156099
   0.54180443  0.45079985  0.25331178
   0.74200009  0.12510270  0.31159638
   0.85888103  0.57329750  0.05350623
   0.31272325  0.84679909  0.18073764
   0.56207820  0.72169891  0.12275353
   0.00291569  0.99916741  0.25289046
   0.79503912  0.32604183  0.18430321
   0.22062444  0.62063674  0.31575575
   0.34617716  0.60305419  0.05647018
   0.21683323  0.16804839  0.31528386
   0.79538216  0.88063192  0.18405428
   0.34617716  0.05624469  0.05647018
   0.53928646  0.00959620  0.25315182
   0.09516526  0.18175063  0.12156099
   0.19594113  0.35450057  0.39212314
   0.34047062  0.60391201  0.02782883
   0.92434681  0.68523651  0.03696881
   0.34363348  0.06399961  0.02783421
   0.88838126  0.05560908  0.02665597
   0.64348509  0.77872560  0.39576025
   0.75709372  0.10200777  0.33658897
   0.08697511  0.42313823  0.41181029
Direct configuration=    28
   0.22067121  0.89240241  0.08901558
   0.66305658  0.16811201  0.21826948
   0.94927612  0.02809995  0.15233499
   0.37570181  0.31530959  0.28543494
   0.44927612  0.52809995  0.15233499
   0.89523072  0.30534717  0.28172107
   0.44927612  0.02809995  0.15233499
   0.89287957  0.80098808  0.28125177
   0.90282244  0.55132680  0.10484543
   0.35255168  0.82341961  0.23372921
   0.99239000  0.50498200  0.20058458
   0.42100593  0.79425096  0.33391853
   0.53851998  0.23347802  0.07318573
   0.01930442  0.48616091  0.35009940
   0.76947851  0.61390996  0.30940583
   0.87926422  0.06310591  0.05527763
   0.33954772  0.33074913  0.18272422
   0.58246139  0.21150732  0.12452493
   0.03094650  0.48831652  0.25351467
   0.68024369  0.71224648  0.37243422
   0.09516526  0.72856013  0.12156099
   0.54179027  0.45044580  0.25325604
   0.74240942  0.12511908  0.31159110
   0.85888103  0.57329750  0.05350623
   0.31311268  0.84648881  0.18072113
   0.56207820  0.72169891  0.12275353
   0.00286243  0.99911586  0.25289388
   0.79479999  0.32588960  0.18430325
   0.22062278  0.62057763  0.31573026
   0.34617716  0.60305419  0.05647018
   0.21674086  0.16847032  0.31529307
   0.79540438  0.88051457  0.18403796
   0.34617716  0.05624469  0.05647018
   0.53940641  0.00948860  0.25313062
   0.09516526  0.18175063  0.12156099
   0.19729627  0.35377910  0.39193462
   0.34047062  0.60391201  0.02782883
   0.92434681  0.68523651  0.03696881
   0.34363348  0.06399961  0.02783421
   0.88838126  0.05560908  0.02665597
   0.64347547  0.77858829  0.39594795
   0.75761618  0.10133415  0.33652723
   0.08903279  0.42124689  0.41167817
Direct configuration=    29
   0.22067121  0.89240241  0.08901558
   0.66323971  0.16744363  0.21826270
   0.94927612  0.02809995  0.15233499
   0.37602903  0.31505172  0.28542258
   0.44927612  0.52809995  0.15233499
   0.89472369  0.30592788  0.28170144
   0.44927612  0.02809995  0.15233499
   0.89282005  0.80114675  0.28123052
   0.90282244  0.55132680  0.10484543
   0.35257309  0.82277446  0.23373185
   0.99290173  0.50408210  0.20056360
   0.42077810  0.79491504  0.33429901
   0.53851998  0.23347802  0.07318573
   0.01926299  0.48629405  0.34995688
   0.76963561  0.61411043  0.30949234
   0.87926422  0.06310591  0.05527763
   0.34023843  0.33065932  0.18268131
   0.58246139  0.21150732  0.12452493
   0.03058011  0.48825598  0.25352560
   0.68056308  0.71499131  0.37251694
   0.09516526  0.72856013  0.12156099
   0.54176196  0.44973770  0.25314455
   0.74322808  0.12515185  0.31158056
   0.85888103  0.57329750  0.05350623
   0.31389155  0.84586825  0.18068810
   0.56207820  0.72169891  0.12275353
   0.00275591  0.99901277  0.25290072
   0.79432172  0.32558513  0.18430334
   0.22061946  0.62045939  0.31567929
   0.34617716  0.60305419  0.05647018
   0.21655612  0.16931418  0.31531151
   0.79544880  0.88027985  0.18400532
   0.34617716  0.05624469  0.05647018
   0.53964630  0.00927340  0.25308823
   0.09516526  0.18175063  0.12156099
   0.20000657  0.35233618  0.39155759
   0.34047062  0.60391201  0.02782883
   0.92434681  0.68523651  0.03696881
   0.34363348  0.06399961  0.02783421
   0.88838126  0.05560908  0.02665597
   0.64345623  0.77831368  0.39632335
   0.75866111  0.09998691  0.33640375
   0.09314815  0.41746422  0.41141394
Direct configuration=    30
   0.22067121  0.89240241  0.08901558
   0.66311821  0.16788710  0.21826720
   0.94927612  0.02809995  0.15233499
   0.37581192  0.31522281  0.28543078
   0.44927612  0.52809995  0.15233499
   0.89506010  0.30554258  0.28171447
   0.44927612  0.02809995  0.15233499
   0.89285954  0.80104147  0.28124462
   0.90282244  0.55132680  0.10484543
   0.35255888  0.82320251  0.23373010
   0.99256220  0.50467918  0.20057752
   0.42092927  0.79447443  0.33404656
   0.53851998  0.23347802  0.07318573
   0.01929048  0.48620571  0.35005144
   0.76953137  0.61397742  0.30943494
   0.87926422  0.06310591  0.05527763
   0.33978015  0.33071891  0.18270978
   0.58246139  0.21150732  0.12452493
   0.03082321  0.48829615  0.25351835
   0.68035117  0.71317013  0.37246205
   0.09516526  0.72856013  0.12156099
   0.54178074  0.45020752  0.25321852
   0.74268490  0.12513011  0.31158756
   0.85888103  0.57329750  0.05350623
   0.31337478  0.84627999  0.18071001
   0.56207820  0.72169891  0.12275353
   0.00282659  0.99908117  0.25289618
   0.79463905  0.32578714  0.18430328
   0.22062166  0.62053784  0.31571311
   0.34617716  0.60305419  0.05647018
   0.21667870  0.16875428  0.31529928
   0.79541932  0.88043558  0.18402697
   0.34617716  0.05624469  0.05647018
   0.53948713  0.00941619  0.25311636
   0.09516526  0.18175063  0.12156099
   0.19820830  0.35329355  0.39180775
   0.34047062  0.60391201  0.02782883
   0.92434681  0.68523651  0.03696881
   0.34363348  0.06399961  0.02783421
   0.88838126  0.05560908  0.02665597
   0.64346900  0.77849588  0.39607427
   0.75796781  0.10088080  0.33648567
   0.09041763  0.41997400  0.41158926
Direct configuration=    31
   0.22067121  0.89240241  0.08901558
   0.66322629  0.16756028  0.21822923
   0.94927612  0.02809995  0.15233499
   0.37601015  0.31505590  0.28544034
   0.44927612  0.52809995  0.15233499
   0.89465135  0.30566770  0.28174690
   0.44927612  0.02809995  0.15233499
   0.89253253  0.80143452  0.28130721
   0.90282244  0.55132680  0.10484543
   0.35262799  0.82293949  0.23372441
   0.99279155  0.50429186  0.20056378
   0.42076749  0.79482007  0.33422174
   0.53851998  0.23347802  0.07318573
   0.01886892  0.48647684  0.35002654
   0.76980217  0.61408472  0.30947215
   0.87926422  0.06310591  0.05527763
   0.33998548  0.33062987  0.18270368
   0.58246139  0.21150732  0.12452493
   0.03087175  0.48811702  0.25347623
   0.68081762  0.71450384  0.37254722
   0.09516526  0.72856013  0.12156099
   0.54174294  0.44999985  0.25318238
   0.74296124  0.12512419  0.31154878
   0.85888103  0.57329750  0.05350623
   0.31362887  0.84616703  0.18070178
   0.56207820  0.72169891  0.12275353
   0.00286529  0.99901702  0.25287347
   0.79448696  0.32562383  0.18430410
   0.22074500  0.62064405  0.31568657
   0.34617716  0.60305419  0.05647018
   0.21666918  0.16898581  0.31531389
   0.79548153  0.88025236  0.18401974
   0.34617716  0.05624469  0.05647018
   0.53947252  0.00921542  0.25310629
   0.09516526  0.18175063  0.12156099
   0.19990099  0.35232154  0.39152929
   0.34047062  0.60391201  0.02782883
   0.92434681  0.68523651  0.03696881
   0.34363348  0.06399961  0.02783421
   0.88838126  0.05560908  0.02665597
   0.64368648  0.77811835  0.39618679
   0.75853727  0.10017335  0.33645003
   0.09232918  0.41816289  0.41149774
Direct configuration=    32
   0.22067121  0.89240241  0.08901558
   0.66329765  0.16734453  0.21820417
   0.94927612  0.02809995  0.15233499
   0.37614102  0.31494570  0.28544666
   0.44927612  0.52809995  0.15233499
   0.89438150  0.30575029  0.28176831
   0.44927612  0.02809995  0.15233499
   0.89231665  0.80169400  0.28134854
   0.90282244  0.55132680  0.10484543
   0.35267361  0.82276585  0.23372066
   0.99294296  0.50403616  0.20055472
   0.42066068  0.79504826  0.33433740
   0.53851998  0.23347802  0.07318573
   0.01859062  0.48665583  0.35001011
   0.76998095  0.61415555  0.30949671
   0.87926422  0.06310591  0.05527763
   0.34012104  0.33057110  0.18269965
   0.58246139  0.21150732  0.12452493
   0.03090379  0.48799876  0.25344842
   0.68112556  0.71538434  0.37260345
   0.09516526  0.72856013  0.12156099
   0.54171798  0.44986276  0.25315852
   0.74314367  0.12512029  0.31152318
   0.85888103  0.57329750  0.05350623
   0.31379662  0.84609247  0.18069635
   0.56207820  0.72169891  0.12275353
   0.00289085  0.99897467  0.25285847
   0.79438655  0.32551601  0.18430464
   0.22082643  0.62071417  0.31566905
   0.34617716  0.60305419  0.05647018
   0.21666290  0.16913866  0.31532354
   0.79552259  0.88013140  0.18401497
   0.34617716  0.05624469  0.05647018
   0.53946287  0.00908288  0.25309965
   0.09516526  0.18175063  0.12156099
   0.20101848  0.35167983  0.39134545
   0.34047062  0.60391201  0.02782883
   0.92434681  0.68523651  0.03696881
   0.34363348  0.06399961  0.02783421
   0.88838126  0.05560908  0.02665597
   0.64383006  0.77786911  0.39626106
   0.75891323  0.09970631  0.33642649
   0.09359115  0.41696722  0.41143732
Direct configuration=    33
   0.22067121  0.89240241  0.08901558
   0.66340171  0.16702553  0.21814500
   0.94927612  0.02809995  0.15233499
   0.37625436  0.31478878  0.28545984
   0.44927612  0.52809995  0.15233499
   0.89401179  0.30579260  0.28180912
   0.44927612  0.02809995  0.15233499
   0.89196363  0.80207776  0.28143048
   0.90282244  0.55132680  0.10484543
   0.35278396  0.82256442  0.23370880
   0.99312316  0.50371389  0.20053585
   0.42044661  0.79545004  0.33449198
   0.53851998  0.23347802  0.07318573
   0.01824394  0.48706740  0.34997425
   0.77003765  0.61441113  0.30951063
   0.87926422  0.06310591  0.05527763
   0.34016851  0.33044540  0.18271066
   0.58246139  0.21150732  0.12452493
   0.03105058  0.48776082  0.25339603
   0.68160656  0.71687078  0.37272177
   0.09516526  0.72856013  0.12156099
   0.54168085  0.44975460  0.25314501
   0.74325077  0.12511687  0.31149121
   0.85888103  0.57329750  0.05350623
   0.31389481  0.84617770  0.18069994
   0.56207820  0.72169891  0.12275353
   0.00292947  0.99896131  0.25282928
   0.79436225  0.32536803  0.18430380
   0.22109454  0.62107293  0.31564428
   0.34617716  0.60305419  0.05647018
   0.21683399  0.16895958  0.31532530
   0.79566523  0.87982983  0.18401336
   0.34617716  0.05624469  0.05647018
   0.53934757  0.00879918  0.25310371
   0.09516526  0.18175063  0.12156099
   0.20248527  0.35074867  0.39118219
   0.34047062  0.60391201  0.02782883
   0.92434681  0.68523651  0.03696881
   0.34363348  0.06399961  0.02783421
   0.88838126  0.05560908  0.02665597
   0.64418254  0.77736906  0.39633145
   0.75952971  0.09897195  0.33639893
   0.09626338  0.41465203  0.41125458
Direct configuration=    34
   0.22067121  0.89240241  0.08901558
   0.66341746  0.16697727  0.21813605
   0.94927612  0.02809995  0.15233499
   0.37627151  0.31476504  0.28546184
   0.44927612  0.52809995  0.15233499
   0.89395585  0.30579901  0.28181530
   0.44927612  0.02809995  0.15233499
   0.89191022  0.80213582  0.28144288
   0.90282244  0.55132680  0.10484543
   0.35280066  0.82253394  0.23370701
   0.99315042  0.50366513  0.20053299
   0.42041422  0.79551083  0.33451537
   0.53851998  0.23347802  0.07318573
   0.01819149  0.48712967  0.34996883
   0.77004623  0.61444980  0.30951273
   0.87926422  0.06310591  0.05527763
   0.34017569  0.33042638  0.18271233
   0.58246139  0.21150732  0.12452493
   0.03107279  0.48772481  0.25338810
   0.68167933  0.71709567  0.37273967
   0.09516526  0.72856013  0.12156099
   0.54167524  0.44973824  0.25314296
   0.74326697  0.12511636  0.31148637
   0.85888103  0.57329750  0.05350623
   0.31390966  0.84619060  0.18070048
   0.56207820  0.72169891  0.12275353
   0.00293531  0.99895928  0.25282486
   0.79435858  0.32534564  0.18430367
   0.22113510  0.62112721  0.31564054
   0.34617716  0.60305419  0.05647018
   0.21685988  0.16893248  0.31532557
   0.79568682  0.87978420  0.18401312
   0.34617716  0.05624469  0.05647018
   0.53933013  0.00875625  0.25310432
   0.09516526  0.18175063  0.12156099
   0.20270719  0.35060778  0.39115749
   0.34047062  0.60391201  0.02782883
   0.92434681  0.68523651  0.03696881
   0.34363348  0.06399961  0.02783421
   0.88838126  0.05560908  0.02665597
   0.64423587  0.77729341  0.39634210
   0.75962298  0.09886084  0.33639476
   0.09666769  0.41430174  0.41122693
Direct configuration=    35
   0.22067121  0.89240241  0.08901558
   0.66344895  0.16688074  0.21811814
   0.94927612  0.02809995  0.15233499
   0.37630581  0.31471755  0.28546583
   0.44927612  0.52809995  0.15233499
   0.89384398  0.30581181  0.28182764
   0.44927612  0.02809995  0.15233499
   0.89180340  0.80225194  0.28146767
   0.90282244  0.55132680  0.10484543
   0.35283405  0.82247299  0.23370342
   0.99320494  0.50356761  0.20052728
   0.42034945  0.79563241  0.33456215
   0.53851998  0.23347802  0.07318573
   0.01808659  0.48725422  0.34995798
   0.77006339  0.61452714  0.30951694
   0.87926422  0.06310591  0.05527763
   0.34019006  0.33038835  0.18271566
   0.58246139  0.21150732  0.12452493
   0.03111721  0.48765281  0.25337225
   0.68182488  0.71754547  0.37277548
   0.09516526  0.72856013  0.12156099
   0.54166400  0.44970551  0.25313888
   0.74329938  0.12511532  0.31147670
   0.85888103  0.57329750  0.05350623
   0.31393937  0.84621639  0.18070157
   0.56207820  0.72169891  0.12275353
   0.00294700  0.99895524  0.25281602
   0.79435122  0.32530087  0.18430342
   0.22121623  0.62123577  0.31563304
   0.34617716  0.60305419  0.05647018
   0.21691165  0.16887829  0.31532610
   0.79572998  0.87969295  0.18401263
   0.34617716  0.05624469  0.05647018
   0.53929524  0.00867040  0.25310555
   0.09516526  0.18175063  0.12156099
   0.20315105  0.35032601  0.39110808
   0.34047062  0.60391201  0.02782883
   0.92434681  0.68523651  0.03696881
   0.34363348  0.06399961  0.02783421
   0.88838126  0.05560908  0.02665597
   0.64434253  0.77714209  0.39636340
   0.75980953  0.09863862  0.33638641
   0.09747631  0.41360116  0.41117164
Direct configuration=    36
   0.22067121  0.89240241  0.08901558
   0.66348028  0.16664047  0.21807793
   0.94927612  0.02809995  0.15233499
   0.37623180  0.31468284  0.28546599
   0.44927612  0.52809995  0.15233499
   0.89376502  0.30573946  0.28182607
   0.44927612  0.02809995  0.15233499
   0.89174553  0.80235085  0.28149066
   0.90282244  0.55132680  0.10484543
   0.35293598  0.82236740  0.23369265
   0.99328009  0.50337016  0.20051216
   0.42016373  0.79599123  0.33467601
   0.53851998  0.23347802  0.07318573
   0.01784817  0.48767025  0.34994420
   0.76987229  0.61487438  0.30954380
   0.87926422  0.06310591  0.05527763
   0.34009174  0.33024468  0.18273806
   0.58246139  0.21150732  0.12452493
   0.03120848  0.48749396  0.25335651
   0.68257324  0.71855705  0.37276160
   0.09516526  0.72856013  0.12156099
   0.54166021  0.44963886  0.25315098
   0.74316930  0.12513041  0.31149784
   0.85888103  0.57329750  0.05350623
   0.31384200  0.84647823  0.18071333
   0.56207820  0.72169891  0.12275353
   0.00287253  0.99903118  0.25280410
   0.79447623  0.32520536  0.18429406
   0.22157495  0.62174693  0.31562106
   0.34617716  0.60305419  0.05647018
   0.21714061  0.16847538  0.31532909
   0.79594882  0.87930983  0.18400894
   0.34617716  0.05624469  0.05647018
   0.53914493  0.00838862  0.25312330
   0.09516526  0.18175063  0.12156099
   0.20470000  0.34926227  0.39093293
   0.34047062  0.60391201  0.02782883
   0.92434681  0.68523651  0.03696881
   0.34363348  0.06399961  0.02783421
   0.88838126  0.05560908  0.02665597
   0.64466300  0.77687763  0.39650757
   0.76035831  0.09801394  0.33635656
   0.09998796  0.41143661  0.41102929
Direct configuration=    37
   0.22067121  0.89240241  0.08901558
   0.66351947  0.16633988  0.21802762
   0.94927612  0.02809995  0.15233499
   0.37613921  0.31463941  0.28546619
   0.44927612  0.52809995  0.15233499
   0.89366623  0.30564896  0.28182410
   0.44927612  0.02809995  0.15233499
   0.89167315  0.80247458  0.28151942
   0.90282244  0.55132680  0.10484543
   0.35306349  0.82223530  0.23367918
   0.99337409  0.50312314  0.20049324
   0.41993140  0.79644013  0.33481845
   0.53851998  0.23347802  0.07318573
   0.01754991  0.48819073  0.34992695
   0.76963322  0.61530880  0.30957741
   0.87926422  0.06310591  0.05527763
   0.33996873  0.33006494  0.18276609
   0.58246139  0.21150732  0.12452493
   0.03132267  0.48729523  0.25333682
   0.68350945  0.71982258  0.37274424
   0.09516526  0.72856013  0.12156099
   0.54165546  0.44955548  0.25316612
   0.74300657  0.12514930  0.31152428
   0.85888103  0.57329750  0.05350623
   0.31372019  0.84680580  0.18072804
   0.56207820  0.72169891  0.12275353
   0.00277937  0.99912620  0.25278918
   0.79463262  0.32508588  0.18428235
   0.22202372  0.62238642  0.31560606
   0.34617716  0.60305419  0.05647018
   0.21742705  0.16797133  0.31533284
   0.79622260  0.87883053  0.18400432
   0.34617716  0.05624469  0.05647018
   0.53895690  0.00803611  0.25314550
   0.09516526  0.18175063  0.12156099
   0.20663780  0.34793148  0.39071381
   0.34047062  0.60391201  0.02782883
   0.92434681  0.68523651  0.03696881
   0.34363348  0.06399961  0.02783421
   0.88838126  0.05560908  0.02665597
   0.64506392  0.77654677  0.39668793
   0.76104485  0.09723245  0.33631920
   0.10313013  0.40872868  0.41085121
Direct configuration=    38
   0.22067121  0.89240241  0.08901558
   0.66347354  0.16618390  0.21802223
   0.94927612  0.02809995  0.15233499
   0.37597443  0.31469613  0.28546073
   0.44927612  0.52809995  0.15233499
   0.89373952  0.30561104  0.28180318
   0.44927612  0.02809995  0.15233499
   0.89181742  0.80236942  0.28149511
   0.90282244  0.55132680  0.10484543
   0.35311987  0.82217655  0.23367489
   0.99337953  0.50300525  0.20048794
   0.41983651  0.79671733  0.33490039
   0.53851998  0.23347802  0.07318573
   0.01754406  0.48846497  0.34991592
   0.76938808  0.61556783  0.30960509
   0.87926422  0.06310591  0.05527763
   0.33987183  0.32993332  0.18278543
   0.58246139  0.21150732  0.12452493
   0.03133456  0.48723446  0.25335477
   0.68413360  0.72078997  0.37277457
   0.09516526  0.72856013  0.12156099
   0.54168805  0.44944958  0.25318475
   0.74275558  0.12521330  0.31153496
   0.85888103  0.57329750  0.05350623
   0.31354586  0.84707566  0.18073663
   0.56207820  0.72169891  0.12275353
   0.00263795  0.99922247  0.25278932
   0.79478657  0.32501833  0.18426798
   0.22233233  0.62282433  0.31560047
   0.34617716  0.60305419  0.05647018
   0.21756250  0.16768454  0.31533431
   0.79643504  0.87850039  0.18399534
   0.34617716  0.05624469  0.05647018
   0.53885352  0.00784902  0.25316508
   0.09516526  0.18175063  0.12156099
   0.20834468  0.34674054  0.39049112
   0.34047062  0.60391201  0.02782883
   0.92434681  0.68523651  0.03696881
   0.34363348  0.06399961  0.02783421
   0.88838126  0.05560908  0.02665597
   0.64554414  0.77616358  0.39675362
   0.76152800  0.09668296  0.33632784
   0.10514715  0.40693426  0.41079390
Direct configuration=    39
   0.22067121  0.89240241  0.08901558
   0.66340780  0.16596061  0.21801453
   0.94927612  0.02809995  0.15233499
   0.37573854  0.31477733  0.28545291
   0.44927612  0.52809995  0.15233499
   0.89384442  0.30555676  0.28177323
   0.44927612  0.02809995  0.15233499
   0.89202396  0.80221888  0.28146030
   0.90282244  0.55132680  0.10484543
   0.35320058  0.82209244  0.23366876
   0.99338732  0.50283650  0.20048035
   0.41970068  0.79711416  0.33501768
   0.53851998  0.23347802  0.07318573
   0.01753570  0.48885755  0.34990012
   0.76903714  0.61593865  0.30964471
   0.87926422  0.06310591  0.05527763
   0.33973311  0.32974491  0.18281311
   0.58246139  0.21150732  0.12452493
   0.03135158  0.48714746  0.25338045
   0.68502709  0.72217482  0.37281798
   0.09516526  0.72856013  0.12156099
   0.54173471  0.44929800  0.25321142
   0.74239629  0.12530492  0.31155024
   0.85888103  0.57329750  0.05350623
   0.31329630  0.84746198  0.18074892
   0.56207820  0.72169891  0.12275353
   0.00243550  0.99936029  0.25278953
   0.79500694  0.32492163  0.18424740
   0.22277412  0.62345122  0.31559247
   0.34617716  0.60305419  0.05647018
   0.21775641  0.16727398  0.31533640
   0.79673916  0.87802778  0.18398250
   0.34617716  0.05624469  0.05647018
   0.53870554  0.00758120  0.25319311
   0.09516526  0.18175063  0.12156099
   0.21078814  0.34503565  0.39017235
   0.34047062  0.60391201  0.02782883
   0.92434681  0.68523651  0.03696881
   0.34363348  0.06399961  0.02783421
   0.88838126  0.05560908  0.02665597
   0.64623160  0.77561503  0.39684766
   0.76221965  0.09589635  0.33634020
   0.10803459  0.40436548  0.41071186
Direct configuration=    40
   0.22067121  0.89240241  0.08901558
   0.66327630  0.16551403  0.21799911
   0.94927612  0.02809995  0.15233499
   0.37526676  0.31493974  0.28543729
   0.44927612  0.52809995  0.15233499
   0.89405424  0.30544821  0.28171333
   0.44927612  0.02809995  0.15233499
   0.89243703  0.80191779  0.28139069
   0.90282244  0.55132680  0.10484543
   0.35336199  0.82192422  0.23365649
   0.99340289  0.50249899  0.20046516
   0.41942901  0.79790782  0.33525227
   0.53851998  0.23347802  0.07318573
   0.01751897  0.48964271  0.34986853
   0.76833528  0.61668030  0.30972396
   0.87926422  0.06310591  0.05527763
   0.33945567  0.32936809  0.18286848
   0.58246139  0.21150732  0.12452493
   0.03138562  0.48697346  0.25343182
   0.68681406  0.72494452  0.37290481
   0.09516526  0.72856013  0.12156099
   0.54182802  0.44899482  0.25326477
   0.74167770  0.12548817  0.31158080
   0.85888103  0.57329750  0.05350623
   0.31279719  0.84823461  0.18077351
   0.56207820  0.72169891  0.12275353
   0.00203060  0.99963592  0.25278996
   0.79544770  0.32472823  0.18420626
   0.22365770  0.62470499  0.31557646
   0.34617716  0.60305419  0.05647018
   0.21814421  0.16645287  0.31534060
   0.79734739  0.87708255  0.18395681
   0.34617716  0.05624469  0.05647018
   0.53840957  0.00704555  0.25324917
   0.09516526  0.18175063  0.12156099
   0.21567507  0.34162589  0.38953480
   0.34047062  0.60391201  0.02782883
   0.92434681  0.68523651  0.03696881
   0.34363348  0.06399961  0.02783421
   0.88838126  0.05560908  0.02665597
   0.64760651  0.77451793  0.39703574
   0.76360295  0.09432314  0.33636493
   0.11380947  0.39922792  0.41054778
Direct configuration=    41
   0.22067121  0.89240241  0.08901558
   0.66337487  0.16584878  0.21801067
   0.94927612  0.02809995  0.15233499
   0.37562040  0.31481800  0.28544900
   0.44927612  0.52809995  0.15233499
   0.89389696  0.30552958  0.28175823
   0.44927612  0.02809995  0.15233499
   0.89212739  0.80214348  0.28144287
   0.90282244  0.55132680  0.10484543
   0.35324100  0.82205031  0.23366569
   0.99339122  0.50275198  0.20047655
   0.41963265  0.79731291  0.33507643
   0.53851998  0.23347802  0.07318573
   0.01753151  0.48905417  0.34989221
   0.76886139  0.61612437  0.30966455
   0.87926422  0.06310591  0.05527763
   0.33966363  0.32965055  0.18282698
   0.58246139  0.21150732  0.12452493
   0.03136010  0.48710389  0.25339332
   0.68547457  0.72286839  0.37283972
   0.09516526  0.72856013  0.12156099
   0.54175808  0.44922208  0.25322478
   0.74221634  0.12535081  0.31155789
   0.85888103  0.57329750  0.05350623
   0.31317132  0.84765546  0.18075508
   0.56207820  0.72169891  0.12275353
   0.00233411  0.99942931  0.25278964
   0.79511732  0.32487320  0.18423710
   0.22299539  0.62376518  0.31558846
   0.34617716  0.60305419  0.05647018
   0.21785352  0.16706836  0.31533745
   0.79689147  0.87779108  0.18397606
   0.34617716  0.05624469  0.05647018
   0.53863142  0.00744706  0.25320715
   0.09516526  0.18175063  0.12156099
   0.21201191  0.34418180  0.39001270
   0.34047062  0.60391201  0.02782883
   0.92434681  0.68523651  0.03696881
   0.34363348  0.06399961  0.02783421
   0.88838126  0.05560908  0.02665597
   0.64657590  0.77534030  0.39689476
   0.76256605  0.09550240  0.33634640
   0.10948071  0.40307896  0.41067077
Direct configuration=    42
   0.22067121  0.89240241  0.08901558
   0.66323947  0.16580902  0.21805276
   0.94927612  0.02809995  0.15233499
   0.37547200  0.31497074  0.28545244
   0.44927612  0.52809995  0.15233499
   0.89395420  0.30560276  0.28175435
   0.44927612  0.02809995  0.15233499
   0.89230077  0.80199880  0.28139757
   0.90282244  0.55132680  0.10484543
   0.35319958  0.82201467  0.23367473
   0.99332450  0.50270761  0.20049174
   0.41979215  0.79742149  0.33513228
   0.53851998  0.23347802  0.07318573
   0.01760027  0.48909165  0.34987606
   0.76895618  0.61603616  0.30970419
   0.87926422  0.06310591  0.05527763
   0.33968106  0.32956113  0.18283403
   0.58246139  0.21150732  0.12452493
   0.03132700  0.48714316  0.25343416
   0.68619740  0.72359790  0.37288699
   0.09516526  0.72856013  0.12156099
   0.54182014  0.44904424  0.25323864
   0.74194891  0.12538567  0.31156003
   0.85888103  0.57329750  0.05350623
   0.31296423  0.84780779  0.18075247
   0.56207820  0.72169891  0.12275353
   0.00220801  0.99947727  0.25278565
   0.79518570  0.32481155  0.18422474
   0.22312685  0.62389660  0.31558651
   0.34617716  0.60305419  0.05647018
   0.21762438  0.16740883  0.31534671
   0.79701202  0.87766126  0.18396319
   0.34617716  0.05624469  0.05647018
   0.53862517  0.00744781  0.25321981
   0.09516526  0.18175063  0.12156099
   0.21315169  0.34328347  0.38984261
   0.34047062  0.60391201  0.02782883
   0.92434681  0.68523651  0.03696881
   0.34363348  0.06399961  0.02783421
   0.88838126  0.05560908  0.02665597
   0.64733295  0.77482564  0.39689181
   0.76294602  0.09505629  0.33637827
   0.11171731  0.40124208  0.41056080
Direct configuration=    43
   0.22067121  0.89240241  0.08901558
   0.66319364  0.16579557  0.21806701
   0.94927612  0.02809995  0.15233499
   0.37542177  0.31502244  0.28545360
   0.44927612  0.52809995  0.15233499
   0.89397357  0.30562753  0.28175303
   0.44927612  0.02809995  0.15233499
   0.89235945  0.80194983  0.28138224
   0.90282244  0.55132680  0.10484543
   0.35318556  0.82200260  0.23367780
   0.99330191  0.50269259  0.20049688
   0.41984614  0.79745825  0.33515118
   0.53851998  0.23347802  0.07318573
   0.01762355  0.48910434  0.34987059
   0.76898827  0.61600631  0.30971760
   0.87926422  0.06310591  0.05527763
   0.33968696  0.32953086  0.18283641
   0.58246139  0.21150732  0.12452493
   0.03131580  0.48715646  0.25344799
   0.68644205  0.72384481  0.37290299
   0.09516526  0.72856013  0.12156099
   0.54184115  0.44898405  0.25324334
   0.74185839  0.12539747  0.31156076
   0.85888103  0.57329750  0.05350623
   0.31289414  0.84785935  0.18075158
   0.56207820  0.72169891  0.12275353
   0.00216533  0.99949350  0.25278430
   0.79520884  0.32479069  0.18422056
   0.22317134  0.62394108  0.31558585
   0.34617716  0.60305419  0.05647018
   0.21754683  0.16752407  0.31534985
   0.79705282  0.87761732  0.18395883
   0.34617716  0.05624469  0.05647018
   0.53862305  0.00744806  0.25322409
   0.09516526  0.18175063  0.12156099
   0.21353746  0.34297942  0.38978504
   0.34047062  0.60391201  0.02782883
   0.92434681  0.68523651  0.03696881
   0.34363348  0.06399961  0.02783421
   0.88838126  0.05560908  0.02665597
   0.64758918  0.77465145  0.39689081
   0.76307462  0.09490530  0.33638906
   0.11247432  0.40062035  0.41052357
Direct configuration=    44
   0.22067121  0.89240241  0.08901558
   0.66310199  0.16576866  0.21809550
   0.94927612  0.02809995  0.15233499
   0.37532132  0.31512584  0.28545593
   0.44927612  0.52809995  0.15233499
   0.89401231  0.30567707  0.28175041
   0.44927612  0.02809995  0.15233499
   0.89247681  0.80185189  0.28135157
   0.90282244  0.55132680  0.10484543
   0.35315752  0.82197847  0.23368392
   0.99325675  0.50266256  0.20050717
   0.41995412  0.79753175  0.33518899
   0.53851998  0.23347802  0.07318573
   0.01767010  0.48912971  0.34985966
   0.76905244  0.61594660  0.30974443
   0.87926422  0.06310591  0.05527763
   0.33969876  0.32947032  0.18284118
   0.58246139  0.21150732  0.12452493
   0.03129339  0.48718304  0.25347564
   0.68693135  0.72433864  0.37293499
   0.09516526  0.72856013  0.12156099
   0.54188316  0.44886366  0.25325272
   0.74167735  0.12542107  0.31156220
   0.85888103  0.57329750  0.05350623
   0.31275395  0.84796247  0.18074981
   0.56207820  0.72169891  0.12275353
   0.00207998  0.99952597  0.25278160
   0.79525514  0.32474896  0.18421219
   0.22326033  0.62403004  0.31558453
   0.34617716  0.60305419  0.05647018
   0.21739172  0.16775455  0.31535612
   0.79713443  0.87752945  0.18395011
   0.34617716  0.05624469  0.05647018
   0.53861882  0.00744856  0.25323266
   0.09516526  0.18175063  0.12156099
   0.21430901  0.34237132  0.38966990
   0.34047062  0.60391201  0.02782883
   0.92434681  0.68523651  0.03696881
   0.34363348  0.06399961  0.02783421
   0.88838126  0.05560908  0.02665597
   0.64810165  0.77430306  0.39688882
   0.76333183  0.09460332  0.33641063
   0.11398834  0.39937691  0.41044913
