Mn  O  H                                
   1.00000000000000     
     2.8735734950000000   -2.8735734950000000    4.7083351100000002
     5.7471469900000001    0.0000000000000000    0.0000000000000000
     0.0000000000000000   33.0656910066415008   20.1805290088081009
   Mn   O    H 
    14    23    10
Selective dynamics
Direct
  0.2206712106837827  0.8924024101981232  0.0890155841539979   F   F   F
  0.6786894654531727  0.1667608826827044  0.2188569401611092   T   T   T
  0.9492761232251894  0.0280999539274163  0.1523349856625060   F   F   F
  0.3941839369263909  0.3149286126526665  0.2848154112346239   T   T   T
  0.4492761232251894  0.5280999539274163  0.1523349856625060   F   F   F
  0.9254342341129840  0.2813961549951545  0.2830981817088899   T   T   T
  0.4492761232251894  0.0280999539274163  0.1523349856625060   F   F   F
  0.8867025321022476  0.8005897875565957  0.2830492004910878   T   T   T
  0.9028224388191362  0.5513267961304464  0.1048454345311214   F   F   F
  0.3647404466902431  0.8241792768992248  0.2334622695102115   T   T   T
  0.9976400174165170  0.5008442164550483  0.2027206291879736   T   T   T
  0.3778385767939509  0.8291457790574120  0.3430433671725415   T   T   T
  0.5385199825484293  0.2334780242657999  0.0731857337768673   F   F   F
  0.0976498257180473  0.5007030174510928  0.3515592904904347   T   T   T
  0.7541256904876266  0.5987054115137164  0.3222796675502378   T   T   T
  0.8792642171272149  0.0631059069764035  0.0552776342656358   F   F   F
  0.3417369558532119  0.3318532357371271  0.1833870135865951   T   T   T
  0.5824613929758371  0.2115073190520960  0.1245249348239739   F   F   F
  0.0526870340613644  0.4529420406872244  0.2557439634207161   T   T   T
  0.5521054516452870  0.6915149314540382  0.3921836449401064   T   T   T
  0.0951652613222294  0.7285601348788973  0.1215609852990625   F   F   F
  0.5596295106453133  0.4527004025966471  0.2537813140550446   T   T   T
  0.7643775388273952  0.1416471181769210  0.3170567089285860   T   T   T
  0.8588810283917283  0.5732975013441504  0.0535062334840219   F   F   F
  0.3138924814525469  0.8461562922403593  0.1807069604203483   T   T   T
  0.5620782042403505  0.7216989134198428  0.1227535340423529   F   F   F
  0.0168706686201237  0.0039813552432835  0.2516003372084974   T   T   T
  0.7975408740289215  0.3307295351483107  0.1841801702046655   T   T   T
  0.2395108573935880  0.6255457547970161  0.3144142792894926   T   T   T
  0.3461771600453361  0.6030541855173510  0.0564701830089334   F   F   F
  0.2377836844142294  0.1812649935325489  0.3200836865732424   T   T   T
  0.8005190384737250  0.8775015717195755  0.1852709414184418   T   T   T
  0.3461771600453361  0.0562446855173491  0.0564701830089334   F   F   F
  0.5552710637533154  0.0035917031288682  0.2545461457952400   T   T   T
  0.0951652613222294  0.1817506348788953  0.1215609852990625   F   F   F
  0.0335114637574327  0.8522371249109814  0.3736146681979473   T   T   T
 -0.0065476679389623  0.3749591746408585  0.3929342593157797   T   T   T
  0.3404706169097480  0.6039120138460916  0.0278288297643030   F   F   F
  0.9243468113422040  0.6852365052266407  0.0369688146645331   F   F   F
  0.3436334761770041  0.0639996102436484  0.0278342118600037   F   F   F
  0.8883812645227351  0.0556090842097916  0.0266559720288981   F   F   F
  0.4563188764592807  0.6649492062916698  0.4100703542380805   T   T   T
  0.8463669064698089  0.0558457682601091  0.3390964332479165   T   T   T
  0.9692286440998944  0.8597071569720282  0.3967308117552251   T   T   T
  0.0153950947506892  0.1959410847575386  0.3896939203710972   T   T   T
  0.7396987746315410  0.5470097206973786  0.3944539525804192   T   T   T
  0.7302550280775507  0.4452638049427743  0.3294955856503621   T   T   T
 
  0.00000000E+00  0.00000000E+00  0.00000000E+00
  0.00000000E+00  0.00000000E+00  0.00000000E+00
  0.00000000E+00  0.00000000E+00  0.00000000E+00
  0.00000000E+00  0.00000000E+00  0.00000000E+00
  0.00000000E+00  0.00000000E+00  0.00000000E+00
  0.00000000E+00  0.00000000E+00  0.00000000E+00
  0.00000000E+00  0.00000000E+00  0.00000000E+00
  0.00000000E+00  0.00000000E+00  0.00000000E+00
  0.00000000E+00  0.00000000E+00  0.00000000E+00
  0.00000000E+00  0.00000000E+00  0.00000000E+00
  0.00000000E+00  0.00000000E+00  0.00000000E+00
  0.00000000E+00  0.00000000E+00  0.00000000E+00
  0.00000000E+00  0.00000000E+00  0.00000000E+00
  0.00000000E+00  0.00000000E+00  0.00000000E+00
  0.00000000E+00  0.00000000E+00  0.00000000E+00
  0.00000000E+00  0.00000000E+00  0.00000000E+00
  0.00000000E+00  0.00000000E+00  0.00000000E+00
  0.00000000E+00  0.00000000E+00  0.00000000E+00
  0.00000000E+00  0.00000000E+00  0.00000000E+00
  0.00000000E+00  0.00000000E+00  0.00000000E+00
  0.00000000E+00  0.00000000E+00  0.00000000E+00
  0.00000000E+00  0.00000000E+00  0.00000000E+00
  0.00000000E+00  0.00000000E+00  0.00000000E+00
  0.00000000E+00  0.00000000E+00  0.00000000E+00
  0.00000000E+00  0.00000000E+00  0.00000000E+00
  0.00000000E+00  0.00000000E+00  0.00000000E+00
  0.00000000E+00  0.00000000E+00  0.00000000E+00
  0.00000000E+00  0.00000000E+00  0.00000000E+00
  0.00000000E+00  0.00000000E+00  0.00000000E+00
  0.00000000E+00  0.00000000E+00  0.00000000E+00
  0.00000000E+00  0.00000000E+00  0.00000000E+00
  0.00000000E+00  0.00000000E+00  0.00000000E+00
  0.00000000E+00  0.00000000E+00  0.00000000E+00
  0.00000000E+00  0.00000000E+00  0.00000000E+00
  0.00000000E+00  0.00000000E+00  0.00000000E+00
  0.00000000E+00  0.00000000E+00  0.00000000E+00
  0.00000000E+00  0.00000000E+00  0.00000000E+00
  0.00000000E+00  0.00000000E+00  0.00000000E+00
  0.00000000E+00  0.00000000E+00  0.00000000E+00
  0.00000000E+00  0.00000000E+00  0.00000000E+00
  0.00000000E+00  0.00000000E+00  0.00000000E+00
  0.00000000E+00  0.00000000E+00  0.00000000E+00
  0.00000000E+00  0.00000000E+00  0.00000000E+00
  0.00000000E+00  0.00000000E+00  0.00000000E+00
  0.00000000E+00  0.00000000E+00  0.00000000E+00
  0.00000000E+00  0.00000000E+00  0.00000000E+00
  0.00000000E+00  0.00000000E+00  0.00000000E+00
