 running on   64 total cores
 distrk:  each k-point on   64 cores,    1 groups
 distr:  one band on   32 cores,    2 groups
 using from now: INCAR     
 vasp.5.4.4.18Apr17-6-g9f103f2a35 (build Sep 24 2019 09:38:50) complex          
  
 POSCAR found type information on POSCAR  Mn O  H 
 POSCAR found :  3 types and      47 ions

 ----------------------------------------------------------------------------- 
|                                                                             |
|           W    W    AA    RRRRR   N    N  II  N    N   GGGG   !!!           |
|           W    W   A  A   R    R  NN   N  II  NN   N  G    G  !!!           |
|           W    W  A    A  R    R  N N  N  II  N N  N  G       !!!           |
|           W WW W  AAAAAA  RRRRR   N  N N  II  N  N N  G  GGG   !            |
|           WW  WW  A    A  R   R   N   NN  II  N   NN  G    G                |
|           W    W  A    A  R    R  N    N  II  N    N   GGGG   !!!           |
|                                                                             |
|      For optimal performance we recommend to set                            |
|        NCORE= 4 - approx SQRT( number of cores)                             |
|      NCORE specifies how many cores store one orbital (NPAR=cpu/NCORE).     |
|      This setting can  greatly improve the performance of VASP for DFT.     |
|      The default,   NCORE=1            might be grossly inefficient         |
|      on modern multi-core architectures or massively parallel machines.     |
|      Do your own testing !!!!                                               |
|      Unfortunately you need to use the default for GW and RPA calculations. |
|      (for HF NCORE is supported but not extensively tested yet)             |
|                                                                             |
 ----------------------------------------------------------------------------- 

 LDA part: xc-table for Pade appr. of Perdew
 POSCAR found type information on POSCAR  Mn O  H 
 POSCAR found :  3 types and      47 ions
 POSCAR, INCAR and KPOINTS ok, starting setup
 FFT: planning ...
 WAVECAR not read
 entering main loop
       N       E                     dE             d eps       ncg     rms          rms(c)
DAV:   1     0.370799216988E+04    0.37080E+04   -0.17932E+05  9968   0.148E+03
DAV:   2     0.242215711855E+03   -0.34658E+04   -0.32426E+04  9264   0.408E+02
DAV:   3    -0.322840265404E+03   -0.56506E+03   -0.55463E+03  9888   0.162E+02
DAV:   4    -0.348132599317E+03   -0.25292E+02   -0.24955E+02 10216   0.347E+01
DAV:   5    -0.348736714913E+03   -0.60412E+00   -0.60206E+00  9896   0.598E+00    0.820E+01
RMM:   6    -0.492069654308E+03   -0.14333E+03   -0.10427E+03 10895   0.653E+01    0.172E+02
RMM:   7    -0.362819745537E+03    0.12925E+03   -0.75829E+01  8425   0.219E+01    0.937E+01
RMM:   8    -0.346857863684E+03    0.15962E+02   -0.97326E+01  9301   0.183E+01    0.860E+01
RMM:   9    -0.317743721104E+03    0.29114E+02   -0.18695E+01  9536   0.897E+00    0.662E+01
RMM:  10    -0.311127042315E+03    0.66167E+01   -0.13024E+01  8601   0.774E+00    0.477E+01
RMM:  11    -0.354975768042E+03   -0.43849E+02   -0.53220E+01  8921   0.141E+01    0.689E+01
RMM:  12    -0.308241359296E+03    0.46734E+02   -0.11955E+01  9768   0.755E+00    0.512E+01
RMM:  13    -0.304828915474E+03    0.34124E+01   -0.16086E+01  8955   0.755E+00    0.342E+01
RMM:  14    -0.303488280633E+03    0.13406E+01   -0.25966E+00  9106   0.349E+00    0.244E+01
RMM:  15    -0.305393413531E+03   -0.19051E+01   -0.15597E+00  8556   0.247E+00    0.218E+01
RMM:  16    -0.305846884779E+03   -0.45347E+00   -0.13703E+00  8466   0.227E+00    0.187E+01
RMM:  17    -0.306924803742E+03   -0.10779E+01   -0.16238E+00  8421   0.250E+00    0.214E+01
RMM:  18    -0.307156036352E+03   -0.23123E+00   -0.45057E-01  9029   0.121E+00    0.231E+01
RMM:  19    -0.307403019238E+03   -0.24698E+00   -0.10363E-01  9238   0.648E-01    0.251E+01
RMM:  20    -0.307273201831E+03    0.12982E+00   -0.15902E-01  8366   0.847E-01    0.258E+01
RMM:  21    -0.306873546791E+03    0.39966E+00   -0.38171E-01  8464   0.127E+00    0.240E+01
RMM:  22    -0.307377234754E+03   -0.50369E+00   -0.10341E+00  8473   0.175E+00    0.225E+01
RMM:  23    -0.306047055394E+03    0.13302E+01   -0.97827E-01  8530   0.205E+00    0.176E+01
RMM:  24    -0.306404268386E+03   -0.35721E+00   -0.43742E-01  8793   0.121E+00    0.151E+01
RMM:  25    -0.307011216812E+03   -0.60695E+00   -0.14032E-01  8948   0.792E-01    0.149E+01
RMM:  26    -0.307170884640E+03   -0.15967E+00   -0.63830E-02  8553   0.415E-01    0.149E+01
RMM:  27    -0.307212673148E+03   -0.41789E-01   -0.29982E-02  8309   0.284E-01    0.152E+01
RMM:  28    -0.307221010870E+03   -0.83377E-02   -0.17575E-02  8141   0.276E-01    0.161E+01
RMM:  29    -0.307294049727E+03   -0.73039E-01   -0.36571E-02  8389   0.375E-01    0.176E+01
RMM:  30    -0.307217058385E+03    0.76991E-01   -0.28787E-02  8654   0.372E-01    0.193E+01
RMM:  31    -0.307303387775E+03   -0.86329E-01   -0.10391E-02  8613   0.227E-01    0.225E+01
RMM:  32    -0.307311220638E+03   -0.78329E-02   -0.22327E-02  8514   0.301E-01    0.239E+01
RMM:  33    -0.307323623340E+03   -0.12403E-01   -0.69920E-03  8705   0.179E-01    0.238E+01
RMM:  34    -0.307320544977E+03    0.30784E-02   -0.10009E-01  8469   0.553E-01    0.235E+01
RMM:  35    -0.307115562836E+03    0.20498E+00   -0.19972E-01  8389   0.866E-01    0.229E+01
RMM:  36    -0.306654756366E+03    0.46081E+00   -0.36613E-01  8356   0.119E+00    0.199E+01
RMM:  37    -0.306834681037E+03   -0.17992E+00   -0.13688E-01  8544   0.694E-01    0.164E+01
RMM:  38    -0.306687941034E+03    0.14674E+00   -0.14113E-01  8609   0.755E-01    0.127E+01
RMM:  39    -0.306901418540E+03   -0.21348E+00   -0.54480E-02  8560   0.533E-01    0.147E+01
RMM:  40    -0.307188893541E+03   -0.28748E+00   -0.21173E-01  8477   0.957E-01    0.149E+01
RMM:  41    -0.307447068084E+03   -0.25817E+00   -0.30902E-01  8439   0.103E+00    0.150E+01
RMM:  42    -0.306734730130E+03    0.71234E+00   -0.92737E-01  8436   0.189E+00    0.165E+01
RMM:  43    -0.306851935337E+03   -0.11721E+00   -0.22068E-01  8662   0.860E-01    0.167E+01
RMM:  44    -0.308312614220E+03   -0.14607E+01   -0.72374E-01  8356   0.143E+00    0.174E+01
RMM:  45    -0.310026047273E+03   -0.17134E+01   -0.10344E+00  8446   0.161E+00    0.235E+01
RMM:  46    -0.310685089576E+03   -0.65904E+00   -0.15476E-01  9009   0.844E-01    0.250E+01
RMM:  47    -0.310759539544E+03   -0.74450E-01   -0.39302E-02  9197   0.396E-01    0.259E+01
RMM:  48    -0.310780341746E+03   -0.20802E-01   -0.13132E-02  8452   0.237E-01    0.269E+01
RMM:  49    -0.310959335098E+03   -0.17899E+00   -0.12600E-02  8450   0.234E-01    0.283E+01
RMM:  50    -0.311148172713E+03   -0.18884E+00   -0.15634E-02  8389   0.254E-01    0.293E+01
RMM:  51    -0.308415493026E+03    0.27327E+01   -0.10234E+00  8454   0.184E+00    0.281E+01
RMM:  52    -0.308558044354E+03   -0.14255E+00   -0.61428E-02  9893   0.531E-01    0.267E+01
RMM:  53    -0.309260323613E+03   -0.70228E+00   -0.71823E-02  8395   0.527E-01    0.261E+01
RMM:  54    -0.309598732012E+03   -0.33841E+00   -0.39230E-02  8498   0.411E-01    0.262E+01
RMM:  55    -0.309634407057E+03   -0.35675E-01   -0.34916E-02  8582   0.420E-01    0.264E+01
RMM:  56    -0.309790532803E+03   -0.15613E+00   -0.13918E-01  8434   0.695E-01    0.278E+01
RMM:  57    -0.309733483613E+03    0.57049E-01   -0.39500E-02  8753   0.434E-01    0.281E+01
RMM:  58    -0.309745754730E+03   -0.12271E-01   -0.84159E-03  9462   0.180E-01    0.288E+01
RMM:  59    -0.309897613398E+03   -0.15186E+00   -0.32293E-02  8600   0.386E-01    0.294E+01
RMM:  60    -0.309875655637E+03    0.21958E-01   -0.10861E-02  8622   0.224E-01
   1 F= -.30987566E+03 E0= -.30987559E+03  d E =-.309876E+03  mag=    17.9014
 curvature:   0.00 expect dE= 0.000E+00 dE for cont linesearch  0.000E+00
 trial: gam= 0.00000 g(F)=  0.338E+00 g(S)=  0.000E+00 ort = 0.000E+00 (trialstep = 0.100E+01)
 search vector abs. value=  0.338E+00
 bond charge predicted
       N       E                     dE             d eps       ncg     rms          rms(c)
DAV:   1    -0.309203007148E+03    0.69461E+00   -0.87002E+01 10464   0.512E+01    0.323E+01
RMM:   2    -0.347747977775E+03   -0.38545E+02   -0.18961E+02 11054   0.244E+01    0.669E+01
RMM:   3    -0.318305273796E+03    0.29443E+02   -0.42006E+01  8831   0.132E+01    0.505E+01
RMM:   4    -0.311906911844E+03    0.63984E+01   -0.15759E+01  8886   0.828E+00    0.281E+01
RMM:   5    -0.307002849518E+03    0.49041E+01   -0.98875E+00  9343   0.593E+00    0.169E+01
RMM:   6    -0.308748903739E+03   -0.17461E+01   -0.12137E+00  9319   0.207E+00    0.130E+01
RMM:   7    -0.309088200270E+03   -0.33930E+00   -0.78014E-01  8613   0.152E+00    0.116E+01
RMM:   8    -0.309010049621E+03    0.78151E-01   -0.46320E-01  8556   0.133E+00    0.847E+00
RMM:   9    -0.308855181495E+03    0.15487E+00   -0.10612E+00  8578   0.196E+00    0.197E+01
RMM:  10    -0.309244083825E+03   -0.38890E+00   -0.22616E-01  9088   0.106E+00    0.213E+01
RMM:  11    -0.309248907933E+03   -0.48241E-02   -0.25759E-02 10241   0.338E-01    0.215E+01
RMM:  12    -0.309207589011E+03    0.41319E-01   -0.34802E-02  8844   0.362E-01    0.213E+01
RMM:  13    -0.309081333640E+03    0.12626E+00   -0.55937E-02  8682   0.445E-01    0.204E+01
RMM:  14    -0.308950572949E+03    0.13076E+00   -0.24476E-02  9020   0.313E-01    0.196E+01
RMM:  15    -0.308743563825E+03    0.20701E+00   -0.63705E-02  8762   0.503E-01    0.187E+01
RMM:  16    -0.308654233066E+03    0.89331E-01   -0.93909E-02  8646   0.602E-01    0.194E+01
RMM:  17    -0.308241624722E+03    0.41261E+00   -0.58187E-01  8713   0.146E+00    0.147E+01
RMM:  18    -0.308815021891E+03   -0.57340E+00   -0.50196E-01  8788   0.144E+00    0.870E+00
RMM:  19    -0.309199790977E+03   -0.38477E+00   -0.30151E-01  8845   0.103E+00    0.888E+00
RMM:  20    -0.309447366133E+03   -0.24758E+00   -0.16233E-01  8722   0.767E-01    0.115E+01
RMM:  21    -0.309635415437E+03   -0.18805E+00   -0.39984E-02  9110   0.410E-01    0.189E+01
RMM:  22    -0.310122679300E+03   -0.48726E+00   -0.83142E-02  8598   0.616E-01    0.217E+01
RMM:  23    -0.310231039177E+03   -0.10836E+00   -0.39979E-02  8677   0.420E-01    0.226E+01
RMM:  24    -0.310537296298E+03   -0.30626E+00   -0.30445E-02  9001   0.355E-01    0.259E+01
RMM:  25    -0.310583098676E+03   -0.45802E-01   -0.28392E-02  8518   0.337E-01    0.281E+01
RMM:  26    -0.310571607479E+03    0.11491E-01   -0.23235E-02  8405   0.314E-01    0.289E+01
RMM:  27    -0.310609436455E+03   -0.37829E-01   -0.12023E-02  8748   0.226E-01    0.291E+01
RMM:  28    -0.310603179054E+03    0.62574E-02   -0.26439E-03  8552   0.103E-01    0.291E+01
RMM:  29    -0.310646393123E+03   -0.43214E-01   -0.70813E-03  8743   0.184E-01    0.293E+01
RMM:  30    -0.310585063808E+03    0.61329E-01   -0.57064E-03  9073   0.144E-01    0.292E+01
RMM:  31    -0.310407674166E+03    0.17739E+00   -0.12686E-02  8999   0.213E-01    0.289E+01
RMM:  32    -0.310535639348E+03   -0.12797E+00   -0.44531E-03  9055   0.139E-01    0.290E+01
RMM:  33    -0.310518942339E+03    0.16697E-01   -0.36878E-03  8844   0.122E-01    0.289E+01
RMM:  34    -0.310269608990E+03    0.24933E+00   -0.15872E-02  8577   0.246E-01    0.282E+01
RMM:  35    -0.309371818426E+03    0.89779E+00   -0.19810E-01  8758   0.855E-01    0.213E+01
RMM:  36    -0.309689751603E+03   -0.31793E+00   -0.55057E-02  9121   0.468E-01    0.187E+01
RMM:  37    -0.309880632540E+03   -0.19088E+00   -0.59788E-02  8641   0.456E-01    0.179E+01
RMM:  38    -0.309968285369E+03   -0.87653E-01   -0.27439E-02  8503   0.341E-01    0.179E+01
RMM:  39    -0.309987141889E+03   -0.18857E-01   -0.14824E-02  8810   0.255E-01    0.177E+01
RMM:  40    -0.309951716001E+03    0.35426E-01   -0.19977E-02  8532   0.280E-01    0.179E+01
RMM:  41    -0.309991117917E+03   -0.39402E-01   -0.94520E-03  7929   0.200E-01    0.184E+01
RMM:  42    -0.309934466560E+03    0.56651E-01   -0.21527E-02  8798   0.304E-01    0.186E+01
RMM:  43    -0.309666208991E+03    0.26826E+00   -0.16412E-01  8923   0.767E-01    0.183E+01
RMM:  44    -0.309551711639E+03    0.11450E+00   -0.45321E-01  8663   0.136E+00    0.177E+01
RMM:  45    -0.309802377102E+03   -0.25067E+00   -0.18236E-01  8484   0.897E-01    0.175E+01
RMM:  46    -0.309841649497E+03   -0.39272E-01   -0.21423E-02 10414   0.286E-01    0.180E+01
RMM:  47    -0.309970342746E+03   -0.12869E+00   -0.55302E-02  8655   0.474E-01    0.186E+01
RMM:  48    -0.310107859697E+03   -0.13752E+00   -0.29188E-02  8689   0.349E-01    0.188E+01
RMM:  49    -0.310040784859E+03    0.67075E-01   -0.77142E-03  8983   0.178E-01    0.188E+01
RMM:  50    -0.309866828312E+03    0.17396E+00   -0.97132E-02  8951   0.589E-01    0.195E+01
RMM:  51    -0.309919507384E+03   -0.52679E-01   -0.15085E-02  8904   0.279E-01    0.203E+01
RMM:  52    -0.310121286417E+03   -0.20178E+00   -0.11119E-01  8987   0.652E-01    0.233E+01
RMM:  53    -0.310164659047E+03   -0.43373E-01   -0.31746E-02  8880   0.403E-01    0.226E+01
RMM:  54    -0.310363855094E+03   -0.19920E+00   -0.73408E-02  8938   0.530E-01    0.222E+01
RMM:  55    -0.310249133042E+03    0.11472E+00   -0.66628E-02  8675   0.518E-01    0.208E+01
RMM:  56    -0.310294873447E+03   -0.45740E-01   -0.57628E-03  9715   0.163E-01    0.211E+01
RMM:  57    -0.309895096609E+03    0.39978E+00   -0.71617E-02  8883   0.514E-01    0.175E+01
RMM:  58    -0.309670129691E+03    0.22497E+00   -0.39130E-02  8935   0.395E-01    0.131E+01
RMM:  59    -0.309696923344E+03   -0.26794E-01   -0.40419E-02  8607   0.445E-01    0.970E+00
RMM:  60    -0.309976078400E+03   -0.27916E+00   -0.75600E-02  8443   0.629E-01
   2 F= -.30997608E+03 E0= -.30997666E+03  d E =-.100423E+00  mag=    18.2525
 trial-energy change:   -0.100423  1 .order   -0.072781   -0.338092    0.192530
 step:   0.6372(harm=  0.6372)  dis= 0.03158  next Energy=  -309.983365 (dE=-0.108E+00)
 bond charge predicted
       N       E                     dE             d eps       ncg     rms          rms(c)
DAV:   1    -0.310120353463E+03   -0.42343E+00   -0.11260E+01 10568   0.188E+01    0.104E+01
RMM:   2    -0.313352463706E+03   -0.32321E+01   -0.54564E+00  9416   0.526E+00    0.307E+01
RMM:   3    -0.310067331138E+03    0.32851E+01   -0.25779E+00  9136   0.287E+00    0.117E+01
RMM:   4    -0.310225449447E+03   -0.15812E+00   -0.61377E-01  8964   0.163E+00    0.726E+00
RMM:   5    -0.310438161766E+03   -0.21271E+00   -0.38654E-01  8581   0.128E+00    0.556E+00
RMM:   6    -0.310612474158E+03   -0.17431E+00   -0.90164E-02  9597   0.690E-01    0.473E+00
RMM:   7    -0.310697959221E+03   -0.85485E-01   -0.95022E-02  8772   0.615E-01    0.392E+00
RMM:   8    -0.310983201771E+03   -0.28524E+00   -0.63695E-02  8483   0.519E-01    0.756E+00
RMM:   9    -0.310917682432E+03    0.65519E-01   -0.26031E-02  8434   0.327E-01    0.713E+00
RMM:  10    -0.310872754765E+03    0.44928E-01   -0.12974E-02  9005   0.202E-01    0.420E+00
RMM:  11    -0.311037083448E+03   -0.16433E+00   -0.51604E-02  8513   0.399E-01    0.302E+00
RMM:  12    -0.311198494952E+03   -0.16141E+00   -0.25441E-02  8400   0.340E-01    0.534E+00
RMM:  13    -0.311162519421E+03    0.35976E-01   -0.21428E-02  8359   0.297E-01    0.485E+00
RMM:  14    -0.311175851715E+03   -0.13332E-01   -0.12080E-02  8272   0.205E-01    0.323E+00
RMM:  15    -0.311219221277E+03   -0.43370E-01   -0.79423E-03  8409   0.161E-01    0.557E-01
RMM:  16    -0.311307952378E+03   -0.88731E-01   -0.76667E-03  7963   0.181E-01    0.158E+00
RMM:  17    -0.311370951367E+03   -0.62999E-01   -0.91440E-03  7979   0.176E-01    0.899E-01
RMM:  18    -0.311459714635E+03   -0.88763E-01   -0.98867E-03  7902   0.148E-01    0.802E-01
RMM:  19    -0.311524259015E+03   -0.64544E-01   -0.79045E-03  7927   0.123E-01    0.814E-01
RMM:  20    -0.311585909514E+03   -0.61650E-01   -0.98399E-03  8139   0.121E-01    0.393E-01
RMM:  21    -0.311618232135E+03   -0.32323E-01   -0.48907E-03  7916   0.867E-02    0.571E-01
RMM:  22    -0.311635568209E+03   -0.17336E-01   -0.16530E-03  8097   0.581E-02    0.150E-01
RMM:  23    -0.311676391985E+03   -0.40824E-01   -0.14915E-03  7676   0.484E-02    0.779E-01
RMM:  24    -0.311709211303E+03   -0.32819E-01   -0.17498E-03  7873   0.591E-02    0.736E-01
RMM:  25    -0.311728454701E+03   -0.19243E-01   -0.64260E-04  7767   0.346E-02    0.459E-01
RMM:  26    -0.311741754004E+03   -0.13299E-01   -0.28759E-04  7861   0.267E-02    0.698E-02
RMM:  27    -0.311767176925E+03   -0.25423E-01   -0.43395E-04  7457   0.339E-02    0.412E-01
RMM:  28    -0.311787458911E+03   -0.20282E-01   -0.38124E-04  7461   0.312E-02    0.629E-01
RMM:  29    -0.311803221649E+03   -0.15763E-01   -0.63832E-04  7780   0.396E-02    0.217E-01
RMM:  30    -0.311815224682E+03   -0.12003E-01   -0.47603E-04  7696   0.316E-02    0.428E-01
RMM:  31    -0.311820352316E+03   -0.51276E-02   -0.22681E-04  7430   0.305E-02    0.637E-01
RMM:  32    -0.311821865672E+03   -0.15134E-02   -0.11879E-04  7178   0.230E-02    0.573E-01
RMM:  33    -0.311824839184E+03   -0.29735E-02   -0.28408E-04  7818   0.297E-02    0.362E-02
RMM:  34    -0.311830380271E+03   -0.55411E-02   -0.22545E-04  7579   0.308E-02    0.716E-01
RMM:  35    -0.311831742390E+03   -0.13621E-02   -0.27757E-04  7238   0.360E-02    0.970E-01
RMM:  36    -0.311830917412E+03    0.82498E-03   -0.27649E-04  7599   0.329E-02    0.688E-01
RMM:  37    -0.311831908797E+03   -0.99139E-03   -0.37036E-04  7833   0.345E-02    0.122E-01
RMM:  38    -0.311834194063E+03   -0.22853E-02   -0.18559E-04  6550   0.309E-02    0.619E-01
RMM:  39    -0.311834699373E+03   -0.50531E-03   -0.16393E-04  6780   0.293E-02    0.804E-01
RMM:  40    -0.311834231918E+03    0.46745E-03   -0.15444E-04  7187   0.245E-02    0.676E-01
RMM:  41    -0.311834115011E+03    0.11691E-03   -0.12273E-04  7283   0.199E-02    0.263E-01
RMM:  42    -0.311834885804E+03   -0.77079E-03   -0.54104E-05  5669   0.177E-02    0.127E-01
RMM:  43    -0.311835351437E+03   -0.46563E-03   -0.76032E-05  5665   0.201E-02    0.287E-01
RMM:  44    -0.311835320274E+03    0.31163E-04   -0.33731E-05  5301   0.135E-02    0.338E-01
RMM:  45    -0.311835239027E+03    0.81248E-04   -0.12954E-05  4778   0.789E-03    0.312E-01
RMM:  46    -0.311835215918E+03    0.23109E-04   -0.30206E-06  4188   0.352E-03    0.269E-01
RMM:  47    -0.311835223470E+03   -0.75517E-05   -0.27746E-06  4249   0.387E-03
   3 F= -.31183522E+03 E0= -.31183236E+03  d E =-.195957E+01  mag=    19.0395
 curvature:  -0.32 expect dE=-0.604E-01 dE for cont linesearch -0.245E-01
 ZBRENT: interpolating
 opt :   0.4314  next Energy=  -311.851816 (dE=-0.198E+01)
 bond charge predicted
       N       E                     dE             d eps       ncg     rms          rms(c)
DAV:   1    -0.311798593256E+03    0.36623E-01   -0.35927E+00 10568   0.104E+01    0.123E+00
RMM:   2    -0.311862898782E+03   -0.64306E-01   -0.55356E-01 10367   0.195E+00    0.198E+00
RMM:   3    -0.311861596866E+03    0.13019E-02   -0.39796E-02  8964   0.463E-01    0.178E+00
RMM:   4    -0.311861660252E+03   -0.63386E-04   -0.79596E-03  9024   0.194E-01    0.115E+00
RMM:   5    -0.311859323727E+03    0.23365E-02   -0.19538E-03  8786   0.944E-02    0.322E-01
RMM:   6    -0.311862047229E+03   -0.27235E-02   -0.76823E-04  8063   0.652E-02    0.886E-01
RMM:   7    -0.311860030628E+03    0.20166E-02   -0.15142E-03  8373   0.827E-02    0.271E-01
RMM:   8    -0.311861391673E+03   -0.13610E-02   -0.57628E-04  8452   0.508E-02    0.787E-01
RMM:   9    -0.311861261115E+03    0.13056E-03   -0.58676E-04  7837   0.537E-02    0.907E-01
RMM:  10    -0.311860011172E+03    0.12499E-02   -0.23012E-04  7642   0.314E-02    0.623E-01
RMM:  11    -0.311859928746E+03    0.82427E-04   -0.13773E-04  7950   0.216E-02    0.556E-02
RMM:  12    -0.311860849397E+03   -0.92065E-03   -0.99800E-05  6068   0.242E-02    0.370E-01
RMM:  13    -0.311861005645E+03   -0.15625E-03   -0.96076E-05  6169   0.235E-02    0.541E-01
RMM:  14    -0.311860713038E+03    0.29261E-03   -0.51071E-05  5917   0.160E-02    0.548E-01
RMM:  15    -0.311860561577E+03    0.15146E-03   -0.92997E-06  4691   0.701E-03    0.510E-01
RMM:  16    -0.311860414772E+03    0.14680E-03   -0.13593E-05  5003   0.682E-03    0.356E-01
RMM:  17    -0.311860454948E+03   -0.40176E-04   -0.32065E-05  5990   0.109E-02    0.557E-02
RMM:  18    -0.311860786971E+03   -0.33202E-03   -0.31351E-05  5303   0.135E-02    0.228E-01
RMM:  19    -0.311860887681E+03   -0.10071E-03   -0.35865E-05  5233   0.143E-02    0.371E-01
RMM:  20    -0.311860759881E+03    0.12780E-03   -0.21672E-05  5118   0.110E-02    0.395E-01
RMM:  21    -0.311860598023E+03    0.16186E-03   -0.16449E-05  5142   0.794E-03    0.282E-01
RMM:  22    -0.311860625249E+03   -0.27226E-04   -0.56964E-05  7105   0.130E-02    0.750E-02
RMM:  23    -0.311860997248E+03   -0.37200E-03   -0.36739E-05  5183   0.148E-02    0.359E-01
RMM:  24    -0.311860946907E+03    0.50341E-04   -0.43355E-05  5346   0.157E-02    0.458E-01
RMM:  25    -0.311860763533E+03    0.18337E-03   -0.19203E-05  5016   0.100E-02    0.458E-01
RMM:  26    -0.311860694316E+03    0.69217E-04   -0.37057E-06  4399   0.425E-03    0.438E-01
RMM:  27    -0.311860633224E+03    0.61092E-04   -0.43172E-06  4403   0.401E-03    0.360E-01
RMM:  28    -0.311860618708E+03    0.14516E-04   -0.90150E-06  4680   0.603E-03    0.199E-01
RMM:  29    -0.311860733869E+03   -0.11516E-03   -0.11690E-05  4678   0.789E-03    0.161E-02
RMM:  30    -0.311860862761E+03   -0.12889E-03   -0.13862E-05  4764   0.891E-03    0.794E-02
RMM:  31    -0.311860883602E+03   -0.20841E-04   -0.11145E-05  4711   0.757E-03    0.653E-02
RMM:  32    -0.311860901042E+03   -0.17440E-04   -0.79796E-06  4458   0.515E-03    0.393E-02
RMM:  33    -0.311860955458E+03   -0.54416E-04   -0.41311E-06  4254   0.468E-03    0.143E-01
RMM:  34    -0.311860947601E+03    0.78570E-05   -0.43192E-06  4254   0.517E-03
   4 F= -.31186095E+03 E0= -.31185813E+03  d E =-.198529E+01  mag=    19.0456
 curvature:  -0.22 expect dE=-0.193E-01 dE for cont linesearch -0.478E-02
 ZBRENT: interpolating
 opt :   0.2416  next Energy=  -311.870838 (dE=-0.200E+01)
 bond charge predicted
       N       E                     dE             d eps       ncg     rms          rms(c)
DAV:   1    -0.311818654882E+03    0.42301E-01   -0.30680E+00 10416   0.961E+00    0.115E+00
RMM:   2    -0.311867968688E+03   -0.49314E-01   -0.46376E-01 10427   0.177E+00    0.612E-01
RMM:   3    -0.311870602035E+03   -0.26333E-02   -0.20777E-02  8846   0.344E-01    0.348E-01
RMM:   4    -0.311870352345E+03    0.24969E-03   -0.16201E-03  9304   0.826E-02    0.336E-01
RMM:   5    -0.311870242853E+03    0.10949E-03   -0.42421E-04  8498   0.406E-02    0.387E-01
RMM:   6    -0.311869887196E+03    0.35566E-03   -0.10765E-03  8043   0.671E-02    0.230E-01
RMM:   7    -0.311869822097E+03    0.65099E-04   -0.24800E-04  8450   0.350E-02    0.204E-01
RMM:   8    -0.311869847634E+03   -0.25537E-04   -0.80665E-05  6439   0.213E-02    0.221E-01
RMM:   9    -0.311869736183E+03    0.11145E-03   -0.17581E-05  5391   0.102E-02    0.151E-01
RMM:  10    -0.311869681410E+03    0.54773E-04   -0.28930E-05  6068   0.102E-02    0.663E-02
RMM:  11    -0.311869740998E+03   -0.59588E-04   -0.16708E-05  5180   0.106E-02    0.185E-01
RMM:  12    -0.311869687912E+03    0.53085E-04   -0.14159E-05  4979   0.899E-03    0.163E-01
RMM:  13    -0.311869663264E+03    0.24648E-04   -0.41775E-06  4492   0.417E-03    0.910E-02
RMM:  14    -0.311869679387E+03   -0.16123E-04   -0.71287E-06  4740   0.563E-03    0.545E-02
RMM:  15    -0.311869711854E+03   -0.32467E-04   -0.65697E-06  4430   0.667E-03    0.144E-01
RMM:  16    -0.311869672151E+03    0.39703E-04   -0.56421E-06  4473   0.591E-03    0.156E-01
RMM:  17    -0.311869609400E+03    0.62751E-04   -0.54121E-06  4408   0.474E-03    0.801E-02
RMM:  18    -0.311869601595E+03    0.78056E-05   -0.11089E-05  4863   0.634E-03
   5 F= -.31186960E+03 E0= -.31186617E+03  d E =-.199395E+01  mag=    19.0589
 curvature:  -0.45 expect dE=-0.172E-01 dE for cont linesearch -0.133E-03
 ZBRENT: interpolating
 opt :   0.2203  next Energy=  -311.869724 (dE=-0.199E+01)
 bond charge predicted
       N       E                     dE             d eps       ncg     rms          rms(c)
DAV:   1    -0.311869122338E+03    0.48706E-03   -0.38380E-02 10608   0.108E+00    0.234E-01
RMM:   2    -0.311873083781E+03   -0.39614E-02   -0.77434E-03 10064   0.222E-01    0.155E+00
RMM:   3    -0.311869689038E+03    0.33947E-02   -0.19396E-03  8426   0.962E-02    0.116E+00
RMM:   4    -0.311867946921E+03    0.17421E-02   -0.34709E-04  7896   0.357E-02    0.580E-01
RMM:   5    -0.311868847669E+03   -0.90075E-03   -0.15409E-04  7459   0.303E-02    0.117E-01
RMM:   6    -0.311869758028E+03   -0.91036E-03   -0.12394E-04  6451   0.271E-02    0.355E-01
RMM:   7    -0.311869911867E+03   -0.15384E-03   -0.14190E-04  7005   0.279E-02    0.475E-01
RMM:   8    -0.311869555541E+03    0.35633E-03   -0.78737E-05  7054   0.184E-02    0.318E-01
RMM:   9    -0.311869606604E+03   -0.51063E-04   -0.57658E-05  7119   0.140E-02    0.294E-02
RMM:  10    -0.311869936140E+03   -0.32954E-03   -0.39041E-05  5487   0.155E-02    0.259E-01
RMM:  11    -0.311869868803E+03    0.67336E-04   -0.40232E-05  5514   0.154E-02    0.284E-01
RMM:  12    -0.311869735932E+03    0.13287E-03   -0.14187E-05  4885   0.813E-03    0.209E-01
RMM:  13    -0.311869720669E+03    0.15262E-04   -0.51914E-06  4374   0.478E-03    0.102E-01
RMM:  14    -0.311869776424E+03   -0.55755E-04   -0.50103E-06  4486   0.551E-03    0.168E-02
RMM:  15    -0.311869836137E+03   -0.59712E-04   -0.52326E-06  4358   0.596E-03    0.879E-02
RMM:  16    -0.311869853239E+03   -0.17103E-04   -0.37179E-06  4336   0.496E-03    0.106E-01
RMM:  17    -0.311869864026E+03   -0.10786E-04   -0.42505E-06  4338   0.425E-03    0.424E-02
RMM:  18    -0.311869954585E+03   -0.90559E-04   -0.73647E-06  4650   0.527E-03    0.107E-01
RMM:  19    -0.311870013943E+03   -0.59358E-04   -0.65455E-06  4352   0.647E-03    0.193E-01
RMM:  20    -0.311870020552E+03   -0.66092E-05   -0.42230E-06  4340   0.528E-03
   6 F= -.31187002E+03 E0= -.31186673E+03  d E =-.199436E+01  mag=    19.0661
 curvature:  -0.41 expect dE=-0.154E-01 dE for cont linesearch -0.156E-07
 trial: gam= 0.11113 g(F)=  0.375E-01 g(S)=  0.000E+00 ort =-0.114E-03 (trialstep = 0.844E+00)
 search vector abs. value=  0.416E-01
 bond charge predicted
       N       E                     dE             d eps       ncg     rms          rms(c)
DAV:   1    -0.311798738038E+03    0.71276E-01   -0.73197E+00  9656   0.128E+01    0.161E+00
RMM:   2    -0.311937268215E+03   -0.13853E+00   -0.78408E-01 10416   0.250E+00    0.693E+00
RMM:   3    -0.311860946667E+03    0.76322E-01   -0.76628E-02  8914   0.681E-01    0.390E+00
RMM:   4    -0.311858605770E+03    0.23409E-02   -0.20466E-02  8829   0.296E-01    0.145E+00
RMM:   5    -0.311887318027E+03   -0.28712E-01   -0.13343E-02  8697   0.265E-01    0.237E+00
RMM:   6    -0.311874462258E+03    0.12856E-01   -0.58040E-03  8534   0.162E-01    0.147E+00
RMM:   7    -0.311874953251E+03   -0.49099E-03   -0.46595E-03  8796   0.127E-01    0.126E+00
RMM:   8    -0.311884754658E+03   -0.98014E-02   -0.36007E-03  8298   0.131E-01    0.251E+00
RMM:   9    -0.311873300713E+03    0.11454E-01   -0.38776E-03  8562   0.132E-01    0.158E+00
RMM:  10    -0.311873159708E+03    0.14101E-03   -0.17385E-03  8693   0.779E-02    0.485E-01
RMM:  11    -0.311879089583E+03   -0.59299E-02   -0.14502E-03  7738   0.843E-02    0.113E+00
RMM:  12    -0.311877958312E+03    0.11313E-02   -0.56157E-04  7618   0.539E-02    0.124E+00
RMM:  13    -0.311878001270E+03   -0.42959E-04   -0.68716E-05  6171   0.209E-02    0.148E+00
RMM:  14    -0.311875165966E+03    0.28353E-02   -0.28153E-04  8161   0.314E-02    0.105E+00
RMM:  15    -0.311875374541E+03   -0.20857E-03   -0.70683E-05  7307   0.185E-02    0.632E-01
RMM:  16    -0.311876059511E+03   -0.68497E-03   -0.94623E-05  6955   0.226E-02    0.137E-01
RMM:  17    -0.311877076922E+03   -0.10174E-02   -0.10440E-04  6193   0.253E-02    0.354E-01
RMM:  18    -0.311877500566E+03   -0.42364E-03   -0.10701E-04  5967   0.249E-02    0.634E-01
RMM:  19    -0.311877442852E+03    0.57714E-04   -0.54163E-05  5486   0.181E-02    0.826E-01
RMM:  20    -0.311877434846E+03    0.80057E-05   -0.26198E-05  5097   0.128E-02
   7 F= -.31187743E+03 E0= -.31187380E+03  d E =-.741429E-02  mag=    19.0647
 trial-energy change:   -0.007414  1 .order   -0.006321   -0.031606    0.018964
 step:   0.5523(harm=  0.5275)  dis= 0.00534  next Energy=  -311.880667 (dE=-0.106E-01)
 bond charge predicted
       N       E                     dE             d eps       ncg     rms          rms(c)
DAV:   1    -0.311871679323E+03    0.57635E-02   -0.87455E-01  9864   0.441E+00    0.142E+00
RMM:   2    -0.311988584146E+03   -0.11690E+00   -0.16261E-01 10267   0.102E+00    0.741E+00
RMM:   3    -0.311897669484E+03    0.90915E-01   -0.59730E-02  8833   0.497E-01    0.516E+00
RMM:   4    -0.311855245393E+03    0.42424E-01   -0.11276E-02  9131   0.188E-01    0.313E+00
RMM:   5    -0.311863005205E+03   -0.77598E-02   -0.31918E-03  9006   0.124E-01    0.146E+00
RMM:   6    -0.311874489328E+03   -0.11484E-01   -0.17620E-03  8197   0.101E-01    0.476E-01
RMM:   7    -0.311883115736E+03   -0.86264E-02   -0.19479E-03  7911   0.105E-01    0.144E+00
RMM:   8    -0.311882778240E+03    0.33750E-03   -0.86442E-04  7623   0.681E-02    0.189E+00
RMM:   9    -0.311890713835E+03   -0.79356E-02   -0.63370E-04  8200   0.536E-02    0.338E+00
RMM:  10    -0.311885746069E+03    0.49678E-02   -0.10503E-03  7861   0.687E-02    0.379E+00
RMM:  11    -0.311882746387E+03    0.29997E-02   -0.25796E-04  7348   0.348E-02    0.402E+00
RMM:  12    -0.311878360246E+03    0.43861E-02   -0.14421E-04  8161   0.242E-02    0.389E+00
RMM:  13    -0.311883093571E+03   -0.47333E-02   -0.16722E-04  7812   0.249E-02    0.426E+00
RMM:  14    -0.311907186041E+03   -0.24092E-01   -0.13644E-03  8396   0.662E-02    0.605E+00
RMM:  15    -0.311916982567E+03   -0.97965E-02   -0.96529E-04  7919   0.686E-02    0.724E+00
RMM:  16    -0.311914782483E+03    0.22001E-02   -0.56239E-04  7436   0.526E-02    0.769E+00
RMM:  17    -0.311915763558E+03   -0.98108E-03   -0.17234E-04  7097   0.284E-02    0.791E+00
RMM:  18    -0.311916254276E+03   -0.49072E-03   -0.58111E-05  5980   0.170E-02    0.801E+00
RMM:  19    -0.311917563354E+03   -0.13091E-02   -0.12747E-05  5061   0.873E-03    0.807E+00
RMM:  20    -0.311914778819E+03    0.27845E-02   -0.58306E-06  4803   0.635E-03    0.803E+00
RMM:  21    -0.311907158609E+03    0.76202E-02   -0.49975E-05  7005   0.118E-02    0.787E+00
RMM:  22    -0.311895478040E+03    0.11681E-01   -0.14753E-04  7739   0.212E-02    0.753E+00
RMM:  23    -0.311859971564E+03    0.35506E-01   -0.17626E-03  8528   0.722E-02    0.598E+00
RMM:  24    -0.311850000605E+03    0.99710E-02   -0.17887E-03  8636   0.847E-02    0.380E+00
RMM:  25    -0.311859320981E+03   -0.93204E-02   -0.21293E-03  8212   0.103E-01    0.135E+00
RMM:  26    -0.311876139974E+03   -0.16819E-01   -0.26339E-03  7932   0.115E-01    0.638E-01
RMM:  27    -0.311879264825E+03   -0.31249E-02   -0.78228E-04  7793   0.640E-02    0.272E-01
RMM:  28    -0.311881024211E+03   -0.17594E-02   -0.32358E-04  7697   0.406E-02    0.697E-01
RMM:  29    -0.311882664650E+03   -0.16404E-02   -0.30290E-04  7482   0.400E-02    0.136E+00
RMM:  30    -0.311882865854E+03   -0.20120E-03   -0.22566E-04  6820   0.369E-02    0.181E+00
RMM:  31    -0.311883456033E+03   -0.59018E-03   -0.14823E-04  6866   0.300E-02    0.226E+00
RMM:  32    -0.311882962819E+03    0.49321E-03   -0.10825E-04  6051   0.259E-02    0.255E+00
RMM:  33    -0.311882784439E+03    0.17838E-03   -0.59398E-05  5639   0.192E-02    0.279E+00
RMM:  34    -0.311882316109E+03    0.46833E-03   -0.35744E-05  5333   0.148E-02    0.295E+00
RMM:  35    -0.311881884796E+03    0.43131E-03   -0.18308E-05  5056   0.109E-02    0.307E+00
RMM:  36    -0.311881388048E+03    0.49675E-03   -0.95549E-06  4704   0.799E-03    0.313E+00
RMM:  37    -0.311881105146E+03    0.28290E-03   -0.39966E-06  4533   0.536E-03    0.318E+00
RMM:  38    -0.311880871533E+03    0.23361E-03   -0.27894E-06  4469   0.431E-03    0.320E+00
RMM:  39    -0.311878667502E+03    0.22040E-02   -0.23501E-05  5753   0.820E-03    0.306E+00
RMM:  40    -0.311877019505E+03    0.16480E-02   -0.26703E-05  5984   0.992E-03    0.282E+00
RMM:  41    -0.311875980717E+03    0.10388E-02   -0.49827E-05  6761   0.148E-02    0.249E+00
RMM:  42    -0.311875210180E+03    0.77054E-03   -0.75230E-05  7090   0.194E-02    0.205E+00
RMM:  43    -0.311875997083E+03   -0.78690E-03   -0.82278E-05  6128   0.223E-02    0.164E+00
RMM:  44    -0.311877490787E+03   -0.14937E-02   -0.81696E-05  5817   0.223E-02    0.138E+00
RMM:  45    -0.311878737407E+03   -0.12466E-02   -0.57707E-05  5703   0.180E-02    0.129E+00
RMM:  46    -0.311879361678E+03   -0.62427E-03   -0.24098E-05  5243   0.111E-02    0.128E+00
RMM:  47    -0.311879739208E+03   -0.37753E-03   -0.12229E-05  4801   0.695E-03    0.133E+00
RMM:  48    -0.311879727992E+03    0.11216E-04   -0.21056E-06  4141   0.344E-03    0.136E+00
RMM:  49    -0.311879675777E+03    0.52215E-04   -0.69320E-07  3616   0.237E-03    0.137E+00
RMM:  50    -0.311879603641E+03    0.72136E-04   -0.31521E-07  3116   0.191E-03    0.138E+00
RMM:  51    -0.311879558841E+03    0.44801E-04   -0.10547E-07  2301   0.143E-03    0.137E+00
RMM:  52    -0.311878795704E+03    0.76314E-03   -0.22729E-05  5320   0.903E-03    0.118E+00
RMM:  53    -0.311879019164E+03   -0.22346E-03   -0.15685E-05  4894   0.988E-03    0.103E+00
RMM:  54    -0.311879257042E+03   -0.23788E-03   -0.15932E-05  4887   0.970E-03    0.910E-01
RMM:  55    -0.311879475616E+03   -0.21857E-03   -0.11768E-05  4831   0.860E-03    0.804E-01
RMM:  56    -0.311879648429E+03   -0.17281E-03   -0.10169E-05  4761   0.772E-03    0.715E-01
RMM:  57    -0.311879772802E+03   -0.12437E-03   -0.10756E-05  4785   0.778E-03    0.633E-01
RMM:  58    -0.311879777909E+03   -0.51066E-05   -0.14385E-05  4883   0.819E-03
   8 F= -.31187978E+03 E0= -.31187687E+03  d E =-.975736E-02  mag=    19.0629
 curvature:  -0.29 expect dE=-0.696E-02 dE for cont linesearch -0.471E-07
 trial: gam= 0.63764 g(F)=  0.239E-01 g(S)=  0.000E+00 ort = 0.820E-04 (trialstep = 0.786E+00)
 search vector abs. value=  0.409E-01
 bond charge predicted
       N       E                     dE             d eps       ncg     rms          rms(c)
DAV:   1    -0.311800276964E+03    0.79496E-01   -0.62740E+00 10000   0.128E+01    0.147E+00
RMM:   2    -0.311892161104E+03   -0.91884E-01   -0.77583E-01 10464   0.247E+00    0.316E+00
RMM:   3    -0.311879004078E+03    0.13157E-01   -0.60153E-02  9074   0.594E-01    0.131E+00
RMM:   4    -0.311887836994E+03   -0.88329E-02   -0.84064E-03  9089   0.215E-01    0.146E+00
RMM:   5    -0.311882159788E+03    0.56772E-02   -0.34430E-03  8806   0.127E-01    0.378E-01
RMM:   6    -0.311884230513E+03   -0.20707E-02   -0.11930E-03  8213   0.764E-02    0.685E-01
RMM:   7    -0.311883808131E+03    0.42238E-03   -0.14778E-03  8332   0.909E-02    0.529E-01
RMM:   8    -0.311883931311E+03   -0.12318E-03   -0.10683E-03  8454   0.641E-02    0.625E-01
RMM:   9    -0.311884383275E+03   -0.45196E-03   -0.55000E-04  8076   0.539E-02    0.794E-01
RMM:  10    -0.311882955953E+03    0.14273E-02   -0.39644E-04  7889   0.402E-02    0.343E-01
RMM:  11    -0.311883373827E+03   -0.41787E-03   -0.91328E-05  7422   0.208E-02    0.156E-01
RMM:  12    -0.311883946358E+03   -0.57253E-03   -0.92900E-05  5980   0.232E-02    0.440E-01
RMM:  13    -0.311883838579E+03    0.10778E-03   -0.66905E-05  6073   0.194E-02    0.512E-01
RMM:  14    -0.311883776128E+03    0.62450E-04   -0.11642E-05  4763   0.884E-03    0.589E-01
RMM:  15    -0.311883628840E+03    0.14729E-03   -0.87118E-06  4747   0.697E-03    0.586E-01
RMM:  16    -0.311883583595E+03    0.45245E-04   -0.23474E-06  4265   0.333E-03    0.565E-01
RMM:  17    -0.311883616311E+03   -0.32716E-04   -0.68480E-07  3771   0.230E-03    0.562E-01
RMM:  18    -0.311883738527E+03   -0.12222E-03   -0.19430E-06  4401   0.330E-03    0.624E-01
RMM:  19    -0.311883683728E+03    0.54798E-04   -0.11796E-06  3983   0.312E-03    0.645E-01
RMM:  20    -0.311883716374E+03   -0.32645E-04   -0.75409E-07  3847   0.254E-03    0.694E-01
RMM:  21    -0.311883658660E+03    0.57714E-04   -0.99300E-07  3947   0.283E-03    0.714E-01
RMM:  22    -0.311883737261E+03   -0.78601E-04   -0.13005E-06  3996   0.293E-03    0.782E-01
RMM:  23    -0.311883565510E+03    0.17175E-03   -0.31500E-06  4262   0.451E-03    0.768E-01
RMM:  24    -0.311883223882E+03    0.34163E-03   -0.17863E-05  5028   0.738E-03    0.577E-01
RMM:  25    -0.311883293988E+03   -0.70106E-04   -0.17227E-05  4913   0.939E-03    0.336E-01
RMM:  26    -0.311883548278E+03   -0.25429E-03   -0.23387E-05  5136   0.115E-02    0.949E-02
RMM:  27    -0.311883787515E+03   -0.23924E-03   -0.23744E-05  4993   0.118E-02    0.840E-02
RMM:  28    -0.311883878179E+03   -0.90664E-04   -0.17313E-05  4867   0.994E-03    0.179E-01
RMM:  29    -0.311883847066E+03    0.31113E-04   -0.96908E-06  4613   0.704E-03    0.201E-01
RMM:  30    -0.311883787022E+03    0.60044E-04   -0.11555E-05  4739   0.632E-03    0.104E-01
RMM:  31    -0.311883828455E+03   -0.41433E-04   -0.44284E-06  4203   0.458E-03    0.546E-03
RMM:  32    -0.311883878315E+03   -0.49860E-04   -0.49470E-06  4260   0.535E-03    0.240E-02
RMM:  33    -0.311883895955E+03   -0.17640E-04   -0.18233E-06  3995   0.300E-03    0.122E-02
RMM:  34    -0.311883916962E+03   -0.21007E-04   -0.86667E-07  3157   0.184E-03    0.185E-02
RMM:  35    -0.311883931470E+03   -0.14508E-04   -0.56083E-07  3065   0.183E-03    0.374E-02
RMM:  36    -0.311883933350E+03   -0.18795E-05   -0.47946E-07  3134   0.189E-03
   9 F= -.31188393E+03 E0= -.31188080E+03  d E =-.415544E-02  mag=    19.0649
 trial-energy change:   -0.004155  1 .order   -0.003603   -0.018809    0.011603
 step:   0.5056(harm=  0.4859)  dis= 0.00410  next Energy=  -311.885977 (dE=-0.620E-02)
 bond charge predicted
       N       E                     dE             d eps       ncg     rms          rms(c)
DAV:   1    -0.311875567608E+03    0.83639E-02   -0.79726E-01 10152   0.456E+00    0.510E-01
RMM:   2    -0.311885733048E+03   -0.10165E-01   -0.98187E-02 10312   0.873E-01    0.300E-01
RMM:   3    -0.311886589844E+03   -0.85680E-03   -0.50925E-03  8810   0.182E-01    0.537E-01
RMM:   4    -0.311886079412E+03    0.51043E-03   -0.59977E-04  9202   0.526E-02    0.284E-01
RMM:   5    -0.311886133277E+03   -0.53865E-04   -0.19790E-04  8133   0.309E-02    0.280E-01
RMM:   6    -0.311886179768E+03   -0.46491E-04   -0.16821E-04  7481   0.294E-02    0.232E-01
RMM:   7    -0.311886307696E+03   -0.12793E-03   -0.46960E-04  8164   0.427E-02    0.440E-01
RMM:   8    -0.311886597637E+03   -0.28994E-03   -0.22795E-04  7869   0.365E-02    0.695E-01
RMM:   9    -0.311885864502E+03    0.73314E-03   -0.13116E-04  7252   0.252E-02    0.577E-01
RMM:  10    -0.311885575027E+03    0.28947E-03   -0.67536E-05  7302   0.149E-02    0.261E-01
RMM:  11    -0.311885918341E+03   -0.34331E-03   -0.32942E-05  5511   0.143E-02    0.394E-02
RMM:  12    -0.311886227609E+03   -0.30927E-03   -0.36022E-05  5365   0.149E-02    0.248E-01
RMM:  13    -0.311886214445E+03    0.13164E-04   -0.27801E-05  5165   0.128E-02    0.338E-01
RMM:  14    -0.311886221812E+03   -0.73668E-05   -0.84116E-06  4628   0.768E-03
  10 F= -.31188622E+03 E0= -.31188282E+03  d E =-.644390E-02  mag=    19.0650
 curvature:  -0.41 expect dE=-0.263E-02 dE for cont linesearch -0.648E-05
 trial: gam= 0.24644 g(F)=  0.637E-02 g(S)=  0.000E+00 ort =-0.801E-03 (trialstep = 0.730E+00)
 search vector abs. value=  0.846E-02
 bond charge predicted
       N       E                     dE             d eps       ncg     rms          rms(c)
DAV:   1    -0.311877144274E+03    0.90702E-02   -0.10739E+00  9512   0.480E+00    0.895E-01
RMM:   2    -0.311925373432E+03   -0.48229E-01   -0.13617E-01 10459   0.979E-01    0.490E+00
RMM:   3    -0.311888683250E+03    0.36690E-01   -0.25322E-02  8778   0.358E-01    0.333E+00
RMM:   4    -0.311871503649E+03    0.17180E-01   -0.65481E-03  8934   0.148E-01    0.886E-01
RMM:   5    -0.311885585494E+03   -0.14082E-01   -0.29302E-03  8317   0.122E-01    0.196E-01
RMM:   6    -0.311889677745E+03   -0.40923E-02   -0.10554E-03  7947   0.784E-02    0.856E-01
RMM:   7    -0.311888727952E+03    0.94979E-03   -0.84315E-04  8076   0.640E-02    0.821E-01
RMM:   8    -0.311887329472E+03    0.13985E-02   -0.54810E-04  8292   0.443E-02    0.983E-02
RMM:   9    -0.311888672601E+03   -0.13431E-02   -0.21235E-04  7556   0.350E-02    0.471E-01
RMM:  10    -0.311888550648E+03    0.12195E-03   -0.29044E-04  7685   0.371E-02    0.459E-01
RMM:  11    -0.311888189586E+03    0.36106E-03   -0.15868E-04  7610   0.247E-02    0.875E-02
RMM:  12    -0.311888525894E+03   -0.33631E-03   -0.38797E-05  5613   0.152E-02    0.177E-01
RMM:  13    -0.311888553218E+03   -0.27324E-04   -0.39691E-05  5526   0.156E-02    0.217E-01
RMM:  14    -0.311888449796E+03    0.10342E-03   -0.14177E-05  5026   0.838E-03    0.150E-01
RMM:  15    -0.311888439045E+03    0.10751E-04   -0.98652E-06  4691   0.602E-03    0.933E-03
RMM:  16    -0.311888518696E+03   -0.79651E-04   -0.73613E-06  4509   0.709E-03    0.923E-02
RMM:  17    -0.311888528831E+03   -0.10135E-04   -0.42259E-06  4309   0.546E-03    0.140E-01
RMM:  18    -0.311888514801E+03    0.14030E-04   -0.18088E-06  4119   0.356E-03    0.168E-01
RMM:  19    -0.311888512408E+03    0.23936E-05   -0.87955E-07  3808   0.269E-03
  11 F= -.31188851E+03 E0= -.31188533E+03  d E =-.229060E-02  mag=    19.0642
 trial-energy change:   -0.002291  1 .order   -0.002538   -0.004505   -0.000572
 step:   0.9355(harm=  0.8358)  dis= 0.00445  next Energy=  -311.888588 (dE=-0.237E-02)
 bond charge predicted
       N       E                     dE             d eps       ncg     rms          rms(c)
DAV:   1    -0.311887567195E+03    0.94761E-03   -0.85421E-02  9608   0.135E+00    0.230E-01
RMM:   2    -0.311890659119E+03   -0.30919E-02   -0.98262E-03 10189   0.272E-01    0.130E+00
RMM:   3    -0.311888014650E+03    0.26445E-02   -0.18348E-03  8608   0.951E-02    0.810E-01
RMM:   4    -0.311887388435E+03    0.62621E-03   -0.48803E-04  8325   0.439E-02    0.115E-01
RMM:   5    -0.311888787137E+03   -0.13987E-02   -0.26316E-04  7399   0.396E-02    0.400E-01
RMM:   6    -0.311888683899E+03    0.10324E-03   -0.13126E-04  7079   0.268E-02    0.437E-01
RMM:   7    -0.311888326738E+03    0.35716E-03   -0.13578E-04  7843   0.217E-02    0.116E-01
RMM:   8    -0.311888678121E+03   -0.35138E-03   -0.40497E-05  6118   0.146E-02    0.248E-01
RMM:   9    -0.311888799525E+03   -0.12140E-03   -0.54646E-05  5572   0.185E-02    0.395E-01
RMM:  10    -0.311888534280E+03    0.26525E-03   -0.41320E-05  5985   0.143E-02    0.338E-01
RMM:  11    -0.311888380662E+03    0.15362E-03   -0.31538E-05  6142   0.101E-02    0.104E-01
RMM:  12    -0.311888580987E+03   -0.20032E-03   -0.21509E-05  5129   0.110E-02    0.157E-01
RMM:  13    -0.311888663186E+03   -0.82200E-04   -0.30594E-05  5135   0.133E-02    0.224E-01
RMM:  14    -0.311888593190E+03    0.69997E-04   -0.11190E-05  4667   0.785E-03    0.207E-01
RMM:  15    -0.311888558810E+03    0.34380E-04   -0.57163E-06  4555   0.458E-03    0.121E-01
RMM:  16    -0.311888603488E+03   -0.44678E-04   -0.60007E-06  4497   0.512E-03    0.173E-02
RMM:  17    -0.311888675808E+03   -0.72320E-04   -0.61313E-06  4321   0.623E-03    0.116E-01
RMM:  18    -0.311888659181E+03    0.16627E-04   -0.54563E-06  4355   0.587E-03    0.145E-01
RMM:  19    -0.311888630374E+03    0.28806E-04   -0.20207E-06  4102   0.340E-03    0.142E-01
RMM:  20    -0.311888611065E+03    0.19309E-04   -0.10990E-06  3564   0.224E-03    0.104E-01
RMM:  21    -0.311888613458E+03   -0.23930E-05   -0.18010E-06  4073   0.290E-03
  12 F= -.31188861E+03 E0= -.31188524E+03  d E =-.239165E-02  mag=    19.0635
 curvature:  -0.07 expect dE=-0.642E-03 dE for cont linesearch -0.251E-06
 trial: gam= 1.39273 g(F)=  0.959E-02 g(S)=  0.000E+00 ort =-0.178E-03 (trialstep = 0.256E+00)
 search vector abs. value=  0.255E-01
 bond charge predicted
       N       E                     dE             d eps       ncg     rms          rms(c)
DAV:   1    -0.311886450140E+03    0.21609E-02   -0.39192E-01  9408   0.281E+00    0.304E-01
RMM:   2    -0.311890595160E+03   -0.41450E-02   -0.37956E-02 10242   0.534E-01    0.467E-01
RMM:   3    -0.311890649710E+03   -0.54550E-04   -0.26263E-03  8708   0.126E-01    0.514E-01
RMM:   4    -0.311890524563E+03    0.12515E-03   -0.52515E-04  8575   0.527E-02    0.345E-01
RMM:   5    -0.311890266228E+03    0.25833E-03   -0.14787E-04  7899   0.256E-02    0.900E-02
RMM:   6    -0.311890568910E+03   -0.30268E-03   -0.51527E-05  5861   0.186E-02    0.291E-01
RMM:   7    -0.311890379511E+03    0.18940E-03   -0.16351E-04  7539   0.261E-02    0.859E-02
RMM:   8    -0.311890690992E+03   -0.31148E-03   -0.10458E-04  7467   0.189E-02    0.385E-01
RMM:   9    -0.311890718044E+03   -0.27053E-04   -0.76493E-05  5967   0.214E-02    0.547E-01
RMM:  10    -0.311890333909E+03    0.38414E-03   -0.44418E-05  5997   0.155E-02    0.506E-01
RMM:  11    -0.311890153541E+03    0.18037E-03   -0.10297E-05  4792   0.666E-03    0.387E-01
RMM:  12    -0.311890118048E+03    0.35493E-04   -0.19185E-05  5361   0.876E-03    0.153E-01
RMM:  13    -0.311890344047E+03   -0.22600E-03   -0.23919E-05  5172   0.116E-02    0.113E-01
RMM:  14    -0.311890533343E+03   -0.18930E-03   -0.26949E-05  5057   0.127E-02    0.272E-01
RMM:  15    -0.311890476404E+03    0.56938E-04   -0.18081E-05  4968   0.106E-02    0.329E-01
RMM:  16    -0.311890412822E+03    0.63582E-04   -0.57071E-06  4446   0.588E-03    0.352E-01
RMM:  17    -0.311890401270E+03    0.11552E-04   -0.13443E-06  4003   0.326E-03    0.388E-01
RMM:  18    -0.311890330289E+03    0.70981E-04   -0.23133E-06  4284   0.365E-03    0.362E-01
RMM:  19    -0.311890301901E+03    0.28387E-04   -0.13496E-06  3713   0.236E-03    0.307E-01
RMM:  20    -0.311890294342E+03    0.75592E-05   -0.45051E-06  4520   0.469E-03
  13 F= -.31189029E+03 E0= -.31188695E+03  d E =-.168088E-02  mag=    19.0628
 trial-energy change:   -0.001681  1 .order   -0.001804   -0.002388   -0.001219
 step:   0.5222(harm=  0.5222)  dis= 0.00403  next Energy=  -311.891052 (dE=-0.244E-02)
 bond charge predicted
       N       E                     dE             d eps       ncg     rms          rms(c)
DAV:   1    -0.311886773520E+03    0.35284E-02   -0.42511E-01  9384   0.293E+00    0.321E-01
RMM:   2    -0.311891346383E+03   -0.45729E-02   -0.41391E-02 10297   0.558E-01    0.482E-01
RMM:   3    -0.311891508557E+03   -0.16217E-03   -0.28336E-03  8691   0.130E-01    0.560E-01
RMM:   4    -0.311891267632E+03    0.24093E-03   -0.60363E-04  8591   0.567E-02    0.353E-01
RMM:   5    -0.311891017001E+03    0.25063E-03   -0.13746E-04  7965   0.245E-02    0.829E-02
RMM:   6    -0.311891302004E+03   -0.28500E-03   -0.54396E-05  5969   0.190E-02    0.255E-01
RMM:   7    -0.311891166700E+03    0.13530E-03   -0.16620E-04  7560   0.264E-02    0.541E-02
RMM:   8    -0.311891421216E+03   -0.25452E-03   -0.81969E-05  7242   0.170E-02    0.347E-01
RMM:   9    -0.311891386421E+03    0.34795E-04   -0.57573E-05  5818   0.189E-02    0.470E-01
RMM:  10    -0.311891087341E+03    0.29908E-03   -0.31584E-05  5644   0.130E-02    0.420E-01
RMM:  11    -0.311890959217E+03    0.12812E-03   -0.87484E-06  4757   0.597E-03    0.295E-01
RMM:  12    -0.311890978024E+03   -0.18807E-04   -0.13404E-05  4938   0.792E-03    0.899E-02
RMM:  13    -0.311891162869E+03   -0.18485E-03   -0.17211E-05  5017   0.101E-02    0.123E-01
RMM:  14    -0.311891268189E+03   -0.10532E-03   -0.18294E-05  4885   0.106E-02    0.241E-01
RMM:  15    -0.311891218845E+03    0.49344E-04   -0.10827E-05  4678   0.829E-03    0.282E-01
RMM:  16    -0.311891189746E+03    0.29099E-04   -0.29660E-06  4309   0.445E-03    0.320E-01
RMM:  17    -0.311891168876E+03    0.20870E-04   -0.12821E-06  3954   0.313E-03    0.350E-01
RMM:  18    -0.311891156787E+03    0.12089E-04   -0.71242E-07  3691   0.252E-03    0.380E-01
RMM:  19    -0.311891128749E+03    0.28038E-04   -0.62971E-07  3628   0.243E-03    0.392E-01
RMM:  20    -0.311891122125E+03    0.66243E-05   -0.20212E-07  2418   0.170E-03
  14 F= -.31189112E+03 E0= -.31188780E+03  d E =-.250867E-02  mag=    19.0613
 curvature:  -0.71 expect dE=-0.310E-02 dE for cont linesearch -0.809E-06
 trial: gam= 0.35772 g(F)=  0.434E-02 g(S)=  0.000E+00 ort = 0.170E-03 (trialstep = 0.309E+00)
 search vector abs. value=  0.773E-02
 bond charge predicted
       N       E                     dE             d eps       ncg     rms          rms(c)
DAV:   1    -0.311889102073E+03    0.20267E-02   -0.16975E-01 11400   0.240E+00    0.505E-01
RMM:   2    -0.311907222990E+03   -0.18121E-01   -0.34922E-02 10303   0.468E-01    0.350E+00
RMM:   3    -0.311891021679E+03    0.16201E-01   -0.99870E-03  8671   0.210E-01    0.258E+00
RMM:   4    -0.311884132353E+03    0.68893E-02   -0.14446E-03  8590   0.746E-02    0.119E+00
RMM:   5    -0.311888975754E+03   -0.48434E-02   -0.91128E-04  8440   0.697E-02    0.917E-02
RMM:   6    -0.311893048974E+03   -0.40732E-02   -0.69411E-04  7522   0.621E-02    0.771E-01
RMM:   7    -0.311893473645E+03   -0.42467E-03   -0.40460E-04  7361   0.478E-02    0.110E+00
RMM:   8    -0.311893193927E+03    0.27972E-03   -0.12790E-04  6572   0.275E-02    0.133E+00
RMM:   9    -0.311892854834E+03    0.33909E-03   -0.67580E-05  6337   0.217E-02    0.152E+00
RMM:  10    -0.311894912780E+03   -0.20579E-02   -0.14847E-04  7683   0.257E-02    0.205E+00
RMM:  11    -0.311895421359E+03   -0.50858E-03   -0.10779E-04  6536   0.264E-02    0.247E+00
RMM:  12    -0.311895075178E+03    0.34618E-03   -0.95919E-05  6148   0.251E-02    0.277E+00
RMM:  13    -0.311893875957E+03    0.11992E-02   -0.57488E-05  5636   0.189E-02    0.292E+00
RMM:  14    -0.311894037951E+03   -0.16199E-03   -0.22203E-05  5087   0.124E-02    0.309E+00
RMM:  15    -0.311890724644E+03    0.33133E-02   -0.75683E-05  7495   0.174E-02    0.295E+00
RMM:  16    -0.311886693237E+03    0.40314E-02   -0.17690E-04  8114   0.235E-02    0.244E+00
RMM:  17    -0.311884491391E+03    0.22018E-02   -0.35378E-04  8075   0.373E-02    0.150E+00
RMM:  18    -0.311887268046E+03   -0.27767E-02   -0.51729E-04  7990   0.523E-02    0.249E-01
RMM:  19    -0.311893569324E+03   -0.63013E-02   -0.66991E-04  7541   0.626E-02    0.108E+00
RMM:  20    -0.311897884678E+03   -0.43154E-02   -0.72905E-04  7317   0.651E-02    0.216E+00
RMM:  21    -0.311899437418E+03   -0.15527E-02   -0.56799E-04  7226   0.570E-02    0.304E+00
RMM:  22    -0.311899310750E+03    0.12667E-03   -0.39427E-04  7055   0.472E-02    0.371E+00
RMM:  23    -0.311898496686E+03    0.81406E-03   -0.23733E-04  6752   0.363E-02    0.421E+00
RMM:  24    -0.311897486239E+03    0.10104E-02   -0.13538E-04  6165   0.273E-02    0.456E+00
RMM:  25    -0.311896599270E+03    0.88697E-03   -0.68620E-05  5692   0.194E-02    0.480E+00
RMM:  26    -0.311895900166E+03    0.69910E-03   -0.34058E-05  5297   0.135E-02    0.496E+00
RMM:  27    -0.311895431175E+03    0.46899E-03   -0.15465E-05  4905   0.922E-03    0.507E+00
RMM:  28    -0.311895072431E+03    0.35874E-03   -0.71937E-06  4653   0.642E-03    0.514E+00
RMM:  29    -0.311894862137E+03    0.21029E-03   -0.32796E-06  4426   0.446E-03    0.518E+00
RMM:  30    -0.311894695557E+03    0.16658E-03   -0.15802E-06  4050   0.322E-03    0.521E+00
RMM:  31    -0.311894624299E+03    0.71258E-04   -0.70014E-07  3279   0.239E-03    0.523E+00
RMM:  32    -0.311893792714E+03    0.83158E-03   -0.22206E-06  4343   0.369E-03    0.520E+00
RMM:  33    -0.311886767404E+03    0.70253E-02   -0.11879E-04  7827   0.184E-02    0.474E+00
RMM:  34    -0.311882472915E+03    0.42945E-02   -0.17215E-04  7965   0.266E-02    0.401E+00
RMM:  35    -0.311879691053E+03    0.27819E-02   -0.34103E-04  7881   0.390E-02    0.295E+00
RMM:  36    -0.311881911292E+03   -0.22202E-02   -0.46655E-04  7710   0.502E-02    0.178E+00
RMM:  37    -0.311886606156E+03   -0.46949E-02   -0.50632E-04  7367   0.543E-02    0.750E-01
RMM:  38    -0.311890584750E+03   -0.39786E-02   -0.44346E-04  7182   0.513E-02    0.443E-02
RMM:  39    -0.311892492836E+03   -0.19081E-02   -0.30987E-04  7088   0.423E-02    0.425E-01
RMM:  40    -0.311892673214E+03   -0.18038E-03   -0.15549E-04  6820   0.294E-02    0.616E-01
RMM:  41    -0.311892324496E+03    0.34872E-03   -0.62640E-05  6188   0.187E-02    0.647E-01
RMM:  42    -0.311891782304E+03    0.54219E-03   -0.85486E-05  7740   0.166E-02    0.359E-01
RMM:  43    -0.311892117276E+03   -0.33497E-03   -0.10751E-04  7669   0.206E-02    0.219E-01
RMM:  44    -0.311893181729E+03   -0.10645E-02   -0.10823E-04  6407   0.253E-02    0.745E-01
RMM:  45    -0.311893154892E+03    0.26837E-04   -0.12803E-04  6269   0.271E-02    0.102E+00
RMM:  46    -0.311892319710E+03    0.83518E-03   -0.85992E-05  6721   0.211E-02    0.103E+00
RMM:  47    -0.311892044148E+03    0.27556E-03   -0.10330E-05  4674   0.791E-03    0.102E+00
RMM:  48    -0.311891929799E+03    0.11435E-03   -0.27308E-06  4356   0.376E-03    0.988E-01
RMM:  49    -0.311891863280E+03    0.66519E-04   -0.16789E-06  4108   0.323E-03    0.932E-01
RMM:  50    -0.311891616989E+03    0.24629E-03   -0.90953E-06  4889   0.630E-03    0.766E-01
RMM:  51    -0.311891612427E+03    0.45620E-05   -0.14924E-05  4894   0.886E-03
  15 F= -.31189161E+03 E0= -.31188777E+03  d E =-.490302E-03  mag=    19.0586
 trial-energy change:   -0.000490  1 .order   -0.001118   -0.001361   -0.000875
 step:   0.8655(harm=  0.8655)  dis= 0.00417  next Energy=  -311.893028 (dE=-0.191E-02)
 bond charge predicted
       N       E                     dE             d eps       ncg     rms          rms(c)
DAV:   1    -0.311882469730E+03    0.91473E-02   -0.55100E-01 11488   0.433E+00    0.574E-01
RMM:   2    -0.311898169126E+03   -0.15699E-01   -0.93094E-02 10413   0.779E-01    0.202E+00
RMM:   3    -0.311890635633E+03    0.75335E-02   -0.92601E-03  8701   0.217E-01    0.805E-01
RMM:   4    -0.311894485098E+03   -0.38495E-02   -0.26765E-03  8744   0.104E-01    0.141E+00
RMM:   5    -0.311893622300E+03    0.86280E-03   -0.28913E-03  8522   0.118E-01    0.120E+00
RMM:   6    -0.311891792082E+03    0.18302E-02   -0.36916E-04  8312   0.405E-02    0.800E-01
RMM:   7    -0.311891884879E+03   -0.92797E-04   -0.21001E-04  8554   0.291E-02    0.148E-01
RMM:   8    -0.311893171219E+03   -0.12863E-02   -0.19335E-04  7252   0.343E-02    0.362E-01
RMM:   9    -0.311893265108E+03   -0.93890E-04   -0.19796E-04  7495   0.332E-02    0.455E-01
RMM:  10    -0.311892877305E+03    0.38780E-03   -0.95062E-05  7298   0.204E-02    0.310E-01
RMM:  11    -0.311892863104E+03    0.14201E-04   -0.30800E-05  6070   0.116E-02    0.286E-02
RMM:  12    -0.311893143383E+03   -0.28028E-03   -0.25561E-05  5280   0.127E-02    0.207E-01
RMM:  13    -0.311893162483E+03   -0.19099E-04   -0.29372E-05  5229   0.133E-02    0.283E-01
RMM:  14    -0.311893010270E+03    0.15221E-03   -0.23012E-05  5411   0.101E-02    0.189E-01
RMM:  15    -0.311893019111E+03   -0.88405E-05   -0.20370E-05  5423   0.814E-03
  16 F= -.31189302E+03 E0= -.31188951E+03  d E =-.189699E-02  mag=    19.0559
 curvature:  -0.76 expect dE=-0.248E-02 dE for cont linesearch -0.226E-05
 trial: gam= 0.79895 g(F)=  0.326E-02 g(S)=  0.000E+00 ort = 0.152E-03 (trialstep = 0.385E+00)
 search vector abs. value=  0.844E-02
 bond charge predicted
       N       E                     dE             d eps       ncg     rms          rms(c)
DAV:   1    -0.311889649052E+03    0.33612E-02   -0.25204E-01 11176   0.291E+00    0.384E-01
RMM:   2    -0.311896740812E+03   -0.70918E-02   -0.40741E-02 10265   0.534E-01    0.157E+00
RMM:   3    -0.311892483240E+03    0.42576E-02   -0.43119E-03  8602   0.151E-01    0.696E-01
RMM:   4    -0.311894139751E+03   -0.16565E-02   -0.13545E-03  8732   0.759E-02    0.874E-01
RMM:   5    -0.311894642015E+03   -0.50226E-03   -0.12609E-03  8210   0.799E-02    0.883E-01
RMM:   6    -0.311893646018E+03    0.99600E-03   -0.19595E-04  7895   0.308E-02    0.750E-01
RMM:   7    -0.311893103316E+03    0.54270E-03   -0.12399E-04  8336   0.210E-02    0.329E-01
RMM:   8    -0.311893712571E+03   -0.60926E-03   -0.10277E-04  7383   0.233E-02    0.230E-01
RMM:   9    -0.311894270680E+03   -0.55811E-03   -0.14053E-04  6685   0.291E-02    0.475E-01
RMM:  10    -0.311893944508E+03    0.32617E-03   -0.84431E-05  6820   0.215E-02    0.453E-01
RMM:  11    -0.311893627932E+03    0.31658E-03   -0.96555E-05  7596   0.174E-02    0.919E-02
RMM:  12    -0.311894010402E+03   -0.38247E-03   -0.36496E-05  5504   0.149E-02    0.208E-01
RMM:  13    -0.311894034907E+03   -0.24505E-04   -0.55123E-05  5885   0.176E-02    0.226E-01
RMM:  14    -0.311893934731E+03    0.10018E-03   -0.17556E-05  5111   0.880E-03    0.127E-01
RMM:  15    -0.311893975717E+03   -0.40986E-04   -0.11672E-05  4753   0.677E-03    0.573E-02
RMM:  16    -0.311894071440E+03   -0.95722E-04   -0.10502E-05  4542   0.822E-03    0.168E-01
RMM:  17    -0.311894036218E+03    0.35222E-04   -0.83272E-06  4571   0.722E-03    0.187E-01
RMM:  18    -0.311893996284E+03    0.39934E-04   -0.29491E-06  4370   0.379E-03    0.158E-01
RMM:  19    -0.311893983964E+03    0.12320E-04   -0.23773E-06  4152   0.300E-03    0.819E-02
RMM:  20    -0.311894014863E+03   -0.30899E-04   -0.24404E-06  4203   0.381E-03    0.325E-03
RMM:  21    -0.311894048262E+03   -0.33398E-04   -0.26323E-06  4205   0.418E-03    0.596E-02
RMM:  22    -0.311894053504E+03   -0.52425E-05   -0.18539E-06  4159   0.356E-03
  17 F= -.31189405E+03 E0= -.31189064E+03  d E =-.103439E-02  mag=    19.0530
 trial-energy change:   -0.001034  1 .order   -0.000908   -0.001303   -0.000513
 step:   0.4964(harm=  0.6346)  dis= 0.00261  next Energy=  -311.894131 (dE=-0.111E-02)
 bond charge predicted
       N       E                     dE             d eps       ncg     rms          rms(c)
DAV:   1    -0.311893785762E+03    0.26250E-03   -0.21122E-02 11552   0.844E-01    0.145E-01
RMM:   2    -0.311895130887E+03   -0.13451E-02   -0.37489E-03 10115   0.161E-01    0.883E-01
RMM:   3    -0.311893935188E+03    0.11957E-02   -0.73824E-04  8252   0.609E-02    0.610E-01
RMM:   4    -0.311893465358E+03    0.46983E-03   -0.18216E-04  7791   0.267E-02    0.844E-02
RMM:   5    -0.311894098779E+03   -0.63342E-03   -0.85965E-05  6204   0.243E-02    0.140E-01
RMM:   6    -0.311894219571E+03   -0.12079E-03   -0.39056E-05  5424   0.164E-02    0.236E-01
RMM:   7    -0.311894127803E+03    0.91768E-04   -0.21567E-05  5232   0.107E-02    0.208E-01
RMM:   8    -0.311894080431E+03    0.47371E-04   -0.12798E-05  4949   0.700E-03    0.670E-02
RMM:   9    -0.311894212578E+03   -0.13215E-03   -0.18258E-05  5253   0.883E-03    0.179E-01
RMM:  10    -0.311894262400E+03   -0.49822E-04   -0.21426E-05  5075   0.116E-02    0.286E-01
RMM:  11    -0.311894144936E+03    0.11746E-03   -0.13282E-05  4957   0.891E-03    0.277E-01
RMM:  12    -0.311894041502E+03    0.10343E-03   -0.95220E-06  4759   0.584E-03    0.157E-01
RMM:  13    -0.311894087709E+03   -0.46207E-04   -0.86498E-06  4510   0.634E-03    0.187E-02
RMM:  14    -0.311894183608E+03   -0.95900E-04   -0.10111E-05  4571   0.799E-03    0.993E-02
RMM:  15    -0.311894179657E+03    0.39510E-05   -0.56145E-06  4368   0.599E-03
  18 F= -.31189418E+03 E0= -.31189080E+03  d E =-.116055E-02  mag=    19.0521
 curvature:  -0.55 expect dE=-0.105E-02 dE for cont linesearch -0.359E-04
 ZBRENT: increasing intervall
 opt :   0.7193  next Energy=  -311.894214 (dE=-0.119E-02)
 bond charge predicted
       N       E                     dE             d eps       ncg     rms          rms(c)
DAV:   1    -0.311892701822E+03    0.14818E-02   -0.84521E-02 11064   0.169E+00    0.222E-01
RMM:   2    -0.311895269234E+03   -0.25674E-02   -0.13660E-02 10195   0.309E-01    0.962E-01
RMM:   3    -0.311893689847E+03    0.15794E-02   -0.14859E-03  8507   0.893E-02    0.507E-01
RMM:   4    -0.311894024944E+03   -0.33510E-03   -0.56949E-04  8431   0.479E-02    0.500E-01
RMM:   5    -0.311894393093E+03   -0.36815E-03   -0.51097E-04  7950   0.510E-02    0.498E-01
RMM:   6    -0.311893990075E+03    0.40302E-03   -0.87121E-05  7308   0.205E-02    0.373E-01
RMM:   7    -0.311893907298E+03    0.82777E-04   -0.57106E-05  7654   0.145E-02    0.586E-02
RMM:   8    -0.311894245668E+03   -0.33837E-03   -0.39648E-05  5542   0.157E-02    0.237E-01
RMM:   9    -0.311894290059E+03   -0.44391E-04   -0.43294E-05  5466   0.165E-02    0.335E-01
RMM:  10    -0.311894100051E+03    0.19001E-03   -0.27120E-05  5513   0.115E-02    0.261E-01
RMM:  11    -0.311894043759E+03    0.56292E-04   -0.40490E-05  6825   0.108E-02    0.262E-02
RMM:  12    -0.311894247835E+03   -0.20408E-03   -0.22332E-05  5087   0.118E-02    0.187E-01
RMM:  13    -0.311894201367E+03    0.46469E-04   -0.21790E-05  5074   0.112E-02    0.187E-01
RMM:  14    -0.311894147799E+03    0.53568E-04   -0.70690E-06  4606   0.538E-03    0.114E-01
RMM:  15    -0.311894168238E+03   -0.20439E-04   -0.49147E-06  4402   0.459E-03    0.657E-03
RMM:  16    -0.311894227598E+03   -0.59359E-04   -0.45491E-06  4282   0.549E-03    0.993E-02
RMM:  17    -0.311894226448E+03    0.11491E-05   -0.41207E-06  4256   0.525E-03
  19 F= -.31189423E+03 E0= -.31189073E+03  d E =-.120734E-02  mag=    19.0511
 curvature:  -0.52 expect dE=-0.224E-02 dE for cont linesearch -0.215E-04
 ZBRENT: bracketing found
 ZBRENT: interpolating
 opt :   0.6208  next Energy=  -311.894255 (dE=-0.124E-02)
 bond charge predicted
       N       E                     dE             d eps       ncg     rms          rms(c)
DAV:   1    -0.311893942028E+03    0.28557E-03   -0.16504E-02 11200   0.746E-01    0.169E-01
RMM:   2    -0.311895847446E+03   -0.19054E-02   -0.34604E-03 10071   0.150E-01    0.113E+00
RMM:   3    -0.311894048264E+03    0.17992E-02   -0.10626E-03  8317   0.703E-02    0.824E-01
RMM:   4    -0.311893263661E+03    0.78460E-03   -0.17613E-04  7728   0.259E-02    0.397E-01
RMM:   5    -0.311893820288E+03   -0.55663E-03   -0.77776E-05  6827   0.216E-02    0.613E-02
RMM:   6    -0.311894307839E+03   -0.48755E-03   -0.59072E-05  5722   0.193E-02    0.244E-01
RMM:   7    -0.311894364964E+03   -0.57126E-04   -0.54445E-05  5733   0.182E-02    0.345E-01
RMM:   8    -0.311894228532E+03    0.13643E-03   -0.18909E-05  5108   0.105E-02    0.352E-01
RMM:   9    -0.311894207615E+03    0.20917E-04   -0.24401E-06  4531   0.442E-03    0.378E-01
RMM:  10    -0.311894179970E+03    0.27645E-04   -0.12494E-06  4252   0.308E-03    0.389E-01
RMM:  11    -0.311894184728E+03   -0.47581E-05   -0.10461E-06  4416   0.294E-03
  20 F= -.31189418E+03 E0= -.31189053E+03  d E =-.116562E-02  mag=    19.0509
 curvature:  -0.71 expect dE=-0.246E-02 dE for cont linesearch -0.309E-05
 trial: gam= 1.18708 g(F)=  0.348E-02 g(S)=  0.000E+00 ort =-0.192E-03 (trialstep = 0.244E+00)
 search vector abs. value=  0.149E-01
 bond charge predicted
       N       E                     dE             d eps       ncg     rms          rms(c)
DAV:   1    -0.311891564862E+03    0.26151E-02   -0.17373E-01 10976   0.248E+00    0.513E-01
RMM:   2    -0.311908434277E+03   -0.16869E-01   -0.37820E-02 10328   0.492E-01    0.312E+00
RMM:   3    -0.311894286587E+03    0.14148E-01   -0.90985E-03  8657   0.209E-01    0.219E+00
RMM:   4    -0.311887558481E+03    0.67281E-02   -0.19679E-03  8613   0.825E-02    0.756E-01
RMM:   5    -0.311893052651E+03   -0.54942E-02   -0.84291E-04  7840   0.691E-02    0.142E-01
RMM:   6    -0.311895807321E+03   -0.27547E-02   -0.47989E-04  7473   0.536E-02    0.784E-01
RMM:   7    -0.311895623380E+03    0.18394E-03   -0.35411E-04  7506   0.444E-02    0.994E-01
RMM:   8    -0.311894491348E+03    0.11320E-02   -0.14020E-04  7327   0.262E-02    0.888E-01
RMM:   9    -0.311893841675E+03    0.64967E-03   -0.95436E-05  7828   0.178E-02    0.510E-01
RMM:  10    -0.311894288959E+03   -0.44728E-03   -0.58765E-05  6020   0.189E-02    0.151E-01
RMM:  11    -0.311894794817E+03   -0.50586E-03   -0.85988E-05  6725   0.222E-02    0.961E-02
RMM:  12    -0.311894873058E+03   -0.78241E-04   -0.15412E-05  4996   0.105E-02    0.556E-02
RMM:  13    -0.311894915907E+03   -0.42849E-04   -0.88998E-06  4795   0.802E-03    0.116E-01
RMM:  14    -0.311894994713E+03   -0.78805E-04   -0.10955E-05  4933   0.863E-03    0.271E-01
RMM:  15    -0.311894989403E+03    0.53101E-05   -0.10555E-05  4824   0.831E-03
  21 F= -.31189499E+03 E0= -.31189180E+03  d E =-.804675E-03  mag=    19.0500
 trial-energy change:   -0.000805  1 .order   -0.000668   -0.000796   -0.000540
 step:   0.7594(harm=  0.7594)  dis= 0.00443  next Energy=  -311.895421 (dE=-0.124E-02)
 bond charge predicted
       N       E                     dE             d eps       ncg     rms          rms(c)
DAV:   1    -0.311881218538E+03    0.13776E-01   -0.77050E-01 10768   0.523E+00    0.734E-01
RMM:   2    -0.311908275755E+03   -0.27057E-01   -0.13355E-01 10423   0.964E-01    0.335E+00
RMM:   3    -0.311890288337E+03    0.17987E-01   -0.16608E-02  8839   0.293E-01    0.168E+00
RMM:   4    -0.311894133688E+03   -0.38454E-02   -0.56258E-03  8952   0.154E-01    0.152E+00
RMM:   5    -0.311899879419E+03   -0.57457E-02   -0.43203E-03  8395   0.151E-01    0.185E+00
RMM:   6    -0.311896116299E+03    0.37631E-02   -0.88625E-04  8104   0.676E-02    0.180E+00
RMM:   7    -0.311893411011E+03    0.27053E-02   -0.31915E-04  8866   0.345E-02    0.140E+00
RMM:   8    -0.311892397156E+03    0.10139E-02   -0.23819E-04  8031   0.310E-02    0.594E-01
RMM:   9    -0.311894642316E+03   -0.22452E-02   -0.29074E-04  7567   0.417E-02    0.198E-01
RMM:  10    -0.311896462675E+03   -0.18204E-02   -0.30303E-04  7461   0.445E-02    0.760E-01
RMM:  11    -0.311896467413E+03   -0.47382E-05   -0.21330E-04  7160   0.365E-02    0.104E+00
RMM:  12    -0.311895212521E+03    0.12549E-02   -0.15958E-04  7529   0.275E-02    0.915E-01
RMM:  13    -0.311894291516E+03    0.92100E-03   -0.21041E-04  7890   0.253E-02    0.270E-01
RMM:  14    -0.311895389658E+03   -0.10981E-02   -0.12935E-04  6489   0.268E-02    0.159E-02
RMM:  15    -0.311895676852E+03   -0.28719E-03   -0.66667E-05  6195   0.194E-02    0.321E-02
RMM:  16    -0.311895704418E+03   -0.27566E-04   -0.10425E-05  4773   0.803E-03    0.268E-02
RMM:  17    -0.311895709038E+03   -0.46200E-05   -0.17612E-06  4313   0.366E-03
  22 F= -.31189571E+03 E0= -.31189235E+03  d E =-.152431E-02  mag=    19.0499
 curvature:  -1.74 expect dE=-0.573E-02 dE for cont linesearch -0.755E-04
 ZBRENT: increasing intervall
 opt :   1.7893  next Energy=  -311.895093 (dE=-0.908E-03)
 bond charge predicted
       N       E                     dE             d eps       ncg     rms          rms(c)
DAV:   1    -0.311836984714E+03    0.58720E-01   -0.30832E+00 10792   0.105E+01    0.117E+00
RMM:   2    -0.311892864942E+03   -0.55880E-01   -0.51402E-01 10350   0.187E+00    0.888E-01
RMM:   3    -0.311902088767E+03   -0.92238E-02   -0.32733E-02  8902   0.425E-01    0.249E+00
RMM:   4    -0.311893609399E+03    0.84794E-02   -0.73029E-03  9111   0.187E-01    0.151E+00
RMM:   5    -0.311891542969E+03    0.20664E-02   -0.11225E-03  9197   0.679E-02    0.342E-01
RMM:   6    -0.311894792484E+03   -0.32495E-02   -0.52401E-04  7966   0.574E-02    0.375E-01
RMM:   7    -0.311894938101E+03   -0.14562E-03   -0.64590E-04  8213   0.570E-02    0.252E-01
RMM:   8    -0.311896203649E+03   -0.12655E-02   -0.11920E-03  8497   0.690E-02    0.104E+00
RMM:   9    -0.311896793443E+03   -0.58979E-03   -0.59631E-04  8176   0.570E-02    0.151E+00
RMM:  10    -0.311893937407E+03    0.28560E-02   -0.45119E-04  7890   0.470E-02    0.128E+00
RMM:  11    -0.311892816010E+03    0.11214E-02   -0.12040E-04  7758   0.200E-02    0.771E-01
RMM:  12    -0.311893520233E+03   -0.70422E-03   -0.13927E-04  7575   0.262E-02    0.110E-01
RMM:  13    -0.311895011577E+03   -0.14913E-02   -0.15545E-04  6519   0.308E-02    0.436E-01
RMM:  14    -0.311895494714E+03   -0.48314E-03   -0.14203E-04  6398   0.292E-02    0.747E-01
RMM:  15    -0.311895690554E+03   -0.19584E-03   -0.65800E-05  5670   0.210E-02    0.105E+00
RMM:  16    -0.311895210297E+03    0.48026E-03   -0.60523E-05  5891   0.189E-02    0.117E+00
RMM:  17    -0.311894905217E+03    0.30508E-03   -0.19350E-05  5029   0.111E-02    0.125E+00
RMM:  18    -0.311894821412E+03    0.83804E-04   -0.60449E-06  4507   0.676E-03    0.133E+00
RMM:  19    -0.311894347853E+03    0.47356E-03   -0.86279E-06  4718   0.688E-03    0.130E+00
RMM:  20    -0.311893856789E+03    0.49106E-03   -0.11520E-05  4902   0.605E-03    0.117E+00
RMM:  21    -0.311893019950E+03    0.83684E-03   -0.10044E-04  7834   0.174E-02    0.707E-01
RMM:  22    -0.311893700201E+03   -0.68025E-03   -0.10436E-04  7345   0.240E-02    0.147E-01
RMM:  23    -0.311894967897E+03   -0.12677E-02   -0.12979E-04  6557   0.278E-02    0.424E-01
RMM:  24    -0.311895926611E+03   -0.95871E-03   -0.13626E-04  6172   0.285E-02    0.928E-01
RMM:  25    -0.311896158007E+03   -0.23140E-03   -0.12143E-04  6047   0.269E-02    0.132E+00
RMM:  26    -0.311896109642E+03    0.48365E-04   -0.83459E-05  5792   0.228E-02    0.164E+00
RMM:  27    -0.311895772825E+03    0.33682E-03   -0.56008E-05  5522   0.183E-02    0.187E+00
RMM:  28    -0.311895529593E+03    0.24323E-03   -0.32731E-05  5281   0.141E-02    0.207E+00
RMM:  29    -0.311895087975E+03    0.44162E-03   -0.21694E-05  5098   0.114E-02    0.219E+00
RMM:  30    -0.311894988685E+03    0.99290E-04   -0.10698E-05  4684   0.818E-03    0.232E+00
RMM:  31    -0.311894453607E+03    0.53508E-03   -0.95197E-06  4738   0.748E-03    0.236E+00
RMM:  32    -0.311894443176E+03    0.10431E-04   -0.29060E-06  4298   0.454E-03    0.243E+00
RMM:  33    -0.311893974556E+03    0.46862E-03   -0.33906E-06  4406   0.461E-03    0.242E+00
RMM:  34    -0.311892275236E+03    0.16993E-02   -0.32089E-05  6379   0.959E-03    0.216E+00
RMM:  35    -0.311891764458E+03    0.51078E-03   -0.36250E-05  6063   0.130E-02    0.180E+00
RMM:  36    -0.311891791933E+03   -0.27475E-04   -0.65932E-05  6778   0.181E-02    0.135E+00
RMM:  37    -0.311892441873E+03   -0.64994E-03   -0.90422E-05  6530   0.227E-02    0.841E-01
RMM:  38    -0.311893506553E+03   -0.10647E-02   -0.10122E-04  6049   0.249E-02    0.386E-01
RMM:  39    -0.311894442448E+03   -0.93590E-03   -0.92354E-05  5859   0.239E-02    0.257E-02
RMM:  40    -0.311894963190E+03   -0.52074E-03   -0.68536E-05  5664   0.202E-02    0.220E-01
RMM:  41    -0.311895049519E+03   -0.86329E-04   -0.41086E-05  5436   0.154E-02    0.345E-01
RMM:  42    -0.311894949983E+03    0.99536E-04   -0.18866E-05  5078   0.103E-02    0.382E-01
RMM:  43    -0.311894853588E+03    0.96395E-04   -0.68336E-06  4711   0.599E-03    0.363E-01
RMM:  44    -0.311894820838E+03    0.32750E-04   -0.21644E-06  3968   0.306E-03    0.325E-01
RMM:  45    -0.311894818114E+03    0.27234E-05   -0.16101E-06  4106   0.302E-03
  23 F= -.31189482E+03 E0= -.31189169E+03  d E =-.633387E-03  mag=    19.0482
 curvature:  14.20 expect dE= 0.198E+00 dE for cont linesearch  0.568E-02
 ZBRENT: bracketing found
 ZBRENT: interpolating
 opt :   1.0145  next Energy=  -311.895812 (dE=-0.163E-02)
 bond charge predicted
       N       E                     dE             d eps       ncg     rms          rms(c)
DAV:   1    -0.311863031455E+03    0.31789E-01   -0.17451E+00 10816   0.787E+00    0.928E-01
RMM:   2    -0.311903266710E+03   -0.40235E-01   -0.29667E-01 10449   0.142E+00    0.270E+00
RMM:   3    -0.311889691930E+03    0.13575E-01   -0.23999E-02  8789   0.364E-01    0.530E-01
RMM:   4    -0.311898850511E+03   -0.91586E-02   -0.33739E-03  8825   0.135E-01    0.158E+00
RMM:   5    -0.311896413033E+03    0.24375E-02   -0.31539E-03  8567   0.129E-01    0.132E+00
RMM:   6    -0.311893600588E+03    0.28124E-02   -0.75319E-04  8422   0.546E-02    0.592E-01
RMM:   7    -0.311895172730E+03   -0.15721E-02   -0.35103E-04  8368   0.431E-02    0.383E-01
RMM:   8    -0.311896197601E+03   -0.10249E-02   -0.64044E-04  8144   0.587E-02    0.546E-01
RMM:   9    -0.311895283655E+03    0.91395E-03   -0.49002E-04  8185   0.458E-02    0.760E-02
RMM:  10    -0.311895953750E+03   -0.67009E-03   -0.99276E-05  6984   0.243E-02    0.428E-01
RMM:  11    -0.311895675614E+03    0.27814E-03   -0.11629E-04  7127   0.246E-02    0.381E-01
RMM:  12    -0.311895489361E+03    0.18625E-03   -0.45704E-05  6686   0.129E-02    0.150E-01
RMM:  13    -0.311895721355E+03   -0.23199E-03   -0.24880E-05  5362   0.115E-02    0.141E-01
RMM:  14    -0.311895878674E+03   -0.15732E-03   -0.31919E-05  5225   0.140E-02    0.285E-01
RMM:  15    -0.311895785612E+03    0.93062E-04   -0.17453E-05  4991   0.105E-02    0.326E-01
RMM:  16    -0.311895762889E+03    0.22722E-04   -0.35120E-06  4343   0.493E-03    0.378E-01
RMM:  17    -0.311895685753E+03    0.77136E-04   -0.30339E-06  4353   0.429E-03    0.374E-01
RMM:  18    -0.311895646641E+03    0.39113E-04   -0.10293E-06  3554   0.222E-03    0.347E-01
RMM:  19    -0.311895630935E+03    0.15706E-04   -0.11598E-06  3813   0.251E-03    0.295E-01
RMM:  20    -0.311895654993E+03   -0.24058E-04   -0.16577E-06  4084   0.317E-03    0.229E-01
RMM:  21    -0.311895703602E+03   -0.48609E-04   -0.20903E-06  4195   0.367E-03    0.160E-01
RMM:  22    -0.311895749151E+03   -0.45550E-04   -0.24790E-06  4332   0.396E-03    0.803E-02
RMM:  23    -0.311895798570E+03   -0.49419E-04   -0.27057E-06  4312   0.415E-03    0.669E-03
RMM:  24    -0.311895835686E+03   -0.37116E-04   -0.24930E-06  4242   0.400E-03    0.538E-02
RMM:  25    -0.311895842499E+03   -0.68131E-05   -0.18787E-06  4138   0.354E-03
  24 F= -.31189584E+03 E0= -.31189254E+03  d E =-.165777E-02  mag=    19.0483
 curvature:  -0.26 expect dE=-0.123E-02 dE for cont linesearch -0.192E-08
 trial: gam= 1.09075 g(F)=  0.478E-02 g(S)=  0.000E+00 ort = 0.106E-04 (trialstep = 0.264E+00)
 search vector abs. value=  0.226E-01
 bond charge predicted
       N       E                     dE             d eps       ncg     rms          rms(c)
DAV:   1    -0.311891578312E+03    0.42574E-02   -0.32535E-01 10936   0.320E+00    0.366E-01
RMM:   2    -0.311897263024E+03   -0.56847E-02   -0.46523E-02 10217   0.573E-01    0.834E-01
RMM:   3    -0.311896202799E+03    0.10602E-02   -0.39172E-03  8828   0.144E-01    0.274E-01
RMM:   4    -0.311897068884E+03   -0.86608E-03   -0.48548E-04  8566   0.528E-02    0.445E-01
RMM:   5    -0.311896582784E+03    0.48610E-03   -0.19468E-04  7685   0.319E-02    0.238E-01
RMM:   6    -0.311896639129E+03   -0.56345E-04   -0.86192E-05  7372   0.189E-02    0.145E-01
RMM:   7    -0.311896837975E+03   -0.19885E-03   -0.70978E-05  6151   0.206E-02    0.267E-01
RMM:   8    -0.311896643006E+03    0.19497E-03   -0.11592E-04  7424   0.214E-02    0.338E-02
RMM:   9    -0.311896875790E+03   -0.23278E-03   -0.32952E-05  5790   0.143E-02    0.290E-01
RMM:  10    -0.311896708431E+03    0.16736E-03   -0.59650E-05  6281   0.179E-02    0.234E-01
RMM:  11    -0.311896632300E+03    0.76131E-04   -0.11413E-05  4818   0.705E-03    0.101E-01
RMM:  12    -0.311896696164E+03   -0.63864E-04   -0.70162E-06  4680   0.662E-03    0.389E-02
RMM:  13    -0.311896762153E+03   -0.65989E-04   -0.72876E-06  4567   0.700E-03    0.136E-01
RMM:  14    -0.311896749728E+03    0.12425E-04   -0.54232E-06  4463   0.615E-03    0.173E-01
RMM:  15    -0.311896731915E+03    0.17813E-04   -0.18565E-06  4168   0.350E-03    0.195E-01
RMM:  16    -0.311896733793E+03   -0.18780E-05   -0.64842E-07  3460   0.233E-03
  25 F= -.31189673E+03 E0= -.31189325E+03  d E =-.891294E-03  mag=    19.0487
 trial-energy change:   -0.000891  1 .order   -0.000905   -0.001264   -0.000546
 step:   0.4637(harm=  0.4637)  dis= 0.00332  next Energy=  -311.896954 (dE=-0.111E-02)
 reached required accuracy - stopping structural energy minimisation
