unknown system                          
           1
     2.873573   -2.873573    4.708335
     5.747147    0.000000    0.000000
     0.000000   33.065691   20.180529
   Mn   O    H 
  14  23  10
Direct configuration=     1
   0.22067121  0.89240241  0.08901558
   0.67868947  0.16676088  0.21885694
   0.94927612  0.02809995  0.15233499
   0.39418394  0.31492861  0.28481541
   0.44927612  0.52809995  0.15233499
   0.92543423  0.28139615  0.28309818
   0.44927612  0.02809995  0.15233499
   0.88670253  0.80058979  0.28304920
   0.90282244  0.55132680  0.10484543
   0.36474045  0.82417928  0.23346227
   0.99764002  0.50084422  0.20272063
   0.37783858  0.82914578  0.34304337
   0.53851998  0.23347802  0.07318573
   0.09764983  0.50070302  0.35155929
   0.75412569  0.59870541  0.32227967
   0.87926422  0.06310591  0.05527763
   0.34173696  0.33185324  0.18338701
   0.58246139  0.21150732  0.12452493
   0.05268703  0.45294204  0.25574396
   0.55210545  0.69151493  0.39218364
   0.09516526  0.72856013  0.12156099
   0.55962951  0.45270040  0.25378131
   0.76437754  0.14164712  0.31705671
   0.85888103  0.57329750  0.05350623
   0.31389248  0.84615629  0.18070696
   0.56207820  0.72169891  0.12275353
   0.01687067  0.00398136  0.25160034
   0.79754087  0.33072954  0.18418017
   0.23951086  0.62554575  0.31441428
   0.34617716  0.60305419  0.05647018
   0.23778368  0.18126499  0.32008369
   0.80051904  0.87750157  0.18527094
   0.34617716  0.05624469  0.05647018
   0.55527106  0.00359170  0.25454615
   0.09516526  0.18175063  0.12156099
   0.03351146  0.85223712  0.37361467
   0.99345233  0.37495917  0.39293426
   0.34047062  0.60391201  0.02782883
   0.92434681  0.68523651  0.03696881
   0.34363348  0.06399961  0.02783421
   0.88838126  0.05560908  0.02665597
   0.45631888  0.66494921  0.41007035
   0.84636691  0.05584577  0.33909643
   0.96922864  0.85970716  0.39673081
   0.01539509  0.19594108  0.38969392
   0.73969877  0.54700972  0.39445395
   0.73025503  0.44526380  0.32949559
Direct configuration=     2
   0.22067121  0.89240241  0.08901558
   0.67897100  0.16587356  0.21943833
   0.94927612  0.02809995  0.15233499
   0.39155674  0.31664252  0.28546189
   0.44927612  0.52809995  0.15233499
   0.92300454  0.28422738  0.28438617
   0.44927612  0.02809995  0.15233499
   0.88869239  0.79920196  0.28315081
   0.90282244  0.55132680  0.10484543
   0.36348376  0.82503673  0.23376733
   0.99838113  0.50114483  0.20323655
   0.37865496  0.82802431  0.34320739
   0.53851998  0.23347802  0.07318573
   0.10198956  0.49972121  0.35140097
   0.75008553  0.60255363  0.32249766
   0.87926422  0.06310591  0.05527763
   0.34150088  0.32886131  0.18344960
   0.58246139  0.21150732  0.12452493
   0.05526822  0.45979435  0.25474243
   0.55215699  0.69143340  0.39221156
   0.09516526  0.72856013  0.12156099
   0.55946834  0.45221336  0.25366117
   0.76391911  0.13915083  0.31744149
   0.85888103  0.57329750  0.05350623
   0.31338627  0.84990502  0.18073231
   0.56207820  0.72169891  0.12275353
   0.01979985 -0.00499014  0.25067931
   0.79742882  0.33114920  0.18375514
   0.23855787  0.62454259  0.31416625
   0.34617716  0.60305419  0.05647018
   0.23742463  0.18254167  0.31979949
   0.80142112  0.87643010  0.18492378
   0.34617716  0.05624469  0.05647018
   0.55462291  0.00379462  0.25445644
   0.09516526  0.18175063  0.12156099
   0.03264642  0.85197260  0.37374948
   0.99365918  0.37366705  0.39267533
   0.34047062  0.60391201  0.02782883
   0.92434681  0.68523651  0.03696881
   0.34363348  0.06399961  0.02783421
   0.88838126  0.05560908  0.02665597
   0.45689306  0.66503867  0.41001046
   0.84535265  0.05596587  0.33909009
   0.97028361  0.85927228  0.39651190
   0.01499241  0.19809619  0.38966632
   0.73985770  0.54705531  0.39442676
   0.73098211  0.44619552  0.32941737
Direct configuration=     3
   0.22067121  0.89240241  0.08901558
   0.67886885  0.16619552  0.21922738
   0.94927612  0.02809995  0.15233499
   0.39250999  0.31602065  0.28522733
   0.44927612  0.52809995  0.15233499
   0.92388613  0.28320010  0.28391884
   0.44927612  0.02809995  0.15233499
   0.88797039  0.79970552  0.28311394
   0.90282244  0.55132680  0.10484543
   0.36393973  0.82472562  0.23365664
   0.99811223  0.50103575  0.20304935
   0.37835874  0.82843122  0.34314788
   0.53851998  0.23347802  0.07318573
   0.10041494  0.50007745  0.35145841
   0.75155145  0.60115735  0.32241856
   0.87926422  0.06310591  0.05527763
   0.34158654  0.32994690  0.18342689
   0.58246139  0.21150732  0.12452493
   0.05433167  0.45730807  0.25510582
   0.55213829  0.69146298  0.39220143
   0.09516526  0.72856013  0.12156099
   0.55952682  0.45239008  0.25370476
   0.76408545  0.14005658  0.31730188
   0.85888103  0.57329750  0.05350623
   0.31356994  0.84854484  0.18072311
   0.56207820  0.72169891  0.12275353
   0.01873703 -0.00173494  0.25101350
   0.79746947  0.33099693  0.18390936
   0.23890365  0.62490657  0.31425624
   0.34617716  0.60305419  0.05647018
   0.23755491  0.18207844  0.31990261
   0.80109381  0.87681887  0.18504974
   0.34617716  0.05624469  0.05647018
   0.55485808  0.00372099  0.25448899
   0.09516526  0.18175063  0.12156099
   0.03296029  0.85206858  0.37370057
   0.99358413  0.37413588  0.39276928
   0.34047062  0.60391201  0.02782883
   0.92434681  0.68523651  0.03696881
   0.34363348  0.06399961  0.02783421
   0.88838126  0.05560908  0.02665597
   0.45668472  0.66500621  0.41003219
   0.84572066  0.05592229  0.33909239
   0.96990083  0.85943007  0.39659133
   0.01513852  0.19731424  0.38967633
   0.73980004  0.54703877  0.39443663
   0.73071830  0.44585746  0.32944575
Direct configuration=     4
   0.22067121  0.89240241  0.08901558
   0.67881092  0.16637810  0.21910775
   0.94927612  0.02809995  0.15233499
   0.39305059  0.31566797  0.28509430
   0.44927612  0.52809995  0.15233499
   0.92438609  0.28261751  0.28365380
   0.44927612  0.02809995  0.15233499
   0.88756093  0.79999110  0.28309303
   0.90282244  0.55132680  0.10484543
   0.36419833  0.82454917  0.23359387
   0.99795973  0.50097390  0.20294319
   0.37819075  0.82866199  0.34311413
   0.53851998  0.23347802  0.07318573
   0.09952193  0.50027948  0.35149099
   0.75238281  0.60036549  0.32237371
   0.87926422  0.06310591  0.05527763
   0.34163512  0.33056256  0.18341401
   0.58246139  0.21150732  0.12452493
   0.05380053  0.45589804  0.25531191
   0.55212769  0.69147976  0.39219569
   0.09516526  0.72856013  0.12156099
   0.55955998  0.45249030  0.25372949
   0.76417978  0.14057025  0.31722270
   0.85888103  0.57329750  0.05350623
   0.31367411  0.84777345  0.18071789
   0.56207820  0.72169891  0.12275353
   0.01813428  0.00011116  0.25120302
   0.79749253  0.33091057  0.18399682
   0.23909975  0.62511300  0.31430728
   0.34617716  0.60305419  0.05647018
   0.23762879  0.18181574  0.31996109
   0.80090818  0.87703935  0.18512118
   0.34617716  0.05624469  0.05647018
   0.55499146  0.00367924  0.25450745
   0.09516526  0.18175063  0.12156099
   0.03313830  0.85212301  0.37367283
   0.99354156  0.37440177  0.39282256
   0.34047062  0.60391201  0.02782883
   0.92434681  0.68523651  0.03696881
   0.34363348  0.06399961  0.02783421
   0.88838126  0.05560908  0.02665597
   0.45656657  0.66498780  0.41004452
   0.84592937  0.05589758  0.33909370
   0.96968374  0.85951956  0.39663638
   0.01522138  0.19687077  0.38968201
   0.73976733  0.54702939  0.39444222
   0.73056868  0.44566573  0.32946185
Direct configuration=     5
   0.22067121  0.89240241  0.08901558
   0.67875747  0.16654654  0.21899738
   0.94927612  0.02809995  0.15233499
   0.39354931  0.31534263  0.28497158
   0.44927612  0.52809995  0.15233499
   0.92484732  0.28208007  0.28340931
   0.44927612  0.02809995  0.15233499
   0.88718320  0.80025454  0.28307375
   0.90282244  0.55132680  0.10484543
   0.36443688  0.82438640  0.23353596
   0.99781904  0.50091683  0.20284525
   0.37803578  0.82887488  0.34308299
   0.53851998  0.23347802  0.07318573
   0.09869813  0.50046585  0.35152105
   0.75314975  0.59963499  0.32233233
   0.87926422  0.06310591  0.05527763
   0.34167993  0.33113050  0.18340213
   0.58246139  0.21150732  0.12452493
   0.05331055  0.45459729  0.25550203
   0.55211790  0.69149524  0.39219039
   0.09516526  0.72856013  0.12156099
   0.55959058  0.45258275  0.25375229
   0.76426680  0.14104411  0.31714966
   0.85888103  0.57329750  0.05350623
   0.31377020  0.84706184  0.18071308
   0.56207820  0.72169891  0.12275353
   0.01757824  0.00181420  0.25137785
   0.79751381  0.33083091  0.18407750
   0.23928065  0.62530343  0.31435436
   0.34617716  0.60305419  0.05647018
   0.23769695  0.18157339  0.32001504
   0.80073695  0.87724275  0.18518708
   0.34617716  0.05624469  0.05647018
   0.55511450  0.00364072  0.25452448
   0.09516526  0.18175063  0.12156099
   0.03330250  0.85217323  0.37364723
   0.99350230  0.37464705  0.39287171
   0.34047062  0.60391201  0.02782883
   0.92434681  0.68523651  0.03696881
   0.34363348  0.06399961  0.02783421
   0.88838126  0.05560908  0.02665597
   0.45645758  0.66497082  0.41005589
   0.84612190  0.05587478  0.33909490
   0.96948348  0.85960211  0.39667793
   0.01529782  0.19646167  0.38968725
   0.73973717  0.54702073  0.39444738
   0.73043066  0.44548887  0.32947669
Direct configuration=     6
   0.22067121  0.89240241  0.08901558
   0.67875150  0.16656538  0.21898504
   0.94927612  0.02809995  0.15233499
   0.39360508  0.31530625  0.28495785
   0.44927612  0.52809995  0.15233499
   0.92489889  0.28201997  0.28338197
   0.44927612  0.02809995  0.15233499
   0.88714097  0.80028400  0.28307159
   0.90282244  0.55132680  0.10484543
   0.36446356  0.82436820  0.23352948
   0.99780331  0.50091045  0.20283430
   0.37801845  0.82889868  0.34307951
   0.53851998  0.23347802  0.07318573
   0.09860602  0.50048669  0.35152441
   0.75323550  0.59955331  0.32232770
   0.87926422  0.06310591  0.05527763
   0.34168494  0.33119401  0.18340080
   0.58246139  0.21150732  0.12452493
   0.05325576  0.45445184  0.25552329
   0.55211681  0.69149697  0.39218980
   0.09516526  0.72856013  0.12156099
   0.55959400  0.45259309  0.25375484
   0.76427653  0.14109710  0.31714149
   0.85888103  0.57329750  0.05350623
   0.31378095  0.84698226  0.18071254
   0.56207820  0.72169891  0.12275353
   0.01751607  0.00200463  0.25139740
   0.79751618  0.33082200  0.18408652
   0.23930088  0.62532472  0.31435963
   0.34617716  0.60305419  0.05647018
   0.23770457  0.18154629  0.32002107
   0.80071780  0.87726549  0.18519445
   0.34617716  0.05624469  0.05647018
   0.55512825  0.00363641  0.25452638
   0.09516526  0.18175063  0.12156099
   0.03332087  0.85217884  0.37364437
   0.99349791  0.37467447  0.39287721
   0.34047062  0.60391201  0.02782883
   0.92434681  0.68523651  0.03696881
   0.34363348  0.06399961  0.02783421
   0.88838126  0.05560908  0.02665597
   0.45644539  0.66496892  0.41005716
   0.84614343  0.05587223  0.33909504
   0.96946109  0.85961134  0.39668258
   0.01530637  0.19641593  0.38968784
   0.73973379  0.54701977  0.39444796
   0.73041523  0.44546909  0.32947835
Direct configuration=     7
   0.22067121  0.89240241  0.08901558
   0.67948623  0.16562005  0.21900828
   0.94927612  0.02809995  0.15233499
   0.39396367  0.31525772  0.28485296
   0.44927612  0.52809995  0.15233499
   0.92479396  0.28226180  0.28345343
   0.44927612  0.02809995  0.15233499
   0.88747370  0.80039411  0.28295461
   0.90282244  0.55132680  0.10484543
   0.36354037  0.82511123  0.23358468
   0.99814652  0.50085560  0.20298683
   0.37886876  0.82795363  0.34321992
   0.53851998  0.23347802  0.07318573
   0.09975339  0.49965154  0.35152520
   0.75270212  0.60073026  0.32238299
   0.87926422  0.06310591  0.05527763
   0.34260357  0.32964133  0.18324030
   0.58246139  0.21150732  0.12452493
   0.05362329  0.45487859  0.25539102
   0.55233775  0.69153673  0.39215861
   0.09516526  0.72856013  0.12156099
   0.55944707  0.45100443  0.25389421
   0.76365722  0.14123997  0.31706061
   0.85888103  0.57329750  0.05350623
   0.31397996  0.84751639  0.18059146
   0.56207820  0.72169891  0.12275353
   0.01795999  0.00153711  0.25130593
   0.79763070  0.32910661  0.18390419
   0.23873478  0.62485227  0.31417396
   0.34617716  0.60305419  0.05647018
   0.23744403  0.18302615  0.31985038
   0.80088899  0.87822926  0.18502357
   0.34617716  0.05624469  0.05647018
   0.55424776  0.00506663  0.25460904
   0.09516526  0.18175063  0.12156099
   0.03375308  0.85202708  0.37341878
   0.99338319  0.37615168  0.39282475
   0.34047062  0.60391201  0.02782883
   0.92434681  0.68523651  0.03696881
   0.34363348  0.06399961  0.02783421
   0.88838126  0.05560908  0.02665597
   0.45653530  0.66499963  0.41008997
   0.84620819  0.05545349  0.33922052
   0.96882849  0.85953155  0.39686964
   0.01542964  0.19524128  0.38963356
   0.73960160  0.54712475  0.39443347
   0.73031495  0.44551967  0.32952648
Direct configuration=     8
   0.22067121  0.89240241  0.08901558
   0.67923226  0.16594682  0.21900025
   0.94927612  0.02809995  0.15233499
   0.39383972  0.31527449  0.28488922
   0.44927612  0.52809995  0.15233499
   0.92483023  0.28217821  0.28342873
   0.44927612  0.02809995  0.15233499
   0.88735868  0.80035605  0.28299505
   0.90282244  0.55132680  0.10484543
   0.36385949  0.82485439  0.23356560
   0.99802789  0.50087456  0.20293411
   0.37857483  0.82828031  0.34317138
   0.53851998  0.23347802  0.07318573
   0.09935678  0.49994023  0.35152492
   0.75288649  0.60032343  0.32236388
   0.87926422  0.06310591  0.05527763
   0.34228603  0.33017804  0.18329578
   0.58246139  0.21150732  0.12452493
   0.05349625  0.45473108  0.25543674
   0.55226138  0.69152298  0.39216939
   0.09516526  0.72856013  0.12156099
   0.55949786  0.45155358  0.25384603
   0.76387130  0.14119059  0.31708857
   0.85888103  0.57329750  0.05350623
   0.31391117  0.84733176  0.18063331
   0.56207820  0.72169891  0.12275353
   0.01780654  0.00169872  0.25133755
   0.79759112  0.32969956  0.18396721
   0.23893046  0.62501558  0.31423814
   0.34617716  0.60305419  0.05647018
   0.23753409  0.18251461  0.31990938
   0.80082981  0.87789612  0.18508263
   0.34617716  0.05624469  0.05647018
   0.55455212  0.00457225  0.25458047
   0.09516526  0.18175063  0.12156099
   0.03360368  0.85207954  0.37349676
   0.99342285  0.37564106  0.39284289
   0.34047062  0.60391201  0.02782883
   0.92434681  0.68523651  0.03696881
   0.34363348  0.06399961  0.02783421
   0.88838126  0.05560908  0.02665597
   0.45650422  0.66498901  0.41007863
   0.84618580  0.05559823  0.33917714
   0.96904716  0.85955913  0.39680498
   0.01538703  0.19564731  0.38965232
   0.73964730  0.54708846  0.39443848
   0.73034962  0.44550219  0.32950984
Direct configuration=     9
   0.22067121  0.89240241  0.08901558
   0.68020121  0.16479355  0.21894829
   0.94927612  0.02809995  0.15233499
   0.39432102  0.31513141  0.28472911
   0.44927612  0.52809995  0.15233499
   0.92508348  0.28231420  0.28337446
   0.44927612  0.02809995  0.15233499
   0.88764143  0.80060748  0.28283451
   0.90282244  0.55132680  0.10484543
   0.36302132  0.82552912  0.23360191
   0.99833284  0.50071995  0.20302532
   0.37934843  0.82747407  0.34327425
   0.53851998  0.23347802  0.07318573
   0.10070910  0.49895071  0.35148073
   0.75236778  0.60100647  0.32245111
   0.87926422  0.06310591  0.05527763
   0.34320585  0.32866495  0.18312333
   0.58246139  0.21150732  0.12452493
   0.05352357  0.45457049  0.25537577
   0.55208714  0.69160649  0.39219956
   0.09516526  0.72856013  0.12156099
   0.55941676  0.44988119  0.25399944
   0.76372774  0.14105195  0.31711613
   0.85888103  0.57329750  0.05350623
   0.31422553  0.84755226  0.18052638
   0.56207820  0.72169891  0.12275353
   0.01792842  0.00214612  0.25131122
   0.79786776  0.32781782  0.18381610
   0.23825478  0.62489275  0.31402966
   0.34617716  0.60305419  0.05647018
   0.23732665  0.18364128  0.31973281
   0.80115579  0.87868850  0.18492282
   0.34617716  0.05624469  0.05647018
   0.55349998  0.00600518  0.25467132
   0.09516526  0.18175063  0.12156099
   0.03296360  0.85224330  0.37363366
   0.99359703  0.37491434  0.39276719
   0.34047062  0.60391201  0.02782883
   0.92434681  0.68523651  0.03696881
   0.34363348  0.06399961  0.02783421
   0.88838126  0.05560908  0.02665597
   0.45685289  0.66512363  0.41008223
   0.84579909  0.05552637  0.33919493
   0.96930824  0.85930700  0.39663121
   0.01527585  0.19652007  0.38961940
   0.73968628  0.54715887  0.39441245
   0.73023722  0.44610548  0.32955551
Direct configuration=    10
   0.22067121  0.89240241  0.08901558
   0.67985576  0.16520471  0.21896682
   0.94927612  0.02809995  0.15233499
   0.39414942  0.31518242  0.28478619
   0.44927612  0.52809995  0.15233499
   0.92499319  0.28226572  0.28339381
   0.44927612  0.02809995  0.15233499
   0.88754062  0.80051784  0.28289175
   0.90282244  0.55132680  0.10484543
   0.36332014  0.82528857  0.23358897
   0.99822412  0.50077507  0.20299280
   0.37907263  0.82776151  0.34323757
   0.53851998  0.23347802  0.07318573
   0.10022697  0.49930349  0.35149649
   0.75255271  0.60076295  0.32242001
   0.87926422  0.06310591  0.05527763
   0.34287792  0.32920440  0.18318481
   0.58246139  0.21150732  0.12452493
   0.05351383  0.45462774  0.25539750
   0.55214926  0.69157672  0.39218880
   0.09516526  0.72856013  0.12156099
   0.55944567  0.45047743  0.25394475
   0.76377892  0.14110138  0.31710631
   0.85888103  0.57329750  0.05350623
   0.31411346  0.84747365  0.18056450
   0.56207820  0.72169891  0.12275353
   0.01788497  0.00198661  0.25132061
   0.79776913  0.32848870  0.18386998
   0.23849568  0.62493654  0.31410399
   0.34617716  0.60305419  0.05647018
   0.23740061  0.18323960  0.31979576
   0.80103957  0.87840600  0.18497980
   0.34617716  0.05624469  0.05647018
   0.55387509  0.00549431  0.25463893
   0.09516526  0.18175063  0.12156099
   0.03319180  0.85218491  0.37358485
   0.99353493  0.37517343  0.39279418
   0.34047062  0.60391201  0.02782883
   0.92434681  0.68523651  0.03696881
   0.34363348  0.06399961  0.02783421
   0.88838126  0.05560908  0.02665597
   0.45672858  0.66507563  0.41008094
   0.84593696  0.05555199  0.33918859
   0.96921516  0.85939689  0.39669316
   0.01531549  0.19620892  0.38963114
   0.73967238  0.54713377  0.39442173
   0.73027729  0.44589039  0.32953923
Direct configuration=    11
   0.22067121  0.89240241  0.08901558
   0.68032872  0.16466027  0.21890577
   0.94927612  0.02809995  0.15233499
   0.39408829  0.31525242  0.28475618
   0.44927612  0.52809995  0.15233499
   0.92522523  0.28229719  0.28336822
   0.44927612  0.02809995  0.15233499
   0.88768945  0.80068658  0.28282313
   0.90282244  0.55132680  0.10484543
   0.36323591  0.82532228  0.23359599
   0.99831879  0.50057103  0.20294652
   0.37897810  0.82778911  0.34320514
   0.53851998  0.23347802  0.07318573
   0.10052813  0.49893600  0.35150046
   0.75237106  0.60098947  0.32246855
   0.87926422  0.06310591  0.05527763
   0.34300046  0.32883362  0.18314617
   0.58246139  0.21150732  0.12452493
   0.05325951  0.45434187  0.25538631
   0.55230285  0.69164977  0.39218302
   0.09516526  0.72856013  0.12156099
   0.55956895  0.45007245  0.25395518
   0.76400698  0.14096939  0.31714366
   0.85888103  0.57329750  0.05350623
   0.31432239  0.84726692  0.18057329
   0.56207820  0.72169891  0.12275353
   0.01767996  0.00269330  0.25131851
   0.79808650  0.32798155  0.18386060
   0.23845388  0.62547471  0.31395057
   0.34617716  0.60305419  0.05647018
   0.23770814  0.18263454  0.31966820
   0.80143558  0.87809065  0.18494548
   0.34617716  0.05624469  0.05647018
   0.55343570  0.00568133  0.25463748
   0.09516526  0.18175063  0.12156099
   0.03317130  0.85255628  0.37355425
   0.99347814  0.37486661  0.39278656
   0.34047062  0.60391201  0.02782883
   0.92434681  0.68523651  0.03696881
   0.34363348  0.06399961  0.02783421
   0.88838126  0.05560908  0.02665597
   0.45673979  0.66512813  0.41013084
   0.84555167  0.05562103  0.33915363
   0.96903319  0.85927974  0.39669500
   0.01526130  0.19642621  0.38960608
   0.73982748  0.54712487  0.39439882
   0.73025048  0.44635240  0.32956650
Direct configuration=    12
   0.22067121  0.89240241  0.08901558
   0.68046213  0.16450669  0.21888855
   0.94927612  0.02809995  0.15233499
   0.39407105  0.31527216  0.28474772
   0.44927612  0.52809995  0.15233499
   0.92529068  0.28230607  0.28336100
   0.44927612  0.02809995  0.15233499
   0.88773143  0.80073418  0.28280377
   0.90282244  0.55132680  0.10484543
   0.36321215  0.82533178  0.23359797
   0.99834550  0.50051348  0.20293346
   0.37895144  0.82779690  0.34319600
   0.53851998  0.23347802  0.07318573
   0.10061308  0.49883234  0.35150159
   0.75231982  0.60105336  0.32248224
   0.87926422  0.06310591  0.05527763
   0.34303503  0.32872903  0.18313526
   0.58246139  0.21150732  0.12452493
   0.05318777  0.45426123  0.25538315
   0.55234617  0.69167037  0.39218139
   0.09516526  0.72856013  0.12156099
   0.55960372  0.44995821  0.25395812
   0.76407131  0.14093216  0.31715419
   0.85888103  0.57329750  0.05350623
   0.31438133  0.84720861  0.18057577
   0.56207820  0.72169891  0.12275353
   0.01762213  0.00289265  0.25131791
   0.79817602  0.32783849  0.18385796
   0.23844209  0.62562652  0.31390729
   0.34617716  0.60305419  0.05647018
   0.23779489  0.18246386  0.31963222
   0.80154728  0.87800170  0.18493580
   0.34617716  0.05624469  0.05647018
   0.55331176  0.00573408  0.25463707
   0.09516526  0.18175063  0.12156099
   0.03316551  0.85266103  0.37354562
   0.99346212  0.37478007  0.39278441
   0.34047062  0.60391201  0.02782883
   0.92434681  0.68523651  0.03696881
   0.34363348  0.06399961  0.02783421
   0.88838126  0.05560908  0.02665597
   0.45674296  0.66514294  0.41014491
   0.84544299  0.05564050  0.33914377
   0.96898186  0.85924669  0.39669552
   0.01524602  0.19648751  0.38959901
   0.73987124  0.54712235  0.39439236
   0.73024291  0.44648272  0.32957419
Direct configuration=    13
   0.22067121  0.89240241  0.08901558
   0.68068287  0.16422668  0.21886877
   0.94927612  0.02809995  0.15233499
   0.39400031  0.31532600  0.28474052
   0.44927612  0.52809995  0.15233499
   0.92532664  0.28234315  0.28337316
   0.44927612  0.02809995  0.15233499
   0.88780296  0.80086021  0.28276807
   0.90282244  0.55132680  0.10484543
   0.36322552  0.82525866  0.23360666
   0.99841933  0.50033192  0.20289380
   0.37883769  0.82784854  0.34316898
   0.53851998  0.23347802  0.07318573
   0.10081214  0.49868104  0.35148586
   0.75228531  0.60132800  0.32250212
   0.87926422  0.06310591  0.05527763
   0.34305150  0.32859180  0.18312171
   0.58246139  0.21150732  0.12452493
   0.05300622  0.45415620  0.25536424
   0.55230514  0.69169687  0.39220263
   0.09516526  0.72856013  0.12156099
   0.55969841  0.44979244  0.25394132
   0.76408011  0.14103942  0.31712252
   0.85888103  0.57329750  0.05350623
   0.31452067  0.84702333  0.18059080
   0.56207820  0.72169891  0.12275353
   0.01748252  0.00330551  0.25130343
   0.79839464  0.32762907  0.18386015
   0.23838315  0.62597284  0.31381686
   0.34617716  0.60305419  0.05647018
   0.23799920  0.18205682  0.31955130
   0.80183794  0.87765093  0.18491900
   0.34617716  0.05624469  0.05647018
   0.55310785  0.00574379  0.25462060
   0.09516526  0.18175063  0.12156099
   0.03314836  0.85282242  0.37353701
   0.99340077  0.37500935  0.39278423
   0.34047062  0.60391201  0.02782883
   0.92434681  0.68523651  0.03696881
   0.34363348  0.06399961  0.02783421
   0.88838126  0.05560908  0.02665597
   0.45689595  0.66522060  0.41015449
   0.84533693  0.05552637  0.33915957
   0.96890554  0.85916325  0.39667949
   0.01525217  0.19619416  0.38957432
   0.73997991  0.54710403  0.39437661
   0.73021820  0.44663983  0.32960033
Direct configuration=    14
   0.22067121  0.89240241  0.08901558
   0.68091285  0.16393496  0.21884817
   0.94927612  0.02809995  0.15233499
   0.39392662  0.31538208  0.28473302
   0.44927612  0.52809995  0.15233499
   0.92536410  0.28238178  0.28338583
   0.44927612  0.02809995  0.15233499
   0.88787749  0.80099152  0.28273088
   0.90282244  0.55132680  0.10484543
   0.36323944  0.82518248  0.23361571
   0.99849626  0.50014277  0.20285249
   0.37871919  0.82790233  0.34314084
   0.53851998  0.23347802  0.07318573
   0.10101952  0.49852341  0.35146948
   0.75224936  0.60161413  0.32252285
   0.87926422  0.06310591  0.05527763
   0.34306867  0.32844882  0.18310759
   0.58246139  0.21150732  0.12452493
   0.05281708  0.45404679  0.25534454
   0.55226240  0.69172447  0.39222476
   0.09516526  0.72856013  0.12156099
   0.55979705  0.44961973  0.25392381
   0.76408928  0.14115117  0.31708952
   0.85888103  0.57329750  0.05350623
   0.31466583  0.84683030  0.18060645
   0.56207820  0.72169891  0.12275353
   0.01733706  0.00373563  0.25128833
   0.79862241  0.32741089  0.18386244
   0.23832173  0.62633364  0.31372265
   0.34617716  0.60305419  0.05647018
   0.23821207  0.18163275  0.31946700
   0.80214076  0.87728548  0.18490150
   0.34617716  0.05624469  0.05647018
   0.55289542  0.00575390  0.25460344
   0.09516526  0.18175063  0.12156099
   0.03313049  0.85299056  0.37352804
   0.99333684  0.37524823  0.39278404
   0.34047062  0.60391201  0.02782883
   0.92434681  0.68523651  0.03696881
   0.34363348  0.06399961  0.02783421
   0.88838126  0.05560908  0.02665597
   0.45705533  0.66530152  0.41016447
   0.84522644  0.05540746  0.33917604
   0.96882603  0.85907632  0.39666278
   0.01525859  0.19588854  0.38954859
   0.74009313  0.54708495  0.39436021
   0.73019244  0.44680352  0.32962757
Direct configuration=    15
   0.22067121  0.89240241  0.08901558
   0.68094557  0.16384056  0.21886773
   0.94927612  0.02809995  0.15233499
   0.39391650  0.31537851  0.28472155
   0.44927612  0.52809995  0.15233499
   0.92522967  0.28248766  0.28341923
   0.44927612  0.02809995  0.15233499
   0.88788538  0.80107674  0.28271058
   0.90282244  0.55132680  0.10484543
   0.36328215  0.82503139  0.23362972
   0.99858261  0.49995053  0.20282917
   0.37866785  0.82789797  0.34312867
   0.53851998  0.23347802  0.07318573
   0.10122083  0.49854654  0.35141939
   0.75230750  0.60176759  0.32253257
   0.87926422  0.06310591  0.05527763
   0.34306202  0.32845219  0.18310663
   0.58246139  0.21150732  0.12452493
   0.05269977  0.45413983  0.25531667
   0.55230152  0.69177210  0.39221809
   0.09516526  0.72856013  0.12156099
   0.55983154  0.44958690  0.25388956
   0.76408634  0.14123654  0.31706617
   0.85888103  0.57329750  0.05350623
   0.31476723  0.84667767  0.18061891
   0.56207820  0.72169891  0.12275353
   0.01727786  0.00384927  0.25125725
   0.79873976  0.32736714  0.18386425
   0.23816633  0.62646965  0.31369132
   0.34617716  0.60305419  0.05647018
   0.23827366  0.18156134  0.31942938
   0.80232877  0.87698257  0.18489127
   0.34617716  0.05624469  0.05647018
   0.55287909  0.00569208  0.25457916
   0.09516526  0.18175063  0.12156099
   0.03312275  0.85295461  0.37352194
   0.99339922  0.37512299  0.39276727
   0.34047062  0.60391201  0.02782883
   0.92434681  0.68523651  0.03696881
   0.34363348  0.06399961  0.02783421
   0.88838126  0.05560908  0.02665597
   0.45711941  0.66533916  0.41018627
   0.84513672  0.05533885  0.33918043
   0.96880666  0.85900532  0.39663698
   0.01521629  0.19595857  0.38953452
   0.74012770  0.54709673  0.39435117
   0.73019311  0.44690578  0.32964665
Direct configuration=    16
   0.22067121  0.89240241  0.08901558
   0.68100450  0.16367055  0.21890295
   0.94927612  0.02809995  0.15233499
   0.39389828  0.31537207  0.28470089
   0.44927612  0.52809995  0.15233499
   0.92498758  0.28267834  0.28347936
   0.44927612  0.02809995  0.15233499
   0.88789958  0.80123021  0.28267401
   0.90282244  0.55132680  0.10484543
   0.36335906  0.82475929  0.23365494
   0.99873812  0.49960431  0.20278716
   0.37857539  0.82789011  0.34310676
   0.53851998  0.23347802  0.07318573
   0.10158338  0.49858820  0.35132918
   0.75241220  0.60204397  0.32255008
   0.87926422  0.06310591  0.05527763
   0.34305004  0.32845827  0.18310491
   0.58246139  0.21150732  0.12452493
   0.05248850  0.45430739  0.25526647
   0.55237197  0.69185788  0.39220609
   0.09516526  0.72856013  0.12156099
   0.55989365  0.44952776  0.25382788
   0.76408105  0.14139028  0.31702412
   0.85888103  0.57329750  0.05350623
   0.31494985  0.84640281  0.18064136
   0.56207820  0.72169891  0.12275353
   0.01717123  0.00405394  0.25120126
   0.79895111  0.32728835  0.18386751
   0.23788645  0.62671461  0.31363490
   0.34617716  0.60305419  0.05647018
   0.23838459  0.18143273  0.31936163
   0.80266737  0.87643703  0.18487284
   0.34617716  0.05624469  0.05647018
   0.55284966  0.00558075  0.25453545
   0.09516526  0.18175063  0.12156099
   0.03310881  0.85288988  0.37351095
   0.99351157  0.37489744  0.39273708
   0.34047062  0.60391201  0.02782883
   0.92434681  0.68523651  0.03696881
   0.34363348  0.06399961  0.02783421
   0.88838126  0.05560908  0.02665597
   0.45723481  0.66540696  0.41022553
   0.84497516  0.05521530  0.33918834
   0.96877178  0.85887745  0.39659053
   0.01514010  0.19608469  0.38950917
   0.74018995  0.54711795  0.39433489
   0.73019430  0.44708995  0.32968100
Direct configuration=    17
   0.22067121  0.89240241  0.08901558
   0.68107726  0.16352776  0.21891518
   0.94927612  0.02809995  0.15233499
   0.39390853  0.31533872  0.28465645
   0.44927612  0.52809995  0.15233499
   0.92487603  0.28288908  0.28349237
   0.44927612  0.02809995  0.15233499
   0.88790525  0.80130951  0.28263848
   0.90282244  0.55132680  0.10484543
   0.36337339  0.82452921  0.23367229
   0.99888305  0.49930033  0.20276476
   0.37849988  0.82787442  0.34309572
   0.53851998  0.23347802  0.07318573
   0.10170559  0.49863142  0.35128101
   0.75250212  0.60203558  0.32256660
   0.87926422  0.06310591  0.05527763
   0.34310949  0.32847735  0.18310491
   0.58246139  0.21150732  0.12452493
   0.05229698  0.45450551  0.25524100
   0.55230544  0.69189691  0.39221115
   0.09516526  0.72856013  0.12156099
   0.55987758  0.44951743  0.25378742
   0.76414940  0.14135799  0.31704459
   0.85888103  0.57329750  0.05350623
   0.31509760  0.84622352  0.18065345
   0.56207820  0.72169891  0.12275353
   0.01708339  0.00414615  0.25116151
   0.79901190  0.32721609  0.18386770
   0.23773411  0.62685664  0.31359566
   0.34617716  0.60305419  0.05647018
   0.23846117  0.18142009  0.31931392
   0.80283138  0.87617419  0.18486312
   0.34617716  0.05624469  0.05647018
   0.55290530  0.00548733  0.25450774
   0.09516526  0.18175063  0.12156099
   0.03317340  0.85282442  0.37346323
   0.99363858  0.37487520  0.39269650
   0.34047062  0.60391201  0.02782883
   0.92434681  0.68523651  0.03696881
   0.34363348  0.06399961  0.02783421
   0.88838126  0.05560908  0.02665597
   0.45746499  0.66550747  0.41023431
   0.84471174  0.05527274  0.33915206
   0.96868255  0.85877103  0.39657417
   0.01508843  0.19606489  0.38948582
   0.74024827  0.54713247  0.39432097
   0.73024177  0.44741864  0.32970469
Direct configuration=    18
   0.22067121  0.89240241  0.08901558
   0.68109833  0.16348642  0.21891872
   0.94927612  0.02809995  0.15233499
   0.39391149  0.31532906  0.28464359
   0.44927612  0.52809995  0.15233499
   0.92484373  0.28295010  0.28349614
   0.44927612  0.02809995  0.15233499
   0.88790689  0.80133248  0.28262820
   0.90282244  0.55132680  0.10484543
   0.36337754  0.82446258  0.23367732
   0.99892502  0.49921231  0.20275827
   0.37847801  0.82786987  0.34309252
   0.53851998  0.23347802  0.07318573
   0.10174098  0.49864394  0.35126707
   0.75252816  0.60203314  0.32257139
   0.87926422  0.06310591  0.05527763
   0.34312670  0.32848288  0.18310491
   0.58246139  0.21150732  0.12452493
   0.05224152  0.45456289  0.25523363
   0.55228618  0.69190821  0.39221262
   0.09516526  0.72856013  0.12156099
   0.55987292  0.44951444  0.25377571
   0.76416920  0.14134864  0.31705052
   0.85888103  0.57329750  0.05350623
   0.31514038  0.84617160  0.18065695
   0.56207820  0.72169891  0.12275353
   0.01705795  0.00417285  0.25115000
   0.79902950  0.32719516  0.18386775
   0.23769000  0.62689776  0.31358429
   0.34617716  0.60305419  0.05647018
   0.23848334  0.18141644  0.31930010
   0.80287887  0.87609807  0.18486030
   0.34617716  0.05624469  0.05647018
   0.55292142  0.00546028  0.25449971
   0.09516526  0.18175063  0.12156099
   0.03319210  0.85280547  0.37344941
   0.99367536  0.37486875  0.39268475
   0.34047062  0.60391201  0.02782883
   0.92434681  0.68523651  0.03696881
   0.34363348  0.06399961  0.02783421
   0.88838126  0.05560908  0.02665597
   0.45753165  0.66553658  0.41023686
   0.84463546  0.05528937  0.33914156
   0.96865672  0.85874021  0.39656943
   0.01507347  0.19605916  0.38947906
   0.74026516  0.54713667  0.39431693
   0.73025552  0.44751382  0.32971155
Direct configuration=    19
   0.22067121  0.89240241  0.08901558
   0.68114047  0.16340372  0.21892580
   0.94927612  0.02809995  0.15233499
   0.39391743  0.31530975  0.28461785
   0.44927612  0.52809995  0.15233499
   0.92477912  0.28307215  0.28350368
   0.44927612  0.02809995  0.15233499
   0.88791017  0.80137841  0.28260762
   0.90282244  0.55132680  0.10484543
   0.36338584  0.82432932  0.23368737
   0.99900896  0.49903625  0.20274529
   0.37843427  0.82786078  0.34308612
   0.53851998  0.23347802  0.07318573
   0.10181176  0.49866897  0.35123917
   0.75258023  0.60202828  0.32258096
   0.87926422  0.06310591  0.05527763
   0.34316113  0.32849393  0.18310490
   0.58246139  0.21150732  0.12452493
   0.05213060  0.45467764  0.25521888
   0.55224765  0.69193081  0.39221555
   0.09516526  0.72856013  0.12156099
   0.55986361  0.44950846  0.25375228
   0.76420878  0.14132994  0.31706237
   0.85888103  0.57329750  0.05350623
   0.31522596  0.84606776  0.18066396
   0.56207820  0.72169891  0.12275353
   0.01700708  0.00422626  0.25112698
   0.79906471  0.32715331  0.18386785
   0.23760177  0.62698002  0.31356156
   0.34617716  0.60305419  0.05647018
   0.23852769  0.18140912  0.31927246
   0.80297386  0.87594584  0.18485467
   0.34617716  0.05624469  0.05647018
   0.55295365  0.00540617  0.25448366
   0.09516526  0.18175063  0.12156099
   0.03322951  0.85276756  0.37342177
   0.99374892  0.37485587  0.39266125
   0.34047062  0.60391201  0.02782883
   0.92434681  0.68523651  0.03696881
   0.34363348  0.06399961  0.02783421
   0.88838126  0.05560908  0.02665597
   0.45766497  0.66559479  0.41024194
   0.84448290  0.05532263  0.33912055
   0.96860504  0.85867857  0.39655996
   0.01504355  0.19604769  0.38946553
   0.74029893  0.54714508  0.39430887
   0.73028302  0.44770418  0.32972527
Direct configuration=    20
   0.22067121  0.89240241  0.08901558
   0.68112185  0.16344027  0.21892267
   0.94927612  0.02809995  0.15233499
   0.39391480  0.31531828  0.28462923
   0.44927612  0.52809995  0.15233499
   0.92480767  0.28301821  0.28350035
   0.44927612  0.02809995  0.15233499
   0.88790872  0.80135811  0.28261671
   0.90282244  0.55132680  0.10484543
   0.36338218  0.82438822  0.23368292
   0.99897186  0.49911406  0.20275102
   0.37845360  0.82786480  0.34308895
   0.53851998  0.23347802  0.07318573
   0.10178048  0.49865791  0.35125150
   0.75255722  0.60203043  0.32257673
   0.87926422  0.06310591  0.05527763
   0.34314592  0.32848904  0.18310490
   0.58246139  0.21150732  0.12452493
   0.05217962  0.45462692  0.25522540
   0.55226467  0.69192082  0.39221426
   0.09516526  0.72856013  0.12156099
   0.55986773  0.44951111  0.25376263
   0.76419129  0.14133821  0.31705713
   0.85888103  0.57329750  0.05350623
   0.31518814  0.84611365  0.18066086
   0.56207820  0.72169891  0.12275353
   0.01702956  0.00420266  0.25113716
   0.79904915  0.32717181  0.18386781
   0.23764077  0.62694367  0.31357161
   0.34617716  0.60305419  0.05647018
   0.23850809  0.18141235  0.31928468
   0.80293188  0.87601312  0.18485716
   0.34617716  0.05624469  0.05647018
   0.55293940  0.00543008  0.25449076
   0.09516526  0.18175063  0.12156099
   0.03321298  0.85278431  0.37343399
   0.99371641  0.37486156  0.39267164
   0.34047062  0.60391201  0.02782883
   0.92434681  0.68523651  0.03696881
   0.34363348  0.06399961  0.02783421
   0.88838126  0.05560908  0.02665597
   0.45760605  0.66556906  0.41023969
   0.84455033  0.05530793  0.33912983
   0.96862788  0.85870581  0.39656415
   0.01505677  0.19605276  0.38947151
   0.74028401  0.54714136  0.39431243
   0.73027086  0.44762005  0.32971921
Direct configuration=    21
   0.22067121  0.89240241  0.08901558
   0.68123584  0.16327996  0.21891097
   0.94927612  0.02809995  0.15233499
   0.39391287  0.31530442  0.28457859
   0.44927612  0.52809995  0.15233499
   0.92478270  0.28317278  0.28348965
   0.44927612  0.02809995  0.15233499
   0.88791899  0.80142984  0.28258373
   0.90282244  0.55132680  0.10484543
   0.36335708  0.82420140  0.23369321
   0.99910282  0.49883988  0.20273369
   0.37834976  0.82787225  0.34307849
   0.53851998  0.23347802  0.07318573
   0.10176107  0.49867136  0.35122865
   0.75265001  0.60209451  0.32258323
   0.87926422  0.06310591  0.05527763
   0.34324636  0.32848648  0.18310545
   0.58246139  0.21150732  0.12452493
   0.05199910  0.45480465  0.25521265
   0.55232228  0.69193886  0.39220148
   0.09516526  0.72856013  0.12156099
   0.55983322  0.44949882  0.25373601
   0.76412953  0.14140151  0.31705332
   0.85888103  0.57329750  0.05350623
   0.31531639  0.84599711  0.18066879
   0.56207820  0.72169891  0.12275353
   0.01693296  0.00431098  0.25111054
   0.79904225  0.32708309  0.18386715
   0.23761051  0.62704893  0.31352610
   0.34617716  0.60305419  0.05647018
   0.23860960  0.18137556  0.31923756
   0.80302233  0.87588449  0.18485262
   0.34617716  0.05624469  0.05647018
   0.55300930  0.00533936  0.25447125
   0.09516526  0.18175063  0.12156099
   0.03319646  0.85279764  0.37341522
   0.99381809  0.37484209  0.39262971
   0.34047062  0.60391201  0.02782883
   0.92434681  0.68523651  0.03696881
   0.34363348  0.06399961  0.02783421
   0.88838126  0.05560908  0.02665597
   0.45776094  0.66565475  0.41026038
   0.84439163  0.05528874  0.33911463
   0.96862619  0.85859219  0.39652185
   0.01500729  0.19604627  0.38944890
   0.74032486  0.54717498  0.39429804
   0.73031957  0.44784397  0.32974904
Direct configuration=    22
   0.22067121  0.89240241  0.08901558
   0.68147604  0.16294217  0.21888632
   0.94927612  0.02809995  0.15233499
   0.39390881  0.31527521  0.28447188
   0.44927612  0.52809995  0.15233499
   0.92473007  0.28349850  0.28346713
   0.44927612  0.02809995  0.15233499
   0.88794064  0.80158099  0.28251421
   0.90282244  0.55132680  0.10484543
   0.36330420  0.82380774  0.23371490
   0.99937876  0.49826212  0.20269715
   0.37813094  0.82788796  0.34305646
   0.53851998  0.23347802  0.07318573
   0.10172016  0.49869971  0.35118052
   0.75284555  0.60222953  0.32259693
   0.87926422  0.06310591  0.05527763
   0.34345801  0.32848106  0.18310660
   0.58246139  0.21150732  0.12452493
   0.05161872  0.45517917  0.25518578
   0.55244366  0.69197687  0.39217455
   0.09516526  0.72856013  0.12156099
   0.55976052  0.44947293  0.25367991
   0.76399940  0.14153489  0.31704528
   0.85888103  0.57329750  0.05350623
   0.31558664  0.84575152  0.18068548
   0.56207820  0.72169891  0.12275353
   0.01672938  0.00453924  0.25105446
   0.79902770  0.32689614  0.18386575
   0.23754675  0.62727074  0.31343021
   0.34617716  0.60305419  0.05647018
   0.23882349  0.18129804  0.31913826
   0.80321293  0.87561345  0.18484306
   0.34617716  0.05624469  0.05647018
   0.55315657  0.00514820  0.25443013
   0.09516526  0.18175063  0.12156099
   0.03316165  0.85282571  0.37337566
   0.99403236  0.37480104  0.39254137
   0.34047062  0.60391201  0.02782883
   0.92434681  0.68523651  0.03696881
   0.34363348  0.06399961  0.02783421
   0.88838126  0.05560908  0.02665597
   0.45808733  0.66583530  0.41030396
   0.84405722  0.05524830  0.33908259
   0.96862265  0.85835278  0.39643272
   0.01490303  0.19603260  0.38940126
   0.74041093  0.54724583  0.39426770
   0.73042220  0.44831581  0.32981190
Direct configuration=    23
   0.22067121  0.89240241  0.08901558
   0.68195644  0.16226658  0.21883701
   0.94927612  0.02809995  0.15233499
   0.39390068  0.31521678  0.28425846
   0.44927612  0.52809995  0.15233499
   0.92462482  0.28414993  0.28342207
   0.44927612  0.02809995  0.15233499
   0.88798393  0.80188329  0.28237519
   0.90282244  0.55132680  0.10484543
   0.36319844  0.82302042  0.23375826
   0.99993065  0.49710661  0.20262408
   0.37769330  0.82791937  0.34301240
   0.53851998  0.23347802  0.07318573
   0.10163835  0.49875641  0.35108425
   0.75323663  0.60249958  0.32262433
   0.87926422  0.06310591  0.05527763
   0.34388131  0.32847024  0.18310891
   0.58246139  0.21150732  0.12452493
   0.05085795  0.45592820  0.25513204
   0.55268642  0.69205288  0.39212069
   0.09516526  0.72856013  0.12156099
   0.55961511  0.44942115  0.25356772
   0.76373914  0.14180165  0.31702920
   0.85888103  0.57329750  0.05350623
   0.31612715  0.84526036  0.18071887
   0.56207820  0.72169891  0.12275353
   0.01632224  0.00499577  0.25094229
   0.79899862  0.32652225  0.18386296
   0.23741924  0.62771435  0.31323842
   0.34617716  0.60305419  0.05647018
   0.23925127  0.18114299  0.31893966
   0.80359413  0.87507136  0.18482393
   0.34617716  0.05624469  0.05647018
   0.55345113  0.00476587  0.25434790
   0.09516526  0.18175063  0.12156099
   0.03309204  0.85288186  0.37329655
   0.99446090  0.37471896  0.39236468
   0.34047062  0.60391201  0.02782883
   0.92434681  0.68523651  0.03696881
   0.34363348  0.06399961  0.02783421
   0.88838126  0.05560908  0.02665597
   0.45874010  0.66619640  0.41039113
   0.84338840  0.05516741  0.33901850
   0.96861556  0.85787395  0.39625447
   0.01469450  0.19600525  0.38930598
   0.74058309  0.54738752  0.39420704
   0.73062745  0.44925950  0.32993763
Direct configuration=    24
   0.22067121  0.89240241  0.08901558
   0.68159505  0.16277480  0.21887410
   0.94927612  0.02809995  0.15233499
   0.39390679  0.31526073  0.28441900
   0.44927612  0.52809995  0.15233499
   0.92470400  0.28365989  0.28345597
   0.44927612  0.02809995  0.15233499
   0.88795137  0.80165588  0.28247977
   0.90282244  0.55132680  0.10484543
   0.36327800  0.82361268  0.23372564
   0.99951549  0.49797585  0.20267905
   0.37802251  0.82789574  0.34304555
   0.53851998  0.23347802  0.07318573
   0.10169989  0.49871376  0.35115667
   0.75294244  0.60229644  0.32260372
   0.87926422  0.06310591  0.05527763
   0.34356288  0.32847838  0.18310718
   0.58246139  0.21150732  0.12452493
   0.05143024  0.45536474  0.25517247
   0.55250380  0.69199570  0.39216121
   0.09516526  0.72856013  0.12156099
   0.55972450  0.44946010  0.25365212
   0.76393492  0.14160098  0.31704129
   0.85888103  0.57329750  0.05350623
   0.31572055  0.84562984  0.18069375
   0.56207820  0.72169891  0.12275353
   0.01662852  0.00465234  0.25102667
   0.79902050  0.32680351  0.18386506
   0.23751516  0.62738064  0.31338269
   0.34617716  0.60305419  0.05647018
   0.23892947  0.18125962  0.31908906
   0.80330737  0.87547915  0.18483832
   0.34617716  0.05624469  0.05647018
   0.55322955  0.00505348  0.25440976
   0.09516526  0.18175063  0.12156099
   0.03314440  0.85283962  0.37335606
   0.99413853  0.37478071  0.39249759
   0.34047062  0.60391201  0.02782883
   0.92434681  0.68523651  0.03696881
   0.34363348  0.06399961  0.02783421
   0.88838126  0.05560908  0.02665597
   0.45824905  0.66592476  0.41032555
   0.84389152  0.05522826  0.33906671
   0.96862089  0.85823415  0.39638856
   0.01485137  0.19602583  0.38937765
   0.74045358  0.54728093  0.39425267
   0.73047305  0.44854961  0.32984305
Direct configuration=    25
   0.22067121  0.89240241  0.08901558
   0.68176620  0.16255469  0.21883903
   0.94927612  0.02809995  0.15233499
   0.39386460  0.31529144  0.28436407
   0.44927612  0.52809995  0.15233499
   0.92467282  0.28373131  0.28343304
   0.44927612  0.02809995  0.15233499
   0.88794833  0.80181888  0.28244756
   0.90282244  0.55132680  0.10484543
   0.36319866  0.82345149  0.23373090
   0.99964916  0.49767230  0.20265876
   0.37785789  0.82795203  0.34302925
   0.53851998  0.23347802  0.07318573
   0.10171348  0.49871784  0.35111526
   0.75305680  0.60256794  0.32259635
   0.87926422  0.06310591  0.05527763
   0.34372801  0.32841588  0.18310824
   0.58246139  0.21150732  0.12452493
   0.05124342  0.45555210  0.25515532
   0.55261093  0.69195889  0.39214870
   0.09516526  0.72856013  0.12156099
   0.55971022  0.44938125  0.25362550
   0.76369775  0.14184954  0.31698820
   0.85888103  0.57329750  0.05350623
   0.31585417  0.84557369  0.18069864
   0.56207820  0.72169891  0.12275353
   0.01650349  0.00486841  0.25100299
   0.79897498  0.32667592  0.18385859
   0.23751114  0.62743202  0.31332646
   0.34617716  0.60305419  0.05647018
   0.23903346  0.18125608  0.31903594
   0.80339421  0.87538164  0.18483265
   0.34617716  0.05624469  0.05647018
   0.55329785  0.00492761  0.25438395
   0.09516526  0.18175063  0.12156099
   0.03320820  0.85282895  0.37330192
   0.99425709  0.37471457  0.39244124
   0.34047062  0.60391201  0.02782883
   0.92434681  0.68523651  0.03696881
   0.34363348  0.06399961  0.02783421
   0.88838126  0.05560908  0.02665597
   0.45848682  0.66606899  0.41034647
   0.84381551  0.05508790  0.33907618
   0.96855986  0.85807741  0.39635689
   0.01479307  0.19606248  0.38934387
   0.74048524  0.54736769  0.39422838
   0.73053947  0.44863893  0.32989309
