Mn O  H 
 1.0000000000000000
     5.7471469900000001    0.0000000000000000    0.0000000000000000
     0.0000000000000000    5.7471469900000001    0.0000000000000000
     0.0000000000000000    0.0000000000000000   38.3523056924327008
 Mn  O   H  
  13  19   3
Selective dynamics
Direct
 -0.0093835343744717  0.2391760241319369  0.2623916092900749   F   F   F
  0.7489864879576713  0.4968346817732093  0.3235847127412249   F   F   F
  0.5053010593430691  0.2553378883797556  0.3943120824087712   T   T   T
  0.7469731153322469  0.0135621656986558  0.4585263275980518   T   T   T
  0.2519188041002817  0.0037122883635335  0.4545139183721560   T   T   T
  0.2510151206674320  0.4955812159049278  0.3269556710605909   F   F   F
  0.5088491796570860  0.7532912167359310  0.3941743924311842   T   T   T
 -0.0100916428494874  0.7513987945614823  0.2627757334990781   F   F   F
  0.0024768544779153 -0.0045784375955736  0.3571699137271092   F   F   F
  0.0085183877659834  0.4987221044503903  0.4253077404767092   T   T   T
  0.4132996859428282  0.5065515139611612  0.4878581920024508   T   T   T
  0.4872487909802456 -0.0043314717839424  0.2917774653642574   F   F   F
  0.9120539900249970  0.7002542106885198  0.5122966079632485   T   T   T
  0.0051466034032910  0.2206046172271200  0.4576973481366960   T   T   T
  0.7747574636748692  0.4958631552600724  0.2647010163483396   F   F   F
  0.4994775423373534  0.2678073900728424  0.3280746410023943   F   F   F
  0.7376198403109694  0.0043429935774556  0.4001290578185402   T   T   T
  0.0037645548922136  0.2690184215424850  0.3222536979589821   F   F   F
  0.7692367725186661 -0.0055241815224737  0.2597891457639432   F   F   F
  0.4711964026312158  0.2502099299909383  0.4521764080329547   T   T   T
  0.7339070737869657  0.5047492680399100  0.3909141469490049   T   T   T
  0.2111692605782599 -0.0057975698878655  0.2583053953367737   F   F   F
  0.2774261699008969  0.5068433410630935  0.3896816323203124   T   T   T
  0.2272536477132092  0.4962741366236937  0.2626329689737672   F   F   F
  0.2783076132621059  0.0001956178513673  0.3955842085797372   T   T   T
  0.4987015056994976  0.7247605740973498  0.3278246169346272   F   F   F
  0.0515120697141486  0.7413686109755135  0.4652706198334499   T   T   T
  0.5044813001433220  0.7785371272945342  0.4533901664472108   T   T   T
  0.0041034282560547  0.7236694402594225  0.3222276800561435   F   F   F
  0.6636049898077139  0.5099848794486177  0.5301367617577709   T   T   T
  0.1698443726107328  0.5112498153257952  0.5290770472501766   T   T   T
  0.7523669168318194 -0.0313561752609993  0.5080805647103432   T   T   T
  0.3862807976787250  0.4992215041381847  0.2532026820654570   F   F   F
  0.5676589731467643  0.5807164988427794  0.5481945898406060   T   T   T
  0.1153395310413916  0.3650561821509671  0.5389539597252221   T   T   T
