Mn  O  H                                
   1.00000000000000     
     2.8735734950000000   -2.8735734950000000    4.7083351100000002
     5.7471469900000001    0.0000000000000000    0.0000000000000000
     0.0000000000000000   33.0656910066415008   20.1805290088081009
   Mn   O    H 
    12    20     7
Selective dynamics
Direct
  0.2206712106837827  0.8924024101981232  0.0890155841539979   F   F   F
  0.6775072740446648  0.1648727092337377  0.2180080456497323   T   T   T
  0.9492761232251894  0.0280999539274163  0.1523349856625060   F   F   F
  0.4077937617675923  0.3012823807146665  0.2838590779482044   T   T   T
  0.4492761232251894  0.5280999539274163  0.1523349856625060   F   F   F
  0.9034168763332245  0.3013932481290356  0.2852375185802362   T   T   T
  0.4492761232251894  0.0280999539274163  0.1523349856625060   F   F   F
  0.9023813979451540  0.8093125298636822  0.2851213046840805   T   T   T
  0.9028224388191362  0.5513267961304464  0.1048454345311214   F   F   F
  0.3522418225221909  0.8279717915305694  0.2338708702142218   T   T   T
  0.9969691309341451  0.5044500924842196  0.2042254742332491   T   T   T
  0.5385199825484293  0.2334780242657999  0.0731857337768673   F   F   F
  0.7653342964109224  0.6248500846329362  0.3141737072766999   T   T   T
  0.8792642171272149  0.0631059069764035  0.0552776342656358   F   F   F
  0.3379715254580045  0.3336475605606243  0.1828353956162795   T   T   T
  0.5824613929758371  0.2115073190520960  0.1245249348239739   F   F   F
  0.0460471957614309  0.4842672420235318  0.2574266279160284   T   T   T
  0.0951652613222294  0.7285601348788973  0.1215609852990625   F   F   F
  0.5506520282749471  0.4544608511729902  0.2510569189394368   T   T   T
  0.7430388160904845  0.1349848688817415  0.3090728184293959   T   T   T
  0.8588810283917283  0.5732975013441504  0.0535062334840219   F   F   F
  0.3130551003747276  0.8463605863888211  0.1806921383449980   T   T   T
  0.5620782042403505  0.7216989134198428  0.1227535340423529   F   F   F
  0.0074645075438293  0.0022868115453289  0.2530981625330671   T   T   T
  0.8026071809428461  0.3279229851782627  0.1841203914008085   T   T   T
  0.2579741778831976  0.6274502526333270  0.3107985485471758   T   T   T
  0.3461771600453361  0.6030541855173510  0.0564701830089334   F   F   F
  0.2484653571671713  0.1513328503380592  0.3125705474463088   T   T   T
  0.8023371070384628  0.8757934823771776  0.1842585254148133   T   T   T
  0.3461771600453361  0.0562446855173491  0.0564701830089334   F   F   F
  0.5502575986055543  0.0032379790510208  0.2515295007860662   T   T   T
  0.0951652613222294  0.1817506348788953  0.1215609852990625   F   F   F
  0.3404706169097480  0.6039120138460916  0.0278288297643030   F   F   F
  0.9243468113422040  0.6852365052266407  0.0369688146645331   F   F   F
  0.3436334761770041  0.0639996102436484  0.0278342118600037   F   F   F
  0.8883812645227351  0.0556090842097916  0.0266559720288981   F   F   F
  0.8343224324081855  0.5862149346100375  0.3373170998031159   T   T   T
  0.2732086865282758  0.5820689328362340  0.3351974595113619   T   T   T
  0.3354447345050636  0.9592572831250562  0.3144531091844923   T   T   T
 
  0.00000000E+00  0.00000000E+00  0.00000000E+00
  0.00000000E+00  0.00000000E+00  0.00000000E+00
  0.00000000E+00  0.00000000E+00  0.00000000E+00
  0.00000000E+00  0.00000000E+00  0.00000000E+00
  0.00000000E+00  0.00000000E+00  0.00000000E+00
  0.00000000E+00  0.00000000E+00  0.00000000E+00
  0.00000000E+00  0.00000000E+00  0.00000000E+00
  0.00000000E+00  0.00000000E+00  0.00000000E+00
  0.00000000E+00  0.00000000E+00  0.00000000E+00
  0.00000000E+00  0.00000000E+00  0.00000000E+00
  0.00000000E+00  0.00000000E+00  0.00000000E+00
  0.00000000E+00  0.00000000E+00  0.00000000E+00
  0.00000000E+00  0.00000000E+00  0.00000000E+00
  0.00000000E+00  0.00000000E+00  0.00000000E+00
  0.00000000E+00  0.00000000E+00  0.00000000E+00
  0.00000000E+00  0.00000000E+00  0.00000000E+00
  0.00000000E+00  0.00000000E+00  0.00000000E+00
  0.00000000E+00  0.00000000E+00  0.00000000E+00
  0.00000000E+00  0.00000000E+00  0.00000000E+00
  0.00000000E+00  0.00000000E+00  0.00000000E+00
  0.00000000E+00  0.00000000E+00  0.00000000E+00
  0.00000000E+00  0.00000000E+00  0.00000000E+00
  0.00000000E+00  0.00000000E+00  0.00000000E+00
  0.00000000E+00  0.00000000E+00  0.00000000E+00
  0.00000000E+00  0.00000000E+00  0.00000000E+00
  0.00000000E+00  0.00000000E+00  0.00000000E+00
  0.00000000E+00  0.00000000E+00  0.00000000E+00
  0.00000000E+00  0.00000000E+00  0.00000000E+00
  0.00000000E+00  0.00000000E+00  0.00000000E+00
  0.00000000E+00  0.00000000E+00  0.00000000E+00
  0.00000000E+00  0.00000000E+00  0.00000000E+00
  0.00000000E+00  0.00000000E+00  0.00000000E+00
  0.00000000E+00  0.00000000E+00  0.00000000E+00
  0.00000000E+00  0.00000000E+00  0.00000000E+00
  0.00000000E+00  0.00000000E+00  0.00000000E+00
  0.00000000E+00  0.00000000E+00  0.00000000E+00
  0.00000000E+00  0.00000000E+00  0.00000000E+00
  0.00000000E+00  0.00000000E+00  0.00000000E+00
  0.00000000E+00  0.00000000E+00  0.00000000E+00
