 running on   64 total cores
 distrk:  each k-point on   64 cores,    1 groups
 distr:  one band on   32 cores,    2 groups
 using from now: INCAR     
 vasp.5.4.4.18Apr17-6-g9f103f2a35 (build Sep 24 2019 09:38:50) complex          
  
 POSCAR found type information on POSCAR  Mn O  H 
 POSCAR found :  3 types and      39 ions

 ----------------------------------------------------------------------------- 
|                                                                             |
|           W    W    AA    RRRRR   N    N  II  N    N   GGGG   !!!           |
|           W    W   A  A   R    R  NN   N  II  NN   N  G    G  !!!           |
|           W    W  A    A  R    R  N N  N  II  N N  N  G       !!!           |
|           W WW W  AAAAAA  RRRRR   N  N N  II  N  N N  G  GGG   !            |
|           WW  WW  A    A  R   R   N   NN  II  N   NN  G    G                |
|           W    W  A    A  R    R  N    N  II  N    N   GGGG   !!!           |
|                                                                             |
|      For optimal performance we recommend to set                            |
|        NCORE= 4 - approx SQRT( number of cores)                             |
|      NCORE specifies how many cores store one orbital (NPAR=cpu/NCORE).     |
|      This setting can  greatly improve the performance of VASP for DFT.     |
|      The default,   NCORE=1            might be grossly inefficient         |
|      on modern multi-core architectures or massively parallel machines.     |
|      Do your own testing !!!!                                               |
|      Unfortunately you need to use the default for GW and RPA calculations. |
|      (for HF NCORE is supported but not extensively tested yet)             |
|                                                                             |
 ----------------------------------------------------------------------------- 

 LDA part: xc-table for Pade appr. of Perdew
 POSCAR found type information on POSCAR  Mn O  H 
 POSCAR found :  3 types and      39 ions
 POSCAR, INCAR and KPOINTS ok, starting setup
 FFT: planning ...
 WAVECAR not read
 entering main loop
       N       E                     dE             d eps       ncg     rms          rms(c)
DAV:   1     0.306861835028E+04    0.30686E+04   -0.15208E+05  8544   0.143E+03
DAV:   2     0.211986312323E+03   -0.28566E+04   -0.26906E+04  8048   0.391E+02
DAV:   3    -0.283260253780E+03   -0.49525E+03   -0.48764E+03  8602   0.158E+02
DAV:   4    -0.304738173788E+03   -0.21478E+02   -0.21299E+02  8608   0.343E+01
DAV:   5    -0.305233405344E+03   -0.49523E+00   -0.49426E+00  8480   0.593E+00    0.699E+01
RMM:   6    -0.279417307398E+03    0.25816E+02   -0.58280E+02  8496   0.561E+01    0.848E+01
RMM:   7    -0.282054043079E+03   -0.26367E+01   -0.42805E+01  8129   0.162E+01    0.691E+01
RMM:   8    -0.277198151263E+03    0.48559E+01   -0.61070E+01  7581   0.171E+01    0.670E+01
RMM:   9    -0.261833732855E+03    0.15364E+02   -0.44263E+01  7913   0.144E+01    0.466E+01
RMM:  10    -0.264872556872E+03   -0.30388E+01   -0.18282E+01  8224   0.871E+00    0.494E+01
RMM:  11    -0.262862573795E+03    0.20100E+01   -0.21995E+01  7569   0.104E+01    0.351E+01
RMM:  12    -0.259612206800E+03    0.32504E+01   -0.73342E+00  7890   0.628E+00    0.395E+01
RMM:  13    -0.259041937906E+03    0.57027E+00   -0.32335E+00  7544   0.413E+00    0.366E+01
RMM:  14    -0.257692734836E+03    0.13492E+01   -0.19747E+00  7275   0.314E+00    0.285E+01
RMM:  15    -0.259677354322E+03   -0.19846E+01   -0.91399E-01  7296   0.216E+00    0.251E+01
RMM:  16    -0.260590612495E+03   -0.91326E+00   -0.32693E-01  7278   0.135E+00    0.225E+01
RMM:  17    -0.261788956985E+03   -0.11983E+01   -0.18995E+00  7213   0.298E+00    0.178E+01
RMM:  18    -0.261848935679E+03   -0.59979E-01   -0.13120E+00  7407   0.250E+00    0.118E+01
RMM:  19    -0.262004274979E+03   -0.15534E+00   -0.51257E-01  7690   0.162E+00    0.107E+01
RMM:  20    -0.262210706149E+03   -0.20643E+00   -0.20064E-01  7884   0.952E-01    0.107E+01
RMM:  21    -0.262249900289E+03   -0.39194E-01   -0.81278E-02  7829   0.646E-01    0.112E+01
RMM:  22    -0.262245769493E+03    0.41308E-02   -0.46110E-02  7855   0.451E-01    0.111E+01
RMM:  23    -0.262247936699E+03   -0.21672E-02   -0.13106E-02  7664   0.262E-01    0.110E+01
RMM:  24    -0.262096416663E+03    0.15152E+00   -0.13913E-01  7366   0.816E-01    0.885E+00
RMM:  25    -0.262143053679E+03   -0.46637E-01   -0.32709E-01  7324   0.125E+00    0.117E+01
RMM:  26    -0.262071414381E+03    0.71639E-01   -0.12949E-01  7509   0.802E-01    0.116E+01
RMM:  27    -0.261959079966E+03    0.11233E+00   -0.71430E-02  7498   0.597E-01    0.963E+00
RMM:  28    -0.262150602571E+03   -0.19152E+00   -0.37188E-01  7488   0.118E+00    0.490E+00
RMM:  29    -0.262101907884E+03    0.48695E-01   -0.11805E-01  7602   0.704E-01    0.517E+00
RMM:  30    -0.261914056106E+03    0.18785E+00   -0.11801E-01  7247   0.757E-01    0.340E+00
RMM:  31    -0.261908418806E+03    0.56373E-02   -0.19785E-02  8071   0.325E-01    0.300E+00
RMM:  32    -0.261926971959E+03   -0.18553E-01   -0.78384E-03  7453   0.179E-01    0.271E+00
RMM:  33    -0.261931621630E+03   -0.46497E-02   -0.14109E-02  7443   0.243E-01    0.241E+00
RMM:  34    -0.261901694486E+03    0.29927E-01   -0.46732E-02  7547   0.441E-01    0.310E+00
RMM:  35    -0.261884949476E+03    0.16745E-01   -0.14396E-02  7723   0.279E-01    0.248E+00
RMM:  36    -0.261910043330E+03   -0.25094E-01   -0.12375E-02  7673   0.215E-01    0.237E+00
RMM:  37    -0.261931382964E+03   -0.21340E-01   -0.10082E-02  7643   0.186E-01    0.172E+00
RMM:  38    -0.261946358962E+03   -0.14976E-01   -0.83825E-03  7507   0.198E-01    0.681E-01
RMM:  39    -0.261974540600E+03   -0.28182E-01   -0.43239E-03  7149   0.146E-01    0.631E-01
RMM:  40    -0.262012302724E+03   -0.37762E-01   -0.76041E-03  7296   0.167E-01    0.185E+00
RMM:  41    -0.261997431755E+03    0.14871E-01   -0.24201E-03  7041   0.107E-01    0.185E+00
RMM:  42    -0.262006544343E+03   -0.91126E-02   -0.48400E-03  7169   0.128E-01    0.899E-01
RMM:  43    -0.262029955685E+03   -0.23411E-01   -0.28544E-03  6894   0.102E-01    0.530E-01
RMM:  44    -0.262092261125E+03   -0.62305E-01   -0.40669E-03  6847   0.112E-01    0.368E-01
RMM:  45    -0.262159514841E+03   -0.67254E-01   -0.54083E-03  7136   0.118E-01    0.238E-01
RMM:  46    -0.262218022413E+03   -0.58508E-01   -0.19980E-03  6911   0.695E-02    0.500E-01
RMM:  47    -0.262296529818E+03   -0.78507E-01   -0.17283E-03  6785   0.590E-02    0.452E-01
RMM:  48    -0.262403413399E+03   -0.10688E+00   -0.17719E-03  6708   0.530E-02    0.365E-01
RMM:  49    -0.262457630736E+03   -0.54217E-01   -0.77578E-04  6794   0.349E-02    0.187E-01
RMM:  50    -0.262508537435E+03   -0.50907E-01   -0.55100E-04  6581   0.315E-02    0.139E-01
RMM:  51    -0.262544276280E+03   -0.35739E-01   -0.34229E-04  6417   0.294E-02    0.206E-01
RMM:  52    -0.262562338313E+03   -0.18062E-01   -0.19750E-04  6277   0.203E-02    0.187E-01
RMM:  53    -0.262571009841E+03   -0.86715E-02   -0.15125E-04  6740   0.197E-02    0.595E-02
RMM:  54    -0.262574689376E+03   -0.36795E-02   -0.41353E-05  5038   0.113E-02    0.130E-01
RMM:  55    -0.262575886211E+03   -0.11968E-02   -0.14291E-05  4433   0.887E-03    0.110E-01
RMM:  56    -0.262576833880E+03   -0.94767E-03   -0.15325E-05  4413   0.841E-03    0.940E-03
RMM:  57    -0.262577701621E+03   -0.86774E-03   -0.63723E-06  4100   0.629E-03    0.745E-02
RMM:  58    -0.262577867389E+03   -0.16577E-03   -0.31387E-06  3831   0.482E-03    0.678E-02
RMM:  59    -0.262578053060E+03   -0.18567E-03   -0.25442E-06  3623   0.349E-03    0.277E-02
RMM:  60    -0.262578478050E+03   -0.42499E-03   -0.21449E-06  3661   0.322E-03
   1 F= -.26257848E+03 E0= -.26257640E+03  d E =-.262578E+03  mag=    19.8076
 curvature:   0.00 expect dE= 0.000E+00 dE for cont linesearch  0.000E+00
 trial: gam= 0.00000 g(F)=  0.368E-01 g(S)=  0.000E+00 ort = 0.000E+00 (trialstep = 0.100E+01)
 search vector abs. value=  0.368E-01
 bond charge predicted
       N       E                     dE             d eps       ncg     rms          rms(c)
DAV:   1    -0.262459579151E+03    0.11847E+00   -0.92324E+00  8854   0.161E+01    0.181E+00
RMM:   2    -0.262591526140E+03   -0.13195E+00   -0.12581E+00  8873   0.311E+00    0.198E+00
RMM:   3    -0.262607577455E+03   -0.16051E-01   -0.96063E-02  7791   0.738E-01    0.293E+00
RMM:   4    -0.262591932439E+03    0.15645E-01   -0.14598E-02  7781   0.282E-01    0.122E+00
RMM:   5    -0.262590857612E+03    0.10748E-02   -0.28525E-03  7566   0.125E-01    0.535E-01
RMM:   6    -0.262591665609E+03   -0.80800E-03   -0.17171E-03  7145   0.103E-01    0.449E-01
RMM:   7    -0.262591307951E+03    0.35766E-03   -0.25966E-03  7254   0.118E-01    0.749E-01
RMM:   8    -0.262590012172E+03    0.12958E-02   -0.68643E-04  7488   0.666E-02    0.674E-01
RMM:   9    -0.262589020647E+03    0.99152E-03   -0.27107E-04  6901   0.375E-02    0.266E-01
RMM:  10    -0.262589427832E+03   -0.40719E-03   -0.11565E-04  6507   0.243E-02    0.113E-01
RMM:  11    -0.262589891432E+03   -0.46360E-03   -0.56003E-05  5215   0.203E-02    0.258E-01
RMM:  12    -0.262590022815E+03   -0.13138E-03   -0.27592E-05  4806   0.136E-02    0.249E-01
RMM:  13    -0.262590229414E+03   -0.20660E-03   -0.26997E-05  4869   0.985E-03    0.119E-01
RMM:  14    -0.262590573286E+03   -0.34387E-03   -0.24501E-05  4517   0.950E-03    0.362E-02
RMM:  15    -0.262590797535E+03   -0.22425E-03   -0.11833E-05  4130   0.804E-03    0.114E-01
RMM:  16    -0.262590890045E+03   -0.92510E-04   -0.67869E-06  3868   0.606E-03    0.114E-01
RMM:  17    -0.262591081503E+03   -0.19146E-03   -0.13990E-05  4229   0.631E-03    0.327E-02
RMM:  18    -0.262591494736E+03   -0.41323E-03   -0.31557E-05  4618   0.774E-03    0.696E-02
RMM:  19    -0.262591684765E+03   -0.19003E-03   -0.16650E-05  4210   0.777E-03    0.298E-02
RMM:  20    -0.262591928924E+03   -0.24416E-03   -0.13148E-05  4214   0.627E-03    0.743E-02
RMM:  21    -0.262592186064E+03   -0.25714E-03   -0.78578E-06  3802   0.540E-03    0.110E-01
RMM:  22    -0.262592359019E+03   -0.17295E-03   -0.67490E-06  3797   0.478E-03    0.636E-02
RMM:  23    -0.262592667660E+03   -0.30864E-03   -0.95938E-06  4041   0.511E-03    0.277E-02
RMM:  24    -0.262592866077E+03   -0.19842E-03   -0.37948E-06  3567   0.469E-03    0.456E-02
RMM:  25    -0.262593031028E+03   -0.16495E-03   -0.20444E-06  3543   0.308E-03    0.165E-02
RMM:  26    -0.262593397823E+03   -0.36680E-03   -0.43092E-06  3798   0.417E-03    0.569E-02
RMM:  27    -0.262593730823E+03   -0.33300E-03   -0.44605E-06  3622   0.418E-03    0.678E-02
RMM:  28    -0.262593829949E+03   -0.99126E-04   -0.24489E-06  3360   0.279E-03    0.385E-02
RMM:  29    -0.262593933660E+03   -0.10371E-03   -0.29047E-06  3456   0.280E-03    0.493E-03
RMM:  30    -0.262594006473E+03   -0.72814E-04   -0.15077E-06  3047   0.252E-03    0.241E-02
RMM:  31    -0.262594076907E+03   -0.70434E-04   -0.11274E-06  2780   0.211E-03    0.187E-02
RMM:  32    -0.262594161140E+03   -0.84233E-04   -0.17007E-06  2849   0.202E-03    0.386E-03
RMM:  33    -0.262594212336E+03   -0.51196E-04   -0.10433E-06  2268   0.174E-03    0.186E-02
RMM:  34    -0.262594229239E+03   -0.16903E-04   -0.60327E-07  2402   0.168E-03    0.162E-02
RMM:  35    -0.262594240891E+03   -0.11652E-04   -0.35774E-07  1891   0.134E-03    0.641E-03
RMM:  36    -0.262594249417E+03   -0.85258E-05   -0.18777E-07  1513   0.119E-03
   2 F= -.26259425E+03 E0= -.26259314E+03  d E =-.157714E-01  mag=    19.8618
 trial-energy change:   -0.015771  1 .order   -0.014633   -0.036790    0.007524
 step:   0.8499(harm=  0.8302)  dis= 0.00771  next Energy=  -262.594810 (dE=-0.163E-01)
 bond charge predicted
       N       E                     dE             d eps       ncg     rms          rms(c)
DAV:   1    -0.262591923460E+03    0.23174E-02   -0.20946E-01  8924   0.242E+00    0.265E-01
RMM:   2    -0.262594727530E+03   -0.28041E-02   -0.27871E-02  8722   0.468E-01    0.302E-01
RMM:   3    -0.262595147158E+03   -0.41963E-03   -0.20430E-03  7398   0.108E-01    0.465E-01
RMM:   4    -0.262594761088E+03    0.38607E-03   -0.34785E-04  7133   0.444E-02    0.181E-01
RMM:   5    -0.262594765372E+03   -0.42842E-05   -0.75815E-05  6320   0.211E-02
   3 F= -.26259477E+03 E0= -.26259373E+03  d E =-.162873E-01  mag=    19.8612
 curvature:  -0.41 expect dE=-0.440E-02 dE for cont linesearch -0.897E-05
 trial: gam= 0.31621 g(F)=  0.107E-01 g(S)=  0.000E+00 ort =-0.898E-03 (trialstep = 0.970E+00)
 search vector abs. value=  0.138E-01
 bond charge predicted
       N       E                     dE             d eps       ncg     rms          rms(c)
DAV:   1    -0.262567957379E+03    0.26804E-01   -0.32321E+00  8158   0.780E+00    0.852E-01
RMM:   2    -0.262600406932E+03   -0.32450E-01   -0.27749E-01  8903   0.153E+00    0.196E+00
RMM:   3    -0.262593448199E+03    0.69587E-02   -0.19363E-02  7760   0.355E-01    0.556E-01
RMM:   4    -0.262595761768E+03   -0.23136E-02   -0.21631E-03  7497   0.119E-01    0.477E-01
RMM:   5    -0.262595124083E+03    0.63768E-03   -0.10619E-03  7141   0.790E-02    0.318E-01
RMM:   6    -0.262595246970E+03   -0.12289E-03   -0.68722E-04  6875   0.566E-02    0.401E-01
RMM:   7    -0.262594870925E+03    0.37605E-03   -0.47776E-04  6855   0.495E-02    0.555E-02
RMM:   8    -0.262595043512E+03   -0.17259E-03   -0.52651E-05  5658   0.207E-02    0.117E-01
RMM:   9    -0.262595026429E+03    0.17083E-04   -0.21069E-05  4540   0.134E-02    0.584E-02
RMM:  10    -0.262595040574E+03   -0.14145E-04   -0.59900E-06  4226   0.626E-03    0.228E-02
RMM:  11    -0.262595068503E+03   -0.27929E-04   -0.36378E-06  4059   0.558E-03    0.557E-02
RMM:  12    -0.262595072681E+03   -0.41779E-05   -0.20561E-06  3832   0.421E-03
   4 F= -.26259507E+03 E0= -.26259373E+03  d E =-.307310E-03  mag=    19.8620
 trial-energy change:   -0.000307  1 .order   -0.000302   -0.010138    0.009534
 step:   0.4999(harm=  0.4999)  dis= 0.00428  next Energy=  -262.597378 (dE=-0.261E-02)
 bond charge predicted
       N       E                     dE             d eps       ncg     rms          rms(c)
DAV:   1    -0.262591040916E+03    0.40276E-02   -0.75820E-01  8160   0.378E+00    0.401E-01
RMM:   2    -0.262597921907E+03   -0.68810E-02   -0.64291E-02  8844   0.737E-01    0.664E-01
RMM:   3    -0.262597561244E+03    0.36066E-03   -0.42093E-03  7615   0.165E-01    0.484E-01
RMM:   4    -0.262597468353E+03    0.92891E-04   -0.62701E-04  7247   0.629E-02    0.200E-01
RMM:   5    -0.262597475070E+03   -0.67161E-05   -0.22222E-04  6764   0.350E-02    0.259E-01
RMM:   6    -0.262597435717E+03    0.39353E-04   -0.16083E-04  6594   0.303E-02    0.198E-01
RMM:   7    -0.262597401120E+03    0.34597E-04   -0.12606E-04  6534   0.254E-02    0.650E-02
RMM:   8    -0.262597471529E+03   -0.70409E-04   -0.21122E-05  4631   0.134E-02    0.110E-01
RMM:   9    -0.262597443145E+03    0.28384E-04   -0.89458E-06  4228   0.853E-03    0.578E-02
RMM:  10    -0.262597450115E+03   -0.69705E-05   -0.31880E-06  3934   0.441E-03
   5 F= -.26259745E+03 E0= -.26259629E+03  d E =-.268474E-02  mag=    19.8616
 curvature:  -0.33 expect dE=-0.251E-02 dE for cont linesearch -0.646E-07
 trial: gam= 0.67047 g(F)=  0.757E-02 g(S)=  0.000E+00 ort = 0.520E-04 (trialstep = 0.875E+00)
 search vector abs. value=  0.139E-01
 bond charge predicted
       N       E                     dE             d eps       ncg     rms          rms(c)
DAV:   1    -0.262563169333E+03    0.34274E-01   -0.22623E+00  8978   0.857E+00    0.942E-01
RMM:   2    -0.262598605698E+03   -0.35436E-01   -0.32198E-01  8905   0.158E+00    0.120E+00
RMM:   3    -0.262601260089E+03   -0.26544E-02   -0.22845E-02  7840   0.356E-01    0.147E+00
RMM:   4    -0.262598205798E+03    0.30543E-02   -0.40046E-03  7579   0.152E-01    0.547E-01
RMM:   5    -0.262598412808E+03   -0.20701E-03   -0.83190E-04  7415   0.673E-02    0.458E-01
RMM:   6    -0.262598761204E+03   -0.34840E-03   -0.39862E-04  6840   0.516E-02    0.481E-01
RMM:   7    -0.262598226538E+03    0.53467E-03   -0.73661E-04  6990   0.622E-02    0.198E-01
RMM:   8    -0.262598707360E+03   -0.48082E-03   -0.21120E-04  6969   0.363E-02    0.473E-01
RMM:   9    -0.262598330668E+03    0.37669E-03   -0.10577E-04  6278   0.259E-02    0.372E-01
RMM:  10    -0.262598189931E+03    0.14074E-03   -0.33902E-05  5489   0.127E-02    0.172E-01
RMM:  11    -0.262598301149E+03   -0.11122E-03   -0.19233E-05  4424   0.112E-02    0.263E-02
RMM:  12    -0.262598402475E+03   -0.10133E-03   -0.12751E-05  4231   0.100E-02    0.104E-01
RMM:  13    -0.262598407346E+03   -0.48702E-05   -0.47931E-06  3950   0.639E-03
   6 F= -.26259841E+03 E0= -.26259695E+03  d E =-.957230E-03  mag=    19.8631
 trial-energy change:   -0.000957  1 .order   -0.001009   -0.006652    0.004634
 step:   0.5099(harm=  0.5157)  dis= 0.00376  next Energy=  -262.599378 (dE=-0.193E-02)
 bond charge predicted
       N       E                     dE             d eps       ncg     rms          rms(c)
DAV:   1    -0.262593091664E+03    0.53108E-02   -0.39297E-01  9014   0.358E+00    0.411E-01
RMM:   2    -0.262600370320E+03   -0.72787E-02   -0.57810E-02  8836   0.663E-01    0.959E-01
RMM:   3    -0.262598801013E+03    0.15693E-02   -0.43474E-03  7514   0.157E-01    0.237E-01
RMM:   4    -0.262599538456E+03   -0.73744E-03   -0.43968E-04  7190   0.552E-02    0.268E-01
