unknown system                          
           1
     2.873573   -2.873573    4.708335
     5.747147    0.000000    0.000000
     0.000000   33.065691   20.180529
   Mn   O    H 
  12  20   7
Direct configuration=     1
   0.22067121  0.89240241  0.08901558
   0.67750727  0.16487271  0.21800805
   0.94927612  0.02809995  0.15233499
   0.40779376  0.30128238  0.28385908
   0.44927612  0.52809995  0.15233499
   0.90341688  0.30139325  0.28523752
   0.44927612  0.02809995  0.15233499
   0.90238140  0.80931253  0.28512130
   0.90282244  0.55132680  0.10484543
   0.35224182  0.82797179  0.23387087
   0.99696913  0.50445009  0.20422547
   0.53851998  0.23347802  0.07318573
   0.76533430  0.62485008  0.31417371
   0.87926422  0.06310591  0.05527763
   0.33797153  0.33364756  0.18283540
   0.58246139  0.21150732  0.12452493
   0.04604720  0.48426724  0.25742663
   0.09516526  0.72856013  0.12156099
   0.55065203  0.45446085  0.25105692
   0.74303882  0.13498487  0.30907282
   0.85888103  0.57329750  0.05350623
   0.31305510  0.84636059  0.18069214
   0.56207820  0.72169891  0.12275353
   0.00746451  0.00228681  0.25309816
   0.80260718  0.32792299  0.18412039
   0.25797418  0.62745025  0.31079855
   0.34617716  0.60305419  0.05647018
   0.24846536  0.15133285  0.31257055
   0.80233711  0.87579348  0.18425853
   0.34617716  0.05624469  0.05647018
   0.55025760  0.00323798  0.25152950
   0.09516526  0.18175063  0.12156099
   0.34047062  0.60391201  0.02782883
   0.92434681  0.68523651  0.03696881
   0.34363348  0.06399961  0.02783421
   0.88838126  0.05560908  0.02665597
   0.83432243  0.58621493  0.33731710
   0.27320869  0.58206893  0.33519746
   0.33544473  0.95925728  0.31445311
Direct configuration=     2
   0.22067121  0.89240241  0.08901558
   0.67741309  0.16447241  0.21814020
   0.94927612  0.02809995  0.15233499
   0.40846869  0.30075875  0.28352283
   0.44927612  0.52809995  0.15233499
   0.90315200  0.30129387  0.28502048
   0.44927612  0.02809995  0.15233499
   0.90240640  0.81035359  0.28481669
   0.90282244  0.55132680  0.10484543
   0.35201138  0.82832348  0.23392535
   0.99685889  0.50469037  0.20426770
   0.53851998  0.23347802  0.07318573
   0.76552104  0.62571378  0.31421210
   0.87926422  0.06310591  0.05527763
   0.33917457  0.33175830  0.18257916
   0.58246139  0.21150732  0.12452493
   0.04611547  0.48518800  0.25758624
   0.09516526  0.72856013  0.12156099
   0.55039615  0.45237196  0.25122946
   0.74253309  0.13385955  0.30921512
   0.85888103  0.57329750  0.05350623
   0.31335186  0.84696523  0.18038090
   0.56207820  0.72169891  0.12275353
   0.00645278  0.00193628  0.25328460
   0.80278749  0.32659902  0.18387341
   0.25797838  0.62723298  0.31079164
   0.34617716  0.60305419  0.05647018
   0.24977609  0.15178376  0.31262806
   0.80234649  0.87655204  0.18403911
   0.34617716  0.05624469  0.05647018
   0.55063458  0.00419348  0.25162916
   0.09516526  0.18175063  0.12156099
   0.34047062  0.60391201  0.02782883
   0.92434681  0.68523651  0.03696881
   0.34363348  0.06399961  0.02783421
   0.88838126  0.05560908  0.02665597
   0.83396799  0.58642611  0.33727413
   0.27306958  0.58203688  0.33521356
   0.33566100  0.95896116  0.31439890
Direct configuration=     3
   0.22067121  0.89240241  0.08901558
   0.67742723  0.16453250  0.21812036
   0.94927612  0.02809995  0.15233499
   0.40836736  0.30083736  0.28357331
   0.44927612  0.52809995  0.15233499
   0.90319176  0.30130879  0.28505307
   0.44927612  0.02809995  0.15233499
   0.90240264  0.81019730  0.28486242
   0.90282244  0.55132680  0.10484543
   0.35204597  0.82827068  0.23391717
   0.99687544  0.50465430  0.20426136
   0.53851998  0.23347802  0.07318573
   0.76549301  0.62558412  0.31420634
   0.87926422  0.06310591  0.05527763
   0.33899397  0.33204192  0.18261763
   0.58246139  0.21150732  0.12452493
   0.04610522  0.48504977  0.25756227
   0.09516526  0.72856013  0.12156099
   0.55043457  0.45268555  0.25120356
   0.74260901  0.13402849  0.30919376
   0.85888103  0.57329750  0.05350623
   0.31330731  0.84687446  0.18042762
   0.56207820  0.72169891  0.12275353
   0.00660467  0.00198890  0.25325661
   0.80276042  0.32679778  0.18391049
   0.25797775  0.62726560  0.31079268
   0.34617716  0.60305419  0.05647018
   0.24957932  0.15171606  0.31261943
   0.80234508  0.87643816  0.18407205
   0.34617716  0.05624469  0.05647018
   0.55057798  0.00405003  0.25161420
   0.09516526  0.18175063  0.12156099
   0.34047062  0.60391201  0.02782883
   0.92434681  0.68523651  0.03696881
   0.34363348  0.06399961  0.02783421
   0.88838126  0.05560908  0.02665597
   0.83402120  0.58639441  0.33728058
   0.27309047  0.58204169  0.33521115
   0.33562854  0.95900561  0.31440704
Direct configuration=     4
   0.22067121  0.89240241  0.08901558
   0.67782955  0.16391730  0.21799554
   0.94927612  0.02809995  0.15233499
   0.40796921  0.30093312  0.28359357
   0.44927612  0.52809995  0.15233499
   0.90229912  0.30201115  0.28512743
   0.44927612  0.02809995  0.15233499
   0.90193867  0.81049609  0.28487832
   0.90282244  0.55132680  0.10484543
   0.35192357  0.82842136  0.23393734
   0.99687219  0.50477261  0.20421504
   0.53851998  0.23347802  0.07318573
   0.76550559  0.62634594  0.31392943
   0.87926422  0.06310591  0.05527763
   0.33927284  0.33094081  0.18248119
   0.58246139  0.21150732  0.12452493
   0.04662488  0.48539943  0.25756774
   0.09516526  0.72856013  0.12156099
   0.55005128  0.45192942  0.25127760
   0.74211375  0.13350857  0.30921624
   0.85888103  0.57329750  0.05350623
   0.31339166  0.84720967  0.18029953
   0.56207820  0.72169891  0.12275353
   0.00646126  0.00169551  0.25329735
   0.80286272  0.32611366  0.18380046
   0.25821401  0.62674682  0.31072391
   0.34617716  0.60305419  0.05647018
   0.25137992  0.15130484  0.31261081
   0.80246909  0.87652857  0.18396017
   0.34617716  0.05624469  0.05647018
   0.55084890  0.00377645  0.25163523
   0.09516526  0.18175063  0.12156099
   0.34047062  0.60391201  0.02782883
   0.92434681  0.68523651  0.03696881
   0.34363348  0.06399961  0.02783421
   0.88838126  0.05560908  0.02665597
   0.83420305  0.58640662  0.33739045
   0.27292625  0.58191381  0.33518642
   0.33554686  0.95966528  0.31433693
Direct configuration=     5
   0.22067121  0.89240241  0.08901558
   0.67763456  0.16421546  0.21805604
   0.94927612  0.02809995  0.15233499
   0.40816217  0.30088671  0.28358375
   0.44927612  0.52809995  0.15233499
   0.90273174  0.30167075  0.28509139
   0.44927612  0.02809995  0.15233499
   0.90216354  0.81035128  0.28487061
   0.90282244  0.55132680  0.10484543
   0.35198289  0.82834833  0.23392757
   0.99687376  0.50471527  0.20423749
   0.53851998  0.23347802  0.07318573
   0.76549949  0.62597672  0.31406363
   0.87926422  0.06310591  0.05527763
   0.33913768  0.33147447  0.18254731
   0.58246139  0.21150732  0.12452493
   0.04637302  0.48522997  0.25756509
   0.09516526  0.72856013  0.12156099
   0.55023704  0.45229588  0.25124172
   0.74235378  0.13376055  0.30920534
   0.85888103  0.57329750  0.05350623
   0.31335078  0.84704721  0.18036161
   0.56207820  0.72169891  0.12275353
   0.00653076  0.00183770  0.25327760
   0.80281314  0.32644522  0.18385378
   0.25809951  0.62699824  0.31075724
   0.34617716  0.60305419  0.05647018
   0.25050726  0.15150414  0.31261499
   0.80240899  0.87648475  0.18401439
   0.34617716  0.05624469  0.05647018
   0.55071760  0.00390904  0.25162504
   0.09516526  0.18175063  0.12156099
   0.34047062  0.60391201  0.02782883
   0.92434681  0.68523651  0.03696881
   0.34363348  0.06399961  0.02783421
   0.88838126  0.05560908  0.02665597
   0.83411492  0.58640070  0.33733720
   0.27300584  0.58197579  0.33519840
   0.33558645  0.95934557  0.31437091
Direct configuration=     6
   0.22067121  0.89240241  0.08901558
   0.67806878  0.16353424  0.21788848
   0.94927612  0.02809995  0.15233499
   0.40762761  0.30099358  0.28366005
   0.44927612  0.52809995  0.15233499
   0.90176320  0.30231622  0.28520083
   0.44927612  0.02809995  0.15233499
   0.90171520  0.81051824  0.28492521
   0.90282244  0.55132680  0.10484543
   0.35191234  0.82837620  0.23393613
   0.99693455  0.50474795  0.20415565
   0.53851998  0.23347802  0.07318573
   0.76629403  0.62618103  0.31405943
   0.87926422  0.06310591  0.05527763
   0.33903818  0.33067658  0.18245286
   0.58246139  0.21150732  0.12452493
   0.04696228  0.48535614  0.25752954
   0.09516526  0.72856013  0.12156099
   0.54979133  0.45187562  0.25127324
   0.74182118  0.13357498  0.30921523
   0.85888103  0.57329750  0.05350623
   0.31333556  0.84726076  0.18030760
   0.56207820  0.72169891  0.12275353
   0.00656852  0.00172058  0.25330624
   0.80290946  0.32605316  0.18378643
   0.25837669  0.62643090  0.31071694
   0.34617716  0.60305419  0.05647018
   0.25195268  0.15183152  0.31259762
   0.80263298  0.87619308  0.18392518
   0.34617716  0.05624469  0.05647018
   0.55102172  0.00322190  0.25161049
   0.09516526  0.18175063  0.12156099
   0.34047062  0.60391201  0.02782883
   0.92434681  0.68523651  0.03696881
   0.34363348  0.06399961  0.02783421
   0.88838126  0.05560908  0.02665597
   0.83343019  0.58699780  0.33716118
   0.27279386  0.58184621  0.33512351
   0.33592749  0.95936099  0.31428738
