Mn  O  H                                
   1.00000000000000     
     2.8735734950000000   -2.8735734950000000    4.7083351100000002
     5.7471469900000001    0.0000000000000000    0.0000000000000000
     0.0000000000000000   33.0656910066415008   20.1805290088081009
   Mn   O    H 
    15    23     7
Selective dynamics
Direct
  0.2206712106837827  0.8924024101981232  0.0890155841539979   F   F   F
  0.6700291751716418  0.1734621714764021  0.2181334268077792   T   T   T
  0.9492761232251894  0.0280999539274163  0.1523349856625060   F   F   F
  0.3898553202651456  0.3114986474934797  0.2838845593089631   T   T   T
  0.4492761232251894  0.5280999539274163  0.1523349856625060   F   F   F
  0.8882439808270703  0.3178088604791222  0.2834650332649409   T   T   T
  0.4492761232251894  0.0280999539274163  0.1523349856625060   F   F   F
  0.8947955090108742  0.8177787925832490  0.2835474393244740   T   T   T
  0.9028224388191362  0.5513267961304464  0.1048454345311214   F   F   F
  0.3496642952733579  0.8329620878079327  0.2343293685830868   T   T   T
  0.9914849748373420  0.5094344167886918  0.2025589393411284   T   T   T
  0.4230934781938696  0.8037511862621360  0.3360940547428312   T   T   T
  0.5385199825484293  0.2334780242657999  0.0731857337768673   F   F   F
  0.0689327554913602  0.4683660442199564  0.3523444936203897   T   T   T
  0.7119243405152968  0.1376139623024611  0.3637863596992130   T   T   T
  0.7657395865328293  0.6379763460401997  0.3129409806468677   T   T   T
  0.8792642171272149  0.0631059069764035  0.0552776342656358   F   F   F
  0.3376098433175235  0.3341318484729467  0.1827368536686156   T   T   T
  0.5824613929758371  0.2115073190520960  0.1245249348239739   F   F   F
  0.0274464140786777  0.5012549467162478  0.2553950007990856   T   T   T
  0.6995227725595363  0.4965256619806682  0.3761641787839621   T   T   T
  0.0951652613222294  0.7285601348788973  0.1215609852990625   F   F   F
  0.5507256803200976  0.4596414759212726  0.2525209212893272   T   T   T
  0.7505299128111135  0.1356256673957135  0.3112219922104734   T   T   T
  0.8588810283917283  0.5732975013441504  0.0535062334840219   F   F   F
  0.3114093364408048  0.8476768235566869  0.1805853787060930   T   T   T
  0.5620782042403505  0.7216989134198428  0.1227535340423529   F   F   F
  0.0003040094498866  0.0104631064935230  0.2528349334817831   T   T   T
  0.7973089335424371  0.3297618792539522  0.1835354330653147   T   T   T
  0.2482745238006073  0.6108243726547800  0.3157919115754967   T   T   T
  0.3461771600453361  0.6030541855173510  0.0564701830089334   F   F   F
  0.2255076029488210  0.1517866069159893  0.3113686618214452   T   T   T
  0.7954360523661148  0.8825292200528128  0.1838261457809441   T   T   T
  0.3461771600453361  0.0562446855173491  0.0564701830089334   F   F   F
  0.5415468632220755  0.0173936924045926  0.2515854659252239   T   T   T
  0.0951652613222294  0.1817506348788953  0.1215609852990625   F   F   F
  0.3836896795839726  0.1217838212241666  0.3758507279270517   T   T   T
  0.0070371854346720  0.8041627402874165  0.3838482021350169   T   T   T
  0.3404706169097480  0.6039120138460916  0.0278288297643030   F   F   F
  0.9243468113422040  0.6852365052266407  0.0369688146645331   F   F   F
  0.3436334761770041  0.0639996102436484  0.0278342118600037   F   F   F
  0.8883812645227351  0.0556090842097916  0.0266559720288981   F   F   F
  0.6677002604388280  0.5543630146426758  0.4003551719341200   T   T   T
  0.3682051012651905  0.0743636488285822  0.4001201992117693   T   T   T
  0.0151996977371255  0.7812481190853187  0.4087515519138469   T   T   T
 
  0.00000000E+00  0.00000000E+00  0.00000000E+00
  0.00000000E+00  0.00000000E+00  0.00000000E+00
  0.00000000E+00  0.00000000E+00  0.00000000E+00
  0.00000000E+00  0.00000000E+00  0.00000000E+00
  0.00000000E+00  0.00000000E+00  0.00000000E+00
  0.00000000E+00  0.00000000E+00  0.00000000E+00
  0.00000000E+00  0.00000000E+00  0.00000000E+00
  0.00000000E+00  0.00000000E+00  0.00000000E+00
  0.00000000E+00  0.00000000E+00  0.00000000E+00
  0.00000000E+00  0.00000000E+00  0.00000000E+00
  0.00000000E+00  0.00000000E+00  0.00000000E+00
  0.00000000E+00  0.00000000E+00  0.00000000E+00
  0.00000000E+00  0.00000000E+00  0.00000000E+00
  0.00000000E+00  0.00000000E+00  0.00000000E+00
  0.00000000E+00  0.00000000E+00  0.00000000E+00
  0.00000000E+00  0.00000000E+00  0.00000000E+00
  0.00000000E+00  0.00000000E+00  0.00000000E+00
  0.00000000E+00  0.00000000E+00  0.00000000E+00
  0.00000000E+00  0.00000000E+00  0.00000000E+00
  0.00000000E+00  0.00000000E+00  0.00000000E+00
  0.00000000E+00  0.00000000E+00  0.00000000E+00
  0.00000000E+00  0.00000000E+00  0.00000000E+00
  0.00000000E+00  0.00000000E+00  0.00000000E+00
  0.00000000E+00  0.00000000E+00  0.00000000E+00
  0.00000000E+00  0.00000000E+00  0.00000000E+00
  0.00000000E+00  0.00000000E+00  0.00000000E+00
  0.00000000E+00  0.00000000E+00  0.00000000E+00
  0.00000000E+00  0.00000000E+00  0.00000000E+00
  0.00000000E+00  0.00000000E+00  0.00000000E+00
  0.00000000E+00  0.00000000E+00  0.00000000E+00
  0.00000000E+00  0.00000000E+00  0.00000000E+00
  0.00000000E+00  0.00000000E+00  0.00000000E+00
  0.00000000E+00  0.00000000E+00  0.00000000E+00
  0.00000000E+00  0.00000000E+00  0.00000000E+00
  0.00000000E+00  0.00000000E+00  0.00000000E+00
  0.00000000E+00  0.00000000E+00  0.00000000E+00
  0.00000000E+00  0.00000000E+00  0.00000000E+00
  0.00000000E+00  0.00000000E+00  0.00000000E+00
  0.00000000E+00  0.00000000E+00  0.00000000E+00
  0.00000000E+00  0.00000000E+00  0.00000000E+00
  0.00000000E+00  0.00000000E+00  0.00000000E+00
  0.00000000E+00  0.00000000E+00  0.00000000E+00
  0.00000000E+00  0.00000000E+00  0.00000000E+00
  0.00000000E+00  0.00000000E+00  0.00000000E+00
  0.00000000E+00  0.00000000E+00  0.00000000E+00
