 running on   68 total cores
 distrk:  each k-point on   68 cores,    1 groups
 distr:  one band on   34 cores,    2 groups
 using from now: INCAR     
 vasp.5.4.4.18Apr17-6-g9f103f2a35 (build Sep 24 2019 09:38:50) complex          
  
 POSCAR found type information on POSCAR  Mn O  H 
 POSCAR found :  3 types and      45 ions

 ----------------------------------------------------------------------------- 
|                                                                             |
|           W    W    AA    RRRRR   N    N  II  N    N   GGGG   !!!           |
|           W    W   A  A   R    R  NN   N  II  NN   N  G    G  !!!           |
|           W    W  A    A  R    R  N N  N  II  N N  N  G       !!!           |
|           W WW W  AAAAAA  RRRRR   N  N N  II  N  N N  G  GGG   !            |
|           WW  WW  A    A  R   R   N   NN  II  N   NN  G    G                |
|           W    W  A    A  R    R  N    N  II  N    N   GGGG   !!!           |
|                                                                             |
|      For optimal performance we recommend to set                            |
|        NCORE= 4 - approx SQRT( number of cores)                             |
|      NCORE specifies how many cores store one orbital (NPAR=cpu/NCORE).     |
|      This setting can  greatly improve the performance of VASP for DFT.     |
|      The default,   NCORE=1            might be grossly inefficient         |
|      on modern multi-core architectures or massively parallel machines.     |
|      Do your own testing !!!!                                               |
|      Unfortunately you need to use the default for GW and RPA calculations. |
|      (for HF NCORE is supported but not extensively tested yet)             |
|                                                                             |
 ----------------------------------------------------------------------------- 

 LDA part: xc-table for Pade appr. of Perdew
 POSCAR found type information on POSCAR  Mn O  H 
 POSCAR found :  3 types and      45 ions
 POSCAR, INCAR and KPOINTS ok, starting setup
 FFT: planning ...
 WAVECAR not read
 entering main loop
       N       E                     dE             d eps       ncg     rms          rms(c)
DAV:   1     0.390540666343E+04    0.39054E+04   -0.18588E+05 10128   0.149E+03
DAV:   2     0.290385950568E+03   -0.36150E+04   -0.33951E+04  9316   0.416E+02
DAV:   3    -0.312477486891E+03   -0.60286E+03   -0.58970E+03 10632   0.165E+02
DAV:   4    -0.343276288383E+03   -0.30799E+02   -0.30271E+02 10456   0.367E+01
DAV:   5    -0.344034748769E+03   -0.75846E+00   -0.75439E+00 10184   0.663E+00    0.838E+01
RMM:   6    -0.734020292610E+03   -0.38999E+03   -0.12301E+03 11344   0.687E+01    0.187E+02
RMM:   7    -0.426490803565E+03    0.30753E+03   -0.15881E+02  9468   0.274E+01    0.140E+02
RMM:   8    -0.354689050396E+03    0.71802E+02   -0.11496E+02  8955   0.222E+01    0.107E+02
RMM:   9    -0.354376380507E+03    0.31267E+00   -0.87622E+01  9733   0.189E+01    0.101E+02
RMM:  10    -0.303170296893E+03    0.51206E+02   -0.27991E+01  9441   0.116E+01    0.796E+01
RMM:  11    -0.340428195094E+03   -0.37258E+02   -0.62692E+01  9062   0.165E+01    0.873E+01
RMM:  12    -0.304470580070E+03    0.35958E+02   -0.28534E+01  9543   0.122E+01    0.797E+01
RMM:  13    -0.279607878043E+03    0.24863E+02   -0.12676E+01  9431   0.758E+00    0.499E+01
RMM:  14    -0.295511528641E+03   -0.15904E+02   -0.13332E+01  8924   0.759E+00    0.536E+01
RMM:  15    -0.289795464258E+03    0.57161E+01   -0.13301E+01  9518   0.723E+00    0.464E+01
RMM:  16    -0.290060818998E+03   -0.26535E+00   -0.66712E+00  9305   0.558E+00    0.453E+01
RMM:  17    -0.290060943678E+03   -0.12468E-03   -0.30779E+00  9159   0.406E+00    0.329E+01
RMM:  18    -0.292668954339E+03   -0.26080E+01   -0.86482E-01  9224   0.196E+00    0.305E+01
RMM:  19    -0.294189180182E+03   -0.15202E+01   -0.48758E-01  9037   0.119E+00    0.291E+01
RMM:  20    -0.295238900975E+03   -0.10497E+01   -0.11396E+00  8601   0.216E+00    0.265E+01
RMM:  21    -0.295147966412E+03    0.90935E-01   -0.40179E+00  8586   0.426E+00    0.262E+01
RMM:  22    -0.297304150171E+03   -0.21562E+01   -0.17252E+00  9048   0.265E+00    0.308E+01
RMM:  23    -0.297017309630E+03    0.28684E+00   -0.88459E-01  8742   0.189E+00    0.261E+01
RMM:  24    -0.297518389564E+03   -0.50108E+00   -0.29701E-01  9336   0.107E+00    0.240E+01
RMM:  25    -0.297696469477E+03   -0.17808E+00   -0.18289E-01  8843   0.832E-01    0.232E+01
RMM:  26    -0.297922181061E+03   -0.22571E+00   -0.11075E-01  9301   0.607E-01    0.238E+01
RMM:  27    -0.297909438264E+03    0.12743E-01   -0.44430E-02  9176   0.432E-01    0.240E+01
RMM:  28    -0.297474431799E+03    0.43501E+00   -0.26371E-01  8707   0.104E+00    0.227E+01
RMM:  29    -0.295868762791E+03    0.16057E+01   -0.20556E+00  8705   0.295E+00    0.172E+01
RMM:  30    -0.297098508683E+03   -0.12297E+01   -0.40055E-01  9698   0.130E+00    0.200E+01
RMM:  31    -0.297539618579E+03   -0.44111E+00   -0.13009E-01  9030   0.735E-01    0.210E+01
RMM:  32    -0.297581171326E+03   -0.41553E-01   -0.53716E-02  9195   0.365E-01    0.212E+01
RMM:  33    -0.297621989469E+03   -0.40818E-01   -0.31162E-02  8911   0.266E-01    0.213E+01
RMM:  34    -0.298046235362E+03   -0.42425E+00   -0.17716E-01  8642   0.757E-01    0.204E+01
RMM:  35    -0.298776381108E+03   -0.73015E+00   -0.13577E+00  8657   0.210E+00    0.172E+01
RMM:  36    -0.298443046339E+03    0.33333E+00   -0.62869E-01  8733   0.155E+00    0.143E+01
RMM:  37    -0.297862299108E+03    0.58075E+00   -0.90854E-01  8622   0.201E+00    0.117E+01
RMM:  38    -0.297204917932E+03    0.65738E+00   -0.51360E-01  8742   0.147E+00    0.105E+01
RMM:  39    -0.297432624204E+03   -0.22771E+00   -0.78906E-02 10209   0.528E-01    0.117E+01
RMM:  40    -0.297586255730E+03   -0.15363E+00   -0.18765E-01  8791   0.857E-01    0.150E+01
RMM:  41    -0.297586524261E+03   -0.26853E-03   -0.49157E-02  9309   0.434E-01    0.151E+01
RMM:  42    -0.297559787713E+03    0.26737E-01   -0.77386E-03 10255   0.163E-01    0.152E+01
RMM:  43    -0.297560269676E+03   -0.48196E-03   -0.36388E-03  8158   0.109E-01    0.151E+01
RMM:  44    -0.297611586135E+03   -0.51316E-01   -0.15924E-02  8636   0.246E-01    0.147E+01
RMM:  45    -0.297623556299E+03   -0.11970E-01   -0.45629E-02  8689   0.427E-01    0.141E+01
RMM:  46    -0.297633702071E+03   -0.10146E-01   -0.34856E-03  9480   0.127E-01    0.142E+01
RMM:  47    -0.297623956954E+03    0.97451E-02   -0.27918E-02  8984   0.302E-01    0.133E+01
RMM:  48    -0.297699016516E+03   -0.75060E-01   -0.28043E-02  8833   0.308E-01    0.127E+01
RMM:  49    -0.297818909025E+03   -0.11989E+00   -0.10949E-01  8859   0.585E-01    0.102E+01
RMM:  50    -0.297836100207E+03   -0.17191E-01   -0.16123E-02  9880   0.265E-01    0.102E+01
RMM:  51    -0.298467943255E+03   -0.63184E+00   -0.95761E-01  8918   0.171E+00    0.112E+01
RMM:  52    -0.299057420514E+03   -0.58948E+00   -0.11034E-01  9687   0.691E-01    0.139E+01
RMM:  53    -0.299225879125E+03   -0.16846E+00   -0.43008E-02  8672   0.502E-01    0.140E+01
RMM:  54    -0.299198179913E+03    0.27699E-01   -0.66653E-03  9372   0.168E-01    0.141E+01
RMM:  55    -0.299203248528E+03   -0.50686E-02   -0.16441E-03  9536   0.772E-02    0.141E+01
RMM:  56    -0.296890537156E+03    0.23127E+01   -0.12520E+00  8609   0.214E+00    0.147E+01
RMM:  57    -0.297950863050E+03   -0.10603E+01   -0.11081E-01  9865   0.683E-01    0.141E+01
RMM:  58    -0.298280968949E+03   -0.33011E+00   -0.73296E-02  8995   0.462E-01    0.139E+01
RMM:  59    -0.298316402916E+03   -0.35434E-01   -0.16606E-01  8943   0.715E-01    0.136E+01
RMM:  60    -0.298318596124E+03   -0.21932E-02   -0.16482E-02  9821   0.262E-01
   1 F= -.29831860E+03 E0= -.29832356E+03  d E =-.298319E+03  mag=    16.0609
 curvature:   0.00 expect dE= 0.000E+00 dE for cont linesearch  0.000E+00
 trial: gam= 0.00000 g(F)=  0.184E+00 g(S)=  0.000E+00 ort = 0.000E+00 (trialstep = 0.100E+01)
 search vector abs. value=  0.184E+00
 bond charge predicted
       N       E                     dE             d eps       ncg     rms          rms(c)
DAV:   1    -0.297026439317E+03    0.12900E+01   -0.49120E+01  9880   0.317E+01    0.168E+01
RMM:   2    -0.314732438718E+03   -0.17706E+02   -0.62004E+01 10598   0.137E+01    0.442E+01
RMM:   3    -0.302117187359E+03    0.12615E+02   -0.13962E+01  9359   0.702E+00    0.180E+01
RMM:   4    -0.301951555091E+03    0.16563E+00   -0.20612E+00  9642   0.301E+00    0.127E+01
RMM:   5    -0.302530932905E+03   -0.57938E+00   -0.40934E+00  8967   0.342E+00    0.123E+01
RMM:   6    -0.303109442119E+03   -0.57851E+00   -0.91488E-01  9882   0.175E+00    0.895E+00
RMM:   7    -0.303430798350E+03   -0.32136E+00   -0.32014E-01  9226   0.108E+00    0.723E+00
RMM:   8    -0.303562605511E+03   -0.13181E+00   -0.47053E-01  8917   0.129E+00    0.453E+00
RMM:   9    -0.303612900109E+03   -0.50295E-01   -0.35949E-01  8726   0.116E+00    0.340E+00
RMM:  10    -0.303765018554E+03   -0.15212E+00   -0.10614E-01  9133   0.636E-01    0.402E+00
RMM:  11    -0.303702239048E+03    0.62780E-01   -0.63996E-02  8833   0.453E-01    0.270E+00
RMM:  12    -0.303844966427E+03   -0.14273E+00   -0.79576E-02  8845   0.479E-01    0.329E+00
RMM:  13    -0.303949166790E+03   -0.10420E+00   -0.41378E-02  8688   0.383E-01    0.554E+00
RMM:  14    -0.303980145357E+03   -0.30979E-01   -0.32822E-02  8361   0.359E-01    0.760E+00
RMM:  15    -0.304027144637E+03   -0.46999E-01   -0.16196E-02  8428   0.265E-01    0.825E+00
RMM:  16    -0.304042933293E+03   -0.15789E-01   -0.59935E-03  8541   0.137E-01    0.843E+00
RMM:  17    -0.304034838594E+03    0.80947E-02   -0.32234E-03  8284   0.121E-01    0.861E+00
RMM:  18    -0.303973193963E+03    0.61645E-01   -0.42485E-03  8498   0.125E-01    0.861E+00
RMM:  19    -0.303871771150E+03    0.10142E+00   -0.12759E-02  8869   0.177E-01    0.835E+00
RMM:  20    -0.303857684156E+03    0.14087E-01   -0.24315E-03  8775   0.796E-02    0.830E+00
RMM:  21    -0.303776715264E+03    0.80969E-01   -0.69955E-03  9201   0.142E-01    0.811E+00
RMM:  22    -0.303753796174E+03    0.22919E-01   -0.15858E-03  8738   0.723E-02    0.796E+00
RMM:  23    -0.303708573090E+03    0.45223E-01   -0.79172E-03  9008   0.146E-01    0.739E+00
RMM:  24    -0.303684973553E+03    0.23600E-01   -0.58682E-02  8895   0.405E-01    0.315E+00
RMM:  25    -0.304058282834E+03   -0.37331E+00   -0.36148E-02  8691   0.381E-01    0.514E+00
RMM:  26    -0.304269462095E+03   -0.21118E+00   -0.79770E-02  8320   0.493E-01    0.479E+00
RMM:  27    -0.304314927391E+03   -0.45465E-01   -0.22028E-02  8605   0.216E-01    0.485E+00
RMM:  28    -0.304328496391E+03   -0.13569E-01   -0.94357E-03  8716   0.133E-01    0.482E+00
RMM:  29    -0.304333587957E+03   -0.50916E-02   -0.46697E-03  8028   0.110E-01    0.481E+00
RMM:  30    -0.304426416963E+03   -0.92829E-01   -0.13094E-02  8370   0.194E-01    0.473E+00
RMM:  31    -0.304446226614E+03   -0.19810E-01   -0.39269E-02  8689   0.377E-01    0.439E+00
RMM:  32    -0.304226768478E+03    0.21946E+00   -0.57521E-02  8896   0.444E-01    0.410E+00
RMM:  33    -0.304233718513E+03   -0.69500E-02   -0.58910E-03 10095   0.147E-01    0.403E+00
RMM:  34    -0.304236346344E+03   -0.26278E-02   -0.16466E-03  8537   0.806E-02    0.399E+00
RMM:  35    -0.304186375423E+03    0.49971E-01   -0.48525E-03  9033   0.117E-01    0.377E+00
RMM:  36    -0.304198675325E+03   -0.12300E-01   -0.26878E-03  8175   0.135E-01    0.367E+00
RMM:  37    -0.304288850391E+03   -0.90175E-01   -0.33106E-02  8558   0.433E-01    0.425E+00
RMM:  38    -0.304314809433E+03   -0.25959E-01   -0.10681E-02  8475   0.163E-01    0.434E+00
RMM:  39    -0.304329220601E+03   -0.14411E-01   -0.66247E-03  8137   0.128E-01    0.430E+00
RMM:  40    -0.304325543438E+03    0.36772E-02   -0.10123E-02  8817   0.159E-01    0.400E+00
RMM:  41    -0.304407191252E+03   -0.81648E-01   -0.65691E-02  8682   0.441E-01    0.216E+00
RMM:  42    -0.304497880234E+03   -0.90689E-01   -0.92565E-02  8448   0.531E-01    0.250E+00
RMM:  43    -0.304566007537E+03   -0.68127E-01   -0.24038E-02  9106   0.255E-01    0.184E+00
RMM:  44    -0.304590122124E+03   -0.24115E-01   -0.12351E-02  8229   0.216E-01    0.222E+00
RMM:  45    -0.304708647381E+03   -0.11853E+00   -0.13658E-02  8589   0.264E-01    0.469E+00
RMM:  46    -0.304804022875E+03   -0.95375E-01   -0.15745E-02  8292   0.289E-01    0.669E+00
RMM:  47    -0.304858670887E+03   -0.54648E-01   -0.40041E-02  8696   0.385E-01    0.741E+00
RMM:  48    -0.304843544335E+03    0.15127E-01   -0.84745E-03  9155   0.171E-01    0.755E+00
RMM:  49    -0.304837440478E+03    0.61039E-02   -0.25063E-03  8282   0.892E-02    0.758E+00
RMM:  50    -0.304870612992E+03   -0.33173E-01   -0.20103E-03  8087   0.958E-02    0.776E+00
RMM:  51    -0.304897182121E+03   -0.26569E-01   -0.49026E-03  8313   0.150E-01    0.806E+00
RMM:  52    -0.304864355746E+03    0.32826E-01   -0.10668E-02  8263   0.226E-01    0.776E+00
RMM:  53    -0.304857399321E+03    0.69564E-02   -0.52477E-03  8052   0.136E-01    0.761E+00
RMM:  54    -0.304805160854E+03    0.52238E-01   -0.66437E-03  8680   0.126E-01    0.737E+00
RMM:  55    -0.304798190180E+03    0.69707E-02   -0.60735E-03  8808   0.134E-01    0.736E+00
RMM:  56    -0.304809972824E+03   -0.11783E-01   -0.91932E-03  8529   0.173E-01    0.738E+00
RMM:  57    -0.304767233378E+03    0.42739E-01   -0.11217E-02  8825   0.183E-01    0.739E+00
RMM:  58    -0.304751689919E+03    0.15543E-01   -0.81311E-03  8657   0.156E-01    0.723E+00
RMM:  59    -0.304748201140E+03    0.34888E-02   -0.41459E-03  8512   0.124E-01    0.718E+00
RMM:  60    -0.304715416732E+03    0.32784E-01   -0.83221E-03  8935   0.160E-01
   2 F= -.30471542E+03 E0= -.30472013E+03  d E =-.639682E+01  mag=    15.2873
 trial-energy change:   -6.396821  1 .order   -0.125280   -0.183767   -0.066793
 step:   1.0018(harm=  1.5710)  dis= 0.05140  next Energy=  -304.715476 (dE=-0.640E+01)
 bond charge predicted
       N       E                     dE             d eps       ncg     rms          rms(c)
DAV:   1    -0.304678294801E+03    0.69906E-01   -0.79121E-03 12264   0.815E-01    0.710E+00
RMM:   2    -0.313403148494E+03   -0.87249E+01   -0.57952E+00  8939   0.408E+00    0.426E+01
RMM:   3    -0.304518528033E+03    0.88846E+01   -0.40141E+00  9380   0.336E+00    0.620E+00
RMM:   4    -0.305440269222E+03   -0.92174E+00   -0.30882E-01  9685   0.124E+00    0.484E+00
RMM:   5    -0.305386794267E+03    0.53475E-01   -0.10554E-01  9076   0.593E-01    0.369E+00
RMM:   6    -0.305412113456E+03   -0.25319E-01   -0.46081E-02  9424   0.352E-01    0.466E+00
RMM:   7    -0.305552333627E+03   -0.14022E+00   -0.31166E-02  8550   0.387E-01    0.882E+00
RMM:   8    -0.305720597203E+03   -0.16826E+00   -0.38600E-02  8705   0.379E-01    0.946E+00
RMM:   9    -0.305956039724E+03   -0.23544E+00   -0.40850E-02  8905   0.353E-01    0.902E+00
RMM:  10    -0.306051608624E+03   -0.95569E-01   -0.12007E-02  9259   0.178E-01    0.887E+00
RMM:  11    -0.306172358592E+03   -0.12075E+00   -0.97323E-03  9358   0.156E-01    0.865E+00
RMM:  12    -0.306312782129E+03   -0.14042E+00   -0.14149E-02  9112   0.195E-01    0.847E+00
RMM:  13    -0.306377144073E+03   -0.64362E-01   -0.64420E-03  8828   0.145E-01    0.844E+00
RMM:  14    -0.306377433301E+03   -0.28923E-03   -0.12658E-03  9107   0.669E-02    0.844E+00
RMM:  15    -0.306456881807E+03   -0.79449E-01   -0.59462E-03  8601   0.148E-01    0.849E+00
RMM:  16    -0.306477894034E+03   -0.21012E-01   -0.29704E-03  8256   0.118E-01    0.866E+00
RMM:  17    -0.306526628497E+03   -0.48734E-01   -0.38851E-03  8409   0.127E-01    0.877E+00
RMM:  18    -0.306552289144E+03   -0.25661E-01   -0.86370E-03  8264   0.206E-01    0.920E+00
RMM:  19    -0.306591588551E+03   -0.39299E-01   -0.13748E-02  8348   0.270E-01    0.908E+00
RMM:  20    -0.306586570495E+03    0.50181E-02   -0.78919E-03  8388   0.191E-01    0.881E+00
RMM:  21    -0.306488522880E+03    0.98048E-01   -0.30851E-02  8846   0.366E-01    0.769E+00
RMM:  22    -0.306435242267E+03    0.53281E-01   -0.24960E-02  8858   0.307E-01    0.688E+00
RMM:  23    -0.306490842026E+03   -0.55600E-01   -0.14056E-02  8381   0.312E-01    0.663E+00
RMM:  24    -0.306501252255E+03   -0.10410E-01   -0.57263E-03  8426   0.180E-01    0.651E+00
RMM:  25    -0.306509345478E+03   -0.80932E-02   -0.41095E-03  8308   0.136E-01    0.652E+00
RMM:  26    -0.306506896715E+03    0.24488E-02   -0.86271E-04  8422   0.590E-02    0.650E+00
RMM:  27    -0.306499689065E+03    0.72076E-02   -0.52383E-03  8741   0.153E-01    0.650E+00
RMM:  28    -0.306510866950E+03   -0.11178E-01   -0.26687E-03  8598   0.117E-01    0.648E+00
RMM:  29    -0.306493713125E+03    0.17154E-01   -0.25029E-03  8088   0.109E-01    0.633E+00
RMM:  30    -0.306487587138E+03    0.61260E-02   -0.98497E-04  7863   0.611E-02    0.629E+00
RMM:  31    -0.306483330666E+03    0.42565E-02   -0.37952E-03  8082   0.159E-01    0.606E+00
RMM:  32    -0.306443146914E+03    0.40184E-01   -0.63402E-03  8316   0.179E-01    0.583E+00
RMM:  33    -0.306380902581E+03    0.62244E-01   -0.22535E-02  8442   0.292E-01    0.565E+00
RMM:  34    -0.306285393301E+03    0.95509E-01   -0.40789E-02  8781   0.360E-01    0.544E+00
RMM:  35    -0.306189734589E+03    0.95659E-01   -0.30621E-02  8921   0.337E-01    0.501E+00
RMM:  36    -0.305993561839E+03    0.19617E+00   -0.64723E-02  9071   0.442E-01    0.454E+00
RMM:  37    -0.305916057343E+03    0.77504E-01   -0.20093E-02  9473   0.228E-01    0.377E+00
RMM:  38    -0.305893820696E+03    0.22237E-01   -0.49391E-03  9966   0.128E-01    0.321E+00
RMM:  39    -0.305887159177E+03    0.66615E-02   -0.17767E-03  8569   0.868E-02    0.299E+00
RMM:  40    -0.305880547035E+03    0.66121E-02   -0.10254E-03  8293   0.555E-02    0.281E+00
RMM:  41    -0.305880708234E+03   -0.16120E-03   -0.27203E-04  8172   0.345E-02    0.279E+00
RMM:  42    -0.305871774270E+03    0.89340E-02   -0.33867E-03  8513   0.108E-01    0.287E+00
RMM:  43    -0.305892034785E+03   -0.20261E-01   -0.44887E-03  9096   0.115E-01    0.350E+00
RMM:  44    -0.305893642920E+03   -0.16081E-02   -0.81844E-04  8255   0.644E-02    0.357E+00
RMM:  45    -0.305898913098E+03   -0.52702E-02   -0.37318E-04  8371   0.404E-02    0.363E+00
RMM:  46    -0.305881931370E+03    0.16982E-01   -0.11351E-02  8931   0.202E-01    0.228E+00
RMM:  47    -0.305944552373E+03   -0.62621E-01   -0.19847E-02  9009   0.244E-01    0.410E+00
RMM:  48    -0.306047851845E+03   -0.10330E+00   -0.13537E-02  8239   0.265E-01    0.758E+00
RMM:  49    -0.306206689031E+03   -0.15884E+00   -0.16638E-02  7969   0.293E-01    0.101E+01
RMM:  50    -0.306333912817E+03   -0.12722E+00   -0.14286E-02  8230   0.268E-01    0.105E+01
RMM:  51    -0.306341741972E+03   -0.78292E-02   -0.49341E-03  7989   0.131E-01    0.106E+01
RMM:  52    -0.306673387539E+03   -0.33165E+00   -0.34182E-02  9121   0.333E-01    0.108E+01
RMM:  53    -0.306674672006E+03   -0.12845E-02   -0.40217E-03  9516   0.123E-01    0.109E+01
RMM:  54    -0.306671788173E+03    0.28838E-02   -0.75090E-04  8785   0.469E-02    0.109E+01
RMM:  55    -0.306667976701E+03    0.38115E-02   -0.30066E-04  6607   0.301E-02    0.109E+01
RMM:  56    -0.306623467396E+03    0.44509E-01   -0.99821E-04  8402   0.605E-02    0.109E+01
RMM:  57    -0.306594591601E+03    0.28876E-01   -0.43811E-03  9001   0.117E-01    0.109E+01
RMM:  58    -0.306538020919E+03    0.56571E-01   -0.54059E-03  9296   0.124E-01    0.109E+01
RMM:  59    -0.306497643247E+03    0.40378E-01   -0.29374E-03  9454   0.899E-02    0.110E+01
RMM:  60    -0.306449069761E+03    0.48573E-01   -0.33575E-03  9292   0.961E-02
   3 F= -.30644907E+03 E0= -.30645363E+03  d E =-.813047E+01  mag=    15.8271
 curvature:  -0.00 expect dE=-0.114E-02 dE for cont linesearch -0.405E-04
 ZBRENT: interpolating
 opt :   1.0011  next Energy=  -306.449083 (dE=-0.813E+01)
 bond charge predicted
       N       E                     dE             d eps       ncg     rms          rms(c)
DAV:   1    -0.306312044078E+03    0.18560E+00    0.59842E-03 14050   0.151E+00    0.111E+01
RMM:   2    -0.313522380957E+03   -0.72103E+01   -0.11585E+01  9305   0.554E+00    0.405E+01
RMM:   3    -0.307253473791E+03    0.62689E+01   -0.71671E+00  9392   0.444E+00    0.115E+01
RMM:   4    -0.307878519215E+03   -0.62505E+00   -0.53631E-01  9672   0.164E+00    0.657E+00
RMM:   5    -0.307603262327E+03    0.27526E+00   -0.28507E-01  8924   0.939E-01    0.473E+00
RMM:   6    -0.307224872238E+03    0.37839E+00   -0.15240E-01  9367   0.676E-01    0.399E+00
RMM:   7    -0.307252665571E+03   -0.27793E-01   -0.34598E-02 10083   0.314E-01    0.560E+00
RMM:   8    -0.307382131724E+03   -0.12947E+00   -0.67308E-02  9275   0.469E-01    0.949E+00
RMM:   9    -0.307382591680E+03   -0.45996E-03   -0.30051E-02  9411   0.339E-01    0.911E+00
RMM:  10    -0.307313939318E+03    0.68652E-01   -0.27326E-02  9151   0.315E-01    0.802E+00
RMM:  11    -0.307245963617E+03    0.67976E-01   -0.20413E-02  9055   0.254E-01    0.638E+00
RMM:  12    -0.307178180471E+03    0.67783E-01   -0.54129E-02  8897   0.425E-01    0.389E+00
RMM:  13    -0.307159572774E+03    0.18608E-01   -0.56496E-02  9105   0.446E-01    0.141E+00
RMM:  14    -0.307204742004E+03   -0.45169E-01   -0.13710E-02  9168   0.227E-01    0.177E+00
RMM:  15    -0.307202859471E+03    0.18825E-02   -0.45727E-03  8732   0.120E-01    0.238E+00
RMM:  16    -0.307201512924E+03    0.13465E-02   -0.15618E-02  8618   0.183E-01    0.139E+00
RMM:  17    -0.307262345240E+03   -0.60832E-01   -0.14494E-02  8806   0.194E-01    0.163E+00
RMM:  18    -0.307268277239E+03   -0.59320E-02   -0.93387E-03  9119   0.163E-01    0.866E-01
RMM:  19    -0.307339290495E+03   -0.71013E-01   -0.82873E-03  8434   0.140E-01    0.615E-01
RMM:  20    -0.307430638715E+03   -0.91348E-01   -0.20633E-02  8294   0.187E-01    0.638E-01
RMM:  21    -0.307482647055E+03   -0.52008E-01   -0.11836E-02  8395   0.137E-01    0.601E-01
RMM:  22    -0.307519519208E+03   -0.36872E-01   -0.91355E-03  8224   0.128E-01    0.449E-01
RMM:  23    -0.307567285656E+03   -0.47766E-01   -0.11725E-02  8428   0.140E-01    0.495E-01
RMM:  24    -0.307567767391E+03   -0.48173E-03   -0.27173E-03  8308   0.681E-02    0.372E-01
RMM:  25    -0.307596522635E+03   -0.28755E-01   -0.24019E-03  7947   0.656E-02    0.257E-01
RMM:  26    -0.307641943640E+03   -0.45421E-01   -0.21635E-03  8028   0.586E-02    0.335E-01
RMM:  27    -0.307668860113E+03   -0.26916E-01   -0.11175E-03  7841   0.447E-02    0.147E-01
RMM:  28    -0.307781930352E+03   -0.11307E+00   -0.34240E-03  7896   0.728E-02    0.259E-01
RMM:  29    -0.307924127181E+03   -0.14220E+00   -0.45252E-03  8159   0.697E-02    0.169E-01
RMM:  30    -0.307959421561E+03   -0.35294E-01   -0.10202E-03  8422   0.326E-02    0.190E-01
RMM:  31    -0.307979196026E+03   -0.19774E-01   -0.27342E-04  7852   0.235E-02    0.140E-01
RMM:  32    -0.308004854836E+03   -0.25659E-01   -0.43204E-04  7890   0.302E-02    0.526E-02
RMM:  33    -0.308027249734E+03   -0.22395E-01   -0.49312E-04  7711   0.288E-02    0.926E-02
RMM:  34    -0.308035328334E+03   -0.80786E-02   -0.26409E-04  7372   0.180E-02    0.605E-02
RMM:  35    -0.308037551985E+03   -0.22237E-02   -0.80654E-05  6210   0.110E-02    0.445E-02
RMM:  36    -0.308038604055E+03   -0.10521E-02   -0.29102E-05  5241   0.707E-03    0.377E-02
RMM:  37    -0.308039273677E+03   -0.66962E-03   -0.20851E-05  5055   0.597E-03    0.338E-02
RMM:  38    -0.308040106315E+03   -0.83264E-03   -0.26474E-05  5163   0.652E-03    0.210E-02
RMM:  39    -0.308040500161E+03   -0.39385E-03   -0.15570E-05  4852   0.512E-03    0.511E-03
RMM:  40    -0.308040682337E+03   -0.18218E-03   -0.70788E-06  4454   0.369E-03    0.595E-03
RMM:  41    -0.308040765666E+03   -0.83330E-04   -0.32015E-06  3901   0.275E-03    0.805E-03
RMM:  42    -0.308040755835E+03    0.98311E-05   -0.10300E-06  3662   0.222E-03
   4 F= -.30804076E+03 E0= -.30803527E+03  d E =-.972216E+01  mag=    17.9882
 curvature:  -0.00 expect dE=-0.370E-03 dE for cont linesearch -0.124E-03
 ZBRENT: interpolating
 opt :   1.0004  next Energy=  -304.715430 (dE=-0.640E+01)
 bond charge predicted
       N       E                     dE             d eps       ncg     rms          rms(c)
DAV:   1    -0.308040895559E+03   -0.12989E-03   -0.26874E-05  7832   0.229E-02    0.684E-03
RMM:   2    -0.308040904025E+03   -0.84657E-05   -0.50249E-06  4782   0.632E-03
   5 F= -.30804090E+03 E0= -.30803541E+03  d E =-.972231E+01  mag=    17.9882
 curvature:  -0.00 expect dE=-0.390E-04 dE for cont linesearch -0.131E-04
 ZBRENT: interpolating
 opt :   1.0001  next Energy=  -304.715421 (dE=-0.640E+01)
 bond charge predicted
       N       E                     dE             d eps       ncg     rms          rms(c)
DAV:   1    -0.308040937511E+03   -0.41952E-04   -0.38878E-06  6336   0.132E-02    0.109E-02
RMM:   2    -0.308040947383E+03   -0.98724E-05   -0.45285E-06  4802   0.567E-03
   6 F= -.30804095E+03 E0= -.30803543E+03  d E =-.972235E+01  mag=    17.9882
 curvature:  -0.00 expect dE=-0.139E-04 dE for cont linesearch -0.464E-05
 ZBRENT: interpolating
 opt :   1.0000  next Energy=  -304.715418 (dE=-0.640E+01)
 bond charge predicted
       N       E                     dE             d eps       ncg     rms          rms(c)
DAV:   1    -0.308040953609E+03   -0.16098E-04   -0.49453E-06  6412   0.200E-02    0.619E-03
RMM:   2    -0.308040960244E+03   -0.66352E-05   -0.37110E-06  4553   0.432E-03
   7 F= -.30804096E+03 E0= -.30803550E+03  d E =-.972236E+01  mag=    17.9882
 curvature:  -0.00 expect dE=-0.494E-05 dE for cont linesearch -0.166E-05
 ZBRENT: interpolating
 opt :   1.0000  next Energy=  -304.715417 (dE=-0.640E+01)
 bond charge predicted
       N       E                     dE             d eps       ncg     rms          rms(c)
DAV:   1    -0.308040963993E+03   -0.10384E-04   -0.81315E-07  6448   0.831E-03    0.169E-02
RMM:   2    -0.308040994326E+03   -0.30334E-04   -0.16218E-05  4915   0.744E-03    0.109E-01
RMM:   3    -0.308040960788E+03    0.33538E-04   -0.94446E-06  4712   0.755E-03    0.417E-02
RMM:   4    -0.308040964316E+03   -0.35282E-05   -0.13503E-06  3948   0.271E-03
   8 F= -.30804096E+03 E0= -.30803548E+03  d E =-.972237E+01  mag=    17.9882
 curvature:  -0.00 expect dE=-0.174E-05 dE for cont linesearch -0.585E-06
 ZBRENT: interpolating
 opt :   1.0000  next Energy=  -304.715417 (dE=-0.640E+01)
 bond charge predicted
       N       E                     dE             d eps       ncg     rms          rms(c)
DAV:   1    -0.308040967850E+03   -0.70618E-05   -0.55210E-07  5972   0.407E-03    0.114E-02
RMM:   2    -0.308040977577E+03   -0.97276E-05   -0.53859E-06  4419   0.474E-03
   9 F= -.30804098E+03 E0= -.30803554E+03  d E =-.972238E+01  mag=    17.9882
 curvature:  -0.00 expect dE=-0.616E-06 dE for cont linesearch -0.208E-06
 ZBRENT: interpolating
 opt :   1.0000  next Energy=  -304.715417 (dE=-0.640E+01)
 bond charge predicted
       N       E                     dE             d eps       ncg     rms          rms(c)
DAV:   1    -0.308040970971E+03   -0.31210E-05   -0.41518E-06  6104   0.200E-02    0.191E-02
RMM:   2    -0.308041012802E+03   -0.41832E-04   -0.28910E-05  5355   0.935E-03    0.127E-01
RMM:   3    -0.308040967464E+03    0.45338E-04   -0.12261E-05  4774   0.849E-03    0.516E-02
RMM:   4    -0.308040970707E+03   -0.32426E-05   -0.17664E-06  4042   0.299E-03
  10 F= -.30804097E+03 E0= -.30803548E+03  d E =-.972237E+01  mag=    17.9882
 curvature:  -0.00 expect dE=-0.217E-06 dE for cont linesearch -0.729E-07
 ZBRENT: interpolating
 opt :   1.0000  next Energy=  -304.715417 (dE=-0.640E+01)
 bond charge predicted
       N       E                     dE             d eps       ncg     rms          rms(c)
DAV:   1    -0.308040975777E+03   -0.83133E-05   -0.78140E-07  5984   0.485E-03    0.102E-02
RMM:   2    -0.308040984283E+03   -0.85055E-05   -0.49507E-06  4356   0.455E-03
  11 F= -.30804098E+03 E0= -.30803555E+03  d E =-.972239E+01  mag=    17.9882
 curvature:  -0.00 expect dE=-0.771E-07 dE for cont linesearch -0.260E-07
 ZBRENT: interpolating
 opt :   1.0000  next Energy=  -304.715417 (dE=-0.640E+01)
 bond charge predicted
       N       E                     dE             d eps       ncg     rms          rms(c)
DAV:   1    -0.308040977615E+03   -0.18376E-05   -0.32822E-06  5904   0.181E-02    0.216E-02
RMM:   2    -0.308041027085E+03   -0.49470E-04   -0.35623E-05  5692   0.101E-02    0.142E-01
RMM:   3    -0.308040970366E+03    0.56719E-04   -0.15891E-05  4898   0.932E-03    0.548E-02
RMM:   4    -0.308040975186E+03   -0.48201E-05   -0.21899E-06  4141   0.338E-03
  12 F= -.30804098E+03 E0= -.30803549E+03  d E =-.972238E+01  mag=    17.9882
 curvature:  -0.00 expect dE=-0.272E-07 dE for cont linesearch -0.912E-08
 ZBRENT: interpolating
 opt :   1.0000  next Energy=  -304.715417 (dE=-0.640E+01)
 bond charge predicted
       N       E                     dE             d eps       ncg     rms          rms(c)
DAV:   1    -0.308040980748E+03   -0.10383E-04   -0.93939E-07  5904   0.520E-03    0.967E-03
RMM:   2    -0.308040988417E+03   -0.76691E-05   -0.45637E-06  4321   0.443E-03
  13 F= -.30804099E+03 E0= -.30803555E+03  d E =-.972239E+01  mag=    17.9882
 curvature:  -0.00 expect dE=-0.964E-08 dE for cont linesearch -0.325E-08
 ZBRENT: interpolating
 opt :   1.0000  next Energy=  -304.715417 (dE=-0.640E+01)
 bond charge predicted
       N       E                     dE             d eps       ncg     rms          rms(c)
DAV:   1    -0.308040982733E+03   -0.19851E-05   -0.28393E-06  5850   0.168E-02    0.201E-02
RMM:   2    -0.308041024807E+03   -0.42073E-04   -0.29289E-05  5320   0.934E-03    0.132E-01
RMM:   3    -0.308040976164E+03    0.48643E-04   -0.13721E-05  4817   0.884E-03    0.509E-02
RMM:   4    -0.308040980390E+03   -0.42265E-05   -0.19272E-06  4073   0.311E-03
  14 F= -.30804098E+03 E0= -.30803550E+03  d E =-.972238E+01  mag=    17.9882
 curvature:  -0.00 expect dE=-0.340E-08 dE for cont linesearch -0.114E-08
 ZBRENT:  accuracy reached
 opt :   0.0000  next Energy=     0.000000 (dE= 0.298E+03)
 bond charge predicted
       N       E                     dE             d eps       ncg     rms          rms(c)
DAV:   1    -0.307582702999E+03    0.45827E+00   -0.50335E+01  9512   0.305E+01    0.358E+00
RMM:   2    -0.308161490474E+03   -0.57879E+00   -0.49869E+00 10820   0.607E+00    0.620E+00
RMM:   3    -0.308125852950E+03    0.35638E-01   -0.34980E-01  9321   0.139E+00    0.445E+00
RMM:   4    -0.308109775799E+03    0.16077E-01   -0.50539E-02  9406   0.529E-01    0.233E+00
RMM:   5    -0.308098141356E+03    0.11634E-01   -0.17478E-02  9191   0.262E-01    0.135E+00
RMM:   6    -0.308099071885E+03   -0.93053E-03   -0.70295E-03  8772   0.186E-01    0.920E-01
RMM:   7    -0.308096609678E+03    0.24622E-02   -0.77492E-03  8529   0.186E-01    0.333E-01
RMM:   8    -0.308098074124E+03   -0.14644E-02   -0.23514E-03  8780   0.104E-01    0.766E-01
RMM:   9    -0.308096903106E+03    0.11710E-02   -0.86338E-04  8619   0.672E-02    0.440E-01
RMM:  10    -0.308096847624E+03    0.55482E-04   -0.23576E-04  8288   0.285E-02    0.382E-02
RMM:  11    -0.308097358249E+03   -0.51062E-03   -0.79281E-05  6793   0.209E-02    0.133E-01
RMM:  12    -0.308097563331E+03   -0.20508E-03   -0.33804E-05  6107   0.140E-02    0.922E-02
RMM:  13    -0.308097769015E+03   -0.20568E-03   -0.96832E-06  5075   0.662E-03    0.344E-02
RMM:  14    -0.308097935018E+03   -0.16600E-03   -0.55927E-06  4894   0.475E-03    0.928E-03
RMM:  15    -0.308098095210E+03   -0.16019E-03   -0.41514E-06  4663   0.366E-03    0.181E-02
RMM:  16    -0.308098207369E+03   -0.11216E-03   -0.24988E-06  4237   0.253E-03    0.126E-02
RMM:  17    -0.308098400136E+03   -0.19277E-03   -0.57811E-06  4433   0.302E-03    0.561E-03
RMM:  18    -0.308098539226E+03   -0.13909E-03   -0.46748E-06  3958   0.254E-03    0.157E-02
RMM:  19    -0.308098584699E+03   -0.45473E-04   -0.17812E-06  3241   0.201E-03    0.104E-02
RMM:  20    -0.308098635138E+03   -0.50439E-04   -0.14236E-06  3181   0.189E-03    0.402E-03
RMM:  21    -0.308098731848E+03   -0.96710E-04   -0.32445E-06  3564   0.218E-03    0.221E-03
RMM:  22    -0.308098807403E+03   -0.75555E-04   -0.23221E-06  3173   0.194E-03    0.162E-03
RMM:  23    -0.308098860179E+03   -0.52776E-04   -0.15241E-06  2888   0.178E-03    0.120E-03
RMM:  24    -0.308098897389E+03   -0.37210E-04   -0.98548E-07  2780   0.169E-03    0.413E-03
RMM:  25    -0.308098911249E+03   -0.13859E-04   -0.49485E-07  2405   0.154E-03    0.570E-03
RMM:  26    -0.308098916151E+03   -0.49022E-05   -0.25836E-07  2419   0.150E-03
  15 F= -.30809892E+03 E0= -.30809283E+03  d E =-.978032E+01  mag=    17.9951
 curvature:   0.00 expect dE= 0.445-322 dE for cont linesearch  0.000E+00
 ZBRENT: fatal error in bracketing
     please rerun with smaller EDIFF, or copy CONTCAR
     to POSCAR and continue
