unknown system                          
           1
     2.873573   -2.873573    4.708335
     5.747147    0.000000    0.000000
     0.000000   33.065691   20.180529
   Mn   O    H 
  15  23   7
Direct configuration=     1
   0.22067121  0.89240241  0.08901558
   0.66957979  0.17334692  0.21799724
   0.94927612  0.02809995  0.15233499
   0.38708391  0.31419261  0.28424361
   0.44927612  0.52809995  0.15233499
   0.89090072  0.31842192  0.28353291
   0.44927612  0.02809995  0.15233499
   0.89594569  0.81614615  0.28377761
   0.90282244  0.55132680  0.10484543
   0.35001205  0.83324436  0.23426142
   0.99122287  0.50929752  0.20248881
   0.42174804  0.80290850  0.33598319
   0.53851998  0.23347802  0.07318573
   0.06670148  0.46826479  0.35213557
   0.71359651  0.13660352  0.36399016
   0.76942163  0.63347379  0.31280660
   0.87926422  0.06310591  0.05527763
   0.33707888  0.33514159  0.18292373
   0.58246139  0.21150732  0.12452493
   0.02753254  0.49950405  0.25523311
   0.70111324  0.49370790  0.37659396
   0.09516526  0.72856013  0.12156099
   0.55487039  0.46004799  0.25272840
   0.74931526  0.13754116  0.31153602
   0.85888103  0.57329750  0.05350623
   0.31103102  0.84757562  0.18073823
   0.56207820  0.72169891  0.12275353
   0.00049289  0.01265451  0.25271056
   0.79685559  0.33169009  0.18368308
   0.24702058  0.60794313  0.31573321
   0.34617716  0.60305419  0.05647018
   0.21727550  0.15771059  0.31074661
   0.79501653  0.88168606  0.18390999
   0.34617716  0.05624469  0.05647018
   0.54146271  0.01678302  0.25137822
   0.09516526  0.18175063  0.12156099
   0.38533411  0.12326941  0.37653323
   0.00542025  0.80590031  0.38394358
   0.34047062  0.60391201  0.02782883
   0.92434681  0.68523651  0.03696881
   0.34363348  0.06399961  0.02783421
   0.88838126  0.05560908  0.02665597
   0.66803150  0.55424919  0.40034509
   0.36866096  0.07467398  0.40003474
   0.01542580  0.78149031  0.40876975
Direct configuration=     2
   0.22067121  0.89240241  0.08901558
   0.67002918  0.17346217  0.21813343
   0.94927612  0.02809995  0.15233499
   0.38985532  0.31149865  0.28388456
   0.44927612  0.52809995  0.15233499
   0.88824398  0.31780886  0.28346503
   0.44927612  0.02809995  0.15233499
   0.89479551  0.81777879  0.28354744
   0.90282244  0.55132680  0.10484543
   0.34966430  0.83296209  0.23432937
   0.99148497  0.50943442  0.20255894
   0.42309348  0.80375119  0.33609405
   0.53851998  0.23347802  0.07318573
   0.06893276  0.46836604  0.35234449
   0.71192434  0.13761396  0.36378636
   0.76573959  0.63797635  0.31294098
   0.87926422  0.06310591  0.05527763
   0.33760984  0.33413185  0.18273685
   0.58246139  0.21150732  0.12452493
   0.02744641  0.50125495  0.25539500
   0.69952277  0.49652566  0.37616418
   0.09516526  0.72856013  0.12156099
   0.55072568  0.45964148  0.25252092
   0.75052991  0.13562567  0.31122199
   0.85888103  0.57329750  0.05350623
   0.31140934  0.84767682  0.18058538
   0.56207820  0.72169891  0.12275353
   0.00030401  0.01046311  0.25283493
   0.79730893  0.32976188  0.18353543
   0.24827452  0.61082437  0.31579191
   0.34617716  0.60305419  0.05647018
   0.22550760  0.15178661  0.31136866
   0.79543605  0.88252922  0.18382615
   0.34617716  0.05624469  0.05647018
   0.54154686  0.01739369  0.25158547
   0.09516526  0.18175063  0.12156099
   0.38368968  0.12178382  0.37585073
   0.00703719  0.80416274  0.38384820
   0.34047062  0.60391201  0.02782883
   0.92434681  0.68523651  0.03696881
   0.34363348  0.06399961  0.02783421
   0.88838126  0.05560908  0.02665597
   0.66770026  0.55436301  0.40035517
   0.36820510  0.07436365  0.40012020
   0.01519970  0.78124812  0.40875155
Direct configuration=     3
   0.22067121  0.89240241  0.08901558
   0.67002997  0.17346238  0.21813367
   0.94927612  0.02809995  0.15233499
   0.38986022  0.31149389  0.28388393
   0.44927612  0.52809995  0.15233499
   0.88823929  0.31780778  0.28346491
   0.44927612  0.02809995  0.15233499
   0.89479348  0.81778168  0.28354703
   0.90282244  0.55132680  0.10484543
   0.34966368  0.83296159  0.23432949
   0.99148544  0.50943466  0.20255906
   0.42309585  0.80375267  0.33609425
   0.53851998  0.23347802  0.07318573
   0.06893670  0.46836622  0.35234486
   0.71192139  0.13761575  0.36378600
   0.76573308  0.63798430  0.31294122
   0.87926422  0.06310591  0.05527763
   0.33761078  0.33413006  0.18273652
   0.58246139  0.21150732  0.12452493
   0.02744626  0.50125804  0.25539529
   0.69951996  0.49653064  0.37616342
   0.09516526  0.72856013  0.12156099
   0.55071836  0.45964076  0.25252055
   0.75053206  0.13562228  0.31122144
   0.85888103  0.57329750  0.05350623
   0.31141000  0.84767700  0.18058511
   0.56207820  0.72169891  0.12275353
   0.00030368  0.01045924  0.25283515
   0.79730973  0.32975847  0.18353517
   0.24827674  0.61082946  0.31579202
   0.34617716  0.60305419  0.05647018
   0.22552214  0.15177614  0.31136976
   0.79543679  0.88253071  0.18382600
   0.34617716  0.05624469  0.05647018
   0.54154701  0.01739477  0.25158583
   0.09516526  0.18175063  0.12156099
   0.38368677  0.12178120  0.37584952
   0.00704004  0.80415967  0.38384803
   0.34047062  0.60391201  0.02782883
   0.92434681  0.68523651  0.03696881
   0.34363348  0.06399961  0.02783421
   0.88838126  0.05560908  0.02665597
   0.66769968  0.55436322  0.40035519
   0.36820430  0.07436310  0.40012035
   0.01519930  0.78124769  0.40875152
Direct configuration=     4
   0.22067121  0.89240241  0.08901558
   0.67002968  0.17346230  0.21813358
   0.94927612  0.02809995  0.15233499
   0.38985841  0.31149565  0.28388416
   0.44927612  0.52809995  0.15233499
   0.88824102  0.31780818  0.28346496
   0.44927612  0.02809995  0.15233499
   0.89479423  0.81778061  0.28354718
   0.90282244  0.55132680  0.10484543
   0.34966391  0.83296177  0.23432944
   0.99148527  0.50943457  0.20255902
   0.42309498  0.80375212  0.33609418
   0.53851998  0.23347802  0.07318573
   0.06893524  0.46836616  0.35234473
   0.71192248  0.13761509  0.36378613
   0.76573549  0.63798136  0.31294113
   0.87926422  0.06310591  0.05527763
   0.33761043  0.33413072  0.18273665
   0.58246139  0.21150732  0.12452493
   0.02744632  0.50125690  0.25539518
   0.69952100  0.49652880  0.37616370
   0.09516526  0.72856013  0.12156099
   0.55072107  0.45964102  0.25252069
   0.75053127  0.13562353  0.31122164
   0.85888103  0.57329750  0.05350623
   0.31140976  0.84767694  0.18058521
   0.56207820  0.72169891  0.12275353
   0.00030380  0.01046067  0.25283507
   0.79730944  0.32975973  0.18353527
   0.24827592  0.61082758  0.31579198
   0.34617716  0.60305419  0.05647018
   0.22551677  0.15178001  0.31136935
   0.79543652  0.88253016  0.18382605
   0.34617716  0.05624469  0.05647018
   0.54154696  0.01739437  0.25158570
   0.09516526  0.18175063  0.12156099
   0.38368785  0.12178217  0.37584997
   0.00703899  0.80416081  0.38384810
   0.34047062  0.60391201  0.02782883
   0.92434681  0.68523651  0.03696881
   0.34363348  0.06399961  0.02783421
   0.88838126  0.05560908  0.02665597
   0.66769989  0.55436314  0.40035518
   0.36820459  0.07436330  0.40012029
   0.01519945  0.78124785  0.40875153
Direct configuration=     5
   0.22067121  0.89240241  0.08901558
   0.67002935  0.17346222  0.21813348
   0.94927612  0.02809995  0.15233499
   0.38985641  0.31149759  0.28388442
   0.44927612  0.52809995  0.15233499
   0.88824294  0.31780862  0.28346501
   0.44927612  0.02809995  0.15233499
   0.89479506  0.81777944  0.28354735
   0.90282244  0.55132680  0.10484543
   0.34966416  0.83296198  0.23432940
   0.99148508  0.50943447  0.20255897
   0.42309401  0.80375152  0.33609410
   0.53851998  0.23347802  0.07318573
   0.06893363  0.46836608  0.35234458
   0.71192368  0.13761436  0.36378628
   0.76573814  0.63797812  0.31294103
   0.87926422  0.06310591  0.05527763
   0.33761005  0.33413145  0.18273678
   0.58246139  0.21150732  0.12452493
   0.02744638  0.50125564  0.25539506
   0.69952215  0.49652677  0.37616401
   0.09516526  0.72856013  0.12156099
   0.55072405  0.45964132  0.25252084
   0.75053039  0.13562491  0.31122187
   0.85888103  0.57329750  0.05350623
   0.31140949  0.84767686  0.18058532
   0.56207820  0.72169891  0.12275353
   0.00030394  0.01046224  0.25283498
   0.79730911  0.32976112  0.18353537
   0.24827502  0.61082551  0.31579193
   0.34617716  0.60305419  0.05647018
   0.22551084  0.15178428  0.31136891
   0.79543622  0.88252955  0.18382611
   0.34617716  0.05624469  0.05647018
   0.54154690  0.01739393  0.25158555
   0.09516526  0.18175063  0.12156099
   0.38368903  0.12178324  0.37585046
   0.00703782  0.80416206  0.38384816
   0.34047062  0.60391201  0.02782883
   0.92434681  0.68523651  0.03696881
   0.34363348  0.06399961  0.02783421
   0.88838126  0.05560908  0.02665597
   0.66770013  0.55436306  0.40035518
   0.36820492  0.07436353  0.40012023
   0.01519961  0.78124802  0.40875154
Direct configuration=     6
   0.22067121  0.89240241  0.08901558
   0.67002924  0.17346219  0.21813345
   0.94927612  0.02809995  0.15233499
   0.38985571  0.31149827  0.28388451
   0.44927612  0.52809995  0.15233499
   0.88824361  0.31780878  0.28346502
   0.44927612  0.02809995  0.15233499
   0.89479535  0.81777902  0.28354741
   0.90282244  0.55132680  0.10484543
   0.34966425  0.83296205  0.23432938
   0.99148501  0.50943444  0.20255895
   0.42309367  0.80375130  0.33609407
   0.53851998  0.23347802  0.07318573
   0.06893307  0.46836606  0.35234452
   0.71192411  0.13761410  0.36378633
   0.76573907  0.63797697  0.31294100
   0.87926422  0.06310591  0.05527763
   0.33760992  0.33413171  0.18273683
   0.58246139  0.21150732  0.12452493
   0.02744640  0.50125519  0.25539502
   0.69952255  0.49652605  0.37616412
   0.09516526  0.72856013  0.12156099
   0.55072510  0.45964142  0.25252089
   0.75053008  0.13562540  0.31122195
   0.85888103  0.57329750  0.05350623
   0.31140939  0.84767684  0.18058536
   0.56207820  0.72169891  0.12275353
   0.00030398  0.01046280  0.25283495
   0.79730900  0.32976161  0.18353541
   0.24827470  0.61082477  0.31579192
   0.34617716  0.60305419  0.05647018
   0.22550875  0.15178578  0.31136875
   0.79543611  0.88252934  0.18382613
   0.34617716  0.05624469  0.05647018
   0.54154687  0.01739378  0.25158549
   0.09516526  0.18175063  0.12156099
   0.38368945  0.12178361  0.37585063
   0.00703741  0.80416250  0.38384819
   0.34047062  0.60391201  0.02782883
   0.92434681  0.68523651  0.03696881
   0.34363348  0.06399961  0.02783421
   0.88838126  0.05560908  0.02665597
   0.66770021  0.55436303  0.40035517
   0.36820504  0.07436361  0.40012021
   0.01519967  0.78124809  0.40875155
Direct configuration=     7
   0.22067121  0.89240241  0.08901558
   0.67002920  0.17346218  0.21813343
   0.94927612  0.02809995  0.15233499
   0.38985546  0.31149851  0.28388454
   0.44927612  0.52809995  0.15233499
   0.88824385  0.31780883  0.28346503
   0.44927612  0.02809995  0.15233499
   0.89479545  0.81777887  0.28354743
   0.90282244  0.55132680  0.10484543
   0.34966428  0.83296207  0.23432937
   0.99148499  0.50943442  0.20255894
   0.42309354  0.80375123  0.33609406
   0.53851998  0.23347802  0.07318573
   0.06893287  0.46836605  0.35234450
   0.71192426  0.13761401  0.36378635
   0.76573940  0.63797657  0.31294099
   0.87926422  0.06310591  0.05527763
   0.33760987  0.33413180  0.18273684
   0.58246139  0.21150732  0.12452493
   0.02744641  0.50125503  0.25539501
   0.69952269  0.49652580  0.37616416
   0.09516526  0.72856013  0.12156099
   0.55072548  0.45964146  0.25252091
   0.75052997  0.13562557  0.31122198
   0.85888103  0.57329750  0.05350623
   0.31140936  0.84767683  0.18058537
   0.56207820  0.72169891  0.12275353
   0.00030400  0.01046300  0.25283494
   0.79730896  0.32976178  0.18353543
   0.24827459  0.61082451  0.31579191
   0.34617716  0.60305419  0.05647018
   0.22550801  0.15178631  0.31136869
   0.79543607  0.88252926  0.18382614
   0.34617716  0.05624469  0.05647018
   0.54154687  0.01739372  0.25158548
   0.09516526  0.18175063  0.12156099
   0.38368960  0.12178375  0.37585069
   0.00703727  0.80416265  0.38384820
   0.34047062  0.60391201  0.02782883
   0.92434681  0.68523651  0.03696881
   0.34363348  0.06399961  0.02783421
   0.88838126  0.05560908  0.02665597
   0.66770024  0.55436302  0.40035517
   0.36820508  0.07436363  0.40012020
   0.01519969  0.78124811  0.40875155
Direct configuration=     8
   0.22067121  0.89240241  0.08901558
   0.67002918  0.17346217  0.21813343
   0.94927612  0.02809995  0.15233499
   0.38985537  0.31149860  0.28388455
   0.44927612  0.52809995  0.15233499
   0.88824393  0.31780885  0.28346503
   0.44927612  0.02809995  0.15233499
   0.89479549  0.81777882  0.28354744
   0.90282244  0.55132680  0.10484543
   0.34966429  0.83296208  0.23432937
   0.99148498  0.50943442  0.20255894
   0.42309350  0.80375120  0.33609406
   0.53851998  0.23347802  0.07318573
   0.06893279  0.46836605  0.35234450
   0.71192431  0.13761398  0.36378636
   0.76573952  0.63797642  0.31294098
   0.87926422  0.06310591  0.05527763
   0.33760985  0.33413183  0.18273685
   0.58246139  0.21150732  0.12452493
   0.02744641  0.50125498  0.25539500
   0.69952274  0.49652571  0.37616417
   0.09516526  0.72856013  0.12156099
   0.55072561  0.45964147  0.25252092
   0.75052993  0.13562563  0.31122199
   0.85888103  0.57329750  0.05350623
   0.31140934  0.84767683  0.18058538
   0.56207820  0.72169891  0.12275353
   0.00030401  0.01046307  0.25283494
   0.79730894  0.32976185  0.18353543
   0.24827455  0.61082442  0.31579191
   0.34617716  0.60305419  0.05647018
   0.22550775  0.15178650  0.31136867
   0.79543606  0.88252923  0.18382614
   0.34617716  0.05624469  0.05647018
   0.54154686  0.01739370  0.25158547
   0.09516526  0.18175063  0.12156099
   0.38368965  0.12178380  0.37585072
   0.00703721  0.80416271  0.38384820
   0.34047062  0.60391201  0.02782883
   0.92434681  0.68523651  0.03696881
   0.34363348  0.06399961  0.02783421
   0.88838126  0.05560908  0.02665597
   0.66770025  0.55436302  0.40035517
   0.36820509  0.07436364  0.40012020
   0.01519969  0.78124811  0.40875155
Direct configuration=     9
   0.22067121  0.89240241  0.08901558
   0.67002918  0.17346217  0.21813343
   0.94927612  0.02809995  0.15233499
   0.38985534  0.31149863  0.28388456
   0.44927612  0.52809995  0.15233499
   0.88824396  0.31780886  0.28346503
   0.44927612  0.02809995  0.15233499
   0.89479550  0.81777880  0.28354744
   0.90282244  0.55132680  0.10484543
   0.34966429  0.83296209  0.23432937
   0.99148498  0.50943442  0.20255894
   0.42309349  0.80375119  0.33609406
   0.53851998  0.23347802  0.07318573
   0.06893277  0.46836604  0.35234449
   0.71192433  0.13761397  0.36378636
   0.76573956  0.63797637  0.31294098
   0.87926422  0.06310591  0.05527763
   0.33760985  0.33413184  0.18273685
   0.58246139  0.21150732  0.12452493
   0.02744641  0.50125496  0.25539500
   0.69952276  0.49652568  0.37616418
   0.09516526  0.72856013  0.12156099
   0.55072565  0.45964147  0.25252092
   0.75052992  0.13562566  0.31122199
   0.85888103  0.57329750  0.05350623
   0.31140934  0.84767682  0.18058538
   0.56207820  0.72169891  0.12275353
   0.00030401  0.01046309  0.25283493
   0.79730894  0.32976187  0.18353543
   0.24827453  0.61082439  0.31579191
   0.34617716  0.60305419  0.05647018
   0.22550765  0.15178657  0.31136867
   0.79543605  0.88252923  0.18382615
   0.34617716  0.05624469  0.05647018
   0.54154686  0.01739370  0.25158547
   0.09516526  0.18175063  0.12156099
   0.38368967  0.12178381  0.37585072
   0.00703720  0.80416273  0.38384820
   0.34047062  0.60391201  0.02782883
   0.92434681  0.68523651  0.03696881
   0.34363348  0.06399961  0.02783421
   0.88838126  0.05560908  0.02665597
   0.66770026  0.55436302  0.40035517
   0.36820510  0.07436365  0.40012020
   0.01519970  0.78124812  0.40875155
Direct configuration=    10
   0.22067121  0.89240241  0.08901558
   0.67002918  0.17346217  0.21813343
   0.94927612  0.02809995  0.15233499
   0.38985533  0.31149864  0.28388456
   0.44927612  0.52809995  0.15233499
   0.88824398  0.31780886  0.28346503
   0.44927612  0.02809995  0.15233499
   0.89479551  0.81777880  0.28354744
   0.90282244  0.55132680  0.10484543
   0.34966429  0.83296209  0.23432937
   0.99148498  0.50943442  0.20255894
   0.42309348  0.80375119  0.33609405
   0.53851998  0.23347802  0.07318573
   0.06893276  0.46836604  0.35234449
   0.71192434  0.13761396  0.36378636
   0.76573958  0.63797636  0.31294098
   0.87926422  0.06310591  0.05527763
   0.33760984  0.33413185  0.18273685
   0.58246139  0.21150732  0.12452493
   0.02744641  0.50125495  0.25539500
   0.69952277  0.49652567  0.37616418
   0.09516526  0.72856013  0.12156099
   0.55072567  0.45964148  0.25252092
   0.75052992  0.13562566  0.31122199
   0.85888103  0.57329750  0.05350623
   0.31140934  0.84767682  0.18058538
   0.56207820  0.72169891  0.12275353
   0.00030401  0.01046310  0.25283493
   0.79730893  0.32976188  0.18353543
   0.24827453  0.61082438  0.31579191
   0.34617716  0.60305419  0.05647018
   0.22550762  0.15178659  0.31136866
   0.79543605  0.88252922  0.18382615
   0.34617716  0.05624469  0.05647018
   0.54154686  0.01739369  0.25158547
   0.09516526  0.18175063  0.12156099
   0.38368968  0.12178382  0.37585073
   0.00703719  0.80416274  0.38384820
   0.34047062  0.60391201  0.02782883
   0.92434681  0.68523651  0.03696881
   0.34363348  0.06399961  0.02783421
   0.88838126  0.05560908  0.02665597
   0.66770026  0.55436301  0.40035517
   0.36820510  0.07436365  0.40012020
   0.01519970  0.78124812  0.40875155
Direct configuration=    11
   0.22067121  0.89240241  0.08901558
   0.67002918  0.17346217  0.21813343
   0.94927612  0.02809995  0.15233499
   0.38985532  0.31149865  0.28388456
   0.44927612  0.52809995  0.15233499
   0.88824398  0.31780886  0.28346503
   0.44927612  0.02809995  0.15233499
   0.89479551  0.81777879  0.28354744
   0.90282244  0.55132680  0.10484543
   0.34966430  0.83296209  0.23432937
   0.99148498  0.50943442  0.20255894
   0.42309348  0.80375119  0.33609405
   0.53851998  0.23347802  0.07318573
   0.06893276  0.46836604  0.35234449
   0.71192434  0.13761396  0.36378636
   0.76573958  0.63797635  0.31294098
   0.87926422  0.06310591  0.05527763
   0.33760984  0.33413185  0.18273685
   0.58246139  0.21150732  0.12452493
   0.02744641  0.50125495  0.25539500
   0.69952277  0.49652566  0.37616418
   0.09516526  0.72856013  0.12156099
   0.55072568  0.45964148  0.25252092
   0.75052991  0.13562567  0.31122199
   0.85888103  0.57329750  0.05350623
   0.31140934  0.84767682  0.18058538
   0.56207820  0.72169891  0.12275353
   0.00030401  0.01046310  0.25283493
   0.79730893  0.32976188  0.18353543
   0.24827452  0.61082437  0.31579191
   0.34617716  0.60305419  0.05647018
   0.22550761  0.15178660  0.31136866
   0.79543605  0.88252922  0.18382615
   0.34617716  0.05624469  0.05647018
   0.54154686  0.01739369  0.25158547
   0.09516526  0.18175063  0.12156099
   0.38368968  0.12178382  0.37585073
   0.00703719  0.80416274  0.38384820
   0.34047062  0.60391201  0.02782883
   0.92434681  0.68523651  0.03696881
   0.34363348  0.06399961  0.02783421
   0.88838126  0.05560908  0.02665597
   0.66770026  0.55436301  0.40035517
   0.36820510  0.07436365  0.40012020
   0.01519970  0.78124812  0.40875155
Direct configuration=    12
   0.22067121  0.89240241  0.08901558
   0.67002918  0.17346217  0.21813343
   0.94927612  0.02809995  0.15233499
   0.38985532  0.31149865  0.28388456
   0.44927612  0.52809995  0.15233499
   0.88824398  0.31780886  0.28346503
   0.44927612  0.02809995  0.15233499
   0.89479551  0.81777879  0.28354744
   0.90282244  0.55132680  0.10484543
   0.34966430  0.83296209  0.23432937
   0.99148497  0.50943442  0.20255894
   0.42309348  0.80375119  0.33609405
   0.53851998  0.23347802  0.07318573
   0.06893276  0.46836604  0.35234449
   0.71192434  0.13761396  0.36378636
   0.76573959  0.63797635  0.31294098
   0.87926422  0.06310591  0.05527763
   0.33760984  0.33413185  0.18273685
   0.58246139  0.21150732  0.12452493
   0.02744641  0.50125495  0.25539500
   0.69952277  0.49652566  0.37616418
   0.09516526  0.72856013  0.12156099
   0.55072568  0.45964148  0.25252092
   0.75052991  0.13562567  0.31122199
   0.85888103  0.57329750  0.05350623
   0.31140934  0.84767682  0.18058538
   0.56207820  0.72169891  0.12275353
   0.00030401  0.01046311  0.25283493
   0.79730893  0.32976188  0.18353543
   0.24827452  0.61082437  0.31579191
   0.34617716  0.60305419  0.05647018
   0.22550760  0.15178661  0.31136866
   0.79543605  0.88252922  0.18382615
   0.34617716  0.05624469  0.05647018
   0.54154686  0.01739369  0.25158547
   0.09516526  0.18175063  0.12156099
   0.38368968  0.12178382  0.37585073
   0.00703719  0.80416274  0.38384820
   0.34047062  0.60391201  0.02782883
   0.92434681  0.68523651  0.03696881
   0.34363348  0.06399961  0.02783421
   0.88838126  0.05560908  0.02665597
   0.66770026  0.55436301  0.40035517
   0.36820510  0.07436365  0.40012020
   0.01519970  0.78124812  0.40875155
Direct configuration=    13
   0.22067121  0.89240241  0.08901558
   0.67002918  0.17346217  0.21813343
   0.94927612  0.02809995  0.15233499
   0.38985532  0.31149865  0.28388456
   0.44927612  0.52809995  0.15233499
   0.88824398  0.31780886  0.28346503
   0.44927612  0.02809995  0.15233499
   0.89479551  0.81777879  0.28354744
   0.90282244  0.55132680  0.10484543
   0.34966430  0.83296209  0.23432937
   0.99148497  0.50943442  0.20255894
   0.42309348  0.80375119  0.33609405
   0.53851998  0.23347802  0.07318573
   0.06893276  0.46836604  0.35234449
   0.71192434  0.13761396  0.36378636
   0.76573959  0.63797635  0.31294098
   0.87926422  0.06310591  0.05527763
   0.33760984  0.33413185  0.18273685
   0.58246139  0.21150732  0.12452493
   0.02744641  0.50125495  0.25539500
   0.69952277  0.49652566  0.37616418
   0.09516526  0.72856013  0.12156099
   0.55072568  0.45964148  0.25252092
   0.75052991  0.13562567  0.31122199
   0.85888103  0.57329750  0.05350623
   0.31140934  0.84767682  0.18058538
   0.56207820  0.72169891  0.12275353
   0.00030401  0.01046311  0.25283493
   0.79730893  0.32976188  0.18353543
   0.24827452  0.61082437  0.31579191
   0.34617716  0.60305419  0.05647018
   0.22550760  0.15178661  0.31136866
   0.79543605  0.88252922  0.18382615
   0.34617716  0.05624469  0.05647018
   0.54154686  0.01739369  0.25158547
   0.09516526  0.18175063  0.12156099
   0.38368968  0.12178382  0.37585073
   0.00703719  0.80416274  0.38384820
   0.34047062  0.60391201  0.02782883
   0.92434681  0.68523651  0.03696881
   0.34363348  0.06399961  0.02783421
   0.88838126  0.05560908  0.02665597
   0.66770026  0.55436301  0.40035517
   0.36820510  0.07436365  0.40012020
   0.01519970  0.78124812  0.40875155
Direct configuration=    14
   0.22067121  0.89240241  0.08901558
   0.67002918  0.17346217  0.21813343
   0.94927612  0.02809995  0.15233499
   0.38985532  0.31149865  0.28388456
   0.44927612  0.52809995  0.15233499
   0.88824398  0.31780886  0.28346503
   0.44927612  0.02809995  0.15233499
   0.89479551  0.81777879  0.28354744
   0.90282244  0.55132680  0.10484543
   0.34966430  0.83296209  0.23432937
   0.99148497  0.50943442  0.20255894
   0.42309348  0.80375119  0.33609405
   0.53851998  0.23347802  0.07318573
   0.06893276  0.46836604  0.35234449
   0.71192434  0.13761396  0.36378636
   0.76573959  0.63797635  0.31294098
   0.87926422  0.06310591  0.05527763
   0.33760984  0.33413185  0.18273685
   0.58246139  0.21150732  0.12452493
   0.02744641  0.50125495  0.25539500
   0.69952277  0.49652566  0.37616418
   0.09516526  0.72856013  0.12156099
   0.55072568  0.45964148  0.25252092
   0.75052991  0.13562567  0.31122199
   0.85888103  0.57329750  0.05350623
   0.31140934  0.84767682  0.18058538
   0.56207820  0.72169891  0.12275353
   0.00030401  0.01046311  0.25283493
   0.79730893  0.32976188  0.18353543
   0.24827452  0.61082437  0.31579191
   0.34617716  0.60305419  0.05647018
   0.22550760  0.15178661  0.31136866
   0.79543605  0.88252922  0.18382615
   0.34617716  0.05624469  0.05647018
   0.54154686  0.01739369  0.25158547
   0.09516526  0.18175063  0.12156099
   0.38368968  0.12178382  0.37585073
   0.00703719  0.80416274  0.38384820
   0.34047062  0.60391201  0.02782883
   0.92434681  0.68523651  0.03696881
   0.34363348  0.06399961  0.02783421
   0.88838126  0.05560908  0.02665597
   0.66770026  0.55436301  0.40035517
   0.36820510  0.07436365  0.40012020
   0.01519970  0.78124812  0.40875155
