Mn O  H 
 1.0000000000000000
     5.7471469900000001    0.0000000000000000    0.0000000000000000
     0.0000000000000000    5.7471469900000001    0.0000000000000000
     0.0000000000000000    0.0000000000000000   38.3523056924327008
 Mn  O   H  
  14  21   4
Selective dynamics
Direct
 -0.0093835343744717  0.2391760241319369  0.2623916092900749   F   F   F
  0.7489864879576713  0.4968346817732093  0.3235847127412249   F   F   F
  0.5027384094875339  0.2436817717316981  0.3941806000822786   T   T   T
  0.7590862690768975 -0.0031380646746816  0.4598294568120396   T   T   T
  0.2601020633202793 -0.0015056502540449  0.4590847944326221   T   T   T
  0.2510151206674320  0.4955812159049278  0.3269556710605909   F   F   F
  0.5036042974723510  0.7451518877442332  0.3942267241563187   T   T   T
 -0.0100916428494874  0.7513987945614823  0.2627757334990781   F   F   F
  0.0024768544779153 -0.0045784375955736  0.3571699137271092   F   F   F
  0.0010813525523951  0.4972241000131730  0.4260679713146528   T   T   T
  0.4984028875108021  0.4991535233941448  0.4902345812631231   T   T   T
  0.4872487909802456 -0.0043314717839424  0.2917774653642574   F   F   F
  0.0221984415818032  0.2324270196833605  0.5226556406161338   T   T   T
  0.0224184153390096  0.7507119718474728  0.5208226779525913   T   T   T
  0.0095039169291616  0.2270985580233401  0.4618270234612822   T   T   T
  0.7747574636748692  0.4958631552600724  0.2647010163483396   F   F   F
  0.4994775423373534  0.2678073900728424  0.3280746410023943   F   F   F
  0.7307734366557648 -0.0064536986407501  0.3969768493251694   T   T   T
  0.0037645548922136  0.2690184215424850  0.3222536979589821   F   F   F
  0.7692367725186661 -0.0055241815224737  0.2597891457639432   F   F   F
  0.5102884802196085  0.2253867033333414  0.4556400638218606   T   T   T
  0.7293855621093579  0.4952119846760726  0.3909108132069786   T   T   T
  0.2111692605782599 -0.0057975698878655  0.2583053953367737   F   F   F
  0.2741305043574376  0.4956082196873088  0.3913779813586539   T   T   T
  0.2272536477132092  0.4962741366236937  0.2626329689737672   F   F   F
  0.2746471119241848 -0.0068138053395719  0.3973985740894257   T   T   T
  0.4987015056994976  0.7247605740973498  0.3278246169346272   F   F   F
  0.0094414764391586  0.7662741633248489  0.4616891494093758   T   T   T
  0.5086033154426217  0.7699530941363795  0.4555498717434988   T   T   T
  0.0041034282560547  0.7236694402594225  0.3222276800561435   F   F   F
  0.7797519621161195  0.4928857138836081  0.5282694999394933   T   T   T
  0.2363302380839906  0.4943736574831121  0.5252559041082042   T   T   T
  0.8008095555161487 -0.0089544058367549  0.5206543947542936   T   T   T
  0.2439702402908265 -0.0074444869274448  0.5184100371672130   T   T   T
  0.2797144676433348  0.2977409734226533  0.5897582372154461   T   T   T
  0.3862807976787250  0.4992215041381847  0.2532026820654570   F   F   F
  0.7029042725276291  0.4993757782431296  0.5509629234113105   T   T   T
  0.2982083981154106  0.3891670064474169  0.5680790126508771   T   T   T
  0.3654749444655440  0.1546252010422888  0.5853871125653908   T   T   T
