Mn O  H 
 1.0000000000000000
     5.7471469900000001    0.0000000000000000    0.0000000000000000
     0.0000000000000000    5.7471469900000001    0.0000000000000000
     0.0000000000000000    0.0000000000000000   38.3523056924327008
 Mn  O   H  
  13  18   2
Selective dynamics
Direct
 -0.0093835343744717  0.2391760241319369  0.2623916092900749   F   F   F
  0.7489864879576713  0.4968346817732093  0.3235847127412249   F   F   F
  0.4872944342846828  0.2433492705085606  0.3924771501265498   T   T   T
  0.7373114126368520 -0.0080855610229873  0.4559043211966488   T   T   T
  0.2271160624290128  0.0012795122001799  0.4562402240877083   T   T   T
  0.2510151206674320  0.4955812159049278  0.3269556710605909   F   F   F
  0.4880845740300248  0.7424772212605852  0.3930356553624065   T   T   T
 -0.0100916428494874  0.7513987945614823  0.2627757334990781   F   F   F
  0.0024768544779153 -0.0045784375955736  0.3571699137271092   F   F   F
 -0.0223910671601970  0.4971810895170925  0.4241484239406208   T   T   T
  0.5052406121260180  0.4833434775727443  0.4850333992115382   T   T   T
  0.4872487909802456 -0.0043314717839424  0.2917774653642574   F   F   F
  0.0113326587070508  0.4932752740203439  0.5044637861559793   T   T   T
 -0.0440264833456877  0.2424463014050788  0.4633254809777653   T   T   T
  0.7747574636748692  0.4958631552600724  0.2647010163483396   F   F   F
  0.4994775423373534  0.2678073900728424  0.3280746410023943   F   F   F
  0.7184520580084446 -0.0086674942472031  0.3958500775887173   T   T   T
  0.0037645548922136  0.2690184215424850  0.3222536979589821   F   F   F
  0.7692367725186661 -0.0055241815224737  0.2597891457639432   F   F   F
  0.4971496651923458  0.2366844582924468  0.4507569701635045   T   T   T
  0.7141588803866418  0.4945205745365068  0.3879650679515949   T   T   T
  0.2111692605782599 -0.0057975698878655  0.2583053953367737   F   F   F
  0.2571100656981216  0.4948886171575413  0.3898893071344095   T   T   T
  0.2272536477132092  0.4962741366236937  0.2626329689737672   F   F   F
  0.2584246040954526 -0.0085641320684241  0.3961263711251469   T   T   T
  0.4987015056994976  0.7247605740973498  0.3278246169346272   F   F   F
 -0.0251019754632330  0.7494523379636369  0.4638336809553598   T   T   T
  0.5034335118278480  0.7516963411829642  0.4534286697448729   T   T   T
  0.0041034282560547  0.7236694402594225  0.3222276800561435   F   F   F
  0.7015619808211799  0.6022335606570679  0.5240275477876899   T   T   T
  0.3076118627054394  0.3548344378592481  0.5169302420745739   T   T   T
  0.3862807976787250  0.4992215041381847  0.2532026820654570   F   F   F
  0.6223590642859430  0.5346108062343313  0.5441585516123356   T   T   T
