Mn  O  H                                
   1.00000000000000     
     5.7471469900000001    0.0000000000000000    0.0000000000000000
     0.0000000000000000    5.7471469900000001    0.0000000000000000
     0.0000000000000000    0.0000000000000000   38.3054457869999965
   Mn   O    H 
    15    22     5
Selective dynamics
Direct
  0.0005898578905175  0.2476707142651335  0.2914703058693817   F   F   F
  0.4930568167006300  0.7461824114576885  0.4168148855069234   F   F   F
  0.4928775973415611  0.2468076773515762  0.4165700117087638   F   F   F
  0.0005898578905175  0.7476701061373063  0.2914703058693817   F   F   F
  0.7505898156956690  0.4976695402043276  0.3529281469578436   F   F   F
  0.7442965684505367  0.0050814620916384  0.4816560843781942   T   T   T
  0.2505904238234891  0.4976695402043276  0.3529281469578436   F   F   F
  0.2413225337863736  0.0047767377241072  0.4797258869483088   T   T   T
  0.9961829773906672  0.9974009730347930  0.3853666155481648   F   F   F
  0.5043781529122597  0.4974318763837218  0.5128166619047221   T   T   T
  0.9945589225240639  0.5053831989412175  0.4498639514694887   T   T   T
  0.5005892497626903  0.9976706720702850  0.3221990958838745   F   F   F
  0.9544737031665916  0.2541565400517953  0.5659315329689605   T   T   T
  0.9830045033771597  0.7532013784141897  0.5461526468581965   T   T   T
  0.2958603491818508  0.0285750353332546  0.6129193329125259   T   T   T
  0.9952021848585558  0.2273847086201073  0.4826706388380941   T   T   T
  0.5005892497626903  0.7242654498384411  0.3546474847346772   F   F   F
  0.5005892497626903  0.2710753705639917  0.3546474847346772   F   F   F
  0.9977776248328424  0.7747582938348003  0.4867246038518970   T   T   T
  0.7739944719945271  0.4976695402043276  0.2931896436462154   F   F   F
  0.7231936136716044  0.9978377114729042  0.4203219586459994   F   F   F
  0.4906187233493569  0.2316005233212550  0.4777273886811457   T   T   T
  0.0005898578905175  0.7242654498384411  0.3512088091810099   F   F   F
  0.0005898578905175  0.2710753705639917  0.3512088091810099   F   F   F
  0.4915540600010714  0.7760332687346790  0.4786196340312117   T   T   T
  0.7215649794960228  0.4960826658794062  0.4147144008800794   F   F   F
  0.7739944719945271  0.9976706720702850  0.2897509680925552   F   F   F
  0.2648775127291429  0.4961540056242768  0.4137443038289561   F   F   F
  0.2271857675246238  0.9976706720702850  0.2897509680925552   F   F   F
  0.2679486017461343  0.9971782538313008  0.4196901946891316   F   F   F
  0.2271857675246238  0.4976695402043276  0.2931896436462154   F   F   F
  0.7528604452774488  0.5241021580510363  0.5493904900027574   T   T   T
  0.2101011060381595  0.9790142115543573  0.5606254933615701   T   T   T
  0.2329445620447572  0.5118769509704038  0.5519819117942291   T   T   T
  0.7363143554622837 -0.0041197393798171  0.5415656517915580   T   T   T
  0.6022258192909433  0.9748366545988602  0.6332385397049194   T   T   T
  0.0074554158753770  0.2182458175503185  0.6200366775329158   T   T   T
  0.3544680523300840  0.4873861769803085  0.2714496538643303   F   F   F
  0.3377863314177674  0.5674144530359869  0.5703253344030799   T   T   T
  0.5793450558641595  0.9570054262433914  0.5501499654947538   T   T   T
  0.6091450276060256  0.9166921084546972  0.6570037346295409   T   T   T
  0.8640929708109226  0.1402570424191936  0.6288693512769185   T   T   T
 
  0.00000000E+00  0.00000000E+00  0.00000000E+00
  0.00000000E+00  0.00000000E+00  0.00000000E+00
  0.00000000E+00  0.00000000E+00  0.00000000E+00
  0.00000000E+00  0.00000000E+00  0.00000000E+00
  0.00000000E+00  0.00000000E+00  0.00000000E+00
  0.00000000E+00  0.00000000E+00  0.00000000E+00
  0.00000000E+00  0.00000000E+00  0.00000000E+00
  0.00000000E+00  0.00000000E+00  0.00000000E+00
  0.00000000E+00  0.00000000E+00  0.00000000E+00
  0.00000000E+00  0.00000000E+00  0.00000000E+00
  0.00000000E+00  0.00000000E+00  0.00000000E+00
  0.00000000E+00  0.00000000E+00  0.00000000E+00
  0.00000000E+00  0.00000000E+00  0.00000000E+00
  0.00000000E+00  0.00000000E+00  0.00000000E+00
  0.00000000E+00  0.00000000E+00  0.00000000E+00
  0.00000000E+00  0.00000000E+00  0.00000000E+00
  0.00000000E+00  0.00000000E+00  0.00000000E+00
  0.00000000E+00  0.00000000E+00  0.00000000E+00
  0.00000000E+00  0.00000000E+00  0.00000000E+00
  0.00000000E+00  0.00000000E+00  0.00000000E+00
  0.00000000E+00  0.00000000E+00  0.00000000E+00
  0.00000000E+00  0.00000000E+00  0.00000000E+00
  0.00000000E+00  0.00000000E+00  0.00000000E+00
  0.00000000E+00  0.00000000E+00  0.00000000E+00
  0.00000000E+00  0.00000000E+00  0.00000000E+00
  0.00000000E+00  0.00000000E+00  0.00000000E+00
  0.00000000E+00  0.00000000E+00  0.00000000E+00
  0.00000000E+00  0.00000000E+00  0.00000000E+00
  0.00000000E+00  0.00000000E+00  0.00000000E+00
  0.00000000E+00  0.00000000E+00  0.00000000E+00
  0.00000000E+00  0.00000000E+00  0.00000000E+00
  0.00000000E+00  0.00000000E+00  0.00000000E+00
  0.00000000E+00  0.00000000E+00  0.00000000E+00
  0.00000000E+00  0.00000000E+00  0.00000000E+00
  0.00000000E+00  0.00000000E+00  0.00000000E+00
  0.00000000E+00  0.00000000E+00  0.00000000E+00
  0.00000000E+00  0.00000000E+00  0.00000000E+00
  0.00000000E+00  0.00000000E+00  0.00000000E+00
  0.00000000E+00  0.00000000E+00  0.00000000E+00
  0.00000000E+00  0.00000000E+00  0.00000000E+00
  0.00000000E+00  0.00000000E+00  0.00000000E+00
  0.00000000E+00  0.00000000E+00  0.00000000E+00
