 running on   64 total cores
 distrk:  each k-point on   64 cores,    1 groups
 distr:  one band on   32 cores,    2 groups
 using from now: INCAR     
 vasp.5.4.4.18Apr17-6-g9f103f2a35 (build Sep 24 2019 09:38:50) complex          
  
 POSCAR found type information on POSCAR  Mn O  H 
 POSCAR found :  3 types and      40 ions

 ----------------------------------------------------------------------------- 
|                                                                             |
|           W    W    AA    RRRRR   N    N  II  N    N   GGGG   !!!           |
|           W    W   A  A   R    R  NN   N  II  NN   N  G    G  !!!           |
|           W    W  A    A  R    R  N N  N  II  N N  N  G       !!!           |
|           W WW W  AAAAAA  RRRRR   N  N N  II  N  N N  G  GGG   !            |
|           WW  WW  A    A  R   R   N   NN  II  N   NN  G    G                |
|           W    W  A    A  R    R  N    N  II  N    N   GGGG   !!!           |
|                                                                             |
|      For optimal performance we recommend to set                            |
|        NCORE= 4 - approx SQRT( number of cores)                             |
|      NCORE specifies how many cores store one orbital (NPAR=cpu/NCORE).     |
|      This setting can  greatly improve the performance of VASP for DFT.     |
|      The default,   NCORE=1            might be grossly inefficient         |
|      on modern multi-core architectures or massively parallel machines.     |
|      Do your own testing !!!!                                               |
|      Unfortunately you need to use the default for GW and RPA calculations. |
|      (for HF NCORE is supported but not extensively tested yet)             |
|                                                                             |
 ----------------------------------------------------------------------------- 

 LDA part: xc-table for Pade appr. of Perdew
 POSCAR found type information on POSCAR  Mn O  H 
 POSCAR found :  3 types and      40 ions
 POSCAR, INCAR and KPOINTS ok, starting setup
 FFT: planning ...
 WAVECAR not read
 entering main loop
       N       E                     dE             d eps       ncg     rms          rms(c)
DAV:   1     0.306865790891E+04    0.30687E+04   -0.15238E+05  8624   0.142E+03
DAV:   2     0.206297941756E+03   -0.28624E+04   -0.26934E+04  8092   0.388E+02
DAV:   3    -0.286102615345E+03   -0.49240E+03   -0.48478E+03  8648   0.157E+02
DAV:   4    -0.306950656656E+03   -0.20848E+02   -0.20692E+02  8664   0.337E+01
DAV:   5    -0.307434528037E+03   -0.48387E+00   -0.48302E+00  8656   0.571E+00    0.683E+01
RMM:   6    -0.276859820438E+03    0.30575E+02   -0.51637E+02  8438   0.525E+01    0.780E+01
RMM:   7    -0.271547567040E+03    0.53123E+01   -0.26542E+01  8074   0.137E+01    0.460E+01
RMM:   8    -0.271563841906E+03   -0.16275E-01   -0.19030E+01  7613   0.947E+00    0.497E+01
RMM:   9    -0.266892854154E+03    0.46710E+01   -0.74169E+00  7802   0.663E+00    0.210E+01
RMM:  10    -0.267038998240E+03   -0.14614E+00   -0.33042E+00  7499   0.451E+00    0.146E+01
RMM:  11    -0.266923625418E+03    0.11537E+00   -0.86967E-01  7872   0.213E+00    0.683E+00
RMM:  12    -0.266899092200E+03    0.24533E-01   -0.88867E-01  7839   0.198E+00    0.133E+01
RMM:  13    -0.266838575303E+03    0.60517E-01   -0.42476E-01  7708   0.137E+00    0.102E+01
RMM:  14    -0.266646815132E+03    0.19176E+00   -0.14561E-01  7586   0.820E-01    0.481E+00
RMM:  15    -0.266641524721E+03    0.52904E-02   -0.10380E-01  8080   0.605E-01    0.260E+00
RMM:  16    -0.266591681283E+03    0.49843E-01   -0.68191E-02  7419   0.528E-01    0.373E+00
RMM:  17    -0.266481215146E+03    0.11047E+00   -0.52161E-02  7401   0.471E-01    0.631E-01
RMM:  18    -0.266459927480E+03    0.21288E-01   -0.11760E-02  7546   0.222E-01    0.224E+00
RMM:  19    -0.266453094066E+03    0.68334E-02   -0.14266E-02  7316   0.251E-01    0.384E-01
RMM:  20    -0.266422110251E+03    0.30984E-01   -0.10472E-02  7195   0.170E-01    0.194E+00
RMM:  21    -0.266389813527E+03    0.32297E-01   -0.74234E-03  6980   0.178E-01    0.138E+00
RMM:  22    -0.266359736360E+03    0.30077E-01   -0.63113E-03  7311   0.145E-01    0.971E-01
RMM:  23    -0.266336640116E+03    0.23096E-01   -0.79617E-03  6885   0.173E-01    0.123E+00
RMM:  24    -0.266341715835E+03   -0.50757E-02   -0.27834E-03  6763   0.974E-02    0.874E-01
RMM:  25    -0.266357939924E+03   -0.16224E-01   -0.37692E-03  6769   0.960E-02    0.167E-01
RMM:  26    -0.266382873679E+03   -0.24934E-01   -0.32048E-03  6685   0.851E-02    0.107E+00
RMM:  27    -0.266421763192E+03   -0.38890E-01   -0.23335E-03  6997   0.881E-02    0.988E-01
RMM:  28    -0.266480279343E+03   -0.58516E-01   -0.27120E-03  7068   0.883E-02    0.218E-01
RMM:  29    -0.266585078405E+03   -0.10480E+00   -0.28592E-03  6555   0.789E-02    0.892E-01
RMM:  30    -0.266665246396E+03   -0.80168E-01   -0.22681E-03  7012   0.792E-02    0.468E-01
RMM:  31    -0.266746907040E+03   -0.81661E-01   -0.37215E-03  7269   0.102E-01    0.135E+00
RMM:  32    -0.266780822822E+03   -0.33916E-01   -0.16128E-03  7195   0.837E-02    0.190E+00
RMM:  33    -0.266784716101E+03   -0.38933E-02   -0.98980E-04  7124   0.677E-02    0.166E+00
RMM:  34    -0.266802335415E+03   -0.17619E-01   -0.49453E-03  7678   0.129E-01    0.572E-01
RMM:  35    -0.266826508769E+03   -0.24173E-01   -0.16750E-03  7080   0.933E-02    0.225E+00
RMM:  36    -0.266825532263E+03    0.97651E-03   -0.16880E-03  6862   0.972E-02    0.279E+00
RMM:  37    -0.266831878409E+03   -0.63461E-02   -0.43752E-04  6931   0.525E-02    0.373E+00
RMM:  38    -0.266824259998E+03    0.76184E-02   -0.69745E-04  6885   0.578E-02    0.375E+00
RMM:  39    -0.266815840287E+03    0.84197E-02   -0.54773E-04  7038   0.460E-02    0.311E+00
RMM:  40    -0.266810223823E+03    0.56165E-02   -0.19106E-03  7258   0.830E-02    0.123E+00
RMM:  41    -0.266824908142E+03   -0.14684E-01   -0.25942E-03  7409   0.113E-01    0.128E+00
RMM:  42    -0.266841903198E+03   -0.16995E-01   -0.20403E-03  6609   0.114E-01    0.272E+00
RMM:  43    -0.266837327888E+03    0.45753E-02   -0.19405E-03  6920   0.105E-01    0.295E+00
RMM:  44    -0.266831073384E+03    0.62545E-02   -0.65555E-04  6995   0.564E-02    0.281E+00
RMM:  45    -0.266823572326E+03    0.75011E-02   -0.94296E-04  7331   0.567E-02    0.209E+00
RMM:  46    -0.266821990216E+03    0.15821E-02   -0.12877E-03  7360   0.726E-02    0.719E-01
RMM:  47    -0.266829268976E+03   -0.72788E-02   -0.70759E-04  6578   0.674E-02    0.433E-01
RMM:  48    -0.266831510393E+03   -0.22414E-02   -0.10992E-03  6954   0.764E-02    0.510E-01
RMM:  49    -0.266830828383E+03    0.68201E-03   -0.38365E-04  7021   0.411E-02    0.196E-01
RMM:  50    -0.266831044930E+03   -0.21655E-03   -0.51587E-05  6045   0.158E-02    0.137E-01
RMM:  51    -0.266831233439E+03   -0.18851E-03   -0.29853E-05  4399   0.145E-02    0.251E-01
RMM:  52    -0.266831275773E+03   -0.42334E-04   -0.17345E-05  4067   0.114E-02    0.393E-01
RMM:  53    -0.266831398743E+03   -0.12297E-03   -0.18543E-05  4166   0.108E-02    0.574E-01
RMM:  54    -0.266831385781E+03    0.12962E-04   -0.15869E-05  4193   0.105E-02    0.701E-01
RMM:  55    -0.266830856474E+03    0.52931E-03   -0.35768E-05  5307   0.132E-02    0.609E-01
RMM:  56    -0.266830409332E+03    0.44714E-03   -0.17487E-04  6810   0.235E-02    0.124E-01
RMM:  57    -0.266831428692E+03   -0.10194E-02   -0.12433E-04  6561   0.262E-02    0.477E-01
RMM:  58    -0.266831667439E+03   -0.23875E-03   -0.17245E-04  6083   0.314E-02    0.685E-01
RMM:  59    -0.266830782172E+03    0.88527E-03   -0.19937E-04  6675   0.295E-02    0.474E-01
RMM:  60    -0.266830714678E+03    0.67494E-04   -0.11661E-04  6638   0.207E-02
   1 F= -.26683071E+03 E0= -.26682856E+03  d E =-.266831E+03  mag=    19.1253
 curvature:   0.00 expect dE= 0.000E+00 dE for cont linesearch  0.000E+00
 trial: gam= 0.00000 g(F)=  0.146E-01 g(S)=  0.000E+00 ort = 0.000E+00 (trialstep = 0.100E+01)
 search vector abs. value=  0.146E-01
 bond charge predicted
       N       E                     dE             d eps       ncg     rms          rms(c)
DAV:   1    -0.266799847822E+03    0.30934E-01   -0.37313E+00  8644   0.864E+00    0.997E-01
RMM:   2    -0.266838374974E+03   -0.38527E-01   -0.36482E-01  8838   0.166E+00    0.109E+00
RMM:   3    -0.266840210323E+03   -0.18353E-02   -0.29790E-02  7828   0.406E-01    0.108E+00
RMM:   4    -0.266839675661E+03    0.53466E-03   -0.32317E-03  7718   0.136E-01    0.676E-01
RMM:   5    -0.266838873918E+03    0.80174E-03   -0.19296E-03  7520   0.930E-02    0.547E-01
RMM:   6    -0.266839590594E+03   -0.71668E-03   -0.71929E-04  7025   0.658E-02    0.696E-01
RMM:   7    -0.266839355854E+03    0.23474E-03   -0.30814E-03  7534   0.120E-01    0.712E-01
RMM:   8    -0.266841526401E+03   -0.21705E-02   -0.80250E-04  7284   0.687E-02    0.124E+00
RMM:   9    -0.266838826945E+03    0.26995E-02   -0.76037E-04  6919   0.636E-02    0.103E+00
RMM:  10    -0.266837622702E+03    0.12042E-02   -0.26980E-04  6870   0.308E-02    0.586E-01
RMM:  11    -0.266838131666E+03   -0.50896E-03   -0.16488E-04  6816   0.288E-02    0.362E-02
RMM:  12    -0.266839388778E+03   -0.12571E-02   -0.13753E-04  5532   0.302E-02    0.460E-01
RMM:  13    -0.266839537549E+03   -0.14877E-03   -0.12859E-04  5831   0.286E-02    0.638E-01
RMM:  14    -0.266839579431E+03   -0.41882E-04   -0.32264E-05  4536   0.157E-02    0.827E-01
RMM:  15    -0.266839304244E+03    0.27519E-03   -0.32289E-05  4704   0.138E-02    0.894E-01
RMM:  16    -0.266839166072E+03    0.13817E-03   -0.82360E-06  4001   0.763E-03    0.940E-01
RMM:  17    -0.266839202288E+03   -0.36216E-04   -0.26634E-06  3712   0.478E-03    0.101E+00
RMM:  18    -0.266839065223E+03    0.13706E-03   -0.34026E-06  3813   0.519E-03    0.104E+00
RMM:  19    -0.266839024432E+03    0.40791E-04   -0.11937E-06  3268   0.309E-03    0.107E+00
RMM:  20    -0.266838944225E+03    0.80208E-04   -0.10367E-06  3484   0.290E-03    0.107E+00
RMM:  21    -0.266838651052E+03    0.29317E-03   -0.82359E-06  4110   0.562E-03    0.967E-01
RMM:  22    -0.266838236206E+03    0.41485E-03   -0.65238E-05  6398   0.143E-02    0.646E-01
RMM:  23    -0.266838575235E+03   -0.33903E-03   -0.68074E-05  6131   0.197E-02    0.235E-01
RMM:  24    -0.266839249113E+03   -0.67388E-03   -0.60138E-05  4747   0.202E-02    0.806E-02
RMM:  25    -0.266839548120E+03   -0.29901E-03   -0.56323E-05  4862   0.194E-02    0.230E-01
RMM:  26    -0.266839487973E+03    0.60147E-04   -0.32298E-05  4706   0.136E-02    0.265E-01
RMM:  27    -0.266839392973E+03    0.95000E-04   -0.12858E-05  4120   0.799E-03    0.233E-01
RMM:  28    -0.266839325777E+03    0.67197E-04   -0.19255E-05  4612   0.775E-03    0.100E-01
RMM:  29    -0.266839408497E+03   -0.82720E-04   -0.65709E-06  3749   0.668E-03    0.761E-03
RMM:  30    -0.266839483343E+03   -0.74846E-04   -0.61346E-06  3813   0.662E-03    0.419E-02
RMM:  31    -0.266839499374E+03   -0.16031E-04   -0.24864E-06  3572   0.412E-03    0.501E-02
RMM:  32    -0.266839515300E+03   -0.15925E-04   -0.22313E-06  3502   0.320E-03    0.200E-02
RMM:  33    -0.266839545810E+03   -0.30510E-04   -0.15013E-06  3270   0.254E-03    0.229E-02
RMM:  34    -0.266839564427E+03   -0.18617E-04   -0.88013E-07  3165   0.264E-03    0.477E-02
RMM:  35    -0.266839567881E+03   -0.34543E-05   -0.63366E-07  2936   0.234E-03
   2 F= -.26683957E+03 E0= -.26683753E+03  d E =-.885320E-02  mag=    19.1247
 trial-energy change:   -0.008853  1 .order   -0.007638   -0.014648   -0.000629
 step:   1.0292(harm=  1.0448)  dis= 0.00615  next Energy=  -266.839577 (dE=-0.886E-02)
 bond charge predicted
       N       E                     dE             d eps       ncg     rms          rms(c)
DAV:   1    -0.266839548463E+03    0.15963E-04   -0.31872E-03  8680   0.252E-01    0.480E-02
RMM:   2    -0.266839651474E+03   -0.10301E-03   -0.37631E-04  8368   0.528E-02    0.235E-01
RMM:   3    -0.266839582796E+03    0.68677E-04   -0.70002E-05  5434   0.208E-02    0.181E-01
RMM:   4    -0.266839529649E+03    0.53148E-04   -0.16409E-05  4516   0.956E-03    0.869E-02
RMM:   5    -0.266839564001E+03   -0.34353E-04   -0.54046E-06  4096   0.656E-03    0.152E-02
RMM:   6    -0.266839596016E+03   -0.32015E-04   -0.33008E-06  3971   0.553E-03    0.486E-02
RMM:   7    -0.266839596795E+03   -0.77892E-06   -0.44846E-06  3971   0.603E-03
   3 F= -.26683960E+03 E0= -.26683755E+03  d E =-.888212E-02  mag=    19.1247
 curvature:  -0.46 expect dE=-0.228E-02 dE for cont linesearch -0.202E-05
 trial: gam= 0.32112 g(F)=  0.496E-02 g(S)=  0.000E+00 ort = 0.254E-03 (trialstep = 0.101E+01)
 search vector abs. value=  0.663E-02
 bond charge predicted
       N       E                     dE             d eps       ncg     rms          rms(c)
DAV:   1    -0.266824636948E+03    0.14959E-01   -0.14338E+00  8632   0.608E+00    0.616E-01
RMM:   2    -0.266841184314E+03   -0.16547E-01   -0.15958E-01  8875   0.116E+00    0.324E-01
RMM:   3    -0.266842027233E+03   -0.84292E-03   -0.76205E-03  7763   0.227E-01    0.310E-01
RMM:   4    -0.266841828156E+03    0.19908E-03   -0.61774E-04  8074   0.578E-02    0.145E-01
RMM:   5    -0.266841786917E+03    0.41240E-04   -0.11694E-04  6818   0.262E-02    0.159E-01
RMM:   6    -0.266841816113E+03   -0.29196E-04   -0.27209E-04  6904   0.368E-02    0.253E-01
RMM:   7    -0.266841675829E+03    0.14028E-03   -0.28006E-04  6850   0.379E-02    0.220E-01
RMM:   8    -0.266841523613E+03    0.15222E-03   -0.81025E-05  6369   0.214E-02    0.141E-02
RMM:   9    -0.266841629676E+03   -0.10606E-03   -0.14012E-05  4519   0.110E-02    0.129E-01
RMM:  10    -0.266841617594E+03    0.12081E-04   -0.17602E-05  4543   0.114E-02    0.136E-01
RMM:  11    -0.266841590570E+03    0.27024E-04   -0.59795E-06  4024   0.539E-03    0.101E-01
RMM:  12    -0.266841595962E+03   -0.53917E-05   -0.46754E-06  3781   0.450E-03
   4 F= -.26684160E+03 E0= -.26683950E+03  d E =-.199917E-02  mag=    19.1226
 trial-energy change:   -0.001999  1 .order   -0.002149   -0.005069    0.000771
 step:   0.8531(harm=  0.8730)  dis= 0.00334  next Energy=  -266.841655 (dE=-0.206E-02)
 bond charge predicted
       N       E                     dE             d eps       ncg     rms          rms(c)
DAV:   1    -0.266841286291E+03    0.30428E-03   -0.33027E-02  8824   0.926E-01    0.112E-01
RMM:   2    -0.266841743334E+03   -0.45704E-03   -0.38463E-03  8645   0.181E-01    0.303E-01
RMM:   3    -0.266841613088E+03    0.13025E-03   -0.33055E-04  7229   0.456E-02    0.115E-01
RMM:   4    -0.266841718287E+03   -0.10520E-03   -0.97638E-05  6601   0.225E-02    0.187E-01
RMM:   5    -0.266841691525E+03    0.26761E-04   -0.69459E-05  5746   0.207E-02    0.160E-01
RMM:   6    -0.266841625702E+03    0.65823E-04   -0.16115E-05  4466   0.952E-03    0.810E-02
RMM:   7    -0.266841639681E+03   -0.13979E-04   -0.12271E-05  4303   0.781E-03    0.428E-02
RMM:   8    -0.266841683862E+03   -0.44181E-04   -0.77218E-06  4206   0.834E-03    0.101E-01
RMM:   9    -0.266841670801E+03    0.13061E-04   -0.63355E-06  4066   0.665E-03    0.837E-02
RMM:  10    -0.266841676832E+03   -0.60318E-05   -0.45451E-06  3880   0.411E-03
   5 F= -.26684168E+03 E0= -.26683958E+03  d E =-.208004E-02  mag=    19.1216
 curvature:  -0.56 expect dE=-0.330E-02 dE for cont linesearch -0.137E-05
 trial: gam= 1.18151 g(F)=  0.588E-02 g(S)=  0.000E+00 ort = 0.127E-03 (trialstep = 0.419E+00)
 search vector abs. value=  0.154E-01
 bond charge predicted
       N       E                     dE             d eps       ncg     rms          rms(c)
DAV:   1    -0.266836792952E+03    0.48778E-02   -0.62951E-01  8700   0.374E+00    0.377E-01
RMM:   2    -0.266843136290E+03   -0.63433E-02   -0.61187E-02  8847   0.710E-01    0.312E-01
RMM:   3    -0.266843459998E+03   -0.32371E-03   -0.32629E-03  7518   0.149E-01    0.426E-01
RMM:   4    -0.266843235072E+03    0.22493E-03   -0.49373E-04  7574   0.536E-02    0.242E-01
RMM:   5    -0.266843128043E+03    0.10703E-03   -0.16452E-04  6860   0.277E-02    0.123E-01
RMM:   6    -0.266843224150E+03   -0.96107E-04   -0.76622E-05  5950   0.219E-02    0.146E-01
RMM:   7    -0.266843203956E+03    0.20194E-04   -0.20730E-04  6764   0.322E-02    0.133E-01
RMM:   8    -0.266843301358E+03   -0.97401E-04   -0.44649E-05  5318   0.171E-02    0.272E-01
RMM:   9    -0.266843136008E+03    0.16535E-03   -0.35215E-05  5134   0.151E-02    0.232E-01
RMM:  10    -0.266843051451E+03    0.84557E-04   -0.15667E-05  4341   0.807E-03    0.118E-01
RMM:  11    -0.266843088335E+03   -0.36884E-04   -0.84646E-06  4131   0.709E-03    0.139E-02
RMM:  12    -0.266843153873E+03   -0.65538E-04   -0.70843E-06  4042   0.752E-03    0.965E-02
RMM:  13    -0.266843158840E+03   -0.49667E-05   -0.48678E-06  3884   0.629E-03
   6 F= -.26684316E+03 E0= -.26684112E+03  d E =-.148201E-02  mag=    19.1197
 trial-energy change:   -0.001482  1 .order   -0.001513   -0.002527   -0.000499
 step:   0.5220(harm=  0.5220)  dis= 0.00393  next Energy=  -266.843251 (dE=-0.157E-02)
 bond charge predicted
       N       E                     dE             d eps       ncg     rms          rms(c)
DAV:   1    -0.266842810209E+03    0.34366E-03   -0.38147E-02  8704   0.921E-01    0.165E-01
RMM:   2    -0.266844036501E+03   -0.12263E-02   -0.45171E-03  8694   0.191E-01    0.798E-01
RMM:   3    -0.266843222450E+03    0.81405E-03   -0.80921E-04  7154   0.683E-02    0.590E-01
RMM:   4    -0.266842617030E+03    0.60542E-03   -0.24839E-04  6825   0.334E-02    0.203E-01
RMM:   5    -0.266843017383E+03   -0.40035E-03   -0.56788E-05  5470   0.206E-02    0.396E-02
RMM:   6    -0.266843235641E+03   -0.21826E-03   -0.36546E-05  4765   0.167E-02    0.176E-01
RMM:   7    -0.266843213197E+03    0.22444E-04   -0.32187E-05  4798   0.138E-02    0.186E-01
RMM:   8    -0.266843156947E+03    0.56250E-04   -0.27388E-05  4969   0.105E-02    0.722E-02
RMM:   9    -0.266843284051E+03   -0.12710E-03   -0.30609E-05  5355   0.108E-02    0.159E-01
RMM:  10    -0.266843328037E+03   -0.43986E-04   -0.20673E-05  4306   0.123E-02    0.249E-01
RMM:  11    -0.266843215069E+03    0.11297E-03   -0.14812E-05  4350   0.945E-03    0.241E-01
RMM:  12    -0.266843116738E+03    0.98331E-04   -0.12535E-05  4133   0.665E-03    0.145E-01
RMM:  13    -0.266843136525E+03   -0.19787E-04   -0.75924E-06  3960   0.606E-03    0.210E-02
RMM:  14    -0.266843209680E+03   -0.73155E-04   -0.57857E-06  3760   0.656E-03    0.525E-02
RMM:  15    -0.266843232208E+03   -0.22528E-04   -0.45238E-06  3768   0.585E-03    0.702E-02
RMM:  16    -0.266843233902E+03   -0.16945E-05   -0.37574E-06  3657   0.419E-03
   7 F= -.26684323E+03 E0= -.26684110E+03  d E =-.155707E-02  mag=    19.1182
 curvature:  -0.67 expect dE=-0.253E-02 dE for cont linesearch -0.186E-07
 trial: gam= 0.67566 g(F)=  0.379E-02 g(S)=  0.000E+00 ort = 0.207E-04 (trialstep = 0.439E+00)
 search vector abs. value=  0.109E-01
 bond charge predicted
       N       E                     dE             d eps       ncg     rms          rms(c)
DAV:   1    -0.266838281493E+03    0.49507E-02   -0.41974E-01  9188   0.356E+00    0.390E-01
RMM:   2    -0.266844528188E+03   -0.62467E-02   -0.57750E-02  8812   0.658E-01    0.459E-01
RMM:   3    -0.266844771038E+03   -0.24285E-03   -0.41415E-03  7472   0.153E-01    0.413E-01
RMM:   4    -0.266844798378E+03   -0.27340E-04   -0.50165E-04  7447   0.552E-02    0.290E-01
RMM:   5    -0.266844574296E+03    0.22408E-03   -0.17386E-04  6887   0.295E-02    0.687E-02
RMM:   6    -0.266844716857E+03   -0.14256E-03   -0.29548E-05  4851   0.153E-02    0.133E-01
RMM:   7    -0.266844706583E+03    0.10274E-04   -0.15255E-04  6563   0.286E-02    0.729E-02
RMM:   8    -0.266844862897E+03   -0.15631E-03   -0.62500E-05  6041   0.174E-02    0.303E-01
RMM:   9    -0.266844729319E+03    0.13358E-03   -0.47206E-05  5243   0.178E-02    0.307E-01
RMM:  10    -0.266844581256E+03    0.14806E-03   -0.27426E-05  4871   0.109E-02    0.194E-01
RMM:  11    -0.266844607854E+03   -0.26598E-04   -0.12296E-05  4226   0.786E-03    0.416E-02
RMM:  12    -0.266844716969E+03   -0.10911E-03   -0.96990E-06  4100   0.822E-03    0.824E-02
RMM:  13    -0.266844760966E+03   -0.43997E-04   -0.79188E-06  4012   0.780E-03    0.152E-01
RMM:  14    -0.266844735409E+03    0.25556E-04   -0.52572E-06  3838   0.613E-03    0.172E-01
RMM:  15    -0.266844725445E+03    0.99642E-05   -0.11511E-06  3389   0.312E-03
   8 F= -.26684473E+03 E0= -.26684273E+03  d E =-.149154E-02  mag=    19.1170
 trial-energy change:   -0.001492  1 .order   -0.001419   -0.001672   -0.001166
 step:   0.8261(harm=  1.4528)  dis= 0.00391  next Energy=  -266.845288 (dE=-0.205E-02)
 bond charge predicted
       N       E                     dE             d eps       ncg     rms          rms(c)
DAV:   1    -0.266840598046E+03    0.41374E-02   -0.32502E-01  9224   0.313E+00    0.381E-01
RMM:   2    -0.266846483663E+03   -0.58856E-02   -0.45365E-02  8867   0.585E-01    0.989E-01
RMM:   3    -0.266845008155E+03    0.14755E-02   -0.41073E-03  7493   0.152E-01    0.327E-01
RMM:   4    -0.266845927264E+03   -0.91911E-03   -0.10013E-03  7504   0.706E-02    0.625E-01
RMM:   5    -0.266845746106E+03    0.18116E-03   -0.75637E-04  7056   0.650E-02    0.530E-01
RMM:   6    -0.266845273205E+03    0.47290E-03   -0.17222E-04  6760   0.278E-02    0.326E-01
RMM:   7    -0.266845330989E+03   -0.57784E-04   -0.10791E-04  6855   0.216E-02    0.465E-02
RMM:   8    -0.266845704245E+03   -0.37326E-03   -0.73788E-05  5629   0.226E-02    0.280E-01
RMM:   9    -0.266845560266E+03    0.14398E-03   -0.95185E-05  6238   0.231E-02    0.221E-01
RMM:  10    -0.266845487253E+03    0.73013E-04   -0.59405E-05  6102   0.147E-02    0.848E-03
RMM:  11    -0.266845622847E+03   -0.13559E-03   -0.13556E-05  4289   0.101E-02    0.107E-01
RMM:  12    -0.266845615830E+03    0.70169E-05   -0.17064E-05  4360   0.105E-02
   9 F= -.26684562E+03 E0= -.26684348E+03  d E =-.238193E-02  mag=    19.1167
 curvature:  -1.28 expect dE=-0.270E-02 dE for cont linesearch -0.371E-03
 ZBRENT: increasing intervall
 opt :   1.5993  next Energy=  -266.846309 (dE=-0.308E-02)
 bond charge predicted
       N       E                     dE             d eps       ncg     rms          rms(c)
DAV:   1    -0.266826434620E+03    0.19188E-01   -0.13000E+00  9208   0.627E+00    0.675E-01
RMM:   2    -0.266845383873E+03   -0.18949E-01   -0.17761E-01  8865   0.115E+00    0.489E-01
RMM:   3    -0.266846897100E+03   -0.15132E-02   -0.11131E-02  7569   0.252E-01    0.758E-01
RMM:   4    -0.266846206705E+03    0.69039E-03   -0.14340E-03  7738   0.895E-02    0.400E-01
RMM:   5    -0.266846005823E+03    0.20088E-03   -0.39102E-04  7303   0.421E-02    0.180E-01
RMM:   6    -0.266846337945E+03   -0.33212E-03   -0.11757E-04  6156   0.283E-02    0.285E-01
RMM:   7    -0.266846180219E+03    0.15773E-03   -0.68262E-04  7181   0.563E-02    0.279E-01
RMM:   8    -0.266847145398E+03   -0.96518E-03   -0.26442E-04  6968   0.371E-02    0.817E-01
RMM:   9    -0.266846408097E+03    0.73730E-03   -0.24875E-04  6531   0.388E-02    0.852E-01
RMM:  10    -0.266845560144E+03    0.84795E-03   -0.12713E-04  6482   0.235E-02    0.648E-01
RMM:  11    -0.266845399040E+03    0.16110E-03   -0.10261E-04  6633   0.197E-02    0.263E-01
RMM:  12    -0.266846015195E+03   -0.61615E-03   -0.83924E-05  6183   0.219E-02    0.182E-01
RMM:  13    -0.266846512088E+03   -0.49689E-03   -0.83792E-05  5051   0.235E-02    0.420E-01
RMM:  14    -0.266846439124E+03    0.72964E-04   -0.52505E-05  5000   0.184E-02    0.531E-01
RMM:  15    -0.266846488625E+03   -0.49501E-04   -0.13547E-05  4134   0.108E-02    0.678E-01
RMM:  16    -0.266846142834E+03    0.34579E-03   -0.27858E-05  4765   0.128E-02    0.666E-01
RMM:  17    -0.266845876069E+03    0.26676E-03   -0.19333E-05  4532   0.817E-03    0.564E-01
RMM:  18    -0.266845726956E+03    0.14911E-03   -0.35972E-05  5612   0.112E-02    0.343E-01
RMM:  19    -0.266845926620E+03   -0.19966E-03   -0.33933E-05  5025   0.139E-02    0.627E-02
RMM:  20    -0.266846276308E+03   -0.34969E-03   -0.31263E-05  4441   0.144E-02    0.183E-01
RMM:  21    -0.266846427262E+03   -0.15095E-03   -0.28424E-05  4435   0.141E-02    0.341E-01
RMM:  22    -0.266846351186E+03    0.76076E-04   -0.21248E-05  4383   0.118E-02    0.403E-01
RMM:  23    -0.266846311396E+03    0.39790E-04   -0.54927E-06  3873   0.631E-03    0.458E-01
RMM:  24    -0.266846286116E+03    0.25279E-04   -0.25989E-06  3651   0.442E-03    0.504E-01
RMM:  25    -0.266846249594E+03    0.36522E-04   -0.16355E-06  3638   0.356E-03    0.534E-01
RMM:  26    -0.266846229391E+03    0.20203E-04   -0.81091E-07  3040   0.266E-03    0.561E-01
RMM:  27    -0.266846198522E+03    0.30869E-04   -0.56846E-07  3014   0.246E-03    0.576E-01
RMM:  28    -0.266846203174E+03   -0.46522E-05   -0.24777E-07  2383   0.192E-03
  10 F= -.26684620E+03 E0= -.26684347E+03  d E =-.296927E-02  mag=    19.1161
 curvature:  -2.39 expect dE=-0.106E-01 dE for cont linesearch -0.143E-04
 trial: gam= 1.09364 g(F)=  0.443E-02 g(S)=  0.000E+00 ort = 0.255E-03 (trialstep = 0.406E+00)
 search vector abs. value=  0.180E-01
 bond charge predicted
       N       E                     dE             d eps       ncg     rms          rms(c)
DAV:   1    -0.266838827361E+03    0.73712E-02   -0.55341E-01  9292   0.414E+00    0.813E-01
RMM:   2    -0.266863725219E+03   -0.24898E-01   -0.98851E-02  8969   0.857E-01    0.339E+00
RMM:   3    -0.266849756135E+03    0.13969E-01   -0.18028E-02  7574   0.312E-01    0.235E+00
RMM:   4    -0.266838581343E+03    0.11175E-01   -0.62675E-03  7658   0.160E-01    0.721E-01
RMM:   5    -0.266845255546E+03   -0.66742E-02   -0.12345E-03  7219   0.877E-02    0.254E-01
RMM:   6    -0.266848032138E+03   -0.27766E-02   -0.69741E-04  6711   0.684E-02    0.722E-01
RMM:   7    -0.266847045821E+03    0.98632E-03   -0.64388E-04  6819   0.578E-02    0.570E-01
RMM:   8    -0.266846525792E+03    0.52003E-03   -0.37851E-04  6882   0.378E-02    0.619E-02
RMM:   9    -0.266847231908E+03   -0.70612E-03   -0.13287E-04  6426   0.294E-02    0.275E-01
RMM:  10    -0.266847246196E+03   -0.14288E-04   -0.12034E-04  6268   0.267E-02    0.316E-01
RMM:  11    -0.266847065089E+03    0.18111E-03   -0.53943E-05  5622   0.164E-02    0.216E-01
RMM:  12    -0.266847075335E+03   -0.10247E-04   -0.13823E-05  4265   0.846E-03    0.944E-02
RMM:  13    -0.266847157066E+03   -0.81730E-04   -0.74471E-06  4051   0.741E-03    0.163E-02
RMM:  14    -0.266847220137E+03   -0.63071E-04   -0.58656E-06  3949   0.689E-03    0.874E-02
RMM:  15    -0.266847216374E+03    0.37634E-05   -0.43097E-06  3875   0.594E-03
  11 F= -.26684722E+03 E0= -.26684482E+03  d E =-.101320E-02  mag=    19.1148
 trial-energy change:   -0.001013  1 .order   -0.001085   -0.001910   -0.000260
 step:   0.5000(harm=  0.4697)  dis= 0.00361  next Energy=  -266.847246 (dE=-0.104E-02)
 bond charge predicted
       N       E                     dE             d eps       ncg     rms          rms(c)
DAV:   1    -0.266846761715E+03    0.45842E-03   -0.29855E-02  9460   0.961E-01    0.166E-01
RMM:   2    -0.266847837962E+03   -0.10762E-02   -0.49785E-03  8708   0.193E-01    0.725E-01
RMM:   3    -0.266847177231E+03    0.66073E-03   -0.79442E-04  7169   0.674E-02    0.505E-01
RMM:   4    -0.266846735762E+03    0.44147E-03   -0.29805E-04  6831   0.358E-02    0.754E-02
RMM:   5    -0.266847183121E+03   -0.44736E-03   -0.74503E-05  5434   0.229E-02    0.817E-02
RMM:   6    -0.266847265995E+03   -0.82874E-04   -0.28427E-05  4697   0.149E-02    0.147E-01
RMM:   7    -0.266847202580E+03    0.63415E-04   -0.26682E-05  4844   0.113E-02    0.958E-02
RMM:   8    -0.266847199523E+03    0.30571E-05   -0.20842E-05  4639   0.880E-03
  12 F= -.26684720E+03 E0= -.26684492E+03  d E =-.996349E-03  mag=    19.1139
 curvature:  -0.70 expect dE=-0.228E-02 dE for cont linesearch -0.268E-05
 trial: gam= 0.75419 g(F)=  0.327E-02 g(S)=  0.000E+00 ort =-0.263E-03 (trialstep = 0.425E+00)
 search vector abs. value=  0.131E-01
 bond charge predicted
       N       E                     dE             d eps       ncg     rms          rms(c)
DAV:   1    -0.266842374449E+03    0.48281E-02   -0.39078E-01  9328   0.352E+00    0.390E-01
RMM:   2    -0.266848408627E+03   -0.60342E-02   -0.53047E-02  8852   0.653E-01    0.664E-01
RMM:   3    -0.266847907631E+03    0.50100E-03   -0.42101E-03  7594   0.157E-01    0.225E-01
RMM:   4    -0.266848424657E+03   -0.51703E-03   -0.36315E-04  7547   0.491E-02    0.359E-01
RMM:   5    -0.266848110957E+03    0.31370E-03   -0.21910E-04  6809   0.362E-02    0.191E-01
RMM:   6    -0.266848166728E+03   -0.55770E-04   -0.14532E-04  6611   0.254E-02    0.164E-01
RMM:   7    -0.266848231740E+03   -0.65012E-04   -0.10997E-04  6330   0.260E-02    0.190E-01
RMM:   8    -0.266848126729E+03    0.10501E-03   -0.16124E-04  6745   0.268E-02    0.119E-01
RMM:   9    -0.266848230222E+03   -0.10349E-03   -0.32768E-05  4859   0.156E-02    0.197E-01
RMM:  10    -0.266848138357E+03    0.91865E-04   -0.42502E-05  5322   0.146E-02    0.907E-02
RMM:  11    -0.266848180037E+03   -0.41680E-04   -0.10078E-05  4126   0.728E-03    0.407E-02
RMM:  12    -0.266848236195E+03   -0.56158E-04   -0.66429E-06  3987   0.743E-03    0.114E-01
RMM:  13    -0.266848224695E+03    0.11501E-04   -0.44150E-06  3866   0.590E-03    0.142E-01
RMM:  14    -0.266848204392E+03    0.20302E-04   -0.16740E-06  3517   0.340E-03    0.150E-01
RMM:  15    -0.266848211117E+03   -0.67243E-05   -0.38288E-07  2600   0.215E-03
  13 F= -.26684821E+03 E0= -.26684570E+03  d E =-.101159E-02  mag=    19.1126
 trial-energy change:   -0.001012  1 .order   -0.001048   -0.001305   -0.000791
 step:   1.0778(harm=  1.0778)  dis= 0.00730  next Energy=  -266.848855 (dE=-0.166E-02)
 bond charge predicted
       N       E                     dE             d eps       ncg     rms          rms(c)
DAV:   1    -0.266834830211E+03    0.13374E-01   -0.92603E-01  9084   0.540E+00    0.619E-01
RMM:   2    -0.266849968606E+03   -0.15138E-01   -0.12686E-01  8953   0.102E+00    0.129E+00
RMM:   3    -0.266847540410E+03    0.24282E-02   -0.10710E-02  7559   0.255E-01    0.281E-01
RMM:   4    -0.266849470391E+03   -0.19300E-02   -0.12794E-03  7520   0.844E-02    0.772E-01
RMM:   5    -0.266848445527E+03    0.10249E-02   -0.13308E-03  7271   0.853E-02    0.440E-01
RMM:   6    -0.266848254384E+03    0.19114E-03   -0.42981E-04  7091   0.435E-02    0.157E-01
RMM:   7    -0.266848776007E+03   -0.52162E-03   -0.17344E-04  6585   0.340E-02    0.341E-01
RMM:   8    -0.266848453522E+03    0.32249E-03   -0.42195E-04  6965   0.454E-02    0.267E-02
RMM:   9    -0.266848710726E+03   -0.25720E-03   -0.53142E-05  5890   0.180E-02    0.248E-01
RMM:  10    -0.266848590194E+03    0.12053E-03   -0.72251E-05  5801   0.210E-02    0.199E-01
RMM:  11    -0.266848537107E+03    0.53087E-04   -0.13958E-05  4340   0.828E-03    0.112E-01
RMM:  12    -0.266848575079E+03   -0.37972E-04   -0.11703E-05  4205   0.727E-03    0.248E-02
RMM:  13    -0.266848657741E+03   -0.82662E-04   -0.83220E-06  4135   0.771E-03    0.137E-01
RMM:  14    -0.266848653638E+03    0.41030E-05   -0.73223E-06  3921   0.747E-03
  14 F= -.26684865E+03 E0= -.26684642E+03  d E =-.145411E-02  mag=    19.1097
 curvature:  -2.30 expect dE=-0.813E-02 dE for cont linesearch -0.171E-04
 trial: gam= 1.01165 g(F)=  0.354E-02 g(S)=  0.000E+00 ort =-0.312E-03 (trialstep = 0.446E+00)
 search vector abs. value=  0.163E-01
 bond charge predicted
       N       E                     dE             d eps       ncg     rms          rms(c)
DAV:   1    -0.266844017197E+03    0.46405E-02   -0.43422E-01  8808   0.339E+00    0.367E-01
RMM:   2    -0.266849630045E+03   -0.56128E-02   -0.49386E-02  8826   0.634E-01    0.625E-01
RMM:   3    -0.266849122210E+03    0.50783E-03   -0.38446E-03  7589   0.152E-01    0.202E-01
RMM:   4    -0.266849569053E+03   -0.44684E-03   -0.35673E-04  7507   0.472E-02    0.329E-01
RMM:   5    -0.266849288265E+03    0.28079E-03   -0.28127E-04  6864   0.397E-02    0.969E-02
RMM:   6    -0.266849448732E+03   -0.16047E-03   -0.97065E-05  6499   0.220E-02    0.211E-01
RMM:   7    -0.266849354421E+03    0.94311E-04   -0.15002E-04  6529   0.295E-02    0.117E-01
RMM:   8    -0.266849362033E+03   -0.76124E-05   -0.88025E-05  6420   0.198E-02
  15 F= -.26684936E+03 E0= -.26684706E+03  d E =-.708395E-03  mag=    19.1080
 trial-energy change:   -0.000708  1 .order   -0.000748   -0.001436   -0.000060
 step:   0.4655(harm=  0.4655)  dis= 0.00364  next Energy=  -266.849403 (dE=-0.750E-03)
 bond charge predicted
       N       E                     dE             d eps       ncg     rms          rms(c)
DAV:   1    -0.266849383203E+03   -0.28782E-04   -0.79984E-04  9088   0.168E-01    0.172E-01
RMM:   2    -0.266850624365E+03   -0.12412E-02   -0.18683E-03  7534   0.875E-02    0.964E-01
RMM:   3    -0.266849447625E+03    0.11767E-02   -0.10352E-03  7119   0.671E-02    0.732E-01
RMM:   4    -0.266848824603E+03    0.62302E-03   -0.15080E-04  7093   0.250E-02    0.522E-01
RMM:   5    -0.266848869010E+03   -0.44408E-04   -0.40396E-05  5528   0.146E-02    0.289E-01
RMM:   6    -0.266849081985E+03   -0.21297E-03   -0.29820E-05  4719   0.135E-02    0.485E-02
RMM:   7    -0.266849339398E+03   -0.25741E-03   -0.25721E-05  4522   0.138E-02    0.145E-01
RMM:   8    -0.266849421771E+03   -0.82373E-04   -0.22846E-05  4432   0.127E-02    0.247E-01
RMM:   9    -0.266849373836E+03    0.47935E-04   -0.13020E-05  4171   0.905E-03    0.282E-01
RMM:  10    -0.266849330686E+03    0.43150E-04   -0.44529E-06  3796   0.510E-03    0.293E-01
RMM:  11    -0.266849314865E+03    0.15821E-04   -0.11790E-06  3202   0.277E-03    0.302E-01
RMM:  12    -0.266849310643E+03    0.42223E-05   -0.29105E-07  2558   0.198E-03
  16 F= -.26684931E+03 E0= -.26684721E+03  d E =-.657005E-03  mag=    19.1070
 curvature:  -1.18 expect dE=-0.357E-02 dE for cont linesearch -0.389E-05
 trial: gam= 0.82123 g(F)=  0.303E-02 g(S)=  0.000E+00 ort =-0.232E-03 (trialstep = 0.450E+00)
 search vector abs. value=  0.137E-01
 bond charge predicted
       N       E                     dE             d eps       ncg     rms          rms(c)
DAV:   1    -0.266846726128E+03    0.25887E-02   -0.40652E-01  8404   0.289E+00    0.501E-01
RMM:   2    -0.266857296807E+03   -0.10571E-01   -0.42099E-02  8948   0.585E-01    0.241E+00
RMM:   3    -0.266850470987E+03    0.68258E-02   -0.75131E-03  7410   0.208E-01    0.176E+00
RMM:   4    -0.266845644536E+03    0.48265E-02   -0.20998E-03  7584   0.970E-02    0.603E-01
RMM:   5    -0.266849001212E+03   -0.33567E-02   -0.54737E-04  6941   0.608E-02    0.729E-02
RMM:   6    -0.266850380922E+03   -0.13797E-02   -0.31480E-04  6474   0.448E-02    0.365E-01
RMM:   7    -0.266850268440E+03    0.11248E-03   -0.29748E-04  6617   0.398E-02    0.321E-01
RMM:   8    -0.266850118101E+03    0.15034E-03   -0.28874E-04  6837   0.331E-02    0.106E-01
RMM:   9    -0.266850681612E+03   -0.56351E-03   -0.77885E-05  5933   0.214E-02    0.444E-01
RMM:  10    -0.266850314668E+03    0.36694E-03   -0.14541E-04  6326   0.286E-02    0.406E-01
RMM:  11    -0.266849992001E+03    0.32267E-03   -0.86344E-05  6286   0.184E-02    0.178E-01
RMM:  12    -0.266850141643E+03   -0.14964E-03   -0.22028E-05  4463   0.118E-02    0.481E-02
RMM:  13    -0.266850309873E+03   -0.16823E-03   -0.22808E-05  4338   0.131E-02    0.155E-01
RMM:  14    -0.266850300444E+03    0.94291E-05   -0.14897E-05  4204   0.977E-03
  17 F= -.26685030E+03 E0= -.26684807E+03  d E =-.989801E-03  mag=    19.1055
 trial-energy change:   -0.000990  1 .order   -0.000975   -0.001278   -0.000672
 step:   0.9487(harm=  0.9487)  dis= 0.00724  next Energy=  -266.850658 (dE=-0.135E-02)
 bond charge predicted
       N       E                     dE             d eps       ncg     rms          rms(c)
DAV:   1    -0.266846211176E+03    0.40987E-02   -0.50008E-01  8332   0.320E+00    0.392E-01
RMM:   2    -0.266852998026E+03   -0.67868E-02   -0.45135E-02  8846   0.615E-01    0.142E+00
RMM:   3    -0.266850269628E+03    0.27284E-02   -0.43419E-03  7436   0.170E-01    0.886E-01
RMM:   4    -0.266849500467E+03    0.76916E-03   -0.21156E-03  7628   0.964E-02    0.437E-01
RMM:   5    -0.266850868796E+03   -0.13683E-02   -0.11615E-03  7217   0.819E-02    0.373E-01
RMM:   6    -0.266850461938E+03    0.40686E-03   -0.36646E-04  7031   0.415E-02    0.905E-02
RMM:   7    -0.266850911341E+03   -0.44940E-03   -0.20545E-04  6932   0.303E-02    0.378E-01
RMM:   8    -0.266850872441E+03    0.38900E-04   -0.19323E-04  6465   0.322E-02    0.426E-01
RMM:   9    -0.266850524444E+03    0.34800E-03   -0.76208E-05  6114   0.194E-02    0.295E-01
RMM:  10    -0.266850462593E+03    0.61851E-04   -0.60926E-05  6297   0.145E-02    0.202E-02
RMM:  11    -0.266850700943E+03   -0.23835E-03   -0.25995E-05  4522   0.133E-02    0.159E-01
RMM:  12    -0.266850735240E+03   -0.34297E-04   -0.22200E-05  4398   0.125E-02    0.219E-01
RMM:  13    -0.266850693151E+03    0.42089E-04   -0.86480E-06  4019   0.719E-03    0.237E-01
RMM:  14    -0.266850709725E+03   -0.16574E-04   -0.22807E-06  3669   0.434E-03    0.306E-01
RMM:  15    -0.266850648530E+03    0.61196E-04   -0.42449E-06  3776   0.555E-03    0.303E-01
RMM:  16    -0.266850657238E+03   -0.87084E-05   -0.84856E-07  3170   0.308E-03
  18 F= -.26685066E+03 E0= -.26684861E+03  d E =-.134660E-02  mag=    19.1049
 curvature:  -2.28 expect dE=-0.704E-02 dE for cont linesearch -0.106E-04
 trial: gam= 0.84222 g(F)=  0.309E-02 g(S)=  0.000E+00 ort = 0.252E-03 (trialstep = 0.550E+00)
 search vector abs. value=  0.132E-01
 bond charge predicted
       N       E                     dE             d eps       ncg     rms          rms(c)
DAV:   1    -0.266845768835E+03    0.48797E-02   -0.53869E-01  8672   0.346E+00    0.555E-01
RMM:   2    -0.266858122837E+03   -0.12354E-01   -0.61824E-02  8986   0.682E-01    0.242E+00
RMM:   3    -0.266851033852E+03    0.70890E-02   -0.88863E-03  7411   0.226E-01    0.165E+00
RMM:   4    -0.266846734822E+03    0.42990E-02   -0.32032E-03  7622   0.118E-01    0.173E-01
RMM:   5    -0.266851299800E+03   -0.45650E-02   -0.98547E-04  6965   0.800E-02    0.342E-01
RMM:   6    -0.266851592800E+03   -0.29300E-03   -0.43564E-04  6723   0.520E-02    0.390E-01
RMM:   7    -0.266851160565E+03    0.43224E-03   -0.56284E-04  7200   0.483E-02    0.892E-02
RMM:   8    -0.266851970570E+03   -0.81001E-03   -0.14125E-04  6766   0.274E-02    0.585E-01
RMM:   9    -0.266851599019E+03    0.37155E-03   -0.25148E-04  6509   0.373E-02    0.599E-01
RMM:  10    -0.266851024992E+03    0.57403E-03   -0.12615E-04  6521   0.233E-02    0.373E-01
RMM:  11    -0.266851090145E+03   -0.65153E-04   -0.96815E-05  6581   0.195E-02    0.300E-02
RMM:  12    -0.266851550087E+03   -0.45994E-03   -0.53269E-05  4745   0.189E-02    0.262E-01
RMM:  13    -0.266851569264E+03   -0.19176E-04   -0.42099E-05  4827   0.168E-02    0.357E-01
RMM:  14    -0.266851505287E+03    0.63977E-04   -0.13105E-05  4106   0.950E-03    0.420E-01
RMM:  15    -0.266851529716E+03   -0.24429E-04   -0.46461E-06  3837   0.629E-03    0.517E-01
RMM:  16    -0.266851461208E+03    0.68508E-04   -0.50955E-06  3877   0.638E-03    0.571E-01
RMM:  17    -0.266851387837E+03    0.73371E-04   -0.29026E-06  3723   0.461E-03    0.600E-01
RMM:  18    -0.266851358040E+03    0.29796E-04   -0.10290E-06  3180   0.287E-03    0.627E-01
RMM:  19    -0.266851345860E+03    0.12180E-04   -0.53214E-07  3025   0.246E-03    0.654E-01
RMM:  20    -0.266851330749E+03    0.15112E-04   -0.43475E-07  2759   0.229E-03    0.676E-01
RMM:  21    -0.266851271824E+03    0.58924E-04   -0.66230E-07  3145   0.248E-03    0.675E-01
RMM:  22    -0.266851219180E+03    0.52644E-04   -0.40750E-07  2404   0.179E-03    0.657E-01
RMM:  23    -0.266851114583E+03    0.10460E-03   -0.37226E-06  3743   0.404E-03    0.590E-01
RMM:  24    -0.266851094448E+03    0.20134E-04   -0.36047E-06  3762   0.428E-03    0.504E-01
RMM:  25    -0.266851114572E+03   -0.20124E-04   -0.50845E-06  3869   0.570E-03    0.397E-01
RMM:  26    -0.266851177737E+03   -0.63165E-04   -0.64130E-06  3949   0.654E-03    0.280E-01
RMM:  27    -0.266851260117E+03   -0.82380E-04   -0.70820E-06  3965   0.696E-03    0.158E-01
RMM:  28    -0.266851346434E+03   -0.86317E-04   -0.68047E-06  3946   0.684E-03    0.500E-02
RMM:  29    -0.266851411179E+03   -0.64745E-04   -0.56793E-06  3860   0.630E-03    0.233E-02
RMM:  30    -0.266851439816E+03   -0.28637E-04   -0.35396E-06  3778   0.506E-03    0.668E-02
RMM:  31    -0.266851437763E+03    0.20523E-05   -0.24782E-06  3665   0.392E-03
  19 F= -.26685144E+03 E0= -.26684905E+03  d E =-.780525E-03  mag=    19.1065
 trial-energy change:   -0.000781  1 .order   -0.000763   -0.001815    0.000288
 step:   0.4744(harm=  0.4744)  dis= 0.00323  next Energy=  -266.851440 (dE=-0.783E-03)
 bond charge predicted
       N       E                     dE             d eps       ncg     rms          rms(c)
DAV:   1    -0.266851349913E+03    0.89902E-04   -0.10083E-02  8912   0.473E-01    0.823E-02
RMM:   2    -0.266851642177E+03   -0.29226E-03   -0.12189E-03  8619   0.952E-02    0.379E-01
RMM:   3    -0.266851455189E+03    0.18699E-03   -0.19936E-04  6719   0.340E-02    0.279E-01
RMM:   4    -0.266851310916E+03    0.14427E-03   -0.64976E-05  6048   0.172E-02    0.871E-02
RMM:   5    -0.266851420813E+03   -0.10990E-03   -0.14180E-05  4343   0.109E-02    0.118E-02
RMM:   6    -0.266851465610E+03   -0.44798E-04   -0.67243E-06  4135   0.761E-03    0.608E-02
RMM:   7    -0.266851463651E+03    0.19591E-05   -0.79866E-06  4086   0.712E-03
  20 F= -.26685146E+03 E0= -.26684909E+03  d E =-.806413E-03  mag=    19.1065
 curvature:  -0.95 expect dE=-0.217E-02 dE for cont linesearch -0.180E-06
 trial: gam= 0.79577 g(F)=  0.229E-02 g(S)=  0.000E+00 ort =-0.500E-04 (trialstep = 0.535E+00)
 search vector abs. value=  0.106E-01
 bond charge predicted
       N       E                     dE             d eps       ncg     rms          rms(c)
DAV:   1    -0.266846145342E+03    0.53203E-02   -0.43496E-01  9244   0.346E+00    0.377E-01
RMM:   2    -0.266851839234E+03   -0.56939E-02   -0.55283E-02  8757   0.627E-01    0.173E-01
RMM:   3    -0.266852251893E+03   -0.41266E-03   -0.28121E-03  7608   0.121E-01    0.135E-01
RMM:   4    -0.266852213399E+03    0.38494E-04   -0.18649E-04  7789   0.307E-02    0.840E-02
RMM:   5    -0.266852200509E+03    0.12889E-04   -0.24110E-05  4672   0.130E-02    0.650E-02
RMM:   6    -0.266852240809E+03   -0.40300E-04   -0.11675E-04  6664   0.237E-02    0.225E-01
RMM:   7    -0.266852133254E+03    0.10755E-03   -0.95256E-05  6360   0.230E-02    0.138E-01
RMM:   8    -0.266852137068E+03   -0.38139E-05   -0.32538E-05  5194   0.127E-02
  21 F= -.26685214E+03 E0= -.26684986E+03  d E =-.673417E-03  mag=    19.1075
 trial-energy change:   -0.000673  1 .order   -0.000775   -0.001204   -0.000347
 step:   0.7507(harm=  0.7507)  dis= 0.00455  next Energy=  -266.852309 (dE=-0.845E-03)
 bond charge predicted
       N       E                     dE             d eps       ncg     rms          rms(c)
DAV:   1    -0.266851260403E+03    0.87285E-03   -0.71046E-02  9328   0.140E+00    0.185E-01
RMM:   2    -0.266852422032E+03   -0.11616E-02   -0.95574E-03  8750   0.264E-01    0.504E-01
RMM:   3    -0.266852055522E+03    0.36651E-03   -0.89773E-04  7357   0.696E-02    0.177E-01
RMM:   4    -0.266852327850E+03   -0.27233E-03   -0.24943E-04  7050   0.349E-02    0.318E-01
RMM:   5    -0.266852277977E+03    0.49873E-04   -0.18842E-04  6574   0.330E-02    0.283E-01
RMM:   6    -0.266852111295E+03    0.16668E-03   -0.47240E-05  5581   0.156E-02    0.171E-01
RMM:   7    -0.266852103064E+03    0.82303E-05   -0.44591E-05  6016   0.133E-02
  22 F= -.26685210E+03 E0= -.26684980E+03  d E =-.639413E-03  mag=    19.1089
 curvature:  -1.76 expect dE=-0.380E-02 dE for cont linesearch -0.856E-06
 trial: gam= 0.80548 g(F)=  0.216E-02 g(S)=  0.000E+00 ort = 0.716E-04 (trialstep = 0.578E+00)
 search vector abs. value=  0.913E-02
 bond charge predicted
       N       E                     dE             d eps       ncg     rms          rms(c)
DAV:   1    -0.266846953859E+03    0.51574E-02   -0.54138E-01  8612   0.336E+00    0.387E-01
RMM:   2    -0.266853422620E+03   -0.64688E-02   -0.54584E-02  8837   0.635E-01    0.963E-01
RMM:   3    -0.266851882566E+03    0.15401E-02   -0.40783E-03  7415   0.156E-01    0.353E-01
RMM:   4    -0.266852673554E+03   -0.79099E-03   -0.10558E-03  7515   0.724E-02    0.643E-01
RMM:   5    -0.266852370022E+03    0.30353E-03   -0.97270E-04  7167   0.714E-02    0.450E-01
RMM:   6    -0.266852039612E+03    0.33041E-03   -0.28745E-04  6948   0.354E-02    0.778E-02
RMM:   7    -0.266852512753E+03   -0.47314E-03   -0.12490E-04  6408   0.261E-02    0.268E-01
RMM:   8    -0.266852422178E+03    0.90575E-04   -0.16645E-04  6547   0.301E-02    0.237E-01
RMM:   9    -0.266852267080E+03    0.15510E-03   -0.64049E-05  6087   0.167E-02    0.554E-02
RMM:  10    -0.266852349690E+03   -0.82610E-04   -0.10349E-05  4312   0.938E-03    0.188E-02
RMM:  11    -0.266852381142E+03   -0.31452E-04   -0.41518E-06  3962   0.613E-03    0.727E-02
RMM:  12    -0.266852381943E+03   -0.80082E-06   -0.38615E-06  3876   0.520E-03
  23 F= -.26685238E+03 E0= -.26685004E+03  d E =-.278878E-03  mag=    19.1104
 trial-energy change:   -0.000279  1 .order   -0.000260   -0.001280    0.000760
 step:   0.3626(harm=  0.3626)  dis= 0.00201  next Energy=  -266.852505 (dE=-0.402E-03)
 bond charge predicted
       N       E                     dE             d eps       ncg     rms          rms(c)
DAV:   1    -0.266851767524E+03    0.61362E-03   -0.75242E-02  8680   0.125E+00    0.140E-01
RMM:   2    -0.266852626222E+03   -0.85870E-03   -0.74576E-03  8664   0.234E-01    0.274E-01
RMM:   3    -0.266852486338E+03    0.13988E-03   -0.54334E-04  7451   0.562E-02    0.587E-02
RMM:   4    -0.266852582068E+03   -0.95730E-04   -0.58823E-05  6018   0.185E-02    0.166E-01
RMM:   5    -0.266852538419E+03    0.43649E-04   -0.51559E-05  5483   0.182E-02    0.951E-02
RMM:   6    -0.266852572251E+03   -0.33832E-04   -0.41027E-05  5471   0.132E-02    0.948E-02
RMM:   7    -0.266852613496E+03   -0.41245E-04   -0.17646E-05  4425   0.115E-02    0.157E-01
RMM:   8    -0.266852525892E+03    0.87603E-04   -0.33611E-05  5034   0.124E-02    0.504E-02
RMM:   9    -0.266852554358E+03   -0.28466E-04   -0.63791E-06  4069   0.643E-03    0.580E-02
RMM:  10    -0.266852574326E+03   -0.19968E-04   -0.73480E-06  3976   0.753E-03    0.660E-02
RMM:  11    -0.266852571317E+03    0.30095E-05   -0.21978E-06  3511   0.352E-03
  24 F= -.26685257E+03 E0= -.26685024E+03  d E =-.468252E-03  mag=    19.1112
 curvature:  -0.75 expect dE=-0.673E-03 dE for cont linesearch -0.266E-07
 trial: gam= 0.42153 g(F)=  0.900E-03 g(S)=  0.000E+00 ort =-0.180E-04 (trialstep = 0.535E+00)
 search vector abs. value=  0.251E-02
 bond charge predicted
       N       E                     dE             d eps       ncg     rms          rms(c)
DAV:   1    -0.266851760711E+03    0.81362E-03   -0.12536E-01  8396   0.158E+00    0.161E-01
RMM:   2    -0.266852981489E+03   -0.12208E-02   -0.11045E-02  8704   0.303E-01    0.279E-01
RMM:   3    -0.266852860864E+03    0.12063E-03   -0.71569E-04  7220   0.714E-02    0.908E-02
RMM:   4    -0.266852954194E+03   -0.93330E-04   -0.73460E-05  6440   0.210E-02    0.135E-01
RMM:   5    -0.266852911997E+03    0.42197E-04   -0.76139E-05  6127   0.208E-02    0.410E-02
RMM:   6    -0.266852972063E+03   -0.60066E-04   -0.16492E-05  4374   0.107E-02    0.137E-01
RMM:   7    -0.266852921703E+03    0.50360E-04   -0.39491E-05  5214   0.154E-02    0.433E-02
RMM:   8    -0.266852959130E+03   -0.37427E-04   -0.15071E-05  4245   0.842E-03    0.934E-02
RMM:   9    -0.266852972173E+03   -0.13043E-04   -0.87540E-06  4129   0.851E-03    0.125E-01
RMM:  10    -0.266852952084E+03    0.20089E-04   -0.35209E-06  3862   0.492E-03    0.120E-01
RMM:  11    -0.266852948954E+03    0.31300E-05   -0.42080E-07  2766   0.205E-03
  25 F= -.26685295E+03 E0= -.26685053E+03  d E =-.377637E-03  mag=    19.1112
 trial-energy change:   -0.000378  1 .order   -0.000339   -0.000477   -0.000201
 step:   0.9237(harm=  0.9237)  dis= 0.00223  next Energy=  -266.852984 (dE=-0.412E-03)
 bond charge predicted
       N       E                     dE             d eps       ncg     rms          rms(c)
DAV:   1    -0.266852412841E+03    0.53924E-03   -0.66287E-02  8464   0.115E+00    0.186E-01
RMM:   2    -0.266853856392E+03   -0.14436E-02   -0.68311E-03  8726   0.234E-01    0.818E-01
RMM:   3    -0.266853001201E+03    0.85519E-03   -0.97510E-04  7173   0.770E-02    0.579E-01
RMM:   4    -0.266852392125E+03    0.60908E-03   -0.36561E-04  6925   0.392E-02    0.112E-01
RMM:   5    -0.266852937743E+03   -0.54562E-03   -0.95269E-05  5866   0.256E-02    0.643E-02
RMM:   6    -0.266853060052E+03   -0.12231E-03   -0.37970E-05  4889   0.168E-02    0.137E-01
RMM:   7    -0.266853008967E+03    0.51086E-04   -0.39087E-05  5414   0.133E-02    0.688E-02
RMM:   8    -0.266853042648E+03   -0.33682E-04   -0.31938E-05  5258   0.111E-02    0.123E-01
RMM:   9    -0.266853064203E+03   -0.21554E-04   -0.15983E-05  4408   0.111E-02    0.176E-01
RMM:  10    -0.266853009698E+03    0.54505E-04   -0.10202E-05  4116   0.765E-03    0.147E-01
RMM:  11    -0.266852992392E+03    0.17306E-04   -0.46411E-06  3680   0.420E-03    0.803E-02
RMM:  12    -0.266853019550E+03   -0.27158E-04   -0.59264E-06  3951   0.533E-03    0.280E-02
RMM:  13    -0.266853053712E+03   -0.34162E-04   -0.47639E-06  3738   0.623E-03    0.754E-02
RMM:  14    -0.266853043416E+03    0.10296E-04   -0.23909E-06  3638   0.432E-03    0.944E-02
RMM:  15    -0.266853040996E+03    0.24201E-05   -0.49995E-07  2658   0.233E-03
  26 F= -.26685304E+03 E0= -.26685060E+03  d E =-.469679E-03  mag=    19.1106
 curvature:  -1.30 expect dE=-0.199E-02 dE for cont linesearch -0.424E-07
 trial: gam= 1.65388 g(F)=  0.153E-02 g(S)=  0.000E+00 ort =-0.905E-05 (trialstep = 0.184E+00)
 search vector abs. value=  0.836E-02
 bond charge predicted
       N       E                     dE             d eps       ncg     rms          rms(c)
DAV:   1    -0.266852729674E+03    0.31374E-03   -0.49613E-02  8508   0.105E+00    0.209E-01
RMM:   2    -0.266854369426E+03   -0.16398E-02   -0.65189E-03  8702   0.223E-01    0.972E-01
RMM:   3    -0.266853197669E+03    0.11718E-02   -0.12463E-03  7183   0.833E-02    0.696E-01
RMM:   4    -0.266852403568E+03    0.79410E-03   -0.38505E-04  6912   0.400E-02    0.239E-01
RMM:   5    -0.266853012130E+03   -0.60856E-03   -0.84046E-05  5893   0.243E-02    0.311E-02
RMM:   6    -0.266853292404E+03   -0.28027E-03   -0.46735E-05  4893   0.186E-02    0.186E-01
RMM:   7    -0.266853249262E+03    0.43142E-04   -0.44177E-05  5246   0.159E-02    0.198E-01
RMM:   8    -0.266853154675E+03    0.94587E-04   -0.18370E-05  4366   0.936E-03    0.118E-01
RMM:   9    -0.266853148421E+03    0.62540E-05   -0.48794E-05  6150   0.127E-02
  27 F= -.26685315E+03 E0= -.26685088E+03  d E =-.107425E-03  mag=    19.1092
 trial-energy change:   -0.000107  1 .order   -0.000205   -0.000279   -0.000131
 step:   0.3461(harm=  0.3461)  dis= 0.00148  next Energy=  -266.853304 (dE=-0.263E-03)
 bond charge predicted
       N       E                     dE             d eps       ncg     rms          rms(c)
DAV:   1    -0.266852895448E+03    0.25923E-03   -0.38575E-02  8648   0.931E-01    0.256E-01
RMM:   2    -0.266855204533E+03   -0.23091E-02   -0.64754E-03  8617   0.220E-01    0.127E+00
RMM:   3    -0.266853145933E+03    0.20586E-02   -0.19616E-03  7258   0.974E-02    0.879E-01
RMM:   4    -0.266852013356E+03    0.11326E-02   -0.42610E-04  6949   0.422E-02    0.372E-01
RMM:   5    -0.266852747230E+03   -0.73387E-03   -0.14815E-04  6751   0.300E-02    0.916E-02
RMM:   6    -0.266853403294E+03   -0.65606E-03   -0.11434E-04  5610   0.267E-02    0.377E-01
RMM:   7    -0.266853381489E+03    0.21805E-04   -0.79736E-05  5441   0.223E-02    0.484E-01
RMM:   8    -0.266853133653E+03    0.24784E-03   -0.51799E-05  5512   0.159E-02    0.457E-01
RMM:   9    -0.266852976460E+03    0.15719E-03   -0.22540E-05  4510   0.953E-03    0.341E-01
RMM:  10    -0.266852992360E+03   -0.15901E-04   -0.49161E-05  6174   0.129E-02    0.731E-02
RMM:  11    -0.266853276811E+03   -0.28445E-03   -0.27129E-05  4544   0.136E-02    0.168E-01
RMM:  12    -0.266853351342E+03   -0.74531E-04   -0.29847E-05  4492   0.146E-02    0.276E-01
RMM:  13    -0.266853239401E+03    0.11194E-03   -0.18319E-05  4394   0.103E-02    0.296E-01
RMM:  14    -0.266853173306E+03    0.66095E-04   -0.46830E-06  3743   0.502E-03    0.289E-01
RMM:  15    -0.266853093131E+03    0.80176E-04   -0.66931E-06  3961   0.505E-03    0.217E-01
RMM:  16    -0.266853051564E+03    0.41567E-04   -0.18843E-05  4520   0.821E-03    0.438E-02
RMM:  17    -0.266853168625E+03   -0.11706E-03   -0.10038E-05  3936   0.860E-03    0.560E-02
RMM:  18    -0.266853215769E+03   -0.47144E-04   -0.17009E-05  4308   0.967E-03    0.191E-02
RMM:  19    -0.266853238477E+03   -0.22708E-04   -0.60794E-06  3695   0.464E-03    0.567E-02
RMM:  20    -0.266853242009E+03   -0.35322E-05   -0.19518E-06  3344   0.379E-03
  28 F= -.26685324E+03 E0= -.26685078E+03  d E =-.201014E-03  mag=    19.1078
 curvature:  -0.95 expect dE=-0.479E-03 dE for cont linesearch -0.131E-04
 trial: gam= 0.04953 g(F)=  0.502E-03 g(S)=  0.000E+00 ort = 0.339E-03 (trialstep = 0.216E+00)
 search vector abs. value=  0.556E-03
 reached required accuracy - stopping structural energy minimisation
