unknown system                          
           1
     2.873573   -2.873573    4.708335
     5.747147    0.000000    0.000000
     0.000000   33.065691   20.180529
   Mn   O    H 
  12  20   8
Direct configuration=     1
   0.22067121  0.89240241  0.08901558
   0.67472834  0.16920915  0.21857834
   0.94927612  0.02809995  0.15233499
   0.39404001  0.31148326  0.28414928
   0.44927612  0.52809995  0.15233499
   0.90142380  0.31169881  0.28431579
   0.44927612  0.02809995  0.15233499
   0.90281842  0.80574820  0.28440440
   0.90282244  0.55132680  0.10484543
   0.35520557  0.83299807  0.23388322
   0.99461731  0.50545153  0.20266758
   0.53851998  0.23347802  0.07318573
   0.77772301  0.61232181  0.31660012
   0.87926422  0.06310591  0.05527763
   0.33985856  0.33261686  0.18322105
   0.58246139  0.21150732  0.12452493
   0.03815081  0.48313027  0.25557092
   0.09516526  0.72856013  0.12156099
   0.54985293  0.45743293  0.25289037
   0.75052856  0.14077550  0.31376856
   0.85888103  0.57329750  0.05350623
   0.31205644  0.84735688  0.18086478
   0.56207820  0.72169891  0.12275353
   0.00926787  0.01395672  0.25372562
   0.79732201  0.33054950  0.18428031
   0.25322067  0.63443418  0.31261568
   0.34617716  0.60305419  0.05647018
   0.24134261  0.16022254  0.31502030
   0.79879099  0.87983225  0.18489673
   0.34617716  0.05624469  0.05647018
   0.55326447  0.00686083  0.25369384
   0.09516526  0.18175063  0.12156099
   0.34047062  0.60391201  0.02782883
   0.92434681  0.68523651  0.03696881
   0.34363348  0.06399961  0.02783421
   0.88838126  0.05560908  0.02665597
   0.77906163  0.13439826  0.33845118
   0.88744557  0.54394235  0.33624609
   0.25310538  0.57898161  0.33634466
   0.31943697  0.96737032  0.31559401
Direct configuration=     2
   0.22067121  0.89240241  0.08901558
   0.67496957  0.16871874  0.21858176
   0.94927612  0.02809995  0.15233499
   0.39459098  0.31119999  0.28389429
   0.44927612  0.52809995  0.15233499
   0.90149670  0.31157917  0.28427522
   0.44927612  0.02809995  0.15233499
   0.90250519  0.80635652  0.28438190
   0.90282244  0.55132680  0.10484543
   0.35497951  0.83315582  0.23389350
   0.99510462  0.50518412  0.20266445
   0.53851998  0.23347802  0.07318573
   0.77760552  0.61263889  0.31663442
   0.87926422  0.06310591  0.05527763
   0.34062823  0.33086917  0.18306603
   0.58246139  0.21150732  0.12452493
   0.03855976  0.48248796  0.25557033
   0.09516526  0.72856013  0.12156099
   0.54929687  0.45633934  0.25298892
   0.75064993  0.14068374  0.31372541
   0.85888103  0.57329750  0.05350623
   0.31259183  0.84785925  0.18071335
   0.56207820  0.72169891  0.12275353
   0.00873288  0.01425915  0.25373114
   0.79791595  0.32872011  0.18408738
   0.25294575  0.63420865  0.31255731
   0.34617716  0.60305419  0.05647018
   0.24201658  0.16052940  0.31501485
   0.79903152  0.88075141  0.18476899
   0.34617716  0.05624469  0.05647018
   0.55344082  0.00733851  0.25376880
   0.09516526  0.18175063  0.12156099
   0.34047062  0.60391201  0.02782883
   0.92434681  0.68523651  0.03696881
   0.34363348  0.06399961  0.02783421
   0.88838126  0.05560908  0.02665597
   0.77883691  0.13486336  0.33844022
   0.88752589  0.54390889  0.33625284
   0.25351026  0.57870780  0.33634093
   0.31942855  0.96737554  0.31555426
Direct configuration=     3
   0.22067121  0.89240241  0.08901558
   0.67497662  0.16870441  0.21858186
   0.94927612  0.02809995  0.15233499
   0.39460707  0.31119172  0.28388684
   0.44927612  0.52809995  0.15233499
   0.90149883  0.31157567  0.28427403
   0.44927612  0.02809995  0.15233499
   0.90249605  0.80637429  0.28438124
   0.90282244  0.55132680  0.10484543
   0.35497291  0.83316043  0.23389380
   0.99511885  0.50517631  0.20266436
   0.53851998  0.23347802  0.07318573
   0.77760209  0.61264815  0.31663542
   0.87926422  0.06310591  0.05527763
   0.34065071  0.33081812  0.18306150
   0.58246139  0.21150732  0.12452493
   0.03857171  0.48246920  0.25557031
   0.09516526  0.72856013  0.12156099
   0.54928063  0.45630740  0.25299179
   0.75065348  0.14068106  0.31372415
   0.85888103  0.57329750  0.05350623
   0.31260747  0.84787393  0.18070893
   0.56207820  0.72169891  0.12275353
   0.00871726  0.01426798  0.25373130
   0.79793330  0.32866668  0.18408174
   0.25293772  0.63420206  0.31255561
   0.34617716  0.60305419  0.05647018
   0.24203626  0.16053836  0.31501469
   0.79903855  0.88077825  0.18476526
   0.34617716  0.05624469  0.05647018
   0.55344597  0.00735246  0.25377099
   0.09516526  0.18175063  0.12156099
   0.34047062  0.60391201  0.02782883
   0.92434681  0.68523651  0.03696881
   0.34363348  0.06399961  0.02783421
   0.88838126  0.05560908  0.02665597
   0.77883035  0.13487694  0.33843990
   0.88752823  0.54390791  0.33625304
   0.25352209  0.57869980  0.33634082
   0.31942831  0.96737569  0.31555310
Direct configuration=     4
   0.22067121  0.89240241  0.08901558
   0.67543450  0.16813071  0.21851433
   0.94927612  0.02809995  0.15233499
   0.39391427  0.31141738  0.28388433
   0.44927612  0.52809995  0.15233499
   0.90159218  0.31189324  0.28434348
   0.44927612  0.02809995  0.15233499
   0.90245953  0.80620494  0.28441752
   0.90282244  0.55132680  0.10484543
   0.35484258  0.83321820  0.23390018
   0.99544668  0.50486979  0.20259129
   0.53851998  0.23347802  0.07318573
   0.77753152  0.61285659  0.31661393
   0.87926422  0.06310591  0.05527763
   0.34092300  0.32976452  0.18299851
   0.58246139  0.21150732  0.12452493
   0.03876489  0.48208812  0.25553157
   0.09516526  0.72856013  0.12156099
   0.54888581  0.45613716  0.25294001
   0.75090926  0.14076392  0.31373409
   0.85888103  0.57329750  0.05350623
   0.31312541  0.84795635  0.18068518
   0.56207820  0.72169891  0.12275353
   0.00838442  0.01437513  0.25367256
   0.79854612  0.32773951  0.18399095
   0.25269470  0.63373908  0.31251957
   0.34617716  0.60305419  0.05647018
   0.24311596  0.16020207  0.31495764
   0.79959172  0.88060672  0.18471940
   0.34617716  0.05624469  0.05647018
   0.55383952  0.00672149  0.25373512
   0.09516526  0.18175063  0.12156099
   0.34047062  0.60391201  0.02782883
   0.92434681  0.68523651  0.03696881
   0.34363348  0.06399961  0.02783421
   0.88838126  0.05560908  0.02665597
   0.77847194  0.13547442  0.33836257
   0.88771678  0.54385816  0.33626060
   0.25407246  0.57843466  0.33623319
   0.31916659  0.96807430  0.31550574
Direct configuration=     5
   0.22067121  0.89240241  0.08901558
   0.67536497  0.16821784  0.21852459
   0.94927612  0.02809995  0.15233499
   0.39401948  0.31138311  0.28388471
   0.44927612  0.52809995  0.15233499
   0.90157800  0.31184502  0.28433293
   0.44927612  0.02809995  0.15233499
   0.90246508  0.80623066  0.28441201
   0.90282244  0.55132680  0.10484543
   0.35486237  0.83320943  0.23389921
   0.99539689  0.50491634  0.20260239
   0.53851998  0.23347802  0.07318573
   0.77754223  0.61282493  0.31661720
   0.87926422  0.06310591  0.05527763
   0.34088165  0.32992453  0.18300807
   0.58246139  0.21150732  0.12452493
   0.03873556  0.48214599  0.25553745
   0.09516526  0.72856013  0.12156099
   0.54894577  0.45616301  0.25294787
   0.75087042  0.14075134  0.31373258
   0.85888103  0.57329750  0.05350623
   0.31304675  0.84794384  0.18068879
   0.56207820  0.72169891  0.12275353
   0.00843497  0.01435886  0.25368148
   0.79845306  0.32788032  0.18400474
   0.25273161  0.63380939  0.31252505
   0.34617716  0.60305419  0.05647018
   0.24295199  0.16025314  0.31496630
   0.79950771  0.88063277  0.18472636
   0.34617716  0.05624469  0.05647018
   0.55377975  0.00681732  0.25374057
   0.09516526  0.18175063  0.12156099
   0.34047062  0.60391201  0.02782883
   0.92434681  0.68523651  0.03696881
   0.34363348  0.06399961  0.02783421
   0.88838126  0.05560908  0.02665597
   0.77852637  0.13538368  0.33837431
   0.88768815  0.54386571  0.33625945
   0.25398888  0.57847493  0.33624954
   0.31920633  0.96796820  0.31551293
Direct configuration=     6
   0.22067121  0.89240241  0.08901558
   0.67568130  0.16782664  0.21848956
   0.94927612  0.02809995  0.15233499
   0.39367312  0.31141983  0.28386657
   0.44927612  0.52809995  0.15233499
   0.90164857  0.31193842  0.28436110
   0.44927612  0.02809995  0.15233499
   0.90245778  0.80612976  0.28442310
   0.90282244  0.55132680  0.10484543
   0.35477385  0.83322664  0.23390306
   0.99560373  0.50466155  0.20254151
   0.53851998  0.23347802  0.07318573
   0.77764400  0.61285116  0.31663971
   0.87926422  0.06310591  0.05527763
   0.34097739  0.32941893  0.18298479
   0.58246139  0.21150732  0.12452493
   0.03881180  0.48191453  0.25550816
   0.09516526  0.72856013  0.12156099
   0.54867630  0.45612851  0.25288979
   0.75098652  0.14089010  0.31366929
   0.85888103  0.57329750  0.05350623
   0.31339957  0.84785656  0.18069797
   0.56207820  0.72169891  0.12275353
   0.00820225  0.01447181  0.25364790
   0.79885627  0.32748367  0.18396329
   0.25253082  0.63368260  0.31243777
   0.34617716  0.60305419  0.05647018
   0.24337550  0.16058970  0.31493340
   0.79997816  0.88023429  0.18470557
   0.34617716  0.05624469  0.05647018
   0.55406645  0.00630064  0.25370662
   0.09516526  0.18175063  0.12156099
   0.34047062  0.60391201  0.02782883
   0.92434681  0.68523651  0.03696881
   0.34363348  0.06399961  0.02783421
   0.88838126  0.05560908  0.02665597
   0.77831682  0.13583926  0.33838861
   0.88767145  0.54394865  0.33623838
   0.25442764  0.57811539  0.33622792
   0.31930228  0.96786730  0.31547552
Direct configuration=     7
   0.22067121  0.89240241  0.08901558
   0.67575919  0.16773031  0.21848093
   0.94927612  0.02809995  0.15233499
   0.39358783  0.31142887  0.28386211
   0.44927612  0.52809995  0.15233499
   0.90166594  0.31196141  0.28436803
   0.44927612  0.02809995  0.15233499
   0.90245598  0.80610492  0.28442583
   0.90282244  0.55132680  0.10484543
   0.35475206  0.83323088  0.23390401
   0.99565466  0.50459882  0.20252652
   0.53851998  0.23347802  0.07318573
   0.77766905  0.61285761  0.31664526
   0.87926422  0.06310591  0.05527763
   0.34100096  0.32929444  0.18297906
   0.58246139  0.21150732  0.12452493
   0.03883057  0.48185754  0.25550094
   0.09516526  0.72856013  0.12156099
   0.54860995  0.45612002  0.25287548
   0.75101511  0.14092427  0.31365370
   0.85888103  0.57329750  0.05350623
   0.31348644  0.84783507  0.18070023
   0.56207820  0.72169891  0.12275353
   0.00814495  0.01449963  0.25363963
   0.79895556  0.32738600  0.18395309
   0.25248138  0.63365138  0.31241628
   0.34617716  0.60305419  0.05647018
   0.24347978  0.16067257  0.31492530
   0.80009400  0.88013617  0.18470045
   0.34617716  0.05624469  0.05647018
   0.55413704  0.00617342  0.25369826
   0.09516526  0.18175063  0.12156099
   0.34047062  0.60391201  0.02782883
   0.92434681  0.68523651  0.03696881
   0.34363348  0.06399961  0.02783421
   0.88838126  0.05560908  0.02665597
   0.77826522  0.13595143  0.33839213
   0.88766734  0.54396908  0.33623320
   0.25453568  0.57802687  0.33622260
   0.31932590  0.96784246  0.31546631
Direct configuration=     8
   0.22067121  0.89240241  0.08901558
   0.67602846  0.16738755  0.21847062
   0.94927612  0.02809995  0.15233499
   0.39363559  0.31126340  0.28377808
   0.44927612  0.52809995  0.15233499
   0.90173592  0.31190975  0.28434729
   0.44927612  0.02809995  0.15233499
   0.90244001  0.80606225  0.28440305
   0.90282244  0.55132680  0.10484543
   0.35465992  0.83322059  0.23390713
   0.99584530  0.50429669  0.20246956
   0.53851998  0.23347802  0.07318573
   0.77762618  0.61294810  0.31666041
   0.87926422  0.06310591  0.05527763
   0.34105346  0.32907462  0.18297494
   0.58246139  0.21150732  0.12452493
   0.03882202  0.48168238  0.25547483
   0.09516526  0.72856013  0.12156099
   0.54836305  0.45607492  0.25280650
   0.75114696  0.14111677  0.31364412
   0.85888103  0.57329750  0.05350623
   0.31379906  0.84760055  0.18072724
   0.56207820  0.72169891  0.12275353
   0.00792707  0.01465231  0.25362376
   0.79926109  0.32723603  0.18393357
   0.25227338  0.63360149  0.31237055
   0.34617716  0.60305419  0.05647018
   0.24376343  0.16076289  0.31492116
   0.80058916  0.87956933  0.18468693
   0.34617716  0.05624469  0.05647018
   0.55438778  0.00571489  0.25366865
   0.09516526  0.18175063  0.12156099
   0.34047062  0.60391201  0.02782883
   0.92434681  0.68523651  0.03696881
   0.34363348  0.06399961  0.02783421
   0.88838126  0.05560908  0.02665597
   0.77797878  0.13645648  0.33836710
   0.88777450  0.54400534  0.33623717
   0.25500201  0.57771513  0.33616946
   0.31943797  0.96783860  0.31542224
Direct configuration=     9
   0.22067121  0.89240241  0.08901558
   0.67626532  0.16708604  0.21846154
   0.94927612  0.02809995  0.15233499
   0.39367760  0.31111785  0.28370417
   0.44927612  0.52809995  0.15233499
   0.90179748  0.31186430  0.28432904
   0.44927612  0.02809995  0.15233499
   0.90242596  0.80602471  0.28438301
   0.90282244  0.55132680  0.10484543
   0.35457888  0.83321153  0.23390988
   0.99601300  0.50403093  0.20241946
   0.53851998  0.23347802  0.07318573
   0.77758847  0.61302769  0.31667374
   0.87926422  0.06310591  0.05527763
   0.34109963  0.32888126  0.18297133
   0.58246139  0.21150732  0.12452493
   0.03881451  0.48152831  0.25545186
   0.09516526  0.72856013  0.12156099
   0.54814587  0.45603526  0.25274581
   0.75126294  0.14128610  0.31363569
   0.85888103  0.57329750  0.05350623
   0.31407406  0.84739426  0.18075101
   0.56207820  0.72169891  0.12275353
   0.00773542  0.01478661  0.25360979
   0.79952986  0.32710412  0.18391640
   0.25209041  0.63355761  0.31233033
   0.34617716  0.60305419  0.05647018
   0.24401294  0.16084234  0.31491751
   0.80102472  0.87907071  0.18467504
   0.34617716  0.05624469  0.05647018
   0.55460833  0.00531155  0.25364261
   0.09516526  0.18175063  0.12156099
   0.34047062  0.60391201  0.02782883
   0.92434681  0.68523651  0.03696881
   0.34363348  0.06399961  0.02783421
   0.88838126  0.05560908  0.02665597
   0.77772681  0.13690074  0.33834509
   0.88786875  0.54403724  0.33624067
   0.25541221  0.57744092  0.33612272
   0.31953655  0.96783521  0.31538349
Direct configuration=    10
   0.22067121  0.89240241  0.08901558
   0.67673905  0.16648303  0.21844339
   0.94927612  0.02809995  0.15233499
   0.39376162  0.31082675  0.28355635
   0.44927612  0.52809995  0.15233499
   0.90192059  0.31177341  0.28429255
   0.44927612  0.02809995  0.15233499
   0.90239786  0.80594964  0.28434293
   0.90282244  0.55132680  0.10484543
   0.35441680  0.83319343  0.23391538
   0.99634839  0.50349941  0.20231926
   0.53851998  0.23347802  0.07318573
   0.77751305  0.61318688  0.31670041
   0.87926422  0.06310591  0.05527763
   0.34119198  0.32849454  0.18296409
   0.58246139  0.21150732  0.12452493
   0.03879947  0.48122017  0.25540592
   0.09516526  0.72856013  0.12156099
   0.54771151  0.45595592  0.25262444
   0.75149489  0.14162476  0.31361884
   0.85888103  0.57329750  0.05350623
   0.31462404  0.84698168  0.18079854
   0.56207820  0.72169891  0.12275353
   0.00735212  0.01505521  0.25358186
   0.80006738  0.32684029  0.18388206
   0.25172448  0.63346984  0.31224988
   0.34617716  0.60305419  0.05647018
   0.24451196  0.16100124  0.31491023
   0.80189584  0.87807349  0.18465125
   0.34617716  0.05624469  0.05647018
   0.55504944  0.00450486  0.25359052
   0.09516526  0.18175063  0.12156099
   0.34047062  0.60391201  0.02782883
   0.92434681  0.68523651  0.03696881
   0.34363348  0.06399961  0.02783421
   0.88838126  0.05560908  0.02665597
   0.77722288  0.13778925  0.33830106
   0.88805726  0.54410103  0.33624766
   0.25623261  0.57689250  0.33602922
   0.31973371  0.96782843  0.31530597
Direct configuration=    11
   0.22067121  0.89240241  0.08901558
   0.67708591  0.16607936  0.21842028
   0.94927612  0.02809995  0.15233499
   0.39392307  0.31064757  0.28345530
   0.44927612  0.52809995  0.15233499
   0.90192384  0.31188233  0.28426986
   0.44927612  0.02809995  0.15233499
   0.90233710  0.80592371  0.28431929
   0.90282244  0.55132680  0.10484543
   0.35422908  0.83318882  0.23392036
   0.99661522  0.50306625  0.20228825
   0.53851998  0.23347802  0.07318573
   0.77750578  0.61309339  0.31672037
   0.87926422  0.06310591  0.05527763
   0.34142007  0.32841046  0.18296586
   0.58246139  0.21150732  0.12452493
   0.03878143  0.48092198  0.25535015
   0.09516526  0.72856013  0.12156099
   0.54753399  0.45580790  0.25253435
   0.75151099  0.14191975  0.31356155
   0.85888103  0.57329750  0.05350623
   0.31491986  0.84666436  0.18082213
   0.56207820  0.72169891  0.12275353
   0.00727403  0.01522826  0.25354985
   0.80018287  0.32668891  0.18387855
   0.25157891  0.63344605  0.31217291
   0.34617716  0.60305419  0.05647018
   0.24487801  0.16058239  0.31490625
   0.80231874  0.87767701  0.18463785
   0.34617716  0.05624469  0.05647018
   0.55533056  0.00405934  0.25356011
   0.09516526  0.18175063  0.12156099
   0.34047062  0.60391201  0.02782883
   0.92434681  0.68523651  0.03696881
   0.34363348  0.06399961  0.02783421
   0.88838126  0.05560908  0.02665597
   0.77688362  0.13846902  0.33831599
   0.88817494  0.54417828  0.33624929
   0.25681797  0.57647763  0.33596570
   0.31978012  0.96818031  0.31525094
Direct configuration=    12
   0.22067121  0.89240241  0.08901558
   0.67716646  0.16598562  0.21841492
   0.94927612  0.02809995  0.15233499
   0.39396056  0.31060597  0.28343183
   0.44927612  0.52809995  0.15233499
   0.90192460  0.31190763  0.28426459
   0.44927612  0.02809995  0.15233499
   0.90232299  0.80591769  0.28431380
   0.90282244  0.55132680  0.10484543
   0.35418549  0.83318775  0.23392151
   0.99667718  0.50296567  0.20228104
   0.53851998  0.23347802  0.07318573
   0.77750410  0.61307168  0.31672500
   0.87926422  0.06310591  0.05527763
   0.34147304  0.32839094  0.18296627
   0.58246139  0.21150732  0.12452493
   0.03877724  0.48085274  0.25533720
   0.09516526  0.72856013  0.12156099
   0.54749277  0.45577353  0.25251342
   0.75151473  0.14198826  0.31354825
   0.85888103  0.57329750  0.05350623
   0.31498856  0.84659067  0.18082760
   0.56207820  0.72169891  0.12275353
   0.00725590  0.01526844  0.25354242
   0.80020969  0.32665376  0.18387774
   0.25154510  0.63344053  0.31215503
   0.34617716  0.60305419  0.05647018
   0.24496301  0.16048513  0.31490532
   0.80241695  0.87758494  0.18463474
   0.34617716  0.05624469  0.05647018
   0.55539584  0.00395588  0.25355305
   0.09516526  0.18175063  0.12156099
   0.34047062  0.60391201  0.02782883
   0.92434681  0.68523651  0.03696881
   0.34363348  0.06399961  0.02783421
   0.88838126  0.05560908  0.02665597
   0.77680484  0.13862687  0.33831946
   0.88820227  0.54419621  0.33624966
   0.25695390  0.57638129  0.33595095
   0.31979090  0.96826202  0.31523816
Direct configuration=    13
   0.22067121  0.89240241  0.08901558
   0.67747559  0.16562494  0.21838369
   0.94927612  0.02809995  0.15233499
   0.39408093  0.31045967  0.28336214
   0.44927612  0.52809995  0.15233499
   0.90186430  0.31213984  0.28425687
   0.44927612  0.02809995  0.15233499
   0.90226851  0.80587224  0.28430042
   0.90282244  0.55132680  0.10484543
   0.35400556  0.83314567  0.23392760
   0.99693755  0.50253304  0.20228053
   0.53851998  0.23347802  0.07318573
   0.77749991  0.61298713  0.31671027
   0.87926422  0.06310591  0.05527763
   0.34184349  0.32842574  0.18297121
   0.58246139  0.21150732  0.12452493
   0.03870821  0.48071724  0.25528621
   0.09516526  0.72856013  0.12156099
   0.54745802  0.45556022  0.25242228
   0.75149134  0.14217240  0.31351572
   0.85888103  0.57329750  0.05350623
   0.31516932  0.84633010  0.18083257
   0.56207820  0.72169891  0.12275353
   0.00726417  0.01525916  0.25351481
   0.80009888  0.32651771  0.18388663
   0.25156028  0.63332913  0.31207438
   0.34617716  0.60305419  0.05647018
   0.24501466  0.16054346  0.31488568
   0.80264354  0.87749277  0.18462119
   0.34617716  0.05624469  0.05647018
   0.55563676  0.00364280  0.25352445
   0.09516526  0.18175063  0.12156099
   0.34047062  0.60391201  0.02782883
   0.92434681  0.68523651  0.03696881
   0.34363348  0.06399961  0.02783421
   0.88838126  0.05560908  0.02665597
   0.77643004  0.13931468  0.33829795
   0.88839533  0.54425442  0.33625973
   0.25751786  0.57600227  0.33587152
   0.32008736  0.96806480  0.31518820
Direct configuration=    14
   0.22067121  0.89240241  0.08901558
   0.67795110  0.16507012  0.21833565
   0.94927612  0.02809995  0.15233499
   0.39426610  0.31023464  0.28325494
   0.44927612  0.52809995  0.15233499
   0.90177155  0.31249704  0.28424499
   0.44927612  0.02809995  0.15233499
   0.90218469  0.80580233  0.28427982
   0.90282244  0.55132680  0.10484543
   0.35372878  0.83308093  0.23393697
   0.99733807  0.50186757  0.20227974
   0.53851998  0.23347802  0.07318573
   0.77749347  0.61285709  0.31668761
   0.87926422  0.06310591  0.05527763
   0.34241332  0.32847927  0.18297882
   0.58246139  0.21150732  0.12452493
   0.03860203  0.48050880  0.25520777
   0.09516526  0.72856013  0.12156099
   0.54740458  0.45523209  0.25228208
   0.75145535  0.14245567  0.31346569
   0.85888103  0.57329750  0.05350623
   0.31544738  0.84592928  0.18084020
   0.56207820  0.72169891  0.12275353
   0.00727689  0.01524489  0.25347235
   0.79992842  0.32630843  0.18390031
   0.25158363  0.63315777  0.31195032
   0.34617716  0.60305419  0.05647018
   0.24509411  0.16063320  0.31485547
   0.80299209  0.87735099  0.18460035
   0.34617716  0.05624469  0.05647018
   0.55600734  0.00316119  0.25348045
   0.09516526  0.18175063  0.12156099
   0.34047062  0.60391201  0.02782883
   0.92434681  0.68523651  0.03696881
   0.34363348  0.06399961  0.02783421
   0.88838126  0.05560908  0.02665597
   0.77585352  0.14037269  0.33826487
   0.88869229  0.54434395  0.33627520
   0.25838537  0.57541924  0.33574933
   0.32054340  0.96776144  0.31511135
Direct configuration=    15
   0.22067121  0.89240241  0.08901558
   0.67821262  0.16469506  0.21830794
   0.94927612  0.02809995  0.15233499
   0.39431323  0.31008445  0.28319696
   0.44927612  0.52809995  0.15233499
   0.90173356  0.31254903  0.28422208
   0.44927612  0.02809995  0.15233499
   0.90217924  0.80578846  0.28425779
   0.90282244  0.55132680  0.10484543
   0.35360747  0.83295401  0.23394146
   0.99758245  0.50143328  0.20228233
   0.53851998  0.23347802  0.07318573
   0.77780736  0.61268473  0.31671598
   0.87926422  0.06310591  0.05527763
   0.34284233  0.32850637  0.18298797
   0.58246139  0.21150732  0.12452493
   0.03848870  0.48055618  0.25517440
   0.09516526  0.72856013  0.12156099
   0.54748781  0.45494546  0.25218412
   0.75140415  0.14255856  0.31346236
   0.85888103  0.57329750  0.05350623
   0.31552490  0.84583507  0.18082603
   0.56207820  0.72169891  0.12275353
   0.00724635  0.01514585  0.25346490
   0.79976359  0.32622218  0.18390402
   0.25177888  0.63291761  0.31185657
   0.34617716  0.60305419  0.05647018
   0.24518508  0.16050914  0.31480895
   0.80318705  0.87725110  0.18457864
   0.34617716  0.05624469  0.05647018
   0.55622118  0.00287649  0.25344792
   0.09516526  0.18175063  0.12156099
   0.34047062  0.60391201  0.02782883
   0.92434681  0.68523651  0.03696881
   0.34363348  0.06399961  0.02783421
   0.88838126  0.05560908  0.02665597
   0.77533463  0.14123918  0.33819063
   0.88863841  0.54461328  0.33622749
   0.25906723  0.57500818  0.33562693
   0.32085936  0.96765548  0.31505347
Direct configuration=    16
   0.22067121  0.89240241  0.08901558
   0.67822406  0.16467864  0.21830673
   0.94927612  0.02809995  0.15233499
   0.39431530  0.31007787  0.28319443
   0.44927612  0.52809995  0.15233499
   0.90173190  0.31255131  0.28422108
   0.44927612  0.02809995  0.15233499
   0.90217900  0.80578785  0.28425683
   0.90282244  0.55132680  0.10484543
   0.35360216  0.83294846  0.23394165
   0.99759315  0.50141427  0.20228245
   0.53851998  0.23347802  0.07318573
   0.77782110  0.61267718  0.31671722
   0.87926422  0.06310591  0.05527763
   0.34286111  0.32850756  0.18298838
   0.58246139  0.21150732  0.12452493
   0.03848374  0.48055825  0.25517294
   0.09516526  0.72856013  0.12156099
   0.54749145  0.45493292  0.25217983
   0.75140191  0.14256307  0.31346221
   0.85888103  0.57329750  0.05350623
   0.31552829  0.84583095  0.18082541
   0.56207820  0.72169891  0.12275353
   0.00724501  0.01514151  0.25346457
   0.79975638  0.32621840  0.18390418
   0.25178743  0.63290709  0.31185247
   0.34617716  0.60305419  0.05647018
   0.24518906  0.16050371  0.31480691
   0.80319558  0.87724672  0.18457769
   0.34617716  0.05624469  0.05647018
   0.55623054  0.00286403  0.25344650
   0.09516526  0.18175063  0.12156099
   0.34047062  0.60391201  0.02782883
   0.92434681  0.68523651  0.03696881
   0.34363348  0.06399961  0.02783421
   0.88838126  0.05560908  0.02665597
   0.77531191  0.14127711  0.33818738
   0.88863605  0.54462507  0.33622540
   0.25909708  0.57499019  0.33562157
   0.32087319  0.96765084  0.31505093
Direct configuration=    17
   0.22067121  0.89240241  0.08901558
   0.67833283  0.16440330  0.21829086
   0.94927612  0.02809995  0.15233499
   0.39430619  0.30993566  0.28315575
   0.44927612  0.52809995  0.15233499
   0.90171298  0.31237995  0.28419284
   0.44927612  0.02809995  0.15233499
   0.90221092  0.80581611  0.28423890
   0.90282244  0.55132680  0.10484543
   0.35361093  0.83274547  0.23393975
   0.99773314  0.50112676  0.20227740
   0.53851998  0.23347802  0.07318573
   0.77795863  0.61276059  0.31669718
   0.87926422  0.06310591  0.05527763
   0.34316753  0.32847722  0.18300177
   0.58246139  0.21150732  0.12452493
   0.03835708  0.48079804  0.25517349
   0.09516526  0.72856013  0.12156099
   0.54767121  0.45465165  0.25210812
   0.75127280  0.14254155  0.31339963
   0.85888103  0.57329750  0.05350623
   0.31545484  0.84598421  0.18079968
   0.56207820  0.72169891  0.12275353
   0.00717227  0.01496866  0.25348255
   0.79964589  0.32622743  0.18389702
   0.25212670  0.63266045  0.31174231
   0.34617716  0.60305419  0.05647018
   0.24530145  0.16023655  0.31474170
   0.80333517  0.87706721  0.18455407
   0.34617716  0.05624469  0.05647018
   0.55633091  0.00267516  0.25342051
   0.09516526  0.18175063  0.12156099
   0.34047062  0.60391201  0.02782883
   0.92434681  0.68523651  0.03696881
   0.34363348  0.06399961  0.02783421
   0.88838126  0.05560908  0.02665597
   0.77484719  0.14210644  0.33815755
   0.88878005  0.54477949  0.33620636
   0.25973889  0.57459192  0.33551226
   0.32113391  0.96764648  0.31499909
Direct configuration=    18
   0.22067121  0.89240241  0.08901558
   0.67845345  0.16409795  0.21827327
   0.94927612  0.02809995  0.15233499
   0.39429608  0.30977794  0.28311285
   0.44927612  0.52809995  0.15233499
   0.90169199  0.31218992  0.28416151
   0.44927612  0.02809995  0.15233499
   0.90224632  0.80584744  0.28421902
   0.90282244  0.55132680  0.10484543
   0.35362066  0.83252035  0.23393764
   0.99788838  0.50080792  0.20227179
   0.53851998  0.23347802  0.07318573
   0.77811115  0.61285308  0.31667495
   0.87926422  0.06310591  0.05527763
   0.34350734  0.32844357  0.18301663
   0.58246139  0.21150732  0.12452493
   0.03821663  0.48106395  0.25517410
   0.09516526  0.72856013  0.12156099
   0.54787056  0.45433973  0.25202860
   0.75112962  0.14251768  0.31333023
   0.85888103  0.57329750  0.05350623
   0.31537337  0.84615418  0.18077115
   0.56207820  0.72169891  0.12275353
   0.00709160  0.01477698  0.25350250
   0.79952337  0.32623743  0.18388907
   0.25250295  0.63238694  0.31162015
   0.34617716  0.60305419  0.05647018
   0.24542609  0.15994028  0.31466939
   0.80348997  0.87686814  0.18452788
   0.34617716  0.05624469  0.05647018
   0.55644222  0.00246572  0.25339170
   0.09516526  0.18175063  0.12156099
   0.34047062  0.60391201  0.02782883
   0.92434681  0.68523651  0.03696881
   0.34363348  0.06399961  0.02783421
   0.88838126  0.05560908  0.02665597
   0.77433183  0.14302615  0.33812447
   0.88893974  0.54495073  0.33618524
   0.26045063  0.57415025  0.33539104
   0.32142305  0.96764165  0.31494160
Direct configuration=    19
   0.22067121  0.89240241  0.08901558
   0.67843449  0.16387875  0.21824520
   0.94927612  0.02809995  0.15233499
   0.39436146  0.30954245  0.28304016
   0.44927612  0.52809995  0.15233499
   0.90166711  0.31208102  0.28412483
   0.44927612  0.02809995  0.15233499
   0.90228817  0.80579902  0.28420770
   0.90282244  0.55132680  0.10484543
   0.35375224  0.83221271  0.23391849
   0.99794502  0.50064747  0.20225050
   0.53851998  0.23347802  0.07318573
   0.77810915  0.61307502  0.31660401
   0.87926422  0.06310591  0.05527763
   0.34362283  0.32833206  0.18304150
   0.58246139  0.21150732  0.12452493
   0.03808746  0.48134384  0.25519805
   0.09516526  0.72856013  0.12156099
   0.54811996  0.45403985  0.25199024
   0.75095346  0.14244697  0.31330677
   0.85888103  0.57329750  0.05350623
   0.31512087  0.84655344  0.18075128
   0.56207820  0.72169891  0.12275353
   0.00712366  0.01449597  0.25352100
   0.79951669  0.32632022  0.18387272
   0.25302798  0.63212466  0.31150107
   0.34617716  0.60305419  0.05647018
   0.24528491  0.16013445  0.31458357
   0.80361336  0.87652198  0.18450766
   0.34617716  0.05624469  0.05647018
   0.55637715  0.00230971  0.25337238
   0.09516526  0.18175063  0.12156099
   0.34047062  0.60391201  0.02782883
   0.92434681  0.68523651  0.03696881
   0.34363348  0.06399961  0.02783421
   0.88838126  0.05560908  0.02665597
   0.77373155  0.14397757  0.33804502
   0.88931040  0.54502255  0.33618850
   0.26117408  0.57374175  0.33526761
   0.32194101  0.96708693  0.31488399
Direct configuration=    20
   0.22067121  0.89240241  0.08901558
   0.67843708  0.16390874  0.21824904
   0.94927612  0.02809995  0.15233499
   0.39435251  0.30957467  0.28305010
   0.44927612  0.52809995  0.15233499
   0.90167052  0.31209592  0.28412985
   0.44927612  0.02809995  0.15233499
   0.90228245  0.80580565  0.28420925
   0.90282244  0.55132680  0.10484543
   0.35373423  0.83225480  0.23392111
   0.99793727  0.50066942  0.20225341
   0.53851998  0.23347802  0.07318573
   0.77810942  0.61304466  0.31661372
   0.87926422  0.06310591  0.05527763
   0.34360703  0.32834731  0.18303810
   0.58246139  0.21150732  0.12452493
   0.03810513  0.48130555  0.25519477
   0.09516526  0.72856013  0.12156099
   0.54808584  0.45408088  0.25199549
   0.75097757  0.14245664  0.31330998
   0.85888103  0.57329750  0.05350623
   0.31515542  0.84649882  0.18075400
   0.56207820  0.72169891  0.12275353
   0.00711927  0.01453442  0.25351847
   0.79951760  0.32630889  0.18387495
   0.25295615  0.63216055  0.31151736
   0.34617716  0.60305419  0.05647018
   0.24530423  0.16010789  0.31459531
   0.80359648  0.87656934  0.18451042
   0.34617716  0.05624469  0.05647018
   0.55638605  0.00233105  0.25337502
   0.09516526  0.18175063  0.12156099
   0.34047062  0.60391201  0.02782883
   0.92434681  0.68523651  0.03696881
   0.34363348  0.06399961  0.02783421
   0.88838126  0.05560908  0.02665597
   0.77381367  0.14384741  0.33805589
   0.88925969  0.54501272  0.33618805
   0.26107511  0.57379764  0.33528450
   0.32187014  0.96716282  0.31489187
Direct configuration=    21
   0.22067121  0.89240241  0.08901558
   0.67834382  0.16379433  0.21821250
   0.94927612  0.02809995  0.15233499
   0.39446802  0.30935961  0.28296082
   0.44927612  0.52809995  0.15233499
   0.90163362  0.31210992  0.28409442
   0.44927612  0.02809995  0.15233499
   0.90231548  0.80573227  0.28420768
   0.90282244  0.55132680  0.10484543
   0.35389627  0.83195525  0.23388909
   0.99791448  0.50066097  0.20223085
   0.53851998  0.23347802  0.07318573
   0.77838407  0.61294546  0.31660870
   0.87926422  0.06310591  0.05527763
   0.34351197  0.32820109  0.18306553
   0.58246139  0.21150732  0.12452493
   0.03805890  0.48136306  0.25520694
   0.09516526  0.72856013  0.12156099
   0.54833067  0.45385781  0.25199857
   0.75075452  0.14246247  0.31328701
   0.85888103  0.57329750  0.05350623
   0.31481751  0.84695123  0.18075001
   0.56207820  0.72169891  0.12275353
   0.00732633  0.01432268  0.25351397
   0.79958871  0.32640321  0.18385739
   0.25349766  0.63200207  0.31142900
   0.34617716  0.60305419  0.05647018
   0.24524445  0.15995084  0.31451904
   0.80364686  0.87621906  0.18450158
   0.34617716  0.05624469  0.05647018
   0.55620438  0.00220867  0.25336322
   0.09516526  0.18175063  0.12156099
   0.34047062  0.60391201  0.02782883
   0.92434681  0.68523651  0.03696881
   0.34363348  0.06399961  0.02783421
   0.88838126  0.05560908  0.02665597
   0.77326894  0.14468365  0.33800212
   0.88931133  0.54524249  0.33613373
   0.26169201  0.57349612  0.33518005
   0.32220538  0.96692357  0.31484111
Direct configuration=    22
   0.22067121  0.89240241  0.08901558
   0.67830611  0.16374806  0.21819772
   0.94927612  0.02809995  0.15233499
   0.39451473  0.30927265  0.28292472
   0.44927612  0.52809995  0.15233499
   0.90161870  0.31211558  0.28408009
   0.44927612  0.02809995  0.15233499
   0.90232884  0.80570259  0.28420705
   0.90282244  0.55132680  0.10484543
   0.35396179  0.83183411  0.23387614
   0.99790527  0.50065756  0.20222173
   0.53851998  0.23347802  0.07318573
   0.77849514  0.61290534  0.31660667
   0.87926422  0.06310591  0.05527763
   0.34347352  0.32814196  0.18307662
   0.58246139  0.21150732  0.12452493
   0.03804021  0.48138631  0.25521186
   0.09516526  0.72856013  0.12156099
   0.54842968  0.45376760  0.25199982
   0.75066432  0.14246482  0.31327772
   0.85888103  0.57329750  0.05350623
   0.31468086  0.84713418  0.18074839
   0.56207820  0.72169891  0.12275353
   0.00741006  0.01423706  0.25351215
   0.79961747  0.32644135  0.18385029
   0.25371664  0.63193798  0.31139327
   0.34617716  0.60305419  0.05647018
   0.24522027  0.15988733  0.31448820
   0.80366724  0.87607741  0.18449800
   0.34617716  0.05624469  0.05647018
   0.55613091  0.00215918  0.25335845
   0.09516526  0.18175063  0.12156099
   0.34047062  0.60391201  0.02782883
   0.92434681  0.68523651  0.03696881
   0.34363348  0.06399961  0.02783421
   0.88838126  0.05560908  0.02665597
   0.77304865  0.14502182  0.33798037
   0.88933222  0.54533540  0.33611176
   0.26194148  0.57337418  0.33513781
   0.32234095  0.96682682  0.31482058
Direct configuration=    23
   0.22067121  0.89240241  0.08901558
   0.67820238  0.16368611  0.21815923
   0.94927612  0.02809995  0.15233499
   0.39452560  0.30912971  0.28284987
   0.44927612  0.52809995  0.15233499
   0.90156340  0.31212331  0.28405602
   0.44927612  0.02809995  0.15233499
   0.90240771  0.80566733  0.28421622
   0.90282244  0.55132680  0.10484543
   0.35412597  0.83151833  0.23383696
   0.99783812  0.50072778  0.20221073
   0.53851998  0.23347802  0.07318573
   0.77854457  0.61281943  0.31657074
   0.87926422  0.06310591  0.05527763
   0.34330400  0.32800326  0.18309919
   0.58246139  0.21150732  0.12452493
   0.03805567  0.48129637  0.25519224
   0.09516526  0.72856013  0.12156099
   0.54873674  0.45358594  0.25201155
   0.75039915  0.14254004  0.31319128
   0.85888103  0.57329750  0.05350623
   0.31431519  0.84749084  0.18074980
   0.56207820  0.72169891  0.12275353
   0.00770836  0.01406917  0.25348400
   0.79966483  0.32647802  0.18383345
   0.25426646  0.63188940  0.31130358
   0.34617716  0.60305419  0.05647018
   0.24532268  0.15933358  0.31441051
   0.80360475  0.87588143  0.18449274
   0.34617716  0.05624469  0.05647018
   0.55596938  0.00198021  0.25333231
   0.09516526  0.18175063  0.12156099
   0.34047062  0.60391201  0.02782883
   0.92434681  0.68523651  0.03696881
   0.34363348  0.06399961  0.02783421
   0.88838126  0.05560908  0.02665597
   0.77254393  0.14583141  0.33799776
   0.88960906  0.54541274  0.33609022
   0.26253835  0.57309844  0.33505704
   0.32247578  0.96695501  0.31476897
Direct configuration=    24
   0.22067121  0.89240241  0.08901558
   0.67824102  0.16370919  0.21817357
   0.94927612  0.02809995  0.15233499
   0.39452155  0.30918295  0.28287775
   0.44927612  0.52809995  0.15233499
   0.90158400  0.31212043  0.28406498
   0.44927612  0.02809995  0.15233499
   0.90237833  0.80568046  0.28421281
   0.90282244  0.55132680  0.10484543
   0.35406481  0.83163596  0.23385155
   0.99786313  0.50070162  0.20221483
   0.53851998  0.23347802  0.07318573
   0.77852616  0.61285143  0.31658412
   0.87926422  0.06310591  0.05527763
   0.34336715  0.32805492  0.18309078
   0.58246139  0.21150732  0.12452493
   0.03804991  0.48132987  0.25519955
   0.09516526  0.72856013  0.12156099
   0.54862237  0.45365361  0.25200718
   0.75049792  0.14251202  0.31322348
   0.85888103  0.57329750  0.05350623
   0.31445140  0.84735799  0.18074927
   0.56207820  0.72169891  0.12275353
   0.00759725  0.01413171  0.25349449
   0.79964719  0.32646436  0.18383972
   0.25406166  0.63190750  0.31133699
   0.34617716  0.60305419  0.05647018
   0.24528453  0.15953985  0.31443945
   0.80362803  0.87595443  0.18449470
   0.34617716  0.05624469  0.05647018
   0.55602954  0.00204687  0.25334204
   0.09516526  0.18175063  0.12156099
   0.34047062  0.60391201  0.02782883
   0.92434681  0.68523651  0.03696881
   0.34363348  0.06399961  0.02783421
   0.88838126  0.05560908  0.02665597
   0.77273193  0.14552984  0.33799128
   0.88950594  0.54538393  0.33609824
   0.26231603  0.57320115  0.33508713
   0.32242556  0.96690726  0.31478820
Direct configuration=    25
   0.22067121  0.89240241  0.08901558
   0.67819891  0.16371452  0.21816445
   0.94927612  0.02809995  0.15233499
   0.39440841  0.30916809  0.28286110
   0.44927612  0.52809995  0.15233499
   0.90158025  0.31207217  0.28405527
   0.44927612  0.02809995  0.15233499
   0.90249017  0.80567712  0.28421563
   0.90282244  0.55132680  0.10484543
   0.35413786  0.83147135  0.23383118
   0.99779318  0.50078482  0.20222301
   0.53851998  0.23347802  0.07318573
   0.77845945  0.61277251  0.31656334
   0.87926422  0.06310591  0.05527763
   0.34327673  0.32801634  0.18309032
   0.58246139  0.21150732  0.12452493
   0.03810743  0.48119120  0.25516442
   0.09516526  0.72856013  0.12156099
   0.54882491  0.45358461  0.25200905
   0.75040611  0.14262286  0.31322091
   0.85888103  0.57329750  0.05350623
   0.31428161  0.84739115  0.18074606
   0.56207820  0.72169891  0.12275353
   0.00776908  0.01408841  0.25346251
   0.79961986  0.32642464  0.18383065
   0.25431450  0.63191611  0.31130779
   0.34617716  0.60305419  0.05647018
   0.24527747  0.15948123  0.31439891
   0.80349513  0.87603082  0.18448926
   0.34617716  0.05624469  0.05647018
   0.55601495  0.00192047  0.25331187
   0.09516526  0.18175063  0.12156099
   0.34047062  0.60391201  0.02782883
   0.92434681  0.68523651  0.03696881
   0.34363348  0.06399961  0.02783421
   0.88838126  0.05560908  0.02665597
   0.77243160  0.14590432  0.33797374
   0.88973441  0.54534945  0.33609710
   0.26260040  0.57311827  0.33505227
   0.32252061  0.96678668  0.31476061
Direct configuration=    26
   0.22067121  0.89240241  0.08901558
   0.67816829  0.16371840  0.21815781
   0.94927612  0.02809995  0.15233499
   0.39432613  0.30915728  0.28284899
   0.44927612  0.52809995  0.15233499
   0.90157752  0.31203707  0.28404821
   0.44927612  0.02809995  0.15233499
   0.90257151  0.80567468  0.28421769
   0.90282244  0.55132680  0.10484543
   0.35419099  0.83135163  0.23381637
   0.99774231  0.50084533  0.20222896
   0.53851998  0.23347802  0.07318573
   0.77841094  0.61271511  0.31654823
   0.87926422  0.06310591  0.05527763
   0.34321098  0.32798827  0.18308999
   0.58246139  0.21150732  0.12452493
   0.03814927  0.48109035  0.25513887
   0.09516526  0.72856013  0.12156099
   0.54897220  0.45353443  0.25201041
   0.75033934  0.14270347  0.31321904
   0.85888103  0.57329750  0.05350623
   0.31415813  0.84741528  0.18074373
   0.56207820  0.72169891  0.12275353
   0.00789404  0.01405692  0.25343925
   0.79959998  0.32639576  0.18382405
   0.25449838  0.63192237  0.31128655
   0.34617716  0.60305419  0.05647018
   0.24527234  0.15943861  0.31436943
   0.80339849  0.87608638  0.18448530
   0.34617716  0.05624469  0.05647018
   0.55600434  0.00182854  0.25328993
   0.09516526  0.18175063  0.12156099
   0.34047062  0.60391201  0.02782883
   0.92434681  0.68523651  0.03696881
   0.34363348  0.06399961  0.02783421
   0.88838126  0.05560908  0.02665597
   0.77221319  0.14617667  0.33796099
   0.88990057  0.54532437  0.33609627
   0.26280721  0.57305799  0.33502692
   0.32258973  0.96669899  0.31474055
Direct configuration=    27
   0.22067121  0.89240241  0.08901558
   0.67814920  0.16372673  0.21815641
   0.94927612  0.02809995  0.15233499
   0.39427326  0.30914266  0.28283629
   0.44927612  0.52809995  0.15233499
   0.90158874  0.31198806  0.28403698
   0.44927612  0.02809995  0.15233499
   0.90265724  0.80567236  0.28421352
   0.90282244  0.55132680  0.10484543
   0.35423616  0.83124593  0.23380390
   0.99768052  0.50090733  0.20223468
   0.53851998  0.23347802  0.07318573
   0.77847997  0.61258979  0.31655845
   0.87926422  0.06310591  0.05527763
   0.34315661  0.32798577  0.18308497
   0.58246139  0.21150732  0.12452493
   0.03819633  0.48099337  0.25511695
   0.09516526  0.72856013  0.12156099
   0.54910185  0.45347914  0.25201078
   0.75028398  0.14278182  0.31321657
   0.85888103  0.57329750  0.05350623
   0.31406801  0.84739131  0.18073782
   0.56207820  0.72169891  0.12275353
   0.00798194  0.01404548  0.25341820
   0.79956761  0.32637216  0.18381832
   0.25463863  0.63193578  0.31127244
   0.34617716  0.60305419  0.05647018
   0.24526444  0.15941821  0.31434660
   0.80329107  0.87616831  0.18447953
   0.34617716  0.05624469  0.05647018
   0.55601746  0.00176632  0.25326946
   0.09516526  0.18175063  0.12156099
   0.34047062  0.60391201  0.02782883
   0.92434681  0.68523651  0.03696881
   0.34363348  0.06399961  0.02783421
   0.88838126  0.05560908  0.02665597
   0.77201832  0.14641068  0.33795461
   0.88994237  0.54535399  0.33607616
   0.26298501  0.57302266  0.33500775
   0.32264105  0.96661199  0.31472186
Direct configuration=    28
   0.22067121  0.89240241  0.08901558
   0.67813232  0.16373409  0.21815518
   0.94927612  0.02809995  0.15233499
   0.39422652  0.30912974  0.28282506
   0.44927612  0.52809995  0.15233499
   0.90159866  0.31194474  0.28402704
   0.44927612  0.02809995  0.15233499
   0.90273304  0.80567031  0.28420984
   0.90282244  0.55132680  0.10484543
   0.35427610  0.83115247  0.23379287
   0.99762588  0.50096215  0.20223973
   0.53851998  0.23347802  0.07318573
   0.77854100  0.61247900  0.31656750
   0.87926422  0.06310591  0.05527763
   0.34310855  0.32798356  0.18308054
   0.58246139  0.21150732  0.12452493
   0.03823793  0.48090762  0.25509756
   0.09516526  0.72856013  0.12156099
   0.54921648  0.45343026  0.25201111
   0.75023503  0.14285109  0.31321439
   0.85888103  0.57329750  0.05350623
   0.31398833  0.84737012  0.18073259
   0.56207820  0.72169891  0.12275353
   0.00805965  0.01403537  0.25339958
   0.79953900  0.32635129  0.18381325
   0.25476263  0.63194763  0.31125996
   0.34617716  0.60305419  0.05647018
   0.24525746  0.15940017  0.31432641
   0.80319610  0.87624075  0.18447443
   0.34617716  0.05624469  0.05647018
   0.55602905  0.00171131  0.25325136
   0.09516526  0.18175063  0.12156099
   0.34047062  0.60391201  0.02782883
   0.92434681  0.68523651  0.03696881
   0.34363348  0.06399961  0.02783421
   0.88838126  0.05560908  0.02665597
   0.77184603  0.14661758  0.33794896
   0.88997933  0.54538017  0.33605838
   0.26314221  0.57299143  0.33499081
   0.32268641  0.96653507  0.31470534
