unknown system                          
           1
     2.873573   -2.873573    4.708335
     5.747147    0.000000    0.000000
     0.000000   33.065691   20.180529
   Mn   O    H 
  13  22   9
Direct configuration=     1
   0.22067121  0.89240241  0.08901558
   0.67577772  0.17111196  0.21814544
   0.94927612  0.02809995  0.15233499
   0.39594804  0.31125236  0.28511765
   0.44927612  0.52809995  0.15233499
   0.88372594  0.33162878  0.28384322
   0.44927612  0.02809995  0.15233499
   0.89638624  0.82252585  0.28599400
   0.90282244  0.55132680  0.10484543
   0.35582493  0.83619592  0.23394395
   0.99627982  0.50798693  0.20389776
   0.48548855  0.75574849  0.34361528
   0.53851998  0.23347802  0.07318573
   0.77633829  0.63165986  0.31437641
   0.87926422  0.06310591  0.05527763
   0.33973559  0.33309512  0.18314949
   0.58246139  0.21150732  0.12452493
   0.04170693  0.49745855  0.25783924
   0.63488462  0.40660010  0.36683421
   0.09516526  0.72856013  0.12156099
   0.55537305  0.46334575  0.25140151
   0.75210789  0.15337597  0.31301812
   0.85888103  0.57329750  0.05350623
   0.31431135  0.84610177  0.18086433
   0.56207820  0.72169891  0.12275353
   0.01366674  0.01225047  0.25590666
   0.80422839  0.32868872  0.18426661
   0.24649710  0.62950241  0.31725315
   0.34617716  0.60305419  0.05647018
   0.29786458  0.10442448  0.32003416
   0.80181407  0.87941781  0.18481015
   0.34617716  0.05624469  0.05647018
   0.55656990  0.00665464  0.25234543
   0.09516526  0.18175063  0.12156099
   0.28005370  0.92654510  0.38148010
   0.34047062  0.60391201  0.02782883
   0.92434681  0.68523651  0.03696881
   0.34363348  0.06399961  0.02783421
   0.88838126  0.05560908  0.02665597
   0.77615274  0.36290990  0.38141674
   0.71322794  0.24161387  0.33932816
   0.17461117  0.59462453  0.33773313
   0.20936166  0.20543711  0.34022584
   0.31285691  0.80219196  0.40027613
Direct configuration=     2
   0.22067121  0.89240241  0.08901558
   0.67544573  0.17064460  0.21805436
   0.94927612  0.02809995  0.15233499
   0.40100624  0.30980368  0.28420145
   0.44927612  0.52809995  0.15233499
   0.88402905  0.33181978  0.28337929
   0.44927612  0.02809995  0.15233499
   0.89669381  0.82124615  0.28553606
   0.90282244  0.55132680  0.10484543
   0.35452471  0.83707122  0.23375245
   0.99649893  0.50807824  0.20367277
   0.48615841  0.75228733  0.34206585
   0.53851998  0.23347802  0.07318573
   0.77726310  0.63294687  0.31430211
   0.87926422  0.06310591  0.05527763
   0.33987864  0.33208911  0.18295280
   0.58246139  0.21150732  0.12452493
   0.04774988  0.49529293  0.25860421
   0.64252230  0.40013674  0.36787305
   0.09516526  0.72856013  0.12156099
   0.55499102  0.46060840  0.25198436
   0.74557207  0.15522056  0.31311927
   0.85888103  0.57329750  0.05350623
   0.31369937  0.84687862  0.18059869
   0.56207820  0.72169891  0.12275353
   0.01232857  0.01238747  0.25627867
   0.80452922  0.32739343  0.18399200
   0.24816197  0.63150077  0.31739109
   0.34617716  0.60305419  0.05647018
   0.29289447  0.11279439  0.32013221
   0.80210440  0.87985344  0.18456987
   0.34617716  0.05624469  0.05647018
   0.55764428  0.00765488  0.25274426
   0.09516526  0.18175063  0.12156099
   0.27856601  0.92397892  0.38334516
   0.34047062  0.60391201  0.02782883
   0.92434681  0.68523651  0.03696881
   0.34363348  0.06399961  0.02783421
   0.88838126  0.05560908  0.02665597
   0.77283067  0.36283420  0.38107182
   0.71298131  0.24035141  0.33910352
   0.17379678  0.59401551  0.33788428
   0.21048194  0.20407702  0.33982797
   0.31069140  0.80778731  0.39974186
Direct configuration=     3
   0.22067121  0.89240241  0.08901558
   0.67569178  0.17099099  0.21812187
   0.94927612  0.02809995  0.15233499
   0.39725735  0.31087737  0.28488050
   0.44927612  0.52809995  0.15233499
   0.88380440  0.33167822  0.28372314
   0.44927612  0.02809995  0.15233499
   0.89646585  0.82219460  0.28587546
   0.90282244  0.55132680  0.10484543
   0.35548837  0.83642249  0.23389438
   0.99633654  0.50801057  0.20383952
   0.48566194  0.75485257  0.34321421
   0.53851998  0.23347802  0.07318573
   0.77657767  0.63199300  0.31435718
   0.87926422  0.06310591  0.05527763
   0.33977262  0.33283471  0.18309858
   0.58246139  0.21150732  0.12452493
   0.04327114  0.49689798  0.25803725
   0.63686163  0.40492706  0.36710311
   0.09516526  0.72856013  0.12156099
   0.55527416  0.46263719  0.25155238
   0.75041610  0.15385344  0.31304430
   0.85888103  0.57329750  0.05350623
   0.31415294  0.84630285  0.18079556
   0.56207820  0.72169891  0.12275353
   0.01332036  0.01228594  0.25600296
   0.80430626  0.32835343  0.18419553
   0.24692805  0.63001968  0.31728885
   0.34617716  0.60305419  0.05647018
   0.29657807  0.10659102  0.32005954
   0.80188922  0.87953057  0.18474795
   0.34617716  0.05624469  0.05647018
   0.55684800  0.00691355  0.25244867
   0.09516526  0.18175063  0.12156099
   0.27966861  0.92588084  0.38196287
   0.34047062  0.60391201  0.02782883
   0.92434681  0.68523651  0.03696881
   0.34363348  0.06399961  0.02783421
   0.88838126  0.05560908  0.02665597
   0.77529282  0.36289030  0.38132746
   0.71316410  0.24128709  0.33927001
   0.17440036  0.59446689  0.33777226
   0.20965164  0.20508505  0.34012285
   0.31229637  0.80364032  0.40013784
Direct configuration=     4
   0.22067121  0.89240241  0.08901558
   0.67552392  0.17081093  0.21807794
   0.94927612  0.02809995  0.15233499
   0.39759489  0.31141014  0.28445828
   0.44927612  0.52809995  0.15233499
   0.88417968  0.33303545  0.28333524
   0.44927612  0.02809995  0.15233499
   0.89681901  0.82130119  0.28568547
   0.90282244  0.55132680  0.10484543
   0.35488965  0.83744017  0.23377240
   0.99688616  0.50794087  0.20384620
   0.48586148  0.75200422  0.34191691
   0.53851998  0.23347802  0.07318573
   0.77633742  0.63038797  0.31442255
   0.87926422  0.06310591  0.05527763
   0.34017991  0.33165024  0.18307095
   0.58246139  0.21150732  0.12452493
   0.04787104  0.49173877  0.25777348
   0.64147815  0.39821782  0.36761133
   0.09516526  0.72856013  0.12156099
   0.55743588  0.46262806  0.25150714
   0.74617159  0.15841619  0.31386656
   0.85888103  0.57329750  0.05350623
   0.31378311  0.84751087  0.18073155
   0.56207820  0.72169891  0.12275353
   0.01551201  0.01455657  0.25561204
   0.80444013  0.32735452  0.18416412
   0.24541620  0.63288477  0.31791063
   0.34617716  0.60305419  0.05647018
   0.29089272  0.11516364  0.32004064
   0.80204730  0.88034028  0.18474140
   0.34617716  0.05624469  0.05647018
   0.55992102  0.00341869  0.25221162
   0.09516526  0.18175063  0.12156099
   0.27695244  0.92812193  0.38305473
   0.34047062  0.60391201  0.02782883
   0.92434681  0.68523651  0.03696881
   0.34363348  0.06399961  0.02783421
   0.88838126  0.05560908  0.02665597
   0.77615082  0.36142524  0.38140150
   0.71312729  0.24045508  0.33887639
   0.17504231  0.59529468  0.33752458
   0.21032239  0.20402544  0.33989450
   0.31140729  0.80518445  0.40028102
Direct configuration=     5
   0.22067121  0.89240241  0.08901558
   0.67562278  0.17091697  0.21810381
   0.94927612  0.02809995  0.15233499
   0.39739610  0.31109638  0.28470694
   0.44927612  0.52809995  0.15233499
   0.88395867  0.33223614  0.28356368
   0.44927612  0.02809995  0.15233499
   0.89661103  0.82182735  0.28579736
   0.90282244  0.55132680  0.10484543
   0.35524225  0.83684083  0.23384424
   0.99656247  0.50798192  0.20384226
   0.48574397  0.75368170  0.34268093
   0.53851998  0.23347802  0.07318573
   0.77647891  0.63133322  0.31438405
   0.87926422  0.06310591  0.05527763
   0.33994004  0.33234781  0.18308722
   0.58246139  0.21150732  0.12452493
   0.04516203  0.49477718  0.25792882
   0.63875934  0.40216909  0.36731203
   0.09516526  0.72856013  0.12156099
   0.55616278  0.46263344  0.25153378
   0.74867131  0.15572905  0.31338231
   0.85888103  0.57329750  0.05350623
   0.31400092  0.84679943  0.18076925
   0.56207820  0.72169891  0.12275353
   0.01422128  0.01321933  0.25584226
   0.80436129  0.32794281  0.18418262
   0.24630657  0.63119744  0.31754445
   0.34617716  0.60305419  0.05647018
   0.29424099  0.11011497  0.32005177
   0.80195421  0.87986342  0.18474526
   0.34617716  0.05624469  0.05647018
   0.55811123  0.00547692  0.25235122
   0.09516526  0.18175063  0.12156099
   0.27855207  0.92680209  0.38241170
   0.34047062  0.60391201  0.02782883
   0.92434681  0.68523651  0.03696881
   0.34363348  0.06399961  0.02783421
   0.88838126  0.05560908  0.02665597
   0.77564552  0.36228806  0.38135789
   0.71314897  0.24094507  0.33910821
   0.17466425  0.59480717  0.33767045
   0.20992737  0.20464947  0.34002898
   0.31193089  0.80427506  0.40019670
Direct configuration=     6
   0.22067121  0.89240241  0.08901558
   0.67566064  0.17095759  0.21811372
   0.94927612  0.02809995  0.15233499
   0.39731997  0.31097621  0.28480217
   0.44927612  0.52809995  0.15233499
   0.88387402  0.33193000  0.28365118
   0.44927612  0.02809995  0.15233499
   0.89653137  0.82202887  0.28584022
   0.90282244  0.55132680  0.10484543
   0.35537730  0.83661128  0.23387175
   0.99643850  0.50799764  0.20384076
   0.48569896  0.75432418  0.34297355
   0.53851998  0.23347802  0.07318573
   0.77653311  0.63169526  0.31436931
   0.87926422  0.06310591  0.05527763
   0.33984817  0.33261498  0.18309345
   0.58246139  0.21150732  0.12452493
   0.04412446  0.49594090  0.25798832
   0.63771803  0.40368245  0.36719739
   0.09516526  0.72856013  0.12156099
   0.55567518  0.46263550  0.25154399
   0.74962871  0.15469987  0.31319684
   0.85888103  0.57329750  0.05350623
   0.31408434  0.84652695  0.18078369
   0.56207820  0.72169891  0.12275353
   0.01372693  0.01270716  0.25593044
   0.80433109  0.32816813  0.18418970
   0.24664759  0.63055118  0.31740420
   0.34617716  0.60305419  0.05647018
   0.29552339  0.10818131  0.32005603
   0.80191855  0.87968078  0.18474674
   0.34617716  0.05624469  0.05647018
   0.55741807  0.00626523  0.25240469
   0.09516526  0.18175063  0.12156099
   0.27916474  0.92629658  0.38216542
   0.34047062  0.60391201  0.02782883
   0.92434681  0.68523651  0.03696881
   0.34363348  0.06399961  0.02783421
   0.88838126  0.05560908  0.02665597
   0.77545199  0.36261852  0.38134119
   0.71315727  0.24113274  0.33919699
   0.17451945  0.59462045  0.33772631
   0.20977607  0.20488848  0.34008049
   0.31213144  0.80392676  0.40016440
Direct configuration=     7
   0.22067121  0.89240241  0.08901558
   0.67567458  0.17097253  0.21811737
   0.94927612  0.02809995  0.15233499
   0.39729195  0.31093198  0.28483722
   0.44927612  0.52809995  0.15233499
   0.88384287  0.33181734  0.28368337
   0.44927612  0.02809995  0.15233499
   0.89650205  0.82210302  0.28585599
   0.90282244  0.55132680  0.10484543
   0.35542700  0.83652681  0.23388188
   0.99639288  0.50800342  0.20384020
   0.48568240  0.75456060  0.34308123
   0.53851998  0.23347802  0.07318573
   0.77655305  0.63182848  0.31436388
   0.87926422  0.06310591  0.05527763
   0.33981437  0.33271330  0.18309575
   0.58246139  0.21150732  0.12452493
   0.04374266  0.49636913  0.25801021
   0.63733485  0.40423933  0.36715521
   0.09516526  0.72856013  0.12156099
   0.55549575  0.46263626  0.25154774
   0.74998101  0.15432115  0.31312859
   0.85888103  0.57329750  0.05350623
   0.31411503  0.84642668  0.18078900
   0.56207820  0.72169891  0.12275353
   0.01354502  0.01251869  0.25596288
   0.80431998  0.32825104  0.18419231
   0.24677308  0.63031337  0.31735259
   0.34617716  0.60305419  0.05647018
   0.29599529  0.10746976  0.32005760
   0.80190543  0.87961357  0.18474728
   0.34617716  0.05624469  0.05647018
   0.55716300  0.00655531  0.25242437
   0.09516526  0.18175063  0.12156099
   0.27939019  0.92611057  0.38207479
   0.34047062  0.60391201  0.02782883
   0.92434681  0.68523651  0.03696881
   0.34363348  0.06399961  0.02783421
   0.88838126  0.05560908  0.02665597
   0.77538077  0.36274013  0.38133505
   0.71316033  0.24120180  0.33922966
   0.17446617  0.59455174  0.33774687
   0.20972040  0.20497643  0.34009944
   0.31220523  0.80379860  0.40015251
Direct configuration=     8
   0.22067121  0.89240241  0.08901558
   0.67568318  0.17098176  0.21811962
   0.94927612  0.02809995  0.15233499
   0.39727465  0.31090468  0.28485886
   0.44927612  0.52809995  0.15233499
   0.88382364  0.33174778  0.28370326
   0.44927612  0.02809995  0.15233499
   0.89648395  0.82214881  0.28586572
   0.90282244  0.55132680  0.10484543
   0.35545768  0.83647465  0.23388813
   0.99636471  0.50800700  0.20383986
   0.48567217  0.75470659  0.34314772
   0.53851998  0.23347802  0.07318573
   0.77656536  0.63191074  0.31436053
   0.87926422  0.06310591  0.05527763
   0.33979349  0.33277400  0.18309716
   0.58246139  0.21150732  0.12452493
   0.04350690  0.49663355  0.25802373
   0.63709824  0.40458320  0.36712916
   0.09516526  0.72856013  0.12156099
   0.55538495  0.46263672  0.25155006
   0.75019855  0.15408730  0.31308644
   0.85888103  0.57329750  0.05350623
   0.31413399  0.84636477  0.18079228
   0.56207820  0.72169891  0.12275353
   0.01343269  0.01240231  0.25598292
   0.80431312  0.32830224  0.18419392
   0.24685056  0.63016653  0.31732072
   0.34617716  0.60305419  0.05647018
   0.29628668  0.10703039  0.32005857
   0.80189732  0.87957207  0.18474762
   0.34617716  0.05624469  0.05647018
   0.55700550  0.00673443  0.25243652
   0.09516526  0.18175063  0.12156099
   0.27952940  0.92599571  0.38201883
   0.34047062  0.60391201  0.02782883
   0.92434681  0.68523651  0.03696881
   0.34363348  0.06399961  0.02783421
   0.88838126  0.05560908  0.02665597
   0.77533680  0.36281521  0.38133125
   0.71316222  0.24124444  0.33924984
   0.17443327  0.59450932  0.33775956
   0.20968602  0.20503074  0.34011115
   0.31225080  0.80371946  0.40014517
Direct configuration=     9
   0.22067121  0.89240241  0.08901558
   0.67568748  0.17098637  0.21812074
   0.94927612  0.02809995  0.15233499
   0.39726600  0.31089103  0.28486968
   0.44927612  0.52809995  0.15233499
   0.88381402  0.33171300  0.28371320
   0.44927612  0.02809995  0.15233499
   0.89647490  0.82217171  0.28587059
   0.90282244  0.55132680  0.10484543
   0.35547303  0.83644857  0.23389125
   0.99635062  0.50800878  0.20383969
   0.48566706  0.75477958  0.34318096
   0.53851998  0.23347802  0.07318573
   0.77657152  0.63195187  0.31435885
   0.87926422  0.06310591  0.05527763
   0.33978305  0.33280436  0.18309787
   0.58246139  0.21150732  0.12452493
   0.04338902  0.49676577  0.25803049
   0.63697993  0.40475513  0.36711614
   0.09516526  0.72856013  0.12156099
   0.55532956  0.46263696  0.25155122
   0.75030733  0.15397037  0.31306537
   0.85888103  0.57329750  0.05350623
   0.31414346  0.84633381  0.18079392
   0.56207820  0.72169891  0.12275353
   0.01337652  0.01234412  0.25599294
   0.80430969  0.32832783  0.18419472
   0.24688931  0.63009311  0.31730479
   0.34617716  0.60305419  0.05647018
   0.29643238  0.10681071  0.32005905
   0.80189327  0.87955132  0.18474778
   0.34617716  0.05624469  0.05647018
   0.55692675  0.00682399  0.25244260
   0.09516526  0.18175063  0.12156099
   0.27959901  0.92593827  0.38199085
   0.34047062  0.60391201  0.02782883
   0.92434681  0.68523651  0.03696881
   0.34363348  0.06399961  0.02783421
   0.88838126  0.05560908  0.02665597
   0.77531481  0.36285276  0.38132936
   0.71316316  0.24126576  0.33925993
   0.17441681  0.59448810  0.33776591
   0.20966883  0.20505789  0.34011700
   0.31227359  0.80367989  0.40014151
Direct configuration=    10
   0.22067121  0.89240241  0.08901558
   0.67568963  0.17098868  0.21812131
   0.94927612  0.02809995  0.15233499
   0.39726167  0.31088420  0.28487509
   0.44927612  0.52809995  0.15233499
   0.88380921  0.33169561  0.28371817
   0.44927612  0.02809995  0.15233499
   0.89647038  0.82218316  0.28587303
   0.90282244  0.55132680  0.10484543
   0.35548070  0.83643553  0.23389282
   0.99634358  0.50800967  0.20383961
   0.48566450  0.75481608  0.34319758
   0.53851998  0.23347802  0.07318573
   0.77657460  0.63197244  0.31435802
   0.87926422  0.06310591  0.05527763
   0.33977784  0.33281954  0.18309822
   0.58246139  0.21150732  0.12452493
   0.04333008  0.49683187  0.25803387
   0.63692078  0.40484110  0.36710963
   0.09516526  0.72856013  0.12156099
   0.55530186  0.46263707  0.25155180
   0.75036171  0.15391191  0.31305484
   0.85888103  0.57329750  0.05350623
   0.31414820  0.84631833  0.18079474
   0.56207820  0.72169891  0.12275353
   0.01334844  0.01231503  0.25599795
   0.80430797  0.32834063  0.18419513
   0.24690868  0.63005639  0.31729682
   0.34617716  0.60305419  0.05647018
   0.29650523  0.10670087  0.32005930
   0.80189125  0.87954094  0.18474787
   0.34617716  0.05624469  0.05647018
   0.55688738  0.00686877  0.25244563
   0.09516526  0.18175063  0.12156099
   0.27963381  0.92590956  0.38197686
   0.34047062  0.60391201  0.02782883
   0.92434681  0.68523651  0.03696881
   0.34363348  0.06399961  0.02783421
   0.88838126  0.05560908  0.02665597
   0.77530382  0.36287153  0.38132841
   0.71316363  0.24127643  0.33926497
   0.17440859  0.59447750  0.33776908
   0.20966024  0.20507147  0.34011992
   0.31228498  0.80366010  0.40013967
Direct configuration=    11
   0.22067121  0.89240241  0.08901558
   0.67569071  0.17098983  0.21812159
   0.94927612  0.02809995  0.15233499
   0.39725951  0.31088079  0.28487779
   0.44927612  0.52809995  0.15233499
   0.88380681  0.33168692  0.28372065
   0.44927612  0.02809995  0.15233499
   0.89646811  0.82218888  0.28587424
   0.90282244  0.55132680  0.10484543
   0.35548453  0.83642901  0.23389360
   0.99634006  0.50801012  0.20383956
   0.48566322  0.75483433  0.34320590
   0.53851998  0.23347802  0.07318573
   0.77657614  0.63198272  0.31435760
   0.87926422  0.06310591  0.05527763
   0.33977523  0.33282712  0.18309840
   0.58246139  0.21150732  0.12452493
   0.04330061  0.49686493  0.25803556
   0.63689120  0.40488408  0.36710637
   0.09516526  0.72856013  0.12156099
   0.55528801  0.46263713  0.25155209
   0.75038890  0.15388268  0.31304957
   0.85888103  0.57329750  0.05350623
   0.31415057  0.84631059  0.18079515
   0.56207820  0.72169891  0.12275353
   0.01333440  0.01230048  0.25600045
   0.80430711  0.32834703  0.18419533
   0.24691836  0.63003804  0.31729284
   0.34617716  0.60305419  0.05647018
   0.29654165  0.10664595  0.32005942
   0.80189024  0.87953576  0.18474791
   0.34617716  0.05624469  0.05647018
   0.55686769  0.00689116  0.25244715
   0.09516526  0.18175063  0.12156099
   0.27965121  0.92589520  0.38196986
   0.34047062  0.60391201  0.02782883
   0.92434681  0.68523651  0.03696881
   0.34363348  0.06399961  0.02783421
   0.88838126  0.05560908  0.02665597
   0.77529832  0.36288092  0.38132793
   0.71316387  0.24128176  0.33926749
   0.17440448  0.59447219  0.33777067
   0.20965594  0.20507826  0.34012139
   0.31229067  0.80365021  0.40013875
Direct configuration=    12
   0.22067121  0.89240241  0.08901558
   0.67569125  0.17099041  0.21812173
   0.94927612  0.02809995  0.15233499
   0.39725843  0.31087908  0.28487914
   0.44927612  0.52809995  0.15233499
   0.88380561  0.33168257  0.28372189
   0.44927612  0.02809995  0.15233499
   0.89646698  0.82219174  0.28587485
   0.90282244  0.55132680  0.10484543
   0.35548645  0.83642575  0.23389399
   0.99633830  0.50801034  0.20383954
   0.48566258  0.75484345  0.34321005
   0.53851998  0.23347802  0.07318573
   0.77657691  0.63198786  0.31435739
   0.87926422  0.06310591  0.05527763
   0.33977392  0.33283092  0.18309849
   0.58246139  0.21150732  0.12452493
   0.04328588  0.49688145  0.25803641
   0.63687642  0.40490557  0.36710474
   0.09516526  0.72856013  0.12156099
   0.55528108  0.46263716  0.25155224
   0.75040250  0.15386806  0.31304693
   0.85888103  0.57329750  0.05350623
   0.31415176  0.84630672  0.18079536
   0.56207820  0.72169891  0.12275353
   0.01332738  0.01229321  0.25600170
   0.80430669  0.32835023  0.18419543
   0.24692321  0.63002886  0.31729084
   0.34617716  0.60305419  0.05647018
   0.29655986  0.10661848  0.32005948
   0.80188973  0.87953316  0.18474793
   0.34617716  0.05624469  0.05647018
   0.55685784  0.00690236  0.25244791
   0.09516526  0.18175063  0.12156099
   0.27965991  0.92588802  0.38196636
   0.34047062  0.60391201  0.02782883
   0.92434681  0.68523651  0.03696881
   0.34363348  0.06399961  0.02783421
   0.88838126  0.05560908  0.02665597
   0.77529557  0.36288561  0.38132770
   0.71316399  0.24128442  0.33926875
   0.17440242  0.59446954  0.33777146
   0.20965379  0.20508165  0.34012212
   0.31229352  0.80364526  0.40013829
Direct configuration=    13
   0.22067121  0.89240241  0.08901558
   0.67569151  0.17099070  0.21812180
   0.94927612  0.02809995  0.15233499
   0.39725789  0.31087823  0.28487982
   0.44927612  0.52809995  0.15233499
   0.88380500  0.33168040  0.28372252
   0.44927612  0.02809995  0.15233499
   0.89646642  0.82219317  0.28587516
   0.90282244  0.55132680  0.10484543
   0.35548741  0.83642412  0.23389418
   0.99633742  0.50801046  0.20383953
   0.48566226  0.75484801  0.34321213
   0.53851998  0.23347802  0.07318573
   0.77657729  0.63199043  0.31435728
   0.87926422  0.06310591  0.05527763
   0.33977327  0.33283282  0.18309853
   0.58246139  0.21150732  0.12452493
   0.04327851  0.49688971  0.25803683
   0.63686902  0.40491632  0.36710393
   0.09516526  0.72856013  0.12156099
   0.55527762  0.46263718  0.25155231
   0.75040930  0.15386075  0.31304562
   0.85888103  0.57329750  0.05350623
   0.31415235  0.84630479  0.18079546
   0.56207820  0.72169891  0.12275353
   0.01332387  0.01228957  0.25600233
   0.80430647  0.32835183  0.18419548
   0.24692563  0.63002427  0.31728985
   0.34617716  0.60305419  0.05647018
   0.29656897  0.10660475  0.32005951
   0.80188948  0.87953187  0.18474794
   0.34617716  0.05624469  0.05647018
   0.55685292  0.00690796  0.25244829
   0.09516526  0.18175063  0.12156099
   0.27966426  0.92588443  0.38196462
   0.34047062  0.60391201  0.02782883
   0.92434681  0.68523651  0.03696881
   0.34363348  0.06399961  0.02783421
   0.88838126  0.05560908  0.02665597
   0.77529420  0.36288796  0.38132758
   0.71316404  0.24128575  0.33926938
   0.17440139  0.59446822  0.33777186
   0.20965272  0.20508335  0.34012248
   0.31229495  0.80364279  0.40013807
Direct configuration=    14
   0.22067121  0.89240241  0.08901558
   0.67569146  0.17099065  0.21812179
   0.94927612  0.02809995  0.15233499
   0.39725799  0.31087839  0.28487969
   0.44927612  0.52809995  0.15233499
   0.88380512  0.33168081  0.28372240
   0.44927612  0.02809995  0.15233499
   0.89646652  0.82219290  0.28587510
   0.90282244  0.55132680  0.10484543
   0.35548723  0.83642443  0.23389415
   0.99633758  0.50801044  0.20383953
   0.48566232  0.75484715  0.34321174
   0.53851998  0.23347802  0.07318573
   0.77657722  0.63198995  0.31435730
   0.87926422  0.06310591  0.05527763
   0.33977339  0.33283246  0.18309852
   0.58246139  0.21150732  0.12452493
   0.04327990  0.49688816  0.25803675
   0.63687042  0.40491429  0.36710408
   0.09516526  0.72856013  0.12156099
   0.55527827  0.46263717  0.25155230
   0.75040802  0.15386213  0.31304587
   0.85888103  0.57329750  0.05350623
   0.31415224  0.84630515  0.18079544
   0.56207820  0.72169891  0.12275353
   0.01332453  0.01229026  0.25600221
   0.80430651  0.32835153  0.18419547
   0.24692517  0.63002514  0.31729004
   0.34617716  0.60305419  0.05647018
   0.29656725  0.10660734  0.32005950
   0.80188952  0.87953211  0.18474794
   0.34617716  0.05624469  0.05647018
   0.55685385  0.00690690  0.25244822
   0.09516526  0.18175063  0.12156099
   0.27966344  0.92588511  0.38196494
   0.34047062  0.60391201  0.02782883
   0.92434681  0.68523651  0.03696881
   0.34363348  0.06399961  0.02783421
   0.88838126  0.05560908  0.02665597
   0.77529446  0.36288752  0.38132760
   0.71316403  0.24128550  0.33926926
   0.17440159  0.59446847  0.33777179
   0.20965292  0.20508303  0.34012242
   0.31229468  0.80364326  0.40013811
Direct configuration=    15
   0.22067121  0.89240241  0.08901558
   0.67569150  0.17099069  0.21812180
   0.94927612  0.02809995  0.15233499
   0.39725791  0.31087826  0.28487979
   0.44927612  0.52809995  0.15233499
   0.88380503  0.33168048  0.28372249
   0.44927612  0.02809995  0.15233499
   0.89646644  0.82219311  0.28587514
   0.90282244  0.55132680  0.10484543
   0.35548737  0.83642419  0.23389418
   0.99633745  0.50801045  0.20383953
   0.48566228  0.75484782  0.34321204
   0.53851998  0.23347802  0.07318573
   0.77657727  0.63199033  0.31435729
   0.87926422  0.06310591  0.05527763
   0.33977330  0.33283274  0.18309853
   0.58246139  0.21150732  0.12452493
   0.04327881  0.49688938  0.25803681
   0.63686933  0.40491588  0.36710396
   0.09516526  0.72856013  0.12156099
   0.55527776  0.46263718  0.25155231
   0.75040902  0.15386105  0.31304567
   0.85888103  0.57329750  0.05350623
   0.31415233  0.84630487  0.18079546
   0.56207820  0.72169891  0.12275353
   0.01332401  0.01228972  0.25600230
   0.80430648  0.32835177  0.18419548
   0.24692553  0.63002446  0.31728989
   0.34617716  0.60305419  0.05647018
   0.29656859  0.10660532  0.32005951
   0.80188949  0.87953192  0.18474794
   0.34617716  0.05624469  0.05647018
   0.55685312  0.00690773  0.25244827
   0.09516526  0.18175063  0.12156099
   0.27966408  0.92588458  0.38196469
   0.34047062  0.60391201  0.02782883
   0.92434681  0.68523651  0.03696881
   0.34363348  0.06399961  0.02783421
   0.88838126  0.05560908  0.02665597
   0.77529425  0.36288786  0.38132758
   0.71316404  0.24128570  0.33926936
   0.17440143  0.59446827  0.33777185
   0.20965276  0.20508328  0.34012247
   0.31229489  0.80364289  0.40013807
Direct configuration=    16
   0.22067121  0.89240241  0.08901558
   0.67569151  0.17099070  0.21812180
   0.94927612  0.02809995  0.15233499
   0.39725790  0.31087823  0.28487981
   0.44927612  0.52809995  0.15233499
   0.88380501  0.33168042  0.28372251
   0.44927612  0.02809995  0.15233499
   0.89646642  0.82219316  0.28587515
   0.90282244  0.55132680  0.10484543
   0.35548740  0.83642414  0.23389418
   0.99633743  0.50801046  0.20383953
   0.48566227  0.75484797  0.34321211
   0.53851998  0.23347802  0.07318573
   0.77657729  0.63199041  0.31435728
   0.87926422  0.06310591  0.05527763
   0.33977328  0.33283280  0.18309853
   0.58246139  0.21150732  0.12452493
   0.04327858  0.49688963  0.25803682
   0.63686909  0.40491621  0.36710394
   0.09516526  0.72856013  0.12156099
   0.55527766  0.46263718  0.25155231
   0.75040923  0.15386082  0.31304563
   0.85888103  0.57329750  0.05350623
   0.31415234  0.84630481  0.18079546
   0.56207820  0.72169891  0.12275353
   0.01332391  0.01228961  0.25600232
   0.80430647  0.32835182  0.18419548
   0.24692560  0.63002432  0.31728986
   0.34617716  0.60305419  0.05647018
   0.29656888  0.10660489  0.32005951
   0.80188948  0.87953188  0.18474794
   0.34617716  0.05624469  0.05647018
   0.55685297  0.00690790  0.25244829
   0.09516526  0.18175063  0.12156099
   0.27966422  0.92588447  0.38196463
   0.34047062  0.60391201  0.02782883
   0.92434681  0.68523651  0.03696881
   0.34363348  0.06399961  0.02783421
   0.88838126  0.05560908  0.02665597
   0.77529421  0.36288793  0.38132758
   0.71316404  0.24128574  0.33926938
   0.17440140  0.59446823  0.33777186
   0.20965273  0.20508333  0.34012248
   0.31229493  0.80364281  0.40013807
Direct configuration=    17
   0.22067121  0.89240241  0.08901558
   0.67569151  0.17099070  0.21812180
   0.94927612  0.02809995  0.15233499
   0.39725789  0.31087823  0.28487982
   0.44927612  0.52809995  0.15233499
   0.88380501  0.33168040  0.28372251
   0.44927612  0.02809995  0.15233499
   0.89646642  0.82219317  0.28587516
   0.90282244  0.55132680  0.10484543
   0.35548741  0.83642412  0.23389418
   0.99633742  0.50801046  0.20383953
   0.48566226  0.75484800  0.34321213
   0.53851998  0.23347802  0.07318573
   0.77657729  0.63199043  0.31435728
   0.87926422  0.06310591  0.05527763
   0.33977327  0.33283281  0.18309853
   0.58246139  0.21150732  0.12452493
   0.04327853  0.49688970  0.25803683
   0.63686904  0.40491630  0.36710393
   0.09516526  0.72856013  0.12156099
   0.55527763  0.46263718  0.25155231
   0.75040928  0.15386077  0.31304562
   0.85888103  0.57329750  0.05350623
   0.31415235  0.84630479  0.18079546
   0.56207820  0.72169891  0.12275353
   0.01332388  0.01228958  0.25600233
   0.80430647  0.32835183  0.18419548
   0.24692562  0.63002428  0.31728985
   0.34617716  0.60305419  0.05647018
   0.29656895  0.10660478  0.32005951
   0.80188948  0.87953187  0.18474794
   0.34617716  0.05624469  0.05647018
   0.55685293  0.00690795  0.25244829
   0.09516526  0.18175063  0.12156099
   0.27966425  0.92588444  0.38196462
   0.34047062  0.60391201  0.02782883
   0.92434681  0.68523651  0.03696881
   0.34363348  0.06399961  0.02783421
   0.88838126  0.05560908  0.02665597
   0.77529420  0.36288795  0.38132758
   0.71316404  0.24128575  0.33926938
   0.17440139  0.59446822  0.33777186
   0.20965272  0.20508335  0.34012248
   0.31229494  0.80364279  0.40013807
Direct configuration=    18
   0.22067121  0.89240241  0.08901558
   0.67569151  0.17099070  0.21812180
   0.94927612  0.02809995  0.15233499
   0.39725789  0.31087823  0.28487982
   0.44927612  0.52809995  0.15233499
   0.88380500  0.33168040  0.28372251
   0.44927612  0.02809995  0.15233499
   0.89646642  0.82219317  0.28587516
   0.90282244  0.55132680  0.10484543
   0.35548741  0.83642412  0.23389418
   0.99633742  0.50801046  0.20383953
   0.48566226  0.75484801  0.34321213
   0.53851998  0.23347802  0.07318573
   0.77657729  0.63199043  0.31435728
   0.87926422  0.06310591  0.05527763
   0.33977327  0.33283281  0.18309853
   0.58246139  0.21150732  0.12452493
   0.04327851  0.49688971  0.25803683
   0.63686903  0.40491631  0.36710393
   0.09516526  0.72856013  0.12156099
   0.55527762  0.46263718  0.25155231
   0.75040930  0.15386075  0.31304562
   0.85888103  0.57329750  0.05350623
   0.31415235  0.84630479  0.18079546
   0.56207820  0.72169891  0.12275353
   0.01332387  0.01228957  0.25600233
   0.80430647  0.32835183  0.18419548
   0.24692563  0.63002427  0.31728985
   0.34617716  0.60305419  0.05647018
   0.29656896  0.10660476  0.32005951
   0.80188948  0.87953187  0.18474794
   0.34617716  0.05624469  0.05647018
   0.55685292  0.00690795  0.25244829
   0.09516526  0.18175063  0.12156099
   0.27966426  0.92588443  0.38196462
   0.34047062  0.60391201  0.02782883
   0.92434681  0.68523651  0.03696881
   0.34363348  0.06399961  0.02783421
   0.88838126  0.05560908  0.02665597
   0.77529420  0.36288796  0.38132758
   0.71316404  0.24128575  0.33926938
   0.17440139  0.59446822  0.33777186
   0.20965272  0.20508335  0.34012248
   0.31229494  0.80364279  0.40013807
Direct configuration=    19
   0.22067121  0.89240241  0.08901558
   0.67569151  0.17099070  0.21812180
   0.94927612  0.02809995  0.15233499
   0.39725789  0.31087823  0.28487982
   0.44927612  0.52809995  0.15233499
   0.88380500  0.33168040  0.28372252
   0.44927612  0.02809995  0.15233499
   0.89646642  0.82219317  0.28587516
   0.90282244  0.55132680  0.10484543
   0.35548741  0.83642412  0.23389418
   0.99633742  0.50801046  0.20383953
   0.48566226  0.75484801  0.34321213
   0.53851998  0.23347802  0.07318573
   0.77657729  0.63199043  0.31435728
   0.87926422  0.06310591  0.05527763
   0.33977327  0.33283281  0.18309853
   0.58246139  0.21150732  0.12452493
   0.04327851  0.49688971  0.25803683
   0.63686902  0.40491632  0.36710393
   0.09516526  0.72856013  0.12156099
   0.55527762  0.46263718  0.25155231
   0.75040930  0.15386075  0.31304562
   0.85888103  0.57329750  0.05350623
   0.31415235  0.84630479  0.18079546
   0.56207820  0.72169891  0.12275353
   0.01332387  0.01228957  0.25600233
   0.80430647  0.32835183  0.18419548
   0.24692563  0.63002427  0.31728985
   0.34617716  0.60305419  0.05647018
   0.29656897  0.10660476  0.32005951
   0.80188948  0.87953187  0.18474794
   0.34617716  0.05624469  0.05647018
   0.55685292  0.00690796  0.25244829
   0.09516526  0.18175063  0.12156099
   0.27966426  0.92588443  0.38196462
   0.34047062  0.60391201  0.02782883
   0.92434681  0.68523651  0.03696881
   0.34363348  0.06399961  0.02783421
   0.88838126  0.05560908  0.02665597
   0.77529420  0.36288796  0.38132758
   0.71316404  0.24128575  0.33926938
   0.17440139  0.59446822  0.33777186
   0.20965272  0.20508335  0.34012248
   0.31229495  0.80364279  0.40013807
Direct configuration=    20
   0.22067121  0.89240241  0.08901558
   0.67569151  0.17099070  0.21812180
   0.94927612  0.02809995  0.15233499
   0.39725789  0.31087823  0.28487982
   0.44927612  0.52809995  0.15233499
   0.88380500  0.33168040  0.28372252
   0.44927612  0.02809995  0.15233499
   0.89646642  0.82219317  0.28587516
   0.90282244  0.55132680  0.10484543
   0.35548741  0.83642412  0.23389418
   0.99633742  0.50801046  0.20383953
   0.48566226  0.75484801  0.34321213
   0.53851998  0.23347802  0.07318573
   0.77657729  0.63199043  0.31435728
   0.87926422  0.06310591  0.05527763
   0.33977327  0.33283281  0.18309853
   0.58246139  0.21150732  0.12452493
   0.04327851  0.49688971  0.25803683
   0.63686902  0.40491632  0.36710393
   0.09516526  0.72856013  0.12156099
   0.55527762  0.46263718  0.25155231
   0.75040930  0.15386075  0.31304562
   0.85888103  0.57329750  0.05350623
   0.31415235  0.84630479  0.18079546
   0.56207820  0.72169891  0.12275353
   0.01332387  0.01228957  0.25600233
   0.80430647  0.32835183  0.18419548
   0.24692563  0.63002427  0.31728985
   0.34617716  0.60305419  0.05647018
   0.29656897  0.10660475  0.32005951
   0.80188948  0.87953187  0.18474794
   0.34617716  0.05624469  0.05647018
   0.55685292  0.00690796  0.25244829
   0.09516526  0.18175063  0.12156099
   0.27966426  0.92588443  0.38196462
   0.34047062  0.60391201  0.02782883
   0.92434681  0.68523651  0.03696881
   0.34363348  0.06399961  0.02783421
   0.88838126  0.05560908  0.02665597
   0.77529420  0.36288796  0.38132758
   0.71316404  0.24128575  0.33926938
   0.17440139  0.59446822  0.33777186
   0.20965272  0.20508335  0.34012248
   0.31229495  0.80364279  0.40013807
Direct configuration=    21
   0.22067121  0.89240241  0.08901558
   0.67569151  0.17099070  0.21812180
   0.94927612  0.02809995  0.15233499
   0.39725789  0.31087823  0.28487982
   0.44927612  0.52809995  0.15233499
   0.88380500  0.33168040  0.28372252
   0.44927612  0.02809995  0.15233499
   0.89646642  0.82219317  0.28587516
   0.90282244  0.55132680  0.10484543
   0.35548741  0.83642412  0.23389418
   0.99633742  0.50801046  0.20383953
   0.48566226  0.75484801  0.34321213
   0.53851998  0.23347802  0.07318573
   0.77657729  0.63199043  0.31435728
   0.87926422  0.06310591  0.05527763
   0.33977327  0.33283281  0.18309853
   0.58246139  0.21150732  0.12452493
   0.04327851  0.49688971  0.25803683
   0.63686902  0.40491632  0.36710393
   0.09516526  0.72856013  0.12156099
   0.55527762  0.46263718  0.25155231
   0.75040930  0.15386075  0.31304562
   0.85888103  0.57329750  0.05350623
   0.31415235  0.84630479  0.18079546
   0.56207820  0.72169891  0.12275353
   0.01332387  0.01228957  0.25600233
   0.80430647  0.32835183  0.18419548
   0.24692563  0.63002427  0.31728985
   0.34617716  0.60305419  0.05647018
   0.29656897  0.10660475  0.32005951
   0.80188948  0.87953187  0.18474794
   0.34617716  0.05624469  0.05647018
   0.55685292  0.00690796  0.25244829
   0.09516526  0.18175063  0.12156099
   0.27966426  0.92588443  0.38196462
   0.34047062  0.60391201  0.02782883
   0.92434681  0.68523651  0.03696881
   0.34363348  0.06399961  0.02783421
   0.88838126  0.05560908  0.02665597
   0.77529420  0.36288796  0.38132758
   0.71316404  0.24128575  0.33926938
   0.17440139  0.59446822  0.33777186
   0.20965272  0.20508335  0.34012248
   0.31229495  0.80364279  0.40013807
