 vasp.5.4.4.18Apr17-6-g9f103f2a35 (build Sep 24 2019 09:38:50) complex          
  
 executed on     KEELxe18.1gRLX-z date 2026.07.25  16:43:44
 running on   64 total cores
 distrk:  each k-point on   64 cores,    1 groups
 distr:  one band on NCORES_PER_BAND=  32 cores,    2 groups


--------------------------------------------------------------------------------------------------------


 INCAR:
 POTCAR:    PAW_PBE Mn_pv 02Aug2007               
 POTCAR:    PAW_PBE O 08Apr2002                   
 POTCAR:    PAW_PBE H 15Jun2001                   

 ----------------------------------------------------------------------------- 
|                                                                             |
|           W    W    AA    RRRRR   N    N  II  N    N   GGGG   !!!           |
|           W    W   A  A   R    R  NN   N  II  NN   N  G    G  !!!           |
|           W    W  A    A  R    R  N N  N  II  N N  N  G       !!!           |
|           W WW W  AAAAAA  RRRRR   N  N N  II  N  N N  G  GGG   !            |
|           WW  WW  A    A  R   R   N   NN  II  N   NN  G    G                |
|           W    W  A    A  R    R  N    N  II  N    N   GGGG   !!!           |
|                                                                             |
|      For optimal performance we recommend to set                            |
|        NCORE= 4 - approx SQRT( number of cores)                             |
|      NCORE specifies how many cores store one orbital (NPAR=cpu/NCORE).     |
|      This setting can  greatly improve the performance of VASP for DFT.     |
|      The default,   NCORE=1            might be grossly inefficient         |
|      on modern multi-core architectures or massively parallel machines.     |
|      Do your own testing !!!!                                               |
|      Unfortunately you need to use the default for GW and RPA calculations. |
|      (for HF NCORE is supported but not extensively tested yet)             |
|                                                                             |
 ----------------------------------------------------------------------------- 

 POTCAR:    PAW_PBE Mn_pv 02Aug2007               
  local pseudopotential read in
  partial core-charges read in
  partial kinetic energy density read in
  atomic valenz-charges read in
  non local Contribution for L=           1  read in
    real space projection operators read in
  non local Contribution for L=           1  read in
    real space projection operators read in
  non local Contribution for L=           2  read in
    real space projection operators read in
  non local Contribution for L=           2  read in
    real space projection operators read in
  non local Contribution for L=           0  read in
    real space projection operators read in
  non local Contribution for L=           0  read in
    real space projection operators read in
    PAW grid and wavefunctions read in
 
   number of l-projection  operators is LMAX  =           6
   number of lm-projection operators is LMMAX =          18
 
 POTCAR:    PAW_PBE O 08Apr2002                   
  local pseudopotential read in
  partial core-charges read in
  partial kinetic energy density read in
  kinetic energy density of atom read in
  atomic valenz-charges read in
  non local Contribution for L=           0  read in
    real space projection operators read in
  non local Contribution for L=           0  read in
    real space projection operators read in
  non local Contribution for L=           1  read in
    real space projection operators read in
  non local Contribution for L=           1  read in
    real space projection operators read in
    PAW grid and wavefunctions read in
 
   number of l-projection  operators is LMAX  =           4
   number of lm-projection operators is LMMAX =           8
 
 POTCAR:    PAW_PBE H 15Jun2001                   
  local pseudopotential read in
  atomic valenz-charges read in
  non local Contribution for L=           0  read in
    real space projection operators read in
  non local Contribution for L=           0  read in
    real space projection operators read in
  non local Contribution for L=           1  read in
    real space projection operators read in
    PAW grid and wavefunctions read in
 
   number of l-projection  operators is LMAX  =           3
   number of lm-projection operators is LMMAX =           5
 
 Optimization of the real space projectors (new method)

 maximal supplied QI-value         = 16.25
 optimisation between [QCUT,QGAM] = [ 11.54, 23.24] = [ 37.28,151.24] Ry 
 Optimized for a Real-space Cutoff    1.45 Angstroem

   l    n(q)    QCUT    max X(q) W(low)/X(q) W(high)/X(q)  e(spline) 
   1     10    11.539     3.658    0.56E-04    0.12E-03    0.13E-06
   1     10    11.539     5.612    0.11E-03    0.23E-03    0.24E-06
   2      9    11.539    55.373    0.45E-04    0.92E-04    0.22E-06
   2      9    11.539    50.863    0.47E-04    0.95E-04    0.22E-06
   0     10    11.539    79.536    0.46E-04    0.27E-04    0.11E-06
   0     10    11.539    38.668    0.38E-04    0.25E-04    0.10E-06
 Optimization of the real space projectors (new method)

 maximal supplied QI-value         = 24.76
 optimisation between [QCUT,QGAM] = [ 11.64, 23.27] = [ 37.91,151.63] Ry 
 Optimized for a Real-space Cutoff    1.14 Angstroem

   l    n(q)    QCUT    max X(q) W(low)/X(q) W(high)/X(q)  e(spline) 
   0      8    11.635    20.381    0.10E-03    0.33E-03    0.24E-06
   0      8    11.635    15.268    0.11E-03    0.35E-03    0.26E-06
   1      7    11.635     5.964    0.24E-03    0.31E-03    0.30E-06
   1      7    11.635     5.382    0.22E-03    0.25E-03    0.26E-06
 Optimization of the real space projectors (new method)

 maximal supplied QI-value         = 34.20
 optimisation between [QCUT,QGAM] = [ 11.63, 23.26] = [ 37.87,151.49] Ry 
 Optimized for a Real-space Cutoff    1.21 Angstroem

   l    n(q)    QCUT    max X(q) W(low)/X(q) W(high)/X(q)  e(spline) 
   0      8    11.629    19.460    0.17E-03    0.34E-03    0.21E-06
   0      8    11.629    12.209    0.16E-03    0.33E-03    0.21E-06
   1      8    11.629     4.655    0.18E-03    0.16E-03    0.26E-06
  PAW_PBE Mn_pv 02Aug2007               :
 energy of atom  1       EATOM=-2025.2664
 kinetic energy error for atom=    0.0058 (will be added to EATOM!!)
  PAW_PBE O 08Apr2002                   :
 energy of atom  2       EATOM= -432.3788
 kinetic energy error for atom=    0.0208 (will be added to EATOM!!)
  PAW_PBE H 15Jun2001                   :
 energy of atom  3       EATOM=  -12.4884
 kinetic energy error for atom=    0.0014 (will be added to EATOM!!)
 
 
 POSCAR: Mn  O  H                                
  positions in direct lattice
  velocities in cartesian coordinates
 exchange correlation table for  LEXCH =        8
   RHO(1)=    0.500       N(1)  =     2000
   RHO(2)=  100.500       N(2)  =     4000

 VTST: version 3.1, (03/28/14)

 CHAIN: initializing optimizer
 
 OPT: Using VASP Conjugate-Gradient optimizer
 CHAIN: Read ICHAIN            0
 
 POSCAR: Mn  O  H                                
  positions in direct lattice
  velocities in cartesian coordinates
 


--------------------------------------------------------------------------------------------------------


 ion  position               nearest neighbor table
   1  0.221  0.892  0.089-  27 1.94  32 1.94  30 1.94  18 1.94  23 2.29  14 2.29   3 2.87   7 3.11
                             5 3.11
   2  0.681  0.167  0.218-  19 1.95  25 1.97  29 1.97  31 1.97  24 2.27  15 2.32   3 2.95   4 2.96
                             8 3.17
   3  0.949  0.028  0.152-  18 1.94  32 1.94  29 1.96  25 1.96  16 2.29  22 2.30   1 2.87   2 2.95
                             7 3.11   5 3.11   5 3.11   7 3.11
   4  0.397  0.310  0.283-  28 1.92  19 1.96  26 1.99  31 1.99  20 2.23  17 2.25   2 2.96   6 3.04
                             8 3.09   8 3.13
   5  0.449  0.528  0.152-  16 1.94  23 1.94  15 1.96  22 1.97  25 2.29  18 2.29   7 2.87   7 2.87
                             3 3.11   3 3.11   1 3.11
   6  0.905  0.316  0.285-  13 1.86  17 1.96  24 1.98  20 2.01  28 2.21  19 2.37   8 2.77   8 2.98
                             4 3.04
   7  0.449  0.028  0.152-  16 1.94  23 1.94  15 1.96  22 1.96  32 2.29  29 2.30   5 2.87   5 2.87
                             1 3.11   3 3.11   3 3.11
   8  0.897  0.801  0.284-  13 1.84  17 1.96  24 1.98  20 2.04  26 2.11  31 2.18   6 2.77   6 2.98
                             4 3.09   4 3.13   2 3.17
   9  0.903  0.551  0.105-  21 2.00  23 2.00  18 2.00  32 2.00
  10  0.353  0.834  0.235-  19 2.04  24 2.05  31 2.08  22 2.09
  11  0.995  0.507  0.202-  29 2.04  17 2.04  25 2.04  15 2.05
  12  0.539  0.233  0.073-  30 2.00  27 2.00  14 2.00  16 2.00
  13  0.779  0.623  0.311-   8 1.84   6 1.86
  14  0.879  0.063  0.055-  36 1.11  12 2.00   1 2.29
  15  0.341  0.332  0.183-   7 1.96   5 1.96  11 2.05   2 2.32
  16  0.582  0.212  0.125-   5 1.94   7 1.94  12 2.00   3 2.29
  17  0.042  0.487  0.254-   6 1.96   8 1.96  11 2.04   4 2.25
  18  0.095  0.729  0.122-   3 1.94   1 1.94   9 2.00   5 2.29
  19  0.548  0.456  0.251-   2 1.95   4 1.96  10 2.04   6 2.37
  20  0.746  0.138  0.312-  37 0.97   6 2.01   8 2.04   4 2.23
  21  0.859  0.573  0.054-  34 1.11   9 2.00
  22  0.314  0.846  0.181-   7 1.96   5 1.97  10 2.09   3 2.30
  23  0.562  0.722  0.123-   7 1.94   5 1.94   9 2.00   1 2.29
  24  0.006  0.007  0.254-   8 1.98   6 1.98  10 2.05   2 2.27
  25  0.800  0.330  0.184-   3 1.96   2 1.97  11 2.04   5 2.29
  26  0.230  0.638  0.310-  38 0.98   4 1.99   8 2.11
  27  0.346  0.603  0.056-  33 1.11   1 1.94  12 2.00
  28  0.255  0.150  0.313-  39 0.98   4 1.92   6 2.21
  29  0.800  0.880  0.184-   3 1.96   2 1.97  11 2.04   7 2.30
  30  0.346  0.056  0.056-  35 1.11   1 1.94  12 2.00
  31  0.568  0.997  0.253-   2 1.97   4 1.99  10 2.08   8 2.18
  32  0.095  0.182  0.122-   3 1.94   1 1.94   9 2.00   7 2.29
  33  0.340  0.604  0.028-  27 1.11
  34  0.924  0.685  0.037-  21 1.11
  35  0.344  0.064  0.028-  30 1.11
  36  0.888  0.056  0.027-  14 1.11
  37  0.751  0.135  0.337-  20 0.97
  38  0.190  0.583  0.332-  26 0.98
  39  0.348  0.958  0.314-  28 0.98
 
  LATTYP: Found a base centered orthorhombic cell.
 ALAT       =     5.7471469900
 B/A-ratio  =     1.9195481432
 C/A-ratio  =     6.7403003707
  
  Lattice vectors:
  
 A1 = (  -2.8735734950,  -2.8735734950,   4.7083351100)
 A2 = (  -2.8735734950,   2.8735734950,  -4.7083351100)
 A3 = (   0.0000000000, -33.0656910066, -20.1805290088)


Analysis of symmetry for initial positions (statically):
=====================================================================
 Subroutine PRICEL returns:
 Original cell was already a primitive cell.
 

 Routine SETGRP: Setting up the symmetry group for a 
 base centered orthorhombic supercell.


 Subroutine GETGRP returns: Found  1 space group operations
 (whereof  1 operations were pure point group operations)
 out of a pool of  8 trial point group operations.


The static configuration has the point symmetry C_1 .


Analysis of symmetry for dynamics (positions and initial velocities):
=====================================================================
 Subroutine PRICEL returns:
 Original cell was already a primitive cell.
 

 Routine SETGRP: Setting up the symmetry group for a 
 base centered orthorhombic supercell.


 Subroutine GETGRP returns: Found  1 space group operations
 (whereof  1 operations were pure point group operations)
 out of a pool of  8 trial point group operations.


The dynamic configuration has the point symmetry C_1 .


Analysis of constrained symmetry for selective dynamics:
=====================================================================
 Subroutine PRICEL returns:
 Original cell was already a primitive cell.
 

 Routine SETGRP: Setting up the symmetry group for a 
 base centered orthorhombic supercell.


 Subroutine GETGRP returns: Found  1 space group operations
 (whereof  1 operations were pure point group operations)
 out of a pool of  8 trial point group operations.


The constrained configuration has the point symmetry C_1 .


Analysis of structural, dynamic, and magnetic symmetry:
=====================================================================
 Subroutine PRICEL returns:
 Original cell was already a primitive cell.
 

 Routine SETGRP: Setting up the symmetry group for a 
 base centered orthorhombic supercell.


 Subroutine GETGRP returns: Found  1 space group operations
 (whereof  1 operations were pure point group operations)
 out of a pool of  8 trial point group operations.


The magnetic configuration has the point symmetry C_1 .


 Subroutine INISYM returns: Found  1 space group operations
 (whereof  1 operations are pure point group operations),
 and found     1 'primitive' translations

 
 
 KPOINTS: KPOINTS created by Atomic Simulation Env

Automatic generation of k-mesh.
Space group operators:
 irot       det(A)        alpha          n_x          n_y          n_z        tau_x        tau_y        tau_z
    1     1.000000     0.000000     1.000000     0.000000     0.000000     0.000000     0.000000     0.000000
 
 Subroutine IBZKPT returns following result:
 ===========================================
 
 Found     10 irreducible k-points:
 
 Following reciprocal coordinates:
            Coordinates               Weight
  0.000000  0.000000  0.000000      1.000000
  0.250000  0.000000 -0.000000      2.000000
  0.500000  0.000000 -0.000000      1.000000
  0.000000  0.250000 -0.000000      2.000000
  0.250000  0.250000 -0.000000      2.000000
  0.500000  0.250000  0.000000      2.000000
 -0.250000  0.250000 -0.000000      2.000000
  0.000000  0.500000 -0.000000      1.000000
  0.250000  0.500000 -0.000000      2.000000
  0.500000  0.500000 -0.000000      1.000000
 
 Following cartesian coordinates:
            Coordinates               Weight
  0.000000  0.000000  0.000000      1.000000
  0.000000 -0.023611  0.038687      2.000000
  0.000000 -0.047223  0.077374      1.000000
  0.043500  0.011806 -0.019343      2.000000
  0.043500 -0.011806  0.019343      2.000000
  0.043500 -0.035417  0.058030      2.000000
  0.043500  0.035417 -0.058030      2.000000
  0.087000  0.023611 -0.038687      1.000000
  0.087000  0.000000  0.000000      2.000000
  0.087000 -0.023611  0.038687      1.000000
 


--------------------------------------------------------------------------------------------------------




 Dimension of arrays:
   k-points           NKPTS =     10   k-points in BZ     NKDIM =     10   number of bands    NBANDS=    178
   number of dos      NEDOS =    301   number of ions     NIONS =     39
   non local maximal  LDIM  =      6   non local SUM 2l+1 LMDIM =     18
   total plane-waves  NPLWV = 663552
   max r-space proj   IRMAX =   6889   max aug-charges    IRDMAX=  16593
   dimension x,y,z NGX =    48 NGY =   48 NGZ =  288
   dimension x,y,z NGXF=    96 NGYF=   96 NGZF=  576
   support grid    NGXF=    96 NGYF=   96 NGZF=  576
   ions per type =              12  20   7
   NGX,Y,Z   is equivalent  to a cutoff of  12.83, 13.88, 12.36 a.u.
   NGXF,Y,Z  is equivalent  to a cutoff of  25.66, 27.77, 24.72 a.u.

 SYSTEM =  unknown system                          
 POSCAR =  Mn  O  H                                

 Startparameter for this run:
   NWRITE =      1    write-flag & timer
   PREC   = accura    normal or accurate (medium, high low for compatibility)
   ISTART =      0    job   : 0-new  1-cont  2-samecut
   ICHARG =      2    charge: 1-file 2-atom 10-const
   ISPIN  =      2    spin polarized calculation?
   LNONCOLLINEAR =      F non collinear calculations
   LSORBIT =      F    spin-orbit coupling
   INIWAV =      1    electr: 0-lowe 1-rand  2-diag
   LASPH  =      F    aspherical Exc in radial PAW
   METAGGA=      F    non-selfconsistent MetaGGA calc.

 Electronic Relaxation 1
   ENCUT  =  520.0 eV  38.22 Ry    6.18 a.u.  11.56 10.69 72.03*2*pi/ulx,y,z
   ENINI  =  520.0     initial cutoff
   ENAUG  =  605.4 eV  augmentation charge cutoff
   NELM   =     60;   NELMIN=  2; NELMDL= -5     # of ELM steps 
   EDIFF  = 0.1E-04   stopping-criterion for ELM
   LREAL  =      T    real-space projection
   NLSPLINE    = F    spline interpolate recip. space projectors
   LCOMPAT=      F    compatible to vasp.4.4
   GGA_COMPAT  = T    GGA compatible to vasp.4.4-vasp.4.6
   LMAXPAW     = -100 max onsite density
   LMAXMIX     =    2 max onsite mixed and CHGCAR
   VOSKOWN=      0    Vosko Wilk Nusair interpolation
   ROPT   =   -0.00025  -0.00025  -0.00025
 Ionic relaxation
   EDIFFG = -.5E-01   stopping-criterion for IOM
   NSW    =    500    number of steps for IOM
   NBLOCK =      1;   KBLOCK =    500    inner block; outer block 
   IBRION =      2    ionic relax: 0-MD 1-quasi-New 2-CG
   NFREE  =      1    steps in history (QN), initial steepest desc. (CG)
   ISIF   =      0    stress and relaxation
   IWAVPR =     11    prediction:  0-non 1-charg 2-wave 3-comb
   ISYM   =      2    0-nonsym 1-usesym 2-fastsym
   LCORR  =      T    Harris-Foulkes like correction to forces

   POTIM  = 0.5000    time-step for ionic-motion
   TEIN   =    0.0    initial temperature
   TEBEG  =    0.0;   TEEND  =   0.0 temperature during run
   SMASS  =  -3.00    Nose mass-parameter (am)
   estimated Nose-frequenzy (Omega)   =  0.10E-29 period in steps =****** mass=  -0.884E-27a.u.
   SCALEE = 1.0000    scale energy and forces
   NPACO  =    256;   APACO  = 16.0  distance and # of slots for P.C.
   PSTRESS=    0.0 pullay stress

  Mass of Ions in am
   POMASS =  54.94 16.00  1.00
  Ionic Valenz
   ZVAL   =  13.00  6.00  1.00
  Atomic Wigner-Seitz radii
   RWIGS  =  -1.00 -1.00 -1.00
  virtual crystal weights 
   VCA    =   1.00  1.00  1.00
   NELECT =     283.0000    total number of electrons
   NUPDOWN=      -1.0000    fix difference up-down

 DOS related values:
   EMIN   =  10.00;   EMAX   =-10.00  energy-range for DOS
   EFERMI =   0.00
   ISMEAR =     1;   SIGMA  =   0.20  broadening in eV -4-tet -1-fermi 0-gaus

 Electronic relaxation 2 (details)
   IALGO  =     68    algorithm
   LDIAG  =      T    sub-space diagonalisation (order eigenvalues)
   LSUBROT=      F    optimize rotation matrix (better conditioning)
   TURBO    =      0    0=normal 1=particle mesh
   IRESTART =      0    0=no restart 2=restart with 2 vectors
   NREBOOT  =      0    no. of reboots
   NMIN     =      0    reboot dimension
   EREF     =   0.00    reference energy to select bands
   IMIX   =      4    mixing-type and parameters
     AMIX     =   0.40;   BMIX     =  1.00
     AMIX_MAG =   1.60;   BMIX_MAG =  1.00
     AMIN     =   0.10
     WC   =   100.;   INIMIX=   1;  MIXPRE=   1;  MAXMIX= -45

 Intra band minimization:
   WEIMIN = 0.0010     energy-eigenvalue tresh-hold
   EBREAK =  0.14E-07  absolut break condition
   DEPER  =   0.30     relativ break condition  

   TIME   =   0.40     timestep for ELM

  volume/ion in A,a.u.               =      31.49       212.49
  Fermi-wavevector in a.u.,A,eV,Ry     =   1.003695  1.896709 13.706569  1.007404
  Thomas-Fermi vector in A             =   2.136264
 
 Write flags
   LWAVE        =      F    write WAVECAR
   LDOWNSAMPLE  =      F    k-point downsampling of WAVECAR
   LCHARG       =      F    write CHGCAR
   LVTOT        =      F    write LOCPOT, total local potential
   LVHAR        =      F    write LOCPOT, Hartree potential only
   LELF         =      F    write electronic localiz. function (ELF)
   LORBIT       =     11    0 simple, 1 ext, 2 COOP (PROOUT), +10 PAW based schemes


 Dipole corrections
   LMONO  =      F    monopole corrections only (constant potential shift)
   LDIPOL =      F    correct potential (dipole corrections)
   IDIPOL =      0    1-x, 2-y, 3-z, 4-all directions 
   EPSILON=  1.0000000 bulk dielectric constant

 LDA+U is selected, type is set to LDAUTYPE =  2
   angular momentum for each species LDAUL =     2   -1   -1
   U (eV)           for each species LDAUU =   3.9  0.0  0.0
   J (eV)           for each species LDAUJ =   0.0  0.0  0.0
 Exchange correlation treatment:
   GGA     =    PE    GGA type
   LEXCH   =     8    internal setting for exchange type
   VOSKOWN=      0    Vosko Wilk Nusair interpolation
   LHFCALC =     F    Hartree Fock is set to
   LHFONE  =     F    Hartree Fock one center treatment
   AEXX    =    0.0000 exact exchange contribution

 Linear response parameters
   LEPSILON=     F    determine dielectric tensor
   LRPA    =     F    only Hartree local field effects (RPA)
   LNABLA  =     F    use nabla operator in PAW spheres
   LVEL    =     F    velocity operator in full k-point grid
   LINTERFAST=   F  fast interpolation
   KINTER  =     0    interpolate to denser k-point grid
   CSHIFT  =0.1000    complex shift for real part using Kramers Kronig
   OMEGAMAX=  -1.0    maximum frequency
   DEG_THRESHOLD= 0.2000000E-02 threshold for treating states as degnerate
   RTIME   =   -0.100 relaxation time in fs
  (WPLASMAI=    0.000 imaginary part of plasma frequency in eV, 0.658/RTIME)
   DFIELD  = 0.0000000 0.0000000 0.0000000 field for delta impulse in time
 
 Orbital magnetization related:
   ORBITALMAG=     F  switch on orbital magnetization
   LCHIMAG   =     F  perturbation theory with respect to B field
   DQ        =  0.001000  dq finite difference perturbation B field
   LLRAUG    =     F  two centre corrections for induced B field



--------------------------------------------------------------------------------------------------------


 conjugate gradient relaxation of ions
   using selective dynamics as specified on POSCAR
 charge density and potential will be updated during run
 spin polarized calculation
 RMM-DIIS sequential band-by-band and
  variant of blocked Davidson during initial phase
 perform sub-space diagonalisation
    before iterative eigenvector-optimisation
 modified Broyden-mixing scheme, WC =      100.0
 initial mixing is a Kerker type mixing with AMIX =  0.4000 and BMIX =      1.0000
 Hartree-type preconditioning will be used
 using additional bands           36
 real space projection scheme for non local part
 use partial core corrections
 calculate Harris-corrections to forces 
   (improved forces if not selfconsistent)
 use gradient corrections 
 use of overlap-Matrix (Vanderbilt PP)
 Methfessel and Paxton  Order N= 1 SIGMA  =   0.20


--------------------------------------------------------------------------------------------------------


  energy-cutoff  :      520.00
  volume of cell :     1228.02
      direct lattice vectors                 reciprocal lattice vectors
     2.873573495 -2.873573495  4.708335110     0.000000000 -0.094445153  0.154747888
     5.747146990  0.000000000  0.000000000     0.173999378  0.047222576 -0.077373944
     0.000000000 33.065691007 20.180529009     0.000000000  0.022035073  0.013448363

  length of vectors
     6.219587508  5.747146990 38.737496987     0.181292017  0.196195011  0.025814781


 
 k-points in units of 2pi/SCALE and weight: KPOINTS created by Atomic Simulation Env
   0.00000000  0.00000000  0.00000000       0.062
   0.00000000 -0.02361129  0.03868697       0.125
   0.00000000 -0.04722258  0.07737394       0.062
   0.04349984  0.01180564 -0.01934349       0.125
   0.04349984 -0.01180564  0.01934349       0.125
   0.04349984 -0.03541693  0.05803046       0.125
   0.04349984  0.03541693 -0.05803046       0.125
   0.08699969  0.02361129 -0.03868697       0.062
   0.08699969 -0.00000000 -0.00000000       0.125
   0.08699969 -0.02361129  0.03868697       0.062
 
 k-points in reciprocal lattice and weights: KPOINTS created by Atomic Simulation Env
   0.00000000  0.00000000  0.00000000       0.062
   0.25000000  0.00000000 -0.00000000       0.125
   0.50000000  0.00000000 -0.00000000       0.062
   0.00000000  0.25000000 -0.00000000       0.125
   0.25000000  0.25000000 -0.00000000       0.125
   0.50000000  0.25000000  0.00000000       0.125
  -0.25000000  0.25000000 -0.00000000       0.125
   0.00000000  0.50000000 -0.00000000       0.062
   0.25000000  0.50000000 -0.00000000       0.125
   0.50000000  0.50000000 -0.00000000       0.062
 
 position of ions in fractional coordinates (direct lattice) 
   0.22067121  0.89240241  0.08901558
   0.68084567  0.16709578  0.21822675
   0.94927612  0.02809995  0.15233499
   0.39701685  0.30953256  0.28300322
   0.44927612  0.52809995  0.15233499
   0.90498423  0.31577516  0.28472907
   0.44927612  0.02809995  0.15233499
   0.89687866  0.80145287  0.28357832
   0.90282244  0.55132680  0.10484543
   0.35269476  0.83370934  0.23472002
   0.99518744  0.50737576  0.20227089
   0.53851998  0.23347802  0.07318573
   0.77910121  0.62320278  0.31057468
   0.87926422  0.06310591  0.05527763
   0.34073422  0.33193734  0.18299267
   0.58246139  0.21150732  0.12452493
   0.04177769  0.48697548  0.25449024
   0.09516526  0.72856013  0.12156099
   0.54765157  0.45615752  0.25113794
   0.74631661  0.13836781  0.31182868
   0.85888103  0.57329750  0.05350623
   0.31405133  0.84635226  0.18099651
   0.56207820  0.72169891  0.12275353
   0.00617588  0.00728586  0.25391479
   0.80035612  0.33006574  0.18355505
   0.22952949  0.63843580  0.31022109
   0.34617716  0.60305419  0.05647018
   0.25524634  0.14989306  0.31252239
   0.80036335  0.87992335  0.18410493
   0.34617716  0.05624469  0.05647018
   0.56758299  0.99650981  0.25284070
   0.09516526  0.18175063  0.12156099
   0.34047062  0.60391201  0.02782883
   0.92434681  0.68523651  0.03696881
   0.34363348  0.06399961  0.02783421
   0.88838126  0.05560908  0.02665597
   0.75125388  0.13526947  0.33688272
   0.18989475  0.58293944  0.33213220
   0.34779317  0.95770944  0.31351407
 
 position of ions in cartesian coordinates  (Angst):
   5.76288277  2.30924686  2.83537559
   2.91678409  5.25935807  7.60958074
   2.88930927  2.30924686  7.54371070
   2.91978624  8.21683999  7.58044310
   4.32609602  3.74603361  5.18954314
   4.41534497  6.81422478 10.00695228
   1.45252253  3.74603361  5.18954314
   7.18331419  6.79946625  9.94556574
   5.76288277  0.87246011  6.36662692
   5.80494443  6.74768523  6.39737921
   5.77570733  3.82848252  8.76760954
   2.88930927  0.87246011  4.01245936
   5.82044256  8.03056181  9.93583092
   2.88930927 -0.69883718  5.25540249
   2.88681750  5.07165432  5.29717984
   2.88930927  2.44375740  5.25540249
   2.91877091  8.29484442  5.33245107
   4.46060656  3.74603361  2.90123493
   4.19532138  6.73033258  7.64662366
   2.93981581  8.16623511  9.80677642
   5.76288277 -0.69883718  5.12368380
   5.76656044  5.08232522  5.13126431
   5.76288277  2.44375740  5.12368380
   0.05961973  8.37812109  5.15321286
   4.19681846  3.76949243  7.47258283
   4.32875427  9.59810478  7.34112745
   4.46060656  0.87246011  2.76951624
   1.59492660  9.60029961  7.50865246
   7.35695175  3.78765398  7.48371381
   1.31801199  0.87246011  2.76951624
   7.35807979  6.72936112  7.77483009
   1.31801199  3.74603361  2.90123493
   4.44913845 -0.05818785  2.16465027
   6.59433342 -1.43377909  5.09818478
   1.35527122 -0.06709860  2.17965068
   2.87242244 -1.67143072  4.72072832
   2.93619673  8.98047669 10.33562651
   3.89591516 10.43650421  7.59669162
   6.50350615  9.36715016  7.96440662
 


--------------------------------------------------------------------------------------------------------


 k-point  1 :   0.0000 0.0000 0.0000  plane waves:   33139
 k-point  2 :   0.2500 0.0000-0.0000  plane waves:   33075
 k-point  3 :   0.5000 0.0000-0.0000  plane waves:   33034
 k-point  4 :   0.0000 0.2500-0.0000  plane waves:   33096
 k-point  5 :   0.2500 0.2500-0.0000  plane waves:   33096
 k-point  6 :   0.5000 0.2500 0.0000  plane waves:   33037
 k-point  7 :  -0.2500 0.2500-0.0000  plane waves:   33037
 k-point  8 :   0.0000 0.5000-0.0000  plane waves:   33016
 k-point  9 :   0.2500 0.5000-0.0000  plane waves:   33093
 k-point 10 :   0.5000 0.5000-0.0000  plane waves:   33016

 maximum and minimum number of plane-waves per node :      1061     1010

 maximum number of plane-waves:     33139
 maximum index in each direction: 
   IXMAX=   11   IYMAX=   10   IZMAX=   72
   IXMIN=  -12   IYMIN=  -11   IZMIN=  -72


 real space projection operators:
  total allocation   :      16346.05 KBytes
  max/ min on nodes  :        750.24        254.20


 parallel 3D FFT for wavefunctions:
    minimum data exchange during FFTs selected (reduces bandwidth)
 parallel 3D FFT for charge:
    minimum data exchange during FFTs selected (reduces bandwidth)


 total amount of memory used by VASP MPI-rank0    82020. kBytes
=======================================================================

   base      :      30000. kBytes
   nonlr-proj:       5339. kBytes
   fftplans  :       4286. kBytes
   grid      :      11974. kBytes
   one-center:         62. kBytes
   wavefun   :      30359. kBytes
 
     INWAV:  cpu time    0.0001: real time    0.0001
 Broyden mixing: mesh for mixing (old mesh)
   NGX = 23   NGY = 21   NGZ =145
  (NGX  = 96   NGY  = 96   NGZ  =576)
  gives a total of  70035 points

 initial charge density was supplied:
 charge density of overlapping atoms calculated
 number of electron     283.0000000 magnetization      17.6000000
 keeping initial charge density in first step


--------------------------------------------------------------------------------------------------------


 Maximum index for non-local projection operator          422
 Maximum index for augmentation-charges          718 (set IRDMAX)


--------------------------------------------------------------------------------------------------------


 First call to EWALD:  gamma=   0.166
 Maximum number of real-space cells 5x 5x 1
 Maximum number of reciprocal cells 2x 2x 9

    FEWALD:  cpu time    0.0073: real time    0.0073


--------------------------------------- Iteration      1(   1)  ---------------------------------------


    POTLOK:  cpu time    0.5369: real time    0.5598
    SETDIJ:  cpu time    0.0677: real time    0.0689
     EDDAV:  cpu time   40.5578: real time   40.6725
       DOS:  cpu time    0.0286: real time    0.0286
    --------------------------------------------
      LOOP:  cpu time   41.1911: real time   41.3300

 eigenvalue-minimisations  :  8544
 total energy-change (2. order) : 0.3070674E+04  (-0.1521037E+05)
 number of electron     283.0000000 magnetization      17.6000000
 augmentation part      283.0000000 magnetization      17.6000000

 Free energy of the ion-electron system (eV)
  ---------------------------------------------------
  alpha Z        PSCENC =       367.19046233
  Ewald energy   TEWEN  =    349445.33445936
  -Hartree energ DENC   =   -378294.64102985
  -exchange      EXHF   =         0.00000000
  -V(xc)+E(xc)   XCENC  =      1403.35338887
  PAW double counting   =     26684.04616855   -27256.18289806
  entropy T*S    EENTRO =        -0.00349963
  eigenvalues    EBANDS =     -2316.11882075
  atomic energy  EATOM  =     33037.69599157
  Solvation  Ediel_sol  =         0.00000000
  ---------------------------------------------------
  free energy    TOTEN  =      3070.67422239 eV

  energy without entropy =     3070.67772202  energy(sigma->0) =     3070.67538894


--------------------------------------------------------------------------------------------------------




--------------------------------------- Iteration      1(   2)  ---------------------------------------


     EDDAV:  cpu time   39.6588: real time   40.1533
       DOS:  cpu time    0.0260: real time    0.0260
    --------------------------------------------
      LOOP:  cpu time   39.6848: real time   40.1793

 eigenvalue-minimisations  :  8066
 total energy-change (2. order) :-0.2859698E+04  (-0.2695547E+04)
 number of electron     283.0000000 magnetization      17.6000000
 augmentation part      283.0000000 magnetization      17.6000000

 Free energy of the ion-electron system (eV)
  ---------------------------------------------------
  alpha Z        PSCENC =       367.19046233
  Ewald energy   TEWEN  =    349445.33445936
  -Hartree energ DENC   =   -378294.64102985
  -exchange      EXHF   =         0.00000000
  -V(xc)+E(xc)   XCENC  =      1403.35338887
  PAW double counting   =     26684.04616855   -27256.18289806
  entropy T*S    EENTRO =         0.00273116
  eigenvalues    EBANDS =     -5175.82338843
  atomic energy  EATOM  =     33037.69599157
  Solvation  Ediel_sol  =         0.00000000
  ---------------------------------------------------
  free energy    TOTEN  =       210.97588549 eV

  energy without entropy =      210.97315433  energy(sigma->0) =      210.97497511


--------------------------------------------------------------------------------------------------------




--------------------------------------- Iteration      1(   3)  ---------------------------------------


     EDDAV:  cpu time   40.9573: real time   41.4412
       DOS:  cpu time    0.0277: real time    0.0277
    --------------------------------------------
      LOOP:  cpu time   40.9850: real time   41.4688

 eigenvalue-minimisations  :  8566
 total energy-change (2. order) :-0.4944506E+03  (-0.4869838E+03)
 number of electron     283.0000000 magnetization      17.6000000
 augmentation part      283.0000000 magnetization      17.6000000

 Free energy of the ion-electron system (eV)
  ---------------------------------------------------
  alpha Z        PSCENC =       367.19046233
  Ewald energy   TEWEN  =    349445.33445936
  -Hartree energ DENC   =   -378294.64102985
  -exchange      EXHF   =         0.00000000
  -V(xc)+E(xc)   XCENC  =      1403.35338887
  PAW double counting   =     26684.04616855   -27256.18289806
  entropy T*S    EENTRO =         0.00176349
  eigenvalues    EBANDS =     -5670.27304015
  atomic energy  EATOM  =     33037.69599157
  Solvation  Ediel_sol  =         0.00000000
  ---------------------------------------------------
  free energy    TOTEN  =      -283.47473390 eV

  energy without entropy =     -283.47649738  energy(sigma->0) =     -283.47532173


--------------------------------------------------------------------------------------------------------




--------------------------------------- Iteration      1(   4)  ---------------------------------------


     EDDAV:  cpu time   40.8022: real time   40.9028
       DOS:  cpu time    0.0283: real time    0.0283
    --------------------------------------------
      LOOP:  cpu time   40.8305: real time   40.9311

 eigenvalue-minimisations  :  8640
 total energy-change (2. order) :-0.2088127E+02  (-0.2071646E+02)
 number of electron     283.0000000 magnetization      17.6000000
 augmentation part      283.0000000 magnetization      17.6000000

 Free energy of the ion-electron system (eV)
  ---------------------------------------------------
  alpha Z        PSCENC =       367.19046233
  Ewald energy   TEWEN  =    349445.33445936
  -Hartree energ DENC   =   -378294.64102985
  -exchange      EXHF   =         0.00000000
  -V(xc)+E(xc)   XCENC  =      1403.35338887
  PAW double counting   =     26684.04616855   -27256.18289806
  entropy T*S    EENTRO =         0.00613746
  eigenvalues    EBANDS =     -5691.15868008
  atomic energy  EATOM  =     33037.69599157
  Solvation  Ediel_sol  =         0.00000000
  ---------------------------------------------------
  free energy    TOTEN  =      -304.35599985 eV

  energy without entropy =     -304.36213732  energy(sigma->0) =     -304.35804567


--------------------------------------------------------------------------------------------------------




--------------------------------------- Iteration      1(   5)  ---------------------------------------


     EDDAV:  cpu time   40.9801: real time   41.4807
       DOS:  cpu time    0.0295: real time    0.0295
    CHARGE:  cpu time    2.9352: real time    2.9393
    MIXING:  cpu time    0.0165: real time    0.0184
    --------------------------------------------
      LOOP:  cpu time   43.9612: real time   44.4679

 eigenvalue-minimisations  :  8488
 total energy-change (2. order) :-0.4773112E+00  (-0.4763880E+00)
 number of electron     282.9999997 magnetization      17.7078378
 augmentation part       97.0699432 magnetization       9.8291811

 Broyden mixing:
  rms(total) = 0.70216E+01    rms(broyden)= 0.70195E+01
  rms(prec ) = 0.71187E+01
  weight for this iteration     100.00

 Free energy of the ion-electron system (eV)
  ---------------------------------------------------
  alpha Z        PSCENC =       367.19046233
  Ewald energy   TEWEN  =    349445.33445936
  -Hartree energ DENC   =   -378294.64102985
  -exchange      EXHF   =         0.00000000
  -V(xc)+E(xc)   XCENC  =      1403.35338887
  PAW double counting   =     26684.04616855   -27256.18289806
  entropy T*S    EENTRO =         0.00669316
  eigenvalues    EBANDS =     -5691.63654699
  atomic energy  EATOM  =     33037.69599157
  Solvation  Ediel_sol  =         0.00000000
  ---------------------------------------------------
  free energy    TOTEN  =      -304.83331106 eV

  energy without entropy =     -304.84000422  energy(sigma->0) =     -304.83554211


--------------------------------------------------------------------------------------------------------




--------------------------------------- Iteration      1(   6)  ---------------------------------------


    POTLOK:  cpu time    0.4941: real time    0.5266
    SETDIJ:  cpu time    0.0424: real time    0.0424
    EDDIAG:  cpu time    7.5749: real time    7.5906
  RMM-DIIS:  cpu time   25.4837: real time   26.1119
    ORTHCH:  cpu time    0.3943: real time    0.3943
       DOS:  cpu time    0.0258: real time    0.0258
    CHARGE:  cpu time    2.9675: real time    2.9711
    MIXING:  cpu time    0.0136: real time    0.0254
    --------------------------------------------
      LOOP:  cpu time   36.9965: real time   37.6883

 eigenvalue-minimisations  :  8535
 total energy-change (2. order) : 0.2750952E+02  (-0.5713043E+02)
 number of electron     282.9999995 magnetization      17.7509280
 augmentation part      103.6751601 magnetization      11.4875607

 Broyden mixing:
  rms(total) = 0.77668E+01    rms(broyden)= 0.77660E+01
  rms(prec ) = 0.78506E+01
  weight for this iteration     100.00

 eigenvalues of (default mixing * dielectric matrix)
  average eigenvalue GAMMA=   0.2828
  0.2828

 Free energy of the ion-electron system (eV)
  ---------------------------------------------------
  alpha Z        PSCENC =       367.19046233
  Ewald energy   TEWEN  =    349445.33445936
  -Hartree energ DENC   =   -378150.92887634
  -exchange      EXHF   =         0.00000000
  -V(xc)+E(xc)   XCENC  =      1412.50577159
  PAW double counting   =     28359.64851641   -28876.06265765
  entropy T*S    EENTRO =         0.00625624
  eigenvalues    EBANDS =     -5872.71371317
  atomic energy  EATOM  =     33037.69599157
  Solvation  Ediel_sol  =         0.00000000
  ---------------------------------------------------
  free energy    TOTEN  =      -277.32378965 eV

  energy without entropy =     -277.33004589  energy(sigma->0) =     -277.32587507


--------------------------------------------------------------------------------------------------------




--------------------------------------- Iteration      1(   7)  ---------------------------------------


    POTLOK:  cpu time    0.4682: real time    0.4996
    SETDIJ:  cpu time    0.0410: real time    0.0410
    EDDIAG:  cpu time    7.6003: real time    7.6111
  RMM-DIIS:  cpu time   23.7139: real time   23.7382
    ORTHCH:  cpu time    0.3952: real time    0.3959
       DOS:  cpu time    0.0250: real time    0.0250
    CHARGE:  cpu time    3.0156: real time    3.0184
    MIXING:  cpu time    0.0106: real time    0.0135
    --------------------------------------------
      LOOP:  cpu time   35.2698: real time   35.3426

 eigenvalue-minimisations  :  7948
 total energy-change (2. order) : 0.4919687E+01  (-0.4119239E+01)
 number of electron     282.9999998 magnetization      17.8594352
 augmentation part      100.5164535 magnetization       9.6899291

 Broyden mixing:
  rms(total) = 0.62467E+01    rms(broyden)= 0.62462E+01
  rms(prec ) = 0.63726E+01
  weight for this iteration     100.00

 eigenvalues of (default mixing * dielectric matrix)
  average eigenvalue GAMMA=   0.3965
  0.3965  0.3965

 Free energy of the ion-electron system (eV)
  ---------------------------------------------------
  alpha Z        PSCENC =       367.19046233
  Ewald energy   TEWEN  =    349445.33445936
  -Hartree energ DENC   =   -378336.36948136
  -exchange      EXHF   =         0.00000000
  -V(xc)+E(xc)   XCENC  =      1414.16540425
  PAW double counting   =     29531.62346444   -30087.71952824
  entropy T*S    EENTRO =         0.00270805
  eigenvalues    EBANDS =     -5644.32758309
  atomic energy  EATOM  =     33037.69599157
  Solvation  Ediel_sol  =         0.00000000
  ---------------------------------------------------
  free energy    TOTEN  =      -272.40410269 eV

  energy without entropy =     -272.40681074  energy(sigma->0) =     -272.40500538


--------------------------------------------------------------------------------------------------------




--------------------------------------- Iteration      1(   8)  ---------------------------------------


    POTLOK:  cpu time    0.4986: real time    0.4996
    SETDIJ:  cpu time    0.0409: real time    0.0409
    EDDIAG:  cpu time    7.6147: real time    7.6583
  RMM-DIIS:  cpu time   23.8346: real time   24.2406
    ORTHCH:  cpu time    0.3925: real time    0.3935
       DOS:  cpu time    0.0268: real time    0.0268
    CHARGE:  cpu time    2.9185: real time    2.9324
    MIXING:  cpu time    0.0104: real time    0.0120
    --------------------------------------------
      LOOP:  cpu time   35.3371: real time   35.8041

 eigenvalue-minimisations  :  7798
 total energy-change (2. order) :-0.4316730E+01  (-0.6574848E+01)
 number of electron     282.9999994 magnetization      17.9804488
 augmentation part      101.5584594 magnetization      12.1038130

 Broyden mixing:
  rms(total) = 0.65048E+01    rms(broyden)= 0.65043E+01
  rms(prec ) = 0.67058E+01
  weight for this iteration     100.00

 eigenvalues of (default mixing * dielectric matrix)
  average eigenvalue GAMMA=   0.4784
  0.6136  0.6136  0.2080

 Free energy of the ion-electron system (eV)
  ---------------------------------------------------
  alpha Z        PSCENC =       367.19046233
  Ewald energy   TEWEN  =    349445.33445936
  -Hartree energ DENC   =   -378398.32331772
  -exchange      EXHF   =         0.00000000
  -V(xc)+E(xc)   XCENC  =      1415.14267209
  PAW double counting   =     30298.40074104   -30870.46637585
  entropy T*S    EENTRO =        -0.02243649
  eigenvalues    EBANDS =     -5571.67302950
  atomic energy  EATOM  =     33037.69599157
  Solvation  Ediel_sol  =         0.00000000
  ---------------------------------------------------
  free energy    TOTEN  =      -276.72083319 eV

  energy without entropy =     -276.69839669  energy(sigma->0) =     -276.71335435


--------------------------------------------------------------------------------------------------------




--------------------------------------- Iteration      1(   9)  ---------------------------------------


    POTLOK:  cpu time    0.4684: real time    0.5006
    SETDIJ:  cpu time    0.0409: real time    0.0409
    EDDIAG:  cpu time    7.5923: real time    7.5989
  RMM-DIIS:  cpu time   23.8465: real time   23.9326
    ORTHCH:  cpu time    0.3939: real time    0.3939
       DOS:  cpu time    0.0269: real time    0.0269
    CHARGE:  cpu time    3.5009: real time    3.8167
    MIXING:  cpu time    0.0101: real time    0.0101
    --------------------------------------------
      LOOP:  cpu time   35.8798: real time   36.3205

 eigenvalue-minimisations  :  7990
 total energy-change (2. order) : 0.1774476E+02  (-0.2362801E+01)
 number of electron     282.9999996 magnetization      18.2850238
 augmentation part      100.0939914 magnetization      10.2698068

 Broyden mixing:
  rms(total) = 0.34030E+01    rms(broyden)= 0.34024E+01
  rms(prec ) = 0.35016E+01
  weight for this iteration     100.00

 eigenvalues of (default mixing * dielectric matrix)
  average eigenvalue GAMMA=   0.7109
  1.5325  0.5688  0.5688  0.1738

 Free energy of the ion-electron system (eV)
  ---------------------------------------------------
  alpha Z        PSCENC =       367.19046233
  Ewald energy   TEWEN  =    349445.33445936
  -Hartree energ DENC   =   -378363.92444187
  -exchange      EXHF   =         0.00000000
  -V(xc)+E(xc)   XCENC  =      1415.14614515
  PAW double counting   =     31365.09137706   -31953.78847027
  entropy T*S    EENTRO =        -0.04421582
  eigenvalues    EBANDS =     -5571.67737726
  atomic energy  EATOM  =     33037.69599157
  Solvation  Ediel_sol  =         0.00000000
  ---------------------------------------------------
  free energy    TOTEN  =      -258.97606975 eV

  energy without entropy =     -258.93185393  energy(sigma->0) =     -258.96133115


--------------------------------------------------------------------------------------------------------




--------------------------------------- Iteration      1(  10)  ---------------------------------------


    POTLOK:  cpu time    0.5204: real time    0.5238
    SETDIJ:  cpu time    0.0409: real time    0.0409
    EDDIAG:  cpu time    7.6219: real time    7.6455
  RMM-DIIS:  cpu time   22.9666: real time   23.0060
    ORTHCH:  cpu time    0.3913: real time    0.3923
       DOS:  cpu time    0.0261: real time    0.0261
    CHARGE:  cpu time    2.9610: real time    2.9634
    MIXING:  cpu time    0.0107: real time    0.0107
    --------------------------------------------
      LOOP:  cpu time   34.5388: real time   34.6087

 eigenvalue-minimisations  :  7698
 total energy-change (2. order) :-0.6017239E+01  (-0.8865961E+00)
 number of electron     282.9999992 magnetization      18.3576510
 augmentation part      101.9269988 magnetization      10.8033815

 Broyden mixing:
  rms(total) = 0.37888E+01    rms(broyden)= 0.37878E+01
  rms(prec ) = 0.41246E+01
  weight for this iteration     100.00

 eigenvalues of (default mixing * dielectric matrix)
  average eigenvalue GAMMA=   0.6536
  1.6385  0.5655  0.5655  0.1673  0.3313

 Free energy of the ion-electron system (eV)
  ---------------------------------------------------
  alpha Z        PSCENC =       367.19046233
  Ewald energy   TEWEN  =    349445.33445936
  -Hartree energ DENC   =   -378414.27299848
  -exchange      EXHF   =         0.00000000
  -V(xc)+E(xc)   XCENC  =      1417.11531511
  PAW double counting   =     32762.81435472   -33368.24661366
  entropy T*S    EENTRO =        -0.02501281
  eigenvalues    EBANDS =     -5512.59926667
  atomic energy  EATOM  =     33037.69599157
  Solvation  Ediel_sol  =         0.00000000
  ---------------------------------------------------
  free energy    TOTEN  =      -264.99330854 eV

  energy without entropy =     -264.96829573  energy(sigma->0) =     -264.98497094


--------------------------------------------------------------------------------------------------------




--------------------------------------- Iteration      1(  11)  ---------------------------------------


    POTLOK:  cpu time    0.4666: real time    0.4993
    SETDIJ:  cpu time    0.0412: real time    0.0411
    EDDIAG:  cpu time    7.5914: real time    7.6047
  RMM-DIIS:  cpu time   24.7771: real time   25.1663
    ORTHCH:  cpu time    0.3963: real time    0.3973
       DOS:  cpu time    0.0263: real time    0.0263
    CHARGE:  cpu time    3.0034: real time    3.0061
    MIXING:  cpu time    0.0100: real time    0.0101
    --------------------------------------------
      LOOP:  cpu time   36.3124: real time   36.7513

 eigenvalue-minimisations  :  8106
 total energy-change (2. order) : 0.8385634E+01  (-0.8210554E+00)
 number of electron     282.9999994 magnetization      18.5001735
 augmentation part      100.0527551 magnetization      10.1824577

 Broyden mixing:
  rms(total) = 0.16290E+01    rms(broyden)= 0.16278E+01
  rms(prec ) = 0.16485E+01
  weight for this iteration     100.00

 eigenvalues of (default mixing * dielectric matrix)
  average eigenvalue GAMMA=   0.6460
  1.8074  0.6413  0.6413  0.1644  0.3109  0.3109

 Free energy of the ion-electron system (eV)
  ---------------------------------------------------
  alpha Z        PSCENC =       367.19046233
  Ewald energy   TEWEN  =    349445.33445936
  -Hartree energ DENC   =   -378498.91781854
  -exchange      EXHF   =         0.00000000
  -V(xc)+E(xc)   XCENC  =      1417.82839478
  PAW double counting   =     32930.02598047   -33535.77718344
  entropy T*S    EENTRO =        -0.01661115
  eigenvalues    EBANDS =     -5419.97135013
  atomic energy  EATOM  =     33037.69599157
  Solvation  Ediel_sol  =         0.00000000
  ---------------------------------------------------
  free energy    TOTEN  =      -256.60767476 eV

  energy without entropy =     -256.59106360  energy(sigma->0) =     -256.60213771


--------------------------------------------------------------------------------------------------------




--------------------------------------- Iteration      1(  12)  ---------------------------------------


    POTLOK:  cpu time    0.4641: real time    0.4965
    SETDIJ:  cpu time    0.0411: real time    0.0411
    EDDIAG:  cpu time    7.6010: real time    7.6158
  RMM-DIIS:  cpu time   21.8381: real time   21.8724
    ORTHCH:  cpu time    0.3937: real time    0.3937
       DOS:  cpu time    0.0240: real time    0.0240
    CHARGE:  cpu time    3.0203: real time    3.0238
    MIXING:  cpu time    0.0105: real time    0.0105
    --------------------------------------------
      LOOP:  cpu time   33.3927: real time   33.4777

 eigenvalue-minimisations  :  7309
 total energy-change (2. order) :-0.6471419E+00  (-0.1384778E+00)
 number of electron     282.9999994 magnetization      18.7064526
 augmentation part      100.1819024 magnetization      10.5522499

 Broyden mixing:
  rms(total) = 0.11690E+01    rms(broyden)= 0.11687E+01
  rms(prec ) = 0.11891E+01
  weight for this iteration     100.00

 eigenvalues of (default mixing * dielectric matrix)
  average eigenvalue GAMMA=   0.6894
  1.7631  0.7240  0.7240  0.7399  0.1652  0.3549  0.3549

 Free energy of the ion-electron system (eV)
  ---------------------------------------------------
  alpha Z        PSCENC =       367.19046233
  Ewald energy   TEWEN  =    349445.33445936
  -Hartree energ DENC   =   -378495.28335055
  -exchange      EXHF   =         0.00000000
  -V(xc)+E(xc)   XCENC  =      1418.03504971
  PAW double counting   =     33050.31321953   -33658.14989876
  entropy T*S    EENTRO =         0.00917624
  eigenvalues    EBANDS =     -5422.39992606
  atomic energy  EATOM  =     33037.69599157
  Solvation  Ediel_sol  =         0.00000000
  ---------------------------------------------------
  free energy    TOTEN  =      -257.25481664 eV

  energy without entropy =     -257.26399288  energy(sigma->0) =     -257.25787538


--------------------------------------------------------------------------------------------------------




--------------------------------------- Iteration      1(  13)  ---------------------------------------


    POTLOK:  cpu time    0.4671: real time    0.4981
    SETDIJ:  cpu time    0.0411: real time    0.0411
    EDDIAG:  cpu time    7.6228: real time    7.6646
  RMM-DIIS:  cpu time   22.6867: real time   23.1671
    ORTHCH:  cpu time    0.3932: real time    0.3932
       DOS:  cpu time    0.0253: real time    0.0253
    CHARGE:  cpu time    3.0335: real time    3.0362
    MIXING:  cpu time    0.0106: real time    0.0106
    --------------------------------------------
      LOOP:  cpu time   34.2805: real time   34.8362

 eigenvalue-minimisations  :  7482
 total energy-change (2. order) :-0.3288478E+00  (-0.1028440E+00)
 number of electron     282.9999995 magnetization      18.9218041
 augmentation part      100.1674841 magnetization      10.7503798

 Broyden mixing:
  rms(total) = 0.10330E+01    rms(broyden)= 0.10326E+01
  rms(prec ) = 0.10605E+01
  weight for this iteration     100.00

 eigenvalues of (default mixing * dielectric matrix)
  average eigenvalue GAMMA=   0.7157
  1.8931  0.9153  0.9153  0.5702  0.5702  0.1650  0.3483  0.3483

 Free energy of the ion-electron system (eV)
  ---------------------------------------------------
  alpha Z        PSCENC =       367.19046233
  Ewald energy   TEWEN  =    349445.33445936
  -Hartree energ DENC   =   -378502.81824459
  -exchange      EXHF   =         0.00000000
  -V(xc)+E(xc)   XCENC  =      1418.06287605
  PAW double counting   =     33095.17435098   -33702.24599460
  entropy T*S    EENTRO =         0.02987578
  eigenvalues    EBANDS =     -5416.00744130
  atomic energy  EATOM  =     33037.69599157
  Solvation  Ediel_sol  =         0.00000000
  ---------------------------------------------------
  free energy    TOTEN  =      -257.58366444 eV

  energy without entropy =     -257.61354021  energy(sigma->0) =     -257.59362303


--------------------------------------------------------------------------------------------------------




--------------------------------------- Iteration      1(  14)  ---------------------------------------


    POTLOK:  cpu time    0.4700: real time    0.5026
    SETDIJ:  cpu time    0.0381: real time    0.0409
    EDDIAG:  cpu time    7.5720: real time    7.5978
  RMM-DIIS:  cpu time   23.4442: real time   23.5046
    ORTHCH:  cpu time    0.3938: real time    0.3937
       DOS:  cpu time    0.0246: real time    0.0246
    CHARGE:  cpu time    2.9911: real time    2.9974
    MIXING:  cpu time    0.0107: real time    0.0107
    --------------------------------------------
      LOOP:  cpu time   34.9445: real time   35.0723

 eigenvalue-minimisations  :  7804
 total energy-change (2. order) : 0.3120209E+00  (-0.1122540E+00)
 number of electron     282.9999995 magnetization      19.2172873
 augmentation part      100.2833301 magnetization      10.9848680

 Broyden mixing:
  rms(total) = 0.77640E+00    rms(broyden)= 0.77613E+00
  rms(prec ) = 0.80395E+00
  weight for this iteration     100.00

 eigenvalues of (default mixing * dielectric matrix)
  average eigenvalue GAMMA=   0.7752
  1.6623  1.6623  0.7883  0.7883  0.6038  0.6038  0.1650  0.3596  0.3437

 Free energy of the ion-electron system (eV)
  ---------------------------------------------------
  alpha Z        PSCENC =       367.19046233
  Ewald energy   TEWEN  =    349445.33445936
  -Hartree energ DENC   =   -378508.31486856
  -exchange      EXHF   =         0.00000000
  -V(xc)+E(xc)   XCENC  =      1418.17515918
  PAW double counting   =     33181.43255368   -33789.51911710
  entropy T*S    EENTRO =         0.01733673
  eigenvalues    EBANDS =     -5409.28362075
  atomic energy  EATOM  =     33037.69599157
  Solvation  Ediel_sol  =         0.00000000
  ---------------------------------------------------
  free energy    TOTEN  =      -257.27164357 eV

  energy without entropy =     -257.28898030  energy(sigma->0) =     -257.27742248


--------------------------------------------------------------------------------------------------------




--------------------------------------- Iteration      1(  15)  ---------------------------------------


    POTLOK:  cpu time    0.4652: real time    0.4968
    SETDIJ:  cpu time    0.0408: real time    0.0408
    EDDIAG:  cpu time    8.1305: real time    8.5687
  RMM-DIIS:  cpu time   22.8091: real time   22.8563
    ORTHCH:  cpu time    0.3930: real time    0.3942
       DOS:  cpu time    0.0252: real time    0.0251
    CHARGE:  cpu time    3.0403: real time    3.0430
    MIXING:  cpu time    0.0122: real time    0.0122
    --------------------------------------------
      LOOP:  cpu time   34.9163: real time   35.4369

 eigenvalue-minimisations  :  7624
 total energy-change (2. order) :-0.1653334E-01  (-0.4396485E-01)
 number of electron     282.9999995 magnetization      19.3249402
 augmentation part      100.4034288 magnetization      11.3925751

 Broyden mixing:
  rms(total) = 0.72403E+00    rms(broyden)= 0.72385E+00
  rms(prec ) = 0.74339E+00
  weight for this iteration     100.00

 eigenvalues of (default mixing * dielectric matrix)
  average eigenvalue GAMMA=   0.7439
  1.6741  1.6741  0.8574  0.8574  0.5654  0.5654  0.1650  0.4176  0.3314  0.3314

 Free energy of the ion-electron system (eV)
  ---------------------------------------------------
  alpha Z        PSCENC =       367.19046233
  Ewald energy   TEWEN  =    349445.33445936
  -Hartree energ DENC   =   -378522.63279685
  -exchange      EXHF   =         0.00000000
  -V(xc)+E(xc)   XCENC  =      1417.91951224
  PAW double counting   =     33211.68266842   -33820.07970376
  entropy T*S    EENTRO =         0.01454717
  eigenvalues    EBANDS =     -5394.41331738
  atomic energy  EATOM  =     33037.69599157
  Solvation  Ediel_sol  =         0.00000000
  ---------------------------------------------------
  free energy    TOTEN  =      -257.28817691 eV

  energy without entropy =     -257.30272408  energy(sigma->0) =     -257.29302596


--------------------------------------------------------------------------------------------------------




--------------------------------------- Iteration      1(  16)  ---------------------------------------


    POTLOK:  cpu time    0.4639: real time    0.4964
    SETDIJ:  cpu time    0.0412: real time    0.0411
    EDDIAG:  cpu time    7.5704: real time    7.5771
  RMM-DIIS:  cpu time   23.7251: real time   24.1396
    ORTHCH:  cpu time    0.3938: real time    0.3937
       DOS:  cpu time    0.0263: real time    0.0263
    CHARGE:  cpu time    3.0403: real time    3.0477
    MIXING:  cpu time    0.0114: real time    0.0124
    --------------------------------------------
      LOOP:  cpu time   35.2723: real time   35.7345

 eigenvalue-minimisations  :  7651
 total energy-change (2. order) : 0.1246784E+00  (-0.1846775E-01)
 number of electron     282.9999994 magnetization      19.3565174
 augmentation part      100.4884786 magnetization      11.6235367

 Broyden mixing:
  rms(total) = 0.69359E+00    rms(broyden)= 0.69349E+00
  rms(prec ) = 0.70471E+00
  weight for this iteration     100.00

 eigenvalues of (default mixing * dielectric matrix)
  average eigenvalue GAMMA=   0.6978
  1.7141  1.7141  0.8414  0.8414  0.5518  0.5518  0.1650  0.3845  0.3251  0.2931
  0.2931

 Free energy of the ion-electron system (eV)
  ---------------------------------------------------
  alpha Z        PSCENC =       367.19046233
  Ewald energy   TEWEN  =    349445.33445936
  -Hartree energ DENC   =   -378538.59231907
  -exchange      EXHF   =         0.00000000
  -V(xc)+E(xc)   XCENC  =      1418.02332297
  PAW double counting   =     33234.39175258   -33843.16954504
  entropy T*S    EENTRO =        -0.00031354
  eigenvalues    EBANDS =     -5378.03730971
  atomic energy  EATOM  =     33037.69599157
  Solvation  Ediel_sol  =         0.00000000
  ---------------------------------------------------
  free energy    TOTEN  =      -257.16349855 eV

  energy without entropy =     -257.16318501  energy(sigma->0) =     -257.16339403


--------------------------------------------------------------------------------------------------------




--------------------------------------- Iteration      1(  17)  ---------------------------------------


    POTLOK:  cpu time    0.4637: real time    0.4952
    SETDIJ:  cpu time    0.0410: real time    0.0410
    EDDIAG:  cpu time    7.5870: real time    7.5947
  RMM-DIIS:  cpu time   25.0100: real time   25.0443
    ORTHCH:  cpu time    0.3936: real time    0.3936
       DOS:  cpu time    0.0261: real time    0.0261
    CHARGE:  cpu time    3.0190: real time    3.0226
    MIXING:  cpu time    0.0115: real time    0.0115
    --------------------------------------------
      LOOP:  cpu time   36.5519: real time   36.6290

 eigenvalue-minimisations  :  8423
 total energy-change (2. order) : 0.2084024E+00  (-0.3882731E-02)
 number of electron     282.9999994 magnetization      19.3564698
 augmentation part      100.5304509 magnetization      11.6096815

 Broyden mixing:
  rms(total) = 0.66997E+00    rms(broyden)= 0.66986E+00
  rms(prec ) = 0.67870E+00
  weight for this iteration     100.00

 eigenvalues of (default mixing * dielectric matrix)
  average eigenvalue GAMMA=   0.6537
  1.7158  1.7158  0.8382  0.8382  0.5473  0.5473  0.4028  0.1650  0.3048  0.3048
  0.2324  0.2324

 Free energy of the ion-electron system (eV)
  ---------------------------------------------------
  alpha Z        PSCENC =       367.19046233
  Ewald energy   TEWEN  =    349445.33445936
  -Hartree energ DENC   =   -378544.15707255
  -exchange      EXHF   =         0.00000000
  -V(xc)+E(xc)   XCENC  =      1418.29857374
  PAW double counting   =     33240.30586608   -33849.22402842
  entropy T*S    EENTRO =        -0.01537715
  eigenvalues    EBANDS =     -5372.38397116
  atomic energy  EATOM  =     33037.69599157
  Solvation  Ediel_sol  =         0.00000000
  ---------------------------------------------------
  free energy    TOTEN  =      -256.95509619 eV

  energy without entropy =     -256.93971905  energy(sigma->0) =     -256.94997048


--------------------------------------------------------------------------------------------------------




--------------------------------------- Iteration      1(  18)  ---------------------------------------


    POTLOK:  cpu time    0.4641: real time    0.4955
    SETDIJ:  cpu time    0.0410: real time    0.0411
    EDDIAG:  cpu time    7.5767: real time    7.5850
  RMM-DIIS:  cpu time   22.7946: real time   23.1317
    ORTHCH:  cpu time    0.3918: real time    0.3918
       DOS:  cpu time    0.0257: real time    0.0257
    CHARGE:  cpu time    3.0127: real time    3.0290
    MIXING:  cpu time    0.0116: real time    0.0117
    --------------------------------------------
      LOOP:  cpu time   34.3183: real time   34.7114

 eigenvalue-minimisations  :  7254
 total energy-change (2. order) :-0.2971571E-01  (-0.9195751E-03)
 number of electron     282.9999992 magnetization      19.3965936
 augmentation part      100.6135650 magnetization      11.5530601

 Broyden mixing:
  rms(total) = 0.88713E+00    rms(broyden)= 0.88666E+00
  rms(prec ) = 0.90137E+00
  weight for this iteration     100.00

 eigenvalues of (default mixing * dielectric matrix)
  average eigenvalue GAMMA=   0.6729
  1.7358  1.7358  0.8208  0.8208  0.5868  0.5868  0.5698  0.5698  0.1650  0.4604
  0.3476  0.3476  0.0008

 Free energy of the ion-electron system (eV)
  ---------------------------------------------------
  alpha Z        PSCENC =       367.19046233
  Ewald energy   TEWEN  =    349445.33445936
  -Hartree energ DENC   =   -378544.15786093
  -exchange      EXHF   =         0.00000000
  -V(xc)+E(xc)   XCENC  =      1418.33573522
  PAW double counting   =     33240.32307797   -33849.31685074
  entropy T*S    EENTRO =        -0.01285833
  eigenvalues    EBANDS =     -5372.37696835
  atomic energy  EATOM  =     33037.69599157
  Solvation  Ediel_sol  =         0.00000000
  ---------------------------------------------------
  free energy    TOTEN  =      -256.98481191 eV

  energy without entropy =     -256.97195358  energy(sigma->0) =     -256.98052580


--------------------------------------------------------------------------------------------------------




--------------------------------------- Iteration      1(  19)  ---------------------------------------


    POTLOK:  cpu time    0.4692: real time    0.5014
    SETDIJ:  cpu time    0.0409: real time    0.0409
    EDDIAG:  cpu time    7.5839: real time    7.6021
  RMM-DIIS:  cpu time   21.4122: real time   21.4380
    ORTHCH:  cpu time    0.3925: real time    0.3934
       DOS:  cpu time    0.0256: real time    0.0256
    CHARGE:  cpu time    3.0657: real time    3.0702
    MIXING:  cpu time    0.0123: real time    0.0124
    --------------------------------------------
      LOOP:  cpu time   33.0024: real time   33.0840

 eigenvalue-minimisations  :  7155
 total energy-change (2. order) :-0.5420943E+00  (-0.7928696E-02)
 number of electron     282.9999991 magnetization      19.5541196
 augmentation part      100.6426725 magnetization      11.6229417

 Broyden mixing:
  rms(total) = 0.11281E+01    rms(broyden)= 0.11277E+01
  rms(prec ) = 0.11503E+01
  weight for this iteration     100.00

 eigenvalues of (default mixing * dielectric matrix)
  average eigenvalue GAMMA=   0.6888
  1.7108  1.7108  0.8862  0.8862  0.7910  0.7910  0.1650  0.5453  0.5453  0.3381
  0.3876  0.4426  0.4426  0.0009

 Free energy of the ion-electron system (eV)
  ---------------------------------------------------
  alpha Z        PSCENC =       367.19046233
  Ewald energy   TEWEN  =    349445.33445936
  -Hartree energ DENC   =   -378550.27385886
  -exchange      EXHF   =         0.00000000
  -V(xc)+E(xc)   XCENC  =      1418.18797469
  PAW double counting   =     33244.79035068   -33853.71487041
  entropy T*S    EENTRO =         0.01742909
  eigenvalues    EBANDS =     -5366.75484466
  atomic energy  EATOM  =     33037.69599157
  Solvation  Ediel_sol  =         0.00000000
  ---------------------------------------------------
  free energy    TOTEN  =      -257.52690621 eV

  energy without entropy =     -257.54433531  energy(sigma->0) =     -257.53271591


--------------------------------------------------------------------------------------------------------




--------------------------------------- Iteration      1(  20)  ---------------------------------------


    POTLOK:  cpu time    0.4638: real time    0.4951
    SETDIJ:  cpu time    0.0415: real time    0.0415
    EDDIAG:  cpu time    7.6907: real time    7.8443
  RMM-DIIS:  cpu time   22.0792: real time   22.5656
    ORTHCH:  cpu time    0.3925: real time    0.3925
       DOS:  cpu time    0.0247: real time    0.0248
    CHARGE:  cpu time    3.0446: real time    3.0588
    MIXING:  cpu time    0.0136: real time    0.0136
    --------------------------------------------
      LOOP:  cpu time   33.7505: real time   34.4362

 eigenvalue-minimisations  :  7223
 total energy-change (2. order) :-0.2715905E+00  (-0.2568781E-01)
 number of electron     282.9999991 magnetization      19.8014642
 augmentation part      100.6036828 magnetization      11.8725940

 Broyden mixing:
  rms(total) = 0.10234E+01    rms(broyden)= 0.10234E+01
  rms(prec ) = 0.10458E+01
  weight for this iteration     100.00

 eigenvalues of (default mixing * dielectric matrix)
  average eigenvalue GAMMA=   0.7213
  2.0578  1.0389  1.0389  1.1896  0.9521  0.7252  0.7252  0.5706  0.5706  0.5428
  0.5428  0.1650  0.3499  0.3499  0.0009

 Free energy of the ion-electron system (eV)
  ---------------------------------------------------
  alpha Z        PSCENC =       367.19046233
  Ewald energy   TEWEN  =    349445.33445936
  -Hartree energ DENC   =   -378577.42749250
  -exchange      EXHF   =         0.00000000
  -V(xc)+E(xc)   XCENC  =      1418.32988478
  PAW double counting   =     33277.53012756   -33886.50196753
  entropy T*S    EENTRO =         0.00334968
  eigenvalues    EBANDS =     -5339.95331192
  atomic energy  EATOM  =     33037.69599157
  Solvation  Ediel_sol  =         0.00000000
  ---------------------------------------------------
  free energy    TOTEN  =      -257.79849667 eV

  energy without entropy =     -257.80184635  energy(sigma->0) =     -257.79961323


--------------------------------------------------------------------------------------------------------




--------------------------------------- Iteration      1(  21)  ---------------------------------------


    POTLOK:  cpu time    0.4646: real time    0.4956
    SETDIJ:  cpu time    0.0413: real time    0.0413
    EDDIAG:  cpu time    7.5826: real time    7.5901
  RMM-DIIS:  cpu time   22.0329: real time   22.0960
    ORTHCH:  cpu time    0.3943: real time    0.3953
       DOS:  cpu time    0.0251: real time    0.0251
    CHARGE:  cpu time    3.0981: real time    3.1946
    MIXING:  cpu time    0.0395: real time    0.0420
    --------------------------------------------
      LOOP:  cpu time   33.6784: real time   33.8800

 eigenvalue-minimisations  :  7347
 total energy-change (2. order) :-0.3096832E+00  (-0.2325821E-01)
 number of electron     282.9999990 magnetization      20.0209560
 augmentation part      100.5887470 magnetization      12.0646807

 Broyden mixing:
  rms(total) = 0.94837E+00    rms(broyden)= 0.94834E+00
  rms(prec ) = 0.97212E+00
  weight for this iteration     100.00

 eigenvalues of (default mixing * dielectric matrix)
  average eigenvalue GAMMA=   0.7459
  2.0843  1.5565  1.0388  1.0388  0.8992  0.8992  0.1650  0.6609  0.6609  0.5947
  0.5947  0.3526  0.3526  0.5432  0.4917  0.0009

 Free energy of the ion-electron system (eV)
  ---------------------------------------------------
  alpha Z        PSCENC =       367.19046233
  Ewald energy   TEWEN  =    349445.33445936
  -Hartree energ DENC   =   -378613.76845674
  -exchange      EXHF   =         0.00000000
  -V(xc)+E(xc)   XCENC  =      1418.34531575
  PAW double counting   =     33310.62550999   -33919.91654222
  entropy T*S    EENTRO =         0.00413685
  eigenvalues    EBANDS =     -5303.61905670
  atomic energy  EATOM  =     33037.69599157
  Solvation  Ediel_sol  =         0.00000000
  ---------------------------------------------------
  free energy    TOTEN  =      -258.10817982 eV

  energy without entropy =     -258.11231667  energy(sigma->0) =     -258.10955877


--------------------------------------------------------------------------------------------------------




--------------------------------------- Iteration      1(  22)  ---------------------------------------


    POTLOK:  cpu time    0.5221: real time    0.7154
    SETDIJ:  cpu time    0.0358: real time    0.0699
    EDDIAG:  cpu time    7.7561: real time    7.8582
  RMM-DIIS:  cpu time   22.6411: real time   22.6687
    ORTHCH:  cpu time    0.3924: real time    0.3934
       DOS:  cpu time    0.0247: real time    0.0248
    CHARGE:  cpu time    3.0344: real time    3.0369
    MIXING:  cpu time    0.0130: real time    0.0130
    --------------------------------------------
      LOOP:  cpu time   34.4196: real time   34.7803

 eigenvalue-minimisations  :  7599
 total energy-change (2. order) :-0.1963197E+00  (-0.9665026E-02)
 number of electron     282.9999990 magnetization      20.1444107
 augmentation part      100.5605550 magnetization      12.1596791

 Broyden mixing:
  rms(total) = 0.90150E+00    rms(broyden)= 0.90147E+00
  rms(prec ) = 0.92574E+00
  weight for this iteration     100.00

 eigenvalues of (default mixing * dielectric matrix)
  average eigenvalue GAMMA=   0.7625
  1.9081  1.9081  1.1988  1.1988  0.8735  0.8735  0.7128  0.7128  0.5756  0.5756
  0.1650  0.5150  0.5150  0.5267  0.3508  0.3508  0.0009

 Free energy of the ion-electron system (eV)
  ---------------------------------------------------
  alpha Z        PSCENC =       367.19046233
  Ewald energy   TEWEN  =    349445.33445936
  -Hartree energ DENC   =   -378641.04438857
  -exchange      EXHF   =         0.00000000
  -V(xc)+E(xc)   XCENC  =      1418.30298045
  PAW double counting   =     33317.97353305   -33927.32118264
  entropy T*S    EENTRO =        -0.00055639
  eigenvalues    EBANDS =     -5276.43579863
  atomic energy  EATOM  =     33037.69599157
  Solvation  Ediel_sol  =         0.00000000
  ---------------------------------------------------
  free energy    TOTEN  =      -258.30449948 eV

  energy without entropy =     -258.30394308  energy(sigma->0) =     -258.30431401


--------------------------------------------------------------------------------------------------------




--------------------------------------- Iteration      1(  23)  ---------------------------------------


    POTLOK:  cpu time    0.4666: real time    0.4985
    SETDIJ:  cpu time    0.0410: real time    0.0409
    EDDIAG:  cpu time    7.5838: real time    7.5904
  RMM-DIIS:  cpu time   22.0574: real time   22.4705
    ORTHCH:  cpu time    0.3934: real time    0.3970
       DOS:  cpu time    0.0250: real time    0.0250
    CHARGE:  cpu time    2.9950: real time    2.9976
    MIXING:  cpu time    0.0137: real time    0.0137
    --------------------------------------------
      LOOP:  cpu time   33.5758: real time   34.0337

 eigenvalue-minimisations  :  7219
 total energy-change (2. order) :-0.7104205E-01  (-0.3675838E-02)
 number of electron     282.9999991 magnetization      20.2927579
 augmentation part      100.5559055 magnetization      12.3033620

 Broyden mixing:
  rms(total) = 0.88510E+00    rms(broyden)= 0.88507E+00
  rms(prec ) = 0.90943E+00
  weight for this iteration     100.00

 eigenvalues of (default mixing * dielectric matrix)
  average eigenvalue GAMMA=   0.7775
  1.9684  1.9684  1.2947  1.2947  0.9067  0.9067  0.1650  0.6232  0.6232  0.6467
  0.6467  0.6103  0.6103  0.3516  0.3516  0.5126  0.5126  0.0009

 Free energy of the ion-electron system (eV)
  ---------------------------------------------------
  alpha Z        PSCENC =       367.19046233
  Ewald energy   TEWEN  =    349445.33445936
  -Hartree energ DENC   =   -378650.24905408
  -exchange      EXHF   =         0.00000000
  -V(xc)+E(xc)   XCENC  =      1418.23674539
  PAW double counting   =     33312.75863235   -33922.14019900
  entropy T*S    EENTRO =        -0.00419351
  eigenvalues    EBANDS =     -5267.19838594
  atomic energy  EATOM  =     33037.69599157
  Solvation  Ediel_sol  =         0.00000000
  ---------------------------------------------------
  free energy    TOTEN  =      -258.37554153 eV

  energy without entropy =     -258.37134802  energy(sigma->0) =     -258.37414369


--------------------------------------------------------------------------------------------------------




--------------------------------------- Iteration      1(  24)  ---------------------------------------


    POTLOK:  cpu time    0.5003: real time    0.5012
    SETDIJ:  cpu time    0.0411: real time    0.0411
    EDDIAG:  cpu time    7.5697: real time    7.5766
  RMM-DIIS:  cpu time   21.7469: real time   21.7807
    ORTHCH:  cpu time    0.4006: real time    0.4006
       DOS:  cpu time    0.0254: real time    0.0254
    CHARGE:  cpu time    3.0293: real time    3.0318
    MIXING:  cpu time    0.0142: real time    0.0142
    --------------------------------------------
      LOOP:  cpu time   33.3275: real time   33.3715

 eigenvalue-minimisations  :  7223
 total energy-change (2. order) :-0.8394700E-01  (-0.2680614E-02)
 number of electron     282.9999991 magnetization      20.4765262
 augmentation part      100.5507213 magnetization      12.4781638

 Broyden mixing:
  rms(total) = 0.85727E+00    rms(broyden)= 0.85725E+00
  rms(prec ) = 0.88166E+00
  weight for this iteration     100.00

 eigenvalues of (default mixing * dielectric matrix)
  average eigenvalue GAMMA=   0.8023
  1.9489  1.9489  1.5625  1.5625  0.9465  0.9465  0.7554  0.7554  0.6759  0.6759
  0.1650  0.5745  0.5745  0.3510  0.3510  0.5173  0.4653  0.4653  0.0009

 Free energy of the ion-electron system (eV)
  ---------------------------------------------------
  alpha Z        PSCENC =       367.19046233
  Ewald energy   TEWEN  =    349445.33445936
  -Hartree energ DENC   =   -378660.32025126
  -exchange      EXHF   =         0.00000000
  -V(xc)+E(xc)   XCENC  =      1418.20764867
  PAW double counting   =     33315.69182343   -33925.08244670
  entropy T*S    EENTRO =        -0.00520436
  eigenvalues    EBANDS =     -5257.17197158
  atomic energy  EATOM  =     33037.69599157
  Solvation  Ediel_sol  =         0.00000000
  ---------------------------------------------------
  free energy    TOTEN  =      -258.45948853 eV

  energy without entropy =     -258.45428417  energy(sigma->0) =     -258.45775374


--------------------------------------------------------------------------------------------------------




--------------------------------------- Iteration      1(  25)  ---------------------------------------


    POTLOK:  cpu time    0.4641: real time    0.4950
    SETDIJ:  cpu time    0.0412: real time    0.0412
    EDDIAG:  cpu time    7.5925: real time    7.6004
  RMM-DIIS:  cpu time   22.0672: real time   22.5855
    ORTHCH:  cpu time    0.3925: real time    0.3925
       DOS:  cpu time    0.0250: real time    0.0250
    CHARGE:  cpu time    3.0294: real time    3.0328
    MIXING:  cpu time    0.0160: real time    0.0160
    --------------------------------------------
      LOOP:  cpu time   33.6280: real time   34.1884

 eigenvalue-minimisations  :  7174
 total energy-change (2. order) :-0.1094132E+00  (-0.3641562E-02)
 number of electron     282.9999991 magnetization      21.0443235
 augmentation part      100.5480979 magnetization      13.0414158

 Broyden mixing:
  rms(total) = 0.83019E+00    rms(broyden)= 0.83017E+00
  rms(prec ) = 0.85435E+00
  weight for this iteration     100.00

 eigenvalues of (default mixing * dielectric matrix)
  average eigenvalue GAMMA=   0.8885
  2.2935  2.1492  1.9183  1.9183  0.9718  0.9718  0.9904  0.9904  0.6968  0.6968
  0.1650  0.5709  0.5709  0.3514  0.3514  0.5570  0.5570  0.5243  0.5243  0.0009

 Free energy of the ion-electron system (eV)
  ---------------------------------------------------
  alpha Z        PSCENC =       367.19046233
  Ewald energy   TEWEN  =    349445.33445936
  -Hartree energ DENC   =   -378668.84024751
  -exchange      EXHF   =         0.00000000
  -V(xc)+E(xc)   XCENC  =      1418.11475894
  PAW double counting   =     33311.44468235   -33920.83712904
  entropy T*S    EENTRO =        -0.00660299
  eigenvalues    EBANDS =     -5248.66527674
  atomic energy  EATOM  =     33037.69599157
  Solvation  Ediel_sol  =         0.00000000
  ---------------------------------------------------
  free energy    TOTEN  =      -258.56890173 eV

  energy without entropy =     -258.56229874  energy(sigma->0) =     -258.56670074


--------------------------------------------------------------------------------------------------------




--------------------------------------- Iteration      1(  26)  ---------------------------------------


    POTLOK:  cpu time    0.4642: real time    0.4953
    SETDIJ:  cpu time    0.0410: real time    0.0410
    EDDIAG:  cpu time    7.5860: real time    7.5969
  RMM-DIIS:  cpu time   21.5434: real time   21.5783
    ORTHCH:  cpu time    0.3930: real time    0.3930
       DOS:  cpu time    0.0258: real time    0.0258
    CHARGE:  cpu time    3.0420: real time    3.0455
    MIXING:  cpu time    0.0148: real time    0.0169
    --------------------------------------------
      LOOP:  cpu time   33.1103: real time   33.1928

 eigenvalue-minimisations  :  7147
 total energy-change (2. order) :-0.2618167E+00  (-0.1520602E-01)
 number of electron     282.9999991 magnetization      21.1618972
 augmentation part      100.5276759 magnetization      13.1360116

 Broyden mixing:
  rms(total) = 0.78581E+00    rms(broyden)= 0.78576E+00
  rms(prec ) = 0.80934E+00
  weight for this iteration     100.00

 eigenvalues of (default mixing * dielectric matrix)
  average eigenvalue GAMMA=   0.8843
  2.5375  2.0094  1.7003  1.7003  1.2018  1.2018  0.9376  0.9376  0.6810  0.6810
  0.1650  0.7379  0.5739  0.5739  0.6097  0.6097  0.3513  0.3513  0.5038  0.5038
  0.0009

 Free energy of the ion-electron system (eV)
  ---------------------------------------------------
  alpha Z        PSCENC =       367.19046233
  Ewald energy   TEWEN  =    349445.33445936
  -Hartree energ DENC   =   -378701.16116474
  -exchange      EXHF   =         0.00000000
  -V(xc)+E(xc)   XCENC  =      1417.98861195
  PAW double counting   =     33306.73620185   -33916.16925649
  entropy T*S    EENTRO =        -0.00852455
  eigenvalues    EBANDS =     -5216.43749972
  atomic energy  EATOM  =     33037.69599157
  Solvation  Ediel_sol  =         0.00000000
  ---------------------------------------------------
  free energy    TOTEN  =      -258.83071845 eV

  energy without entropy =     -258.82219390  energy(sigma->0) =     -258.82787694


--------------------------------------------------------------------------------------------------------




--------------------------------------- Iteration      1(  27)  ---------------------------------------


    POTLOK:  cpu time    0.4955: real time    0.4958
    SETDIJ:  cpu time    0.0410: real time    0.0409
    EDDIAG:  cpu time    7.6589: real time    7.7150
  RMM-DIIS:  cpu time   23.2200: real time   23.5406
    ORTHCH:  cpu time    0.3925: real time    0.3935
       DOS:  cpu time    0.0256: real time    0.0256
    CHARGE:  cpu time    3.0292: real time    3.0316
    MIXING:  cpu time    0.0155: real time    0.0155
    --------------------------------------------
      LOOP:  cpu time   34.8780: real time   35.2584

 eigenvalue-minimisations  :  7447
 total energy-change (2. order) :-0.1275344E+00  (-0.2950104E-02)
 number of electron     282.9999991 magnetization      21.1738393
 augmentation part      100.5191837 magnetization      13.1306169

 Broyden mixing:
  rms(total) = 0.78129E+00    rms(broyden)= 0.78126E+00
  rms(prec ) = 0.80509E+00
  weight for this iteration     100.00

 eigenvalues of (default mixing * dielectric matrix)
  average eigenvalue GAMMA=   0.8504
  2.4804  1.9744  1.7123  1.7123  1.2386  1.2386  0.9401  0.9401  0.6836  0.6836
  0.7423  0.5738  0.5738  0.1650  0.6192  0.6192  0.3513  0.3513  0.4973  0.4973
  0.0009  0.1129

 Free energy of the ion-electron system (eV)
  ---------------------------------------------------
  alpha Z        PSCENC =       367.19046233
  Ewald energy   TEWEN  =    349445.33445936
  -Hartree energ DENC   =   -378708.14049224
  -exchange      EXHF   =         0.00000000
  -V(xc)+E(xc)   XCENC  =      1417.92983306
  PAW double counting   =     33307.64954203   -33917.13659438
  entropy T*S    EENTRO =        -0.01136409
  eigenvalues    EBANDS =     -5209.47009048
  atomic energy  EATOM  =     33037.69599157
  Solvation  Ediel_sol  =         0.00000000
  ---------------------------------------------------
  free energy    TOTEN  =      -258.95825285 eV

  energy without entropy =     -258.94688876  energy(sigma->0) =     -258.95446482


--------------------------------------------------------------------------------------------------------




--------------------------------------- Iteration      1(  28)  ---------------------------------------


    POTLOK:  cpu time    0.4645: real time    0.4974
    SETDIJ:  cpu time    0.0410: real time    0.0410
    EDDIAG:  cpu time    7.5953: real time    7.6130
  RMM-DIIS:  cpu time   22.9728: real time   23.0518
    ORTHCH:  cpu time    0.3911: real time    0.3912
       DOS:  cpu time    0.0251: real time    0.0251
    CHARGE:  cpu time    3.0252: real time    3.0580
    MIXING:  cpu time    0.0160: real time    0.0160
    --------------------------------------------
      LOOP:  cpu time   34.5310: real time   34.6933

 eigenvalue-minimisations  :  7661
 total energy-change (2. order) : 0.2858276E-02  (-0.5479914E-03)
 number of electron     282.9999991 magnetization      21.2308704
 augmentation part      100.5185797 magnetization      13.1859638

 Broyden mixing:
  rms(total) = 0.77788E+00    rms(broyden)= 0.77786E+00
  rms(prec ) = 0.80170E+00
  weight for this iteration     100.00

 eigenvalues of (default mixing * dielectric matrix)
  average eigenvalue GAMMA=   0.8582
  2.3693  2.3693  1.6925  1.6925  1.2043  1.2043  0.9513  0.9513  0.7101  0.7101
  0.1650  0.5692  0.5692  0.6662  0.6662  0.6623  0.3513  0.3513  0.5104  0.5124
  0.5124  0.3470  0.0009

 Free energy of the ion-electron system (eV)
  ---------------------------------------------------
  alpha Z        PSCENC =       367.19046233
  Ewald energy   TEWEN  =    349445.33445936
  -Hartree energ DENC   =   -378708.10204229
  -exchange      EXHF   =         0.00000000
  -V(xc)+E(xc)   XCENC  =      1417.94535078
  PAW double counting   =     33307.34748148   -33916.82369691
  entropy T*S    EENTRO =        -0.01247630
  eigenvalues    EBANDS =     -5209.53092460
  atomic energy  EATOM  =     33037.69599157
  Solvation  Ediel_sol  =         0.00000000
  ---------------------------------------------------
  free energy    TOTEN  =      -258.95539458 eV

  energy without entropy =     -258.94291828  energy(sigma->0) =     -258.95123581


--------------------------------------------------------------------------------------------------------




--------------------------------------- Iteration      1(  29)  ---------------------------------------


    POTLOK:  cpu time    0.4942: real time    0.6252
    SETDIJ:  cpu time    0.0382: real time    0.0419
    EDDIAG:  cpu time    7.9602: real time    8.2130
  RMM-DIIS:  cpu time   21.0385: real time   21.0722
    ORTHCH:  cpu time    0.3933: real time    0.3933
       DOS:  cpu time    0.0259: real time    0.0266
    CHARGE:  cpu time    3.0264: real time    3.0289
    MIXING:  cpu time    0.0166: real time    0.0166
    --------------------------------------------
      LOOP:  cpu time   32.9933: real time   33.4177

 eigenvalue-minimisations  :  6999
 total energy-change (2. order) :-0.6570714E-02  (-0.7674119E-03)
 number of electron     282.9999991 magnetization      21.2277847
 augmentation part      100.5233044 magnetization      13.1830628

 Broyden mixing:
  rms(total) = 0.78801E+00    rms(broyden)= 0.78801E+00
  rms(prec ) = 0.81157E+00
  weight for this iteration     100.00

 eigenvalues of (default mixing * dielectric matrix)
  average eigenvalue GAMMA=   0.8596
  2.4660  2.4660  1.7158  1.7158  0.7378  1.1681  1.1681  0.9566  0.9566  0.7214
  0.7214  0.1650  0.5692  0.5692  0.6839  0.6191  0.6191  0.5154  0.5154  0.4851
  0.3513  0.3513  0.3927  0.0009

 Free energy of the ion-electron system (eV)
  ---------------------------------------------------
  alpha Z        PSCENC =       367.19046233
  Ewald energy   TEWEN  =    349445.33445936
  -Hartree energ DENC   =   -378710.55162357
  -exchange      EXHF   =         0.00000000
  -V(xc)+E(xc)   XCENC  =      1417.92332084
  PAW double counting   =     33304.07645450   -33913.53363907
  entropy T*S    EENTRO =        -0.01315677
  eigenvalues    EBANDS =     -5207.08423448
  atomic energy  EATOM  =     33037.69599157
  Solvation  Ediel_sol  =         0.00000000
  ---------------------------------------------------
  free energy    TOTEN  =      -258.96196529 eV

  energy without entropy =     -258.94880852  energy(sigma->0) =     -258.95757970


--------------------------------------------------------------------------------------------------------




--------------------------------------- Iteration      1(  30)  ---------------------------------------


    POTLOK:  cpu time    0.4949: real time    0.4950
    SETDIJ:  cpu time    0.0402: real time    0.0410
    EDDIAG:  cpu time    7.5688: real time    7.5819
  RMM-DIIS:  cpu time   21.4287: real time   21.7989
    ORTHCH:  cpu time    0.4075: real time    0.4094
       DOS:  cpu time    0.0258: real time    0.0258
    CHARGE:  cpu time    3.0590: real time    3.0710
    MIXING:  cpu time    0.0190: real time    0.0190
    --------------------------------------------
      LOOP:  cpu time   33.0440: real time   33.4419

 eigenvalue-minimisations  :  6922
 total energy-change (2. order) : 0.3900111E-01  (-0.4139549E-03)
 number of electron     282.9999991 magnetization      21.3094201
 augmentation part      100.5198369 magnetization      13.2579557

 Broyden mixing:
  rms(total) = 0.80089E+00    rms(broyden)= 0.80089E+00
  rms(prec ) = 0.82414E+00
  weight for this iteration     100.00

 eigenvalues of (default mixing * dielectric matrix)
  average eigenvalue GAMMA=   0.8920
  2.7462  2.3307  1.6625  1.6625  1.2428  1.2428  0.8573  0.8573  0.9566  0.9566
  0.8157  0.8157  0.7113  0.7113  0.1650  0.5791  0.5791  0.3513  0.3513  0.5829
  0.5829  0.5391  0.5001  0.5001  0.0009

 Free energy of the ion-electron system (eV)
  ---------------------------------------------------
  alpha Z        PSCENC =       367.19046233
  Ewald energy   TEWEN  =    349445.33445936
  -Hartree energ DENC   =   -378712.12050656
  -exchange      EXHF   =         0.00000000
  -V(xc)+E(xc)   XCENC  =      1417.95511522
  PAW double counting   =     33304.64466489   -33914.09748592
  entropy T*S    EENTRO =        -0.01289472
  eigenvalues    EBANDS =     -5205.51277036
  atomic energy  EATOM  =     33037.69599157
  Solvation  Ediel_sol  =         0.00000000
  ---------------------------------------------------
  free energy    TOTEN  =      -258.92296418 eV

  energy without entropy =     -258.91006946  energy(sigma->0) =     -258.91866594


--------------------------------------------------------------------------------------------------------




--------------------------------------- Iteration      1(  31)  ---------------------------------------


    POTLOK:  cpu time    0.4642: real time    0.4960
    SETDIJ:  cpu time    0.0410: real time    0.0410
    EDDIAG:  cpu time    7.5852: real time    7.5918
  RMM-DIIS:  cpu time   20.9206: real time   20.9548
    ORTHCH:  cpu time    0.3927: real time    0.3928
       DOS:  cpu time    0.0247: real time    0.0247
    CHARGE:  cpu time    3.0341: real time    3.0442
    MIXING:  cpu time    0.0179: real time    0.0179
    --------------------------------------------
      LOOP:  cpu time   32.4803: real time   32.5631

 eigenvalue-minimisations  :  6962
 total energy-change (2. order) :-0.7868005E-01  (-0.1257366E-02)
 number of electron     282.9999991 magnetization      21.6616933
 augmentation part      100.5143155 magnetization      13.6048355

 Broyden mixing:
  rms(total) = 0.77228E+00    rms(broyden)= 0.77227E+00
  rms(prec ) = 0.79606E+00
  weight for this iteration     100.00

 eigenvalues of (default mixing * dielectric matrix)
  average eigenvalue GAMMA=   0.9061
  3.1047  1.9881  1.6547  1.6547  1.0889  1.0889  1.1347  1.1347  0.9717  0.9717
  1.0096  1.0096  0.1650  0.6732  0.6732  0.7083  0.5795  0.5795  0.5955  0.5955
  0.3513  0.3513  0.5078  0.4829  0.4829  0.0009

 Free energy of the ion-electron system (eV)
  ---------------------------------------------------
  alpha Z        PSCENC =       367.19046233
  Ewald energy   TEWEN  =    349445.33445936
  -Hartree energ DENC   =   -378713.30577249
  -exchange      EXHF   =         0.00000000
  -V(xc)+E(xc)   XCENC  =      1417.92010255
  PAW double counting   =     33306.13292298   -33915.59304290
  entropy T*S    EENTRO =        -0.01343759
  eigenvalues    EBANDS =     -5204.36333004
  atomic energy  EATOM  =     33037.69599157
  Solvation  Ediel_sol  =         0.00000000
  ---------------------------------------------------
  free energy    TOTEN  =      -259.00164423 eV

  energy without entropy =     -258.98820664  energy(sigma->0) =     -258.99716504


--------------------------------------------------------------------------------------------------------




--------------------------------------- Iteration      1(  32)  ---------------------------------------


    POTLOK:  cpu time    0.4958: real time    0.4960
    SETDIJ:  cpu time    0.0409: real time    0.0409
    EDDIAG:  cpu time    7.5656: real time    7.5731
  RMM-DIIS:  cpu time   22.0628: real time   22.5015
    ORTHCH:  cpu time    0.3915: real time    0.3915
       DOS:  cpu time    0.0254: real time    0.0254
    CHARGE:  cpu time    3.0013: real time    3.0049
    MIXING:  cpu time    0.0185: real time    0.0185
    --------------------------------------------
      LOOP:  cpu time   33.6018: real time   34.0518

 eigenvalue-minimisations  :  7139
 total energy-change (2. order) :-0.1750274E+00  (-0.5476260E-02)
 number of electron     282.9999991 magnetization      22.1483871
 augmentation part      100.5112232 magnetization      14.0862045

 Broyden mixing:
  rms(total) = 0.73443E+00    rms(broyden)= 0.73441E+00
  rms(prec ) = 0.75842E+00
  weight for this iteration     100.00

 eigenvalues of (default mixing * dielectric matrix)
  average eigenvalue GAMMA=   0.9701
  3.8166  2.2319  2.2319  1.5542  1.5542  1.2077  1.2077  1.0621  1.0621  0.9086
  0.9086  0.8198  0.8198  0.6898  0.6898  0.1650  0.5772  0.5772  0.6695  0.6695
  0.3513  0.3513  0.5451  0.5451  0.4883  0.4883  0.0009

 Free energy of the ion-electron system (eV)
  ---------------------------------------------------
  alpha Z        PSCENC =       367.19046233
  Ewald energy   TEWEN  =    349445.33445936
  -Hartree energ DENC   =   -378717.54295105
  -exchange      EXHF   =         0.00000000
  -V(xc)+E(xc)   XCENC  =      1417.77137866
  PAW double counting   =     33303.04218541   -33912.57290469
  entropy T*S    EENTRO =        -0.01233742
  eigenvalues    EBANDS =     -5200.08295579
  atomic energy  EATOM  =     33037.69599157
  Solvation  Ediel_sol  =         0.00000000
  ---------------------------------------------------
  free energy    TOTEN  =      -259.17667163 eV

  energy without entropy =     -259.16433421  energy(sigma->0) =     -259.17255915


--------------------------------------------------------------------------------------------------------




--------------------------------------- Iteration      1(  33)  ---------------------------------------


    POTLOK:  cpu time    0.4644: real time    0.4954
    SETDIJ:  cpu time    0.0410: real time    0.0410
    EDDIAG:  cpu time    7.5886: real time    7.5986
  RMM-DIIS:  cpu time   21.5364: real time   21.5737
    ORTHCH:  cpu time    0.3935: real time    0.3935
       DOS:  cpu time    0.0257: real time    0.0257
    CHARGE:  cpu time    3.0176: real time    3.0210
    MIXING:  cpu time    0.0188: real time    0.0188
    --------------------------------------------
      LOOP:  cpu time   33.0862: real time   33.1678

 eigenvalue-minimisations  :  7159
 total energy-change (2. order) :-0.1587572E+00  (-0.6014232E-02)
 number of electron     282.9999991 magnetization      22.3703167
 augmentation part      100.5055774 magnetization      14.2888546

 Broyden mixing:
  rms(total) = 0.72019E+00    rms(broyden)= 0.72017E+00
  rms(prec ) = 0.74335E+00
  weight for this iteration     100.00

 eigenvalues of (default mixing * dielectric matrix)
  average eigenvalue GAMMA=   1.0031
  4.5773  2.2269  2.2269  1.6587  1.6587  1.2499  1.2499  1.0360  1.0360  0.9176
  0.9176  0.9046  0.9046  0.1650  0.6920  0.6920  0.5776  0.5776  0.7236  0.7236
  0.3513  0.3513  0.5844  0.5844  0.5250  0.4861  0.4861  0.0009

 Free energy of the ion-electron system (eV)
  ---------------------------------------------------
  alpha Z        PSCENC =       367.19046233
  Ewald energy   TEWEN  =    349445.33445936
  -Hartree energ DENC   =   -378726.57412620
  -exchange      EXHF   =         0.00000000
  -V(xc)+E(xc)   XCENC  =      1417.61343905
  PAW double counting   =     33298.06439954   -33907.61526916
  entropy T*S    EENTRO =        -0.00682351
  eigenvalues    EBANDS =     -5191.03796186
  atomic energy  EATOM  =     33037.69599157
  Solvation  Ediel_sol  =         0.00000000
  ---------------------------------------------------
  free energy    TOTEN  =      -259.33542887 eV

  energy without entropy =     -259.32860536  energy(sigma->0) =     -259.33315437


--------------------------------------------------------------------------------------------------------




--------------------------------------- Iteration      1(  34)  ---------------------------------------


    POTLOK:  cpu time    0.4957: real time    0.4959
    SETDIJ:  cpu time    0.0408: real time    0.0408
    EDDIAG:  cpu time    7.6121: real time    7.6495
  RMM-DIIS:  cpu time   22.5228: real time   22.8476
    ORTHCH:  cpu time    0.3929: real time    0.3939
       DOS:  cpu time    0.0258: real time    0.0258
    CHARGE:  cpu time    3.0444: real time    3.0507
    MIXING:  cpu time    0.0200: real time    0.0199
    --------------------------------------------
      LOOP:  cpu time   34.1545: real time   34.5241

 eigenvalue-minimisations  :  7277
 total energy-change (2. order) :-0.8451087E-01  (-0.2234729E-02)
 number of electron     282.9999992 magnetization      22.4935382
 augmentation part      100.5065347 magnetization      14.4069756

 Broyden mixing:
  rms(total) = 0.71761E+00    rms(broyden)= 0.71759E+00
  rms(prec ) = 0.74051E+00
  weight for this iteration     100.00

 eigenvalues of (default mixing * dielectric matrix)
  average eigenvalue GAMMA=   1.0115
  4.6706  2.2215  2.2215  1.8080  1.8080  1.3057  1.3057  1.0298  1.0298  0.9271
  0.9271  1.0040  1.0040  0.1650  0.6891  0.6891  0.7077  0.7077  0.5788  0.5788
  0.6126  0.6126  0.3513  0.3513  0.5187  0.5187  0.4936  0.4936  0.0009

 Free energy of the ion-electron system (eV)
  ---------------------------------------------------
  alpha Z        PSCENC =       367.19046233
  Ewald energy   TEWEN  =    349445.33445936
  -Hartree energ DENC   =   -378729.31537364
  -exchange      EXHF   =         0.00000000
  -V(xc)+E(xc)   XCENC  =      1417.53770939
  PAW double counting   =     33297.10103157   -33906.62551152
  entropy T*S    EENTRO =        -0.00477888
  eigenvalues    EBANDS =     -5188.33392991
  atomic energy  EATOM  =     33037.69599157
  Solvation  Ediel_sol  =         0.00000000
  ---------------------------------------------------
  free energy    TOTEN  =      -259.41993973 eV

  energy without entropy =     -259.41516086  energy(sigma->0) =     -259.41834678


--------------------------------------------------------------------------------------------------------




--------------------------------------- Iteration      1(  35)  ---------------------------------------


    POTLOK:  cpu time    0.4958: real time    0.4967
    SETDIJ:  cpu time    0.0409: real time    0.0409
    EDDIAG:  cpu time    7.5919: real time    7.6057
  RMM-DIIS:  cpu time   21.3720: real time   21.3985
    ORTHCH:  cpu time    0.3925: real time    0.3925
       DOS:  cpu time    0.0254: real time    0.0254
    CHARGE:  cpu time    3.0510: real time    3.0921
    MIXING:  cpu time    0.0214: real time    0.0214
    --------------------------------------------
      LOOP:  cpu time   32.9909: real time   33.0732

 eigenvalue-minimisations  :  7033
 total energy-change (2. order) :-0.8042851E-01  (-0.1113488E-02)
 number of electron     282.9999992 magnetization      23.0809965
 augmentation part      100.5046472 magnetization      14.9847284

 Broyden mixing:
  rms(total) = 0.71855E+00    rms(broyden)= 0.71854E+00
  rms(prec ) = 0.74126E+00
  weight for this iteration     100.00

 eigenvalues of (default mixing * dielectric matrix)
  average eigenvalue GAMMA=   1.0783
  5.2785  2.5067  2.5067  2.1482  2.1482  1.2413  1.2413  1.0721  1.0721  1.1773
  1.1773  0.9269  0.9269  0.7607  0.7607  0.6859  0.6859  0.1650  0.5771  0.5771
  0.7017  0.3513  0.3513  0.6244  0.5927  0.5927  0.5231  0.4878  0.4878  0.0009

 Free energy of the ion-electron system (eV)
  ---------------------------------------------------
  alpha Z        PSCENC =       367.19046233
  Ewald energy   TEWEN  =    349445.33445936
  -Hartree energ DENC   =   -378727.54627415
  -exchange      EXHF   =         0.00000000
  -V(xc)+E(xc)   XCENC  =      1417.45555245
  PAW double counting   =     33298.86469577   -33908.39192984
  entropy T*S    EENTRO =        -0.00280359
  eigenvalues    EBANDS =     -5190.10052215
  atomic energy  EATOM  =     33037.69599157
  Solvation  Ediel_sol  =         0.00000000
  ---------------------------------------------------
  free energy    TOTEN  =      -259.50036825 eV

  energy without entropy =     -259.49756466  energy(sigma->0) =     -259.49943372


--------------------------------------------------------------------------------------------------------




--------------------------------------- Iteration      1(  36)  ---------------------------------------


    POTLOK:  cpu time    0.4632: real time    0.4945
    SETDIJ:  cpu time    0.0409: real time    0.0417
    EDDIAG:  cpu time    7.9476: real time    8.2587
  RMM-DIIS:  cpu time   21.3421: real time   21.3813
    ORTHCH:  cpu time    0.3908: real time    0.3908
       DOS:  cpu time    0.0247: real time    0.0247
    CHARGE:  cpu time    2.9994: real time    3.0126
    MIXING:  cpu time    0.0214: real time    0.0214
    --------------------------------------------
      LOOP:  cpu time   33.2302: real time   33.6258

 eigenvalue-minimisations  :  7092
 total energy-change (2. order) :-0.2474101E+00  (-0.5491460E-02)
 number of electron     282.9999992 magnetization      23.3732288
 augmentation part      100.5017034 magnetization      15.2654058

 Broyden mixing:
  rms(total) = 0.69456E+00    rms(broyden)= 0.69454E+00
  rms(prec ) = 0.71629E+00
  weight for this iteration     100.00

 eigenvalues of (default mixing * dielectric matrix)
  average eigenvalue GAMMA=   1.1377
  7.2171  2.7732  2.7732  1.9143  1.9143  1.1004  1.1004  1.1794  1.1794  1.3111
  1.3111  0.9210  0.9210  0.7954  0.7954  0.6880  0.6880  0.1650  0.5774  0.5774
  0.6779  0.6779  0.3513  0.3513  0.6599  0.5721  0.5721  0.5225  0.4897  0.4897
  0.0009

 Free energy of the ion-electron system (eV)
  ---------------------------------------------------
  alpha Z        PSCENC =       367.19046233
  Ewald energy   TEWEN  =    349445.33445936
  -Hartree energ DENC   =   -378720.31564379
  -exchange      EXHF   =         0.00000000
  -V(xc)+E(xc)   XCENC  =      1417.15339994
  PAW double counting   =     33297.58165914   -33907.12422341
  entropy T*S    EENTRO =        -0.00147586
  eigenvalues    EBANDS =     -5197.26240760
  atomic energy  EATOM  =     33037.69599157
  Solvation  Ediel_sol  =         0.00000000
  ---------------------------------------------------
  free energy    TOTEN  =      -259.74777833 eV

  energy without entropy =     -259.74630247  energy(sigma->0) =     -259.74728637


--------------------------------------------------------------------------------------------------------




--------------------------------------- Iteration      1(  37)  ---------------------------------------


    POTLOK:  cpu time    0.4956: real time    0.4968
    SETDIJ:  cpu time    0.0410: real time    0.0411
    EDDIAG:  cpu time    7.5808: real time    7.5886
  RMM-DIIS:  cpu time   21.8826: real time   22.0021
    ORTHCH:  cpu time    0.3929: real time    0.3929
       DOS:  cpu time    0.0254: real time    0.0262
    CHARGE:  cpu time    3.6262: real time    3.9480
    MIXING:  cpu time    0.0219: real time    0.0219
    --------------------------------------------
      LOOP:  cpu time   34.0665: real time   34.5175

 eigenvalue-minimisations  :  7263
 total energy-change (2. order) :-0.1341925E+00  (-0.2743937E-02)
 number of electron     282.9999992 magnetization      23.5092874
 augmentation part      100.4969725 magnetization      15.3895837

 Broyden mixing:
  rms(total) = 0.67675E+00    rms(broyden)= 0.67674E+00
  rms(prec ) = 0.69743E+00
  weight for this iteration     100.00

 eigenvalues of (default mixing * dielectric matrix)
  average eigenvalue GAMMA=   1.1842
  8.5551  3.7426  2.3148  1.7462  1.7462  1.4711  1.4711  1.1040  1.1040  1.1682
  1.1682  0.9181  0.9181  0.8866  0.8866  0.1650  0.6896  0.6896  0.5783  0.5783
  0.7500  0.6253  0.6253  0.3513  0.3513  0.5923  0.5923  0.6029  0.5243  0.4880
  0.4880  0.0009

 Free energy of the ion-electron system (eV)
  ---------------------------------------------------
  alpha Z        PSCENC =       367.19046233
  Ewald energy   TEWEN  =    349445.33445936
  -Hartree energ DENC   =   -378717.05228577
  -exchange      EXHF   =         0.00000000
  -V(xc)+E(xc)   XCENC  =      1416.99515338
  PAW double counting   =     33297.11783159   -33906.68439203
  entropy T*S    EENTRO =        -0.00311272
  eigenvalues    EBANDS =     -5200.47607855
  atomic energy  EATOM  =     33037.69599157
  Solvation  Ediel_sol  =         0.00000000
  ---------------------------------------------------
  free energy    TOTEN  =      -259.88197085 eV

  energy without entropy =     -259.87885812  energy(sigma->0) =     -259.88093327


--------------------------------------------------------------------------------------------------------




--------------------------------------- Iteration      1(  38)  ---------------------------------------


    POTLOK:  cpu time    0.4885: real time    0.5226
    SETDIJ:  cpu time    0.0412: real time    0.0412
    EDDIAG:  cpu time    7.6297: real time    7.6515
  RMM-DIIS:  cpu time   23.0252: real time   23.0575
    ORTHCH:  cpu time    0.3930: real time    0.3930
       DOS:  cpu time    0.0257: real time    0.0258
    CHARGE:  cpu time    3.0089: real time    3.0124
    MIXING:  cpu time    0.0228: real time    0.0228
    --------------------------------------------
      LOOP:  cpu time   34.6349: real time   34.7266

 eigenvalue-minimisations  :  7645
 total energy-change (2. order) :-0.1137552E+00  (-0.8961464E-03)
 number of electron     282.9999992 magnetization      23.6137487
 augmentation part      100.4999109 magnetization      15.4907502

 Broyden mixing:
  rms(total) = 0.67472E+00    rms(broyden)= 0.67471E+00
  rms(prec ) = 0.69551E+00
  weight for this iteration     100.00

 eigenvalues of (default mixing * dielectric matrix)
  average eigenvalue GAMMA=   1.2075
  9.6051  3.4550  2.6299  1.6527  1.6527  1.6840  1.6840  1.1075  1.1075  1.1610
  1.1610  0.9184  0.9184  0.9241  0.9241  0.1650  0.6950  0.6950  0.6580  0.6580
  0.5774  0.5774  0.6549  0.6549  0.3513  0.3513  0.6292  0.4890  0.4890  0.5515
  0.5515  0.5113  0.0009

 Free energy of the ion-electron system (eV)
  ---------------------------------------------------
  alpha Z        PSCENC =       367.19046233
  Ewald energy   TEWEN  =    349445.33445936
  -Hartree energ DENC   =   -378710.64619283
  -exchange      EXHF   =         0.00000000
  -V(xc)+E(xc)   XCENC  =      1416.84255834
  PAW double counting   =     33296.39894964   -33905.96349817
  entropy T*S    EENTRO =        -0.00278077
  eigenvalues    EBANDS =     -5206.84567553
  atomic energy  EATOM  =     33037.69599157
  Solvation  Ediel_sol  =         0.00000000
  ---------------------------------------------------
  free energy    TOTEN  =      -259.99572606 eV

  energy without entropy =     -259.99294529  energy(sigma->0) =     -259.99479914


--------------------------------------------------------------------------------------------------------




--------------------------------------- Iteration      1(  39)  ---------------------------------------


    POTLOK:  cpu time    0.4647: real time    0.4956
    SETDIJ:  cpu time    0.0412: real time    0.0412
    EDDIAG:  cpu time    7.5783: real time    7.5926
  RMM-DIIS:  cpu time   22.4291: real time   22.8097
    ORTHCH:  cpu time    0.3919: real time    0.3929
       DOS:  cpu time    0.0259: real time    0.0259
    CHARGE:  cpu time    2.9916: real time    3.0003
    MIXING:  cpu time    0.0233: real time    0.0233
    --------------------------------------------
      LOOP:  cpu time   33.9460: real time   34.3815

 eigenvalue-minimisations  :  7299
 total energy-change (2. order) :-0.7277434E-01  (-0.3570092E-03)
 number of electron     282.9999992 magnetization      23.8898589
 augmentation part      100.4965618 magnetization      15.7611281

 Broyden mixing:
  rms(total) = 0.66335E+00    rms(broyden)= 0.66334E+00
  rms(prec ) = 0.68355E+00
  weight for this iteration     100.00

 eigenvalues of (default mixing * dielectric matrix)
  average eigenvalue GAMMA=   1.2563
 10.4898  4.2392  2.7170  1.6904  1.6904  1.7818  1.7818  1.1109  1.1109  1.1568
  1.1568  0.9217  0.9217  1.0190  1.0190  0.1650  0.7294  0.7294  0.6874  0.6874
  0.5774  0.5774  0.6640  0.6640  0.3513  0.3513  0.6096  0.6096  0.4889  0.4889
  0.5365  0.5365  0.4505  0.0009

 Free energy of the ion-electron system (eV)
  ---------------------------------------------------
  alpha Z        PSCENC =       367.19046233
  Ewald energy   TEWEN  =    349445.33445936
  -Hartree energ DENC   =   -378709.18030308
  -exchange      EXHF   =         0.00000000
  -V(xc)+E(xc)   XCENC  =      1416.76922203
  PAW double counting   =     33298.65666474   -33908.20454503
  entropy T*S    EENTRO =        -0.00370462
  eigenvalues    EBANDS =     -5208.32674769
  atomic energy  EATOM  =     33037.69599157
  Solvation  Ediel_sol  =         0.00000000
  ---------------------------------------------------
  free energy    TOTEN  =      -260.06850040 eV

  energy without entropy =     -260.06479578  energy(sigma->0) =     -260.06726553


--------------------------------------------------------------------------------------------------------




--------------------------------------- Iteration      1(  40)  ---------------------------------------


    POTLOK:  cpu time    0.4644: real time    0.4960
    SETDIJ:  cpu time    0.0414: real time    0.0414
    EDDIAG:  cpu time    7.5710: real time    7.5777
  RMM-DIIS:  cpu time   21.6428: real time   21.6868
    ORTHCH:  cpu time    0.3927: real time    0.3936
       DOS:  cpu time    0.0245: real time    0.0246
    CHARGE:  cpu time    3.0041: real time    3.0067
    MIXING:  cpu time    0.0254: real time    0.0255
    --------------------------------------------
      LOOP:  cpu time   33.1665: real time   33.2524

 eigenvalue-minimisations  :  7198
 total energy-change (2. order) :-0.2424046E+00  (-0.1417243E-02)
 number of electron     282.9999992 magnetization      24.0796080
 augmentation part      100.4944967 magnetization      15.9437797

 Broyden mixing:
  rms(total) = 0.64334E+00    rms(broyden)= 0.64334E+00
  rms(prec ) = 0.66234E+00
  weight for this iteration     100.00

 eigenvalues of (default mixing * dielectric matrix)
  average eigenvalue GAMMA=   1.3376
 13.0866  4.5696  2.2086  2.0849  2.0849  1.7497  1.7497  1.1099  1.1099  1.1653
  1.1653  0.9216  0.9216  1.0842  1.0842  0.1650  0.8306  0.6885  0.6885  0.7344
  0.7344  0.5777  0.5777  0.6251  0.6251  0.3513  0.3513  0.6041  0.6041  0.4891
  0.4891  0.5321  0.5321  0.5177  0.0009

 Free energy of the ion-electron system (eV)
  ---------------------------------------------------
  alpha Z        PSCENC =       367.19046233
  Ewald energy   TEWEN  =    349445.33445936
  -Hartree energ DENC   =   -378696.84333962
  -exchange      EXHF   =         0.00000000
  -V(xc)+E(xc)   XCENC  =      1416.46889000
  PAW double counting   =     33303.04496358   -33912.63629365
  entropy T*S    EENTRO =        -0.00492703
  eigenvalues    EBANDS =     -5220.56111149
  atomic energy  EATOM  =     33037.69599157
  Solvation  Ediel_sol  =         0.00000000
  ---------------------------------------------------
  free energy    TOTEN  =      -260.31090496 eV

  energy without entropy =     -260.30597793  energy(sigma->0) =     -260.30926262


--------------------------------------------------------------------------------------------------------




--------------------------------------- Iteration      1(  41)  ---------------------------------------


    POTLOK:  cpu time    0.4646: real time    0.4961
    SETDIJ:  cpu time    0.0411: real time    0.0411
    EDDIAG:  cpu time    7.5904: real time    7.6106
  RMM-DIIS:  cpu time   22.5061: real time   22.8995
    ORTHCH:  cpu time    0.3924: real time    0.3924
       DOS:  cpu time    0.0254: real time    0.0254
    CHARGE:  cpu time    3.0053: real time    3.0162
    MIXING:  cpu time    0.0249: real time    0.0249
    --------------------------------------------
      LOOP:  cpu time   34.0501: real time   34.5062

 eigenvalue-minimisations  :  7277
 total energy-change (2. order) :-0.1453434E+00  (-0.8003784E-03)
 number of electron     282.9999992 magnetization      24.2322021
 augmentation part      100.4911674 magnetization      16.0921351

 Broyden mixing:
  rms(total) = 0.62426E+00    rms(broyden)= 0.62425E+00
  rms(prec ) = 0.64229E+00
  weight for this iteration     100.00

 eigenvalues of (default mixing * dielectric matrix)
  average eigenvalue GAMMA=   1.4229
 15.4180  5.4983  2.3065  2.3065  1.9954  1.7706  1.7706  1.1087  1.1087  1.1675
  1.1675  1.1292  1.1292  0.9211  0.9211  0.8240  0.8240  0.1650  0.6951  0.6951
  0.6810  0.6810  0.5776  0.5776  0.7323  0.3513  0.3513  0.6266  0.6266  0.4894
  0.4894  0.5649  0.5292  0.5109  0.5109  0.0009

 Free energy of the ion-electron system (eV)
  ---------------------------------------------------
  alpha Z        PSCENC =       367.19046233
  Ewald energy   TEWEN  =    349445.33445936
  -Hartree energ DENC   =   -378690.56973323
  -exchange      EXHF   =         0.00000000
  -V(xc)+E(xc)   XCENC  =      1416.28284277
  PAW double counting   =     33301.93482428   -33911.49648550
  entropy T*S    EENTRO =        -0.00596559
  eigenvalues    EBANDS =     -5226.82264430
  atomic energy  EATOM  =     33037.69599157
  Solvation  Ediel_sol  =         0.00000000
  ---------------------------------------------------
  free energy    TOTEN  =      -260.45624831 eV

  energy without entropy =     -260.45028272  energy(sigma->0) =     -260.45425978


--------------------------------------------------------------------------------------------------------




--------------------------------------- Iteration      1(  42)  ---------------------------------------


    POTLOK:  cpu time    0.4706: real time    0.5017
    SETDIJ:  cpu time    0.0412: real time    0.0412
    EDDIAG:  cpu time    7.5774: real time    7.5925
  RMM-DIIS:  cpu time   22.4107: real time   22.4386
    ORTHCH:  cpu time    0.3932: real time    0.3932
       DOS:  cpu time    0.0253: real time    0.0253
    CHARGE:  cpu time    3.0177: real time    3.0215
    MIXING:  cpu time    0.0255: real time    0.0255
    --------------------------------------------
      LOOP:  cpu time   33.9616: real time   34.0395

 eigenvalue-minimisations  :  7468
 total energy-change (2. order) :-0.1627789E+00  (-0.5761243E-03)
 number of electron     282.9999992 magnetization      24.3132232
 augmentation part      100.4889026 magnetization      16.1708861

 Broyden mixing:
  rms(total) = 0.61278E+00    rms(broyden)= 0.61278E+00
  rms(prec ) = 0.63007E+00
  weight for this iteration     100.00

 eigenvalues of (default mixing * dielectric matrix)
  average eigenvalue GAMMA=   1.4735
 16.8695  6.0957  2.3636  2.3636  2.1135  1.7728  1.7728  1.1089  1.1089  1.1668
  1.1668  1.1806  1.1806  0.9211  0.9211  0.9376  0.9376  0.1650  0.6941  0.6941
  0.6911  0.6911  0.5776  0.5776  0.7231  0.6675  0.6675  0.3513  0.3513  0.5760
  0.5760  0.4896  0.4896  0.5185  0.5178  0.5178  0.0009

 Free energy of the ion-electron system (eV)
  ---------------------------------------------------
  alpha Z        PSCENC =       367.19046233
  Ewald energy   TEWEN  =    349445.33445936
  -Hartree energ DENC   =   -378683.57871056
  -exchange      EXHF   =         0.00000000
  -V(xc)+E(xc)   XCENC  =      1416.08862404
  PAW double counting   =     33302.85147096   -33912.41289118
  entropy T*S    EENTRO =        -0.00648044
  eigenvalues    EBANDS =     -5233.78195333
  atomic energy  EATOM  =     33037.69599157
  Solvation  Ediel_sol  =         0.00000000
  ---------------------------------------------------
  free energy    TOTEN  =      -260.61902726 eV

  energy without entropy =     -260.61254681  energy(sigma->0) =     -260.61686711


--------------------------------------------------------------------------------------------------------




--------------------------------------- Iteration      1(  43)  ---------------------------------------


    POTLOK:  cpu time    0.4784: real time    0.5377
    SETDIJ:  cpu time    0.0412: real time    0.0412
    EDDIAG:  cpu time    7.9475: real time    8.3215
  RMM-DIIS:  cpu time   20.9891: real time   21.0326
    ORTHCH:  cpu time    0.3924: real time    0.3924
       DOS:  cpu time    0.0261: real time    0.0261
    CHARGE:  cpu time    2.9901: real time    3.0043
    MIXING:  cpu time    0.0271: real time    0.0271
    --------------------------------------------
      LOOP:  cpu time   32.8920: real time   33.3830

 eigenvalue-minimisations  :  6972
 total energy-change (2. order) :-0.1346159E+00  (-0.2820761E-03)
 number of electron     282.9999992 magnetization      24.3766414
 augmentation part      100.4871639 magnetization      16.2325825

 Broyden mixing:
  rms(total) = 0.60793E+00    rms(broyden)= 0.60792E+00
  rms(prec ) = 0.62461E+00
  weight for this iteration     100.00

 eigenvalues of (default mixing * dielectric matrix)
  average eigenvalue GAMMA=   1.5096
 17.9063  6.5586  2.5638  2.5638  1.7564  1.7564  1.7977  1.1089  1.1089  1.1668
  1.1668  1.4747  1.1828  1.1828  0.9212  0.9212  0.8848  0.8848  0.1650  0.6912
  0.6912  0.7071  0.7071  0.5776  0.5776  0.3513  0.3513  0.6529  0.6529  0.6115
  0.6115  0.4892  0.4892  0.5559  0.5559  0.5260  0.4914  0.0009

 Free energy of the ion-electron system (eV)
  ---------------------------------------------------
  alpha Z        PSCENC =       367.19046233
  Ewald energy   TEWEN  =    349445.33445936
  -Hartree energ DENC   =   -378679.55482216
  -exchange      EXHF   =         0.00000000
  -V(xc)+E(xc)   XCENC  =      1415.95447414
  PAW double counting   =     33304.32578412   -33913.88916242
  entropy T*S    EENTRO =        -0.00725932
  eigenvalues    EBANDS =     -5237.80357077
  atomic energy  EATOM  =     33037.69599157
  Solvation  Ediel_sol  =         0.00000000
  ---------------------------------------------------
  free energy    TOTEN  =      -260.75364315 eV

  energy without entropy =     -260.74638383  energy(sigma->0) =     -260.75122338


--------------------------------------------------------------------------------------------------------




--------------------------------------- Iteration      1(  44)  ---------------------------------------


    POTLOK:  cpu time    0.4656: real time    0.4964
    SETDIJ:  cpu time    0.0412: real time    0.0412
    EDDIAG:  cpu time    7.5682: real time    7.5756
  RMM-DIIS:  cpu time   21.7656: real time   21.8579
    ORTHCH:  cpu time    0.3934: real time    0.3945
       DOS:  cpu time    0.0263: real time    0.0264
    CHARGE:  cpu time    3.1094: real time    3.1888
    MIXING:  cpu time    0.0323: real time    0.0357
    --------------------------------------------
      LOOP:  cpu time   33.4019: real time   33.6166

 eigenvalue-minimisations  :  7239
 total energy-change (2. order) :-0.1050401E+00  (-0.1773133E-03)
 number of electron     282.9999992 magnetization      24.4036776
 augmentation part      100.4880264 magnetization      16.2632682

 Broyden mixing:
  rms(total) = 0.60994E+00    rms(broyden)= 0.60994E+00
  rms(prec ) = 0.62706E+00
  weight for this iteration     100.00

 eigenvalues of (default mixing * dielectric matrix)
  average eigenvalue GAMMA=   1.5355
 19.0878  6.6236  2.6077  2.6077  1.7691  1.7691  1.7786  1.7786  1.1089  1.1089
  1.1671  1.1671  1.2663  1.2663  0.9211  0.9211  0.9323  0.9323  0.1650  0.6922
  0.6922  0.7051  0.7051  0.5776  0.5776  0.3513  0.3513  0.6769  0.6769  0.6018
  0.6018  0.5802  0.5802  0.4892  0.4892  0.5435  0.5435  0.4682  0.0009

 Free energy of the ion-electron system (eV)
  ---------------------------------------------------
  alpha Z        PSCENC =       367.19046233
  Ewald energy   TEWEN  =    349445.33445936
  -Hartree energ DENC   =   -378676.42822703
  -exchange      EXHF   =         0.00000000
  -V(xc)+E(xc)   XCENC  =      1415.84981958
  PAW double counting   =     33303.47387003   -33913.03013319
  entropy T*S    EENTRO =        -0.00662145
  eigenvalues    EBANDS =     -5240.93830441
  atomic energy  EATOM  =     33037.69599157
  Solvation  Ediel_sol  =         0.00000000
  ---------------------------------------------------
  free energy    TOTEN  =      -260.85868321 eV

  energy without entropy =     -260.85206175  energy(sigma->0) =     -260.85647605


--------------------------------------------------------------------------------------------------------




--------------------------------------- Iteration      1(  45)  ---------------------------------------


    POTLOK:  cpu time    0.6156: real time    0.8641
    SETDIJ:  cpu time    0.0744: real time    0.0783
    EDDIAG:  cpu time    7.7454: real time    7.8994
  RMM-DIIS:  cpu time   20.8525: real time   20.8876
    ORTHCH:  cpu time    0.3929: real time    0.3929
       DOS:  cpu time    0.0258: real time    0.0258
    CHARGE:  cpu time    3.0247: real time    3.0274
    MIXING:  cpu time    0.0300: real time    0.0300
    --------------------------------------------
      LOOP:  cpu time   32.7614: real time   33.2057

 eigenvalue-minimisations  :  6905
 total energy-change (2. order) :-0.4875446E-01  (-0.5247972E-04)
 number of electron     282.9999992 magnetization      24.4366669
 augmentation part      100.4882715 magnetization      16.2962071

 Broyden mixing:
  rms(total) = 0.61163E+00    rms(broyden)= 0.61163E+00
  rms(prec ) = 0.62886E+00
  weight for this iteration     100.00

 eigenvalues of (default mixing * dielectric matrix)
  average eigenvalue GAMMA=   1.5537
 19.9604  6.8632  2.6681  2.6681  1.7776  1.7776  1.1089  1.1089  1.1672  1.1672
  1.6103  1.4297  1.4297  1.4487  0.9211  0.9211  1.0990  1.0032  1.0032  0.1650
  0.6919  0.6919  0.6803  0.6803  0.5776  0.5776  0.3513  0.3513  0.6283  0.6283
  0.6388  0.6388  0.5974  0.5974  0.4891  0.4891  0.5324  0.5324  0.4732  0.0009

 Free energy of the ion-electron system (eV)
  ---------------------------------------------------
  alpha Z        PSCENC =       367.19046233
  Ewald energy   TEWEN  =    349445.33445936
  -Hartree energ DENC   =   -378676.58722246
  -exchange      EXHF   =         0.00000000
  -V(xc)+E(xc)   XCENC  =      1415.80961761
  PAW double counting   =     33303.56997791   -33913.12055681
  entropy T*S    EENTRO =        -0.00648122
  eigenvalues    EBANDS =     -5240.79368596
  atomic energy  EATOM  =     33037.69599157
  Solvation  Ediel_sol  =         0.00000000
  ---------------------------------------------------
  free energy    TOTEN  =      -260.90743767 eV

  energy without entropy =     -260.90095645  energy(sigma->0) =     -260.90527726


--------------------------------------------------------------------------------------------------------




--------------------------------------- Iteration      1(  46)  ---------------------------------------


    POTLOK:  cpu time    0.4651: real time    0.4974
    SETDIJ:  cpu time    0.0409: real time    0.0409
    EDDIAG:  cpu time    7.5705: real time    7.5850
  RMM-DIIS:  cpu time   20.5240: real time   20.9532
    ORTHCH:  cpu time    0.5666: real time    0.5666
       DOS:  cpu time    0.0259: real time    0.0259
    CHARGE:  cpu time    3.0616: real time    3.0692
    MIXING:  cpu time    0.0288: real time    0.0288
    --------------------------------------------
      LOOP:  cpu time   32.2837: real time   32.7672

 eigenvalue-minimisations  :  6582
 total energy-change (2. order) :-0.5733675E-01  (-0.4675814E-04)
 number of electron     282.9999992 magnetization      24.4818239
 augmentation part      100.4896068 magnetization      16.3420534

 Broyden mixing:
  rms(total) = 0.61380E+00    rms(broyden)= 0.61380E+00
  rms(prec ) = 0.63131E+00
  weight for this iteration     100.00

 eigenvalues of (default mixing * dielectric matrix)
  average eigenvalue GAMMA=   1.6135
 21.2682  7.1912  2.8806  2.5596  2.2882  2.2882  1.7633  1.7633  1.1088  1.1088
  1.1672  1.1672  1.4703  1.4703  0.9211  0.9211  1.0592  1.0592  0.1650  0.8646
  0.8646  0.6918  0.6918  0.6893  0.6893  0.5776  0.5776  0.3513  0.3513  0.6681
  0.6681  0.5850  0.5850  0.4891  0.4891  0.5794  0.5794  0.5328  0.5328  0.4729
  0.0009

 Free energy of the ion-electron system (eV)
  ---------------------------------------------------
  alpha Z        PSCENC =       367.19046233
  Ewald energy   TEWEN  =    349445.33445936
  -Hartree energ DENC   =   -378676.37253921
  -exchange      EXHF   =         0.00000000
  -V(xc)+E(xc)   XCENC  =      1415.76114081
  PAW double counting   =     33303.70689278   -33913.25737867
  entropy T*S    EENTRO =        -0.00620446
  eigenvalues    EBANDS =     -5241.01759893
  atomic energy  EATOM  =     33037.69599157
  Solvation  Ediel_sol  =         0.00000000
  ---------------------------------------------------
  free energy    TOTEN  =      -260.96477442 eV

  energy without entropy =     -260.95856996  energy(sigma->0) =     -260.96270627


--------------------------------------------------------------------------------------------------------




--------------------------------------- Iteration      1(  47)  ---------------------------------------


    POTLOK:  cpu time    0.4656: real time    0.5083
    SETDIJ:  cpu time    0.0411: real time    0.0411
    EDDIAG:  cpu time    7.5855: real time    7.5985
  RMM-DIIS:  cpu time   20.3493: real time   20.3776
    ORTHCH:  cpu time    0.3953: real time    0.3952
       DOS:  cpu time    0.0262: real time    0.0262
    CHARGE:  cpu time    3.0160: real time    3.0197
    MIXING:  cpu time    0.0301: real time    0.0301
    --------------------------------------------
      LOOP:  cpu time   31.9088: real time   31.9965

 eigenvalue-minimisations  :  6703
 total energy-change (2. order) :-0.5749644E-01  (-0.7564022E-04)
 number of electron     282.9999992 magnetization      24.5059046
 augmentation part      100.4899250 magnetization      16.3662693

 Broyden mixing:
  rms(total) = 0.61460E+00    rms(broyden)= 0.61460E+00
  rms(prec ) = 0.63254E+00
  weight for this iteration     100.00

 eigenvalues of (default mixing * dielectric matrix)
  average eigenvalue GAMMA=   1.6804
 22.8691  7.5254  4.1805  2.2107  2.2107  2.2708  2.2708  1.7526  1.7526  1.1088
  1.1088  1.1671  1.1671  1.1863  1.1863  0.9211  0.9211  1.2032  0.9379  0.9379
  0.1650  0.6919  0.6919  0.6933  0.6933  0.5776  0.5776  0.6813  0.6813  0.3513
  0.3513  0.6752  0.5809  0.5809  0.5895  0.5895  0.4891  0.4891  0.5306  0.5306
  0.4773  0.0009

 Free energy of the ion-electron system (eV)
  ---------------------------------------------------
  alpha Z        PSCENC =       367.19046233
  Ewald energy   TEWEN  =    349445.33445936
  -Hartree energ DENC   =   -378676.55458858
  -exchange      EXHF   =         0.00000000
  -V(xc)+E(xc)   XCENC  =      1415.71398147
  PAW double counting   =     33303.85374105   -33913.40077475
  entropy T*S    EENTRO =        -0.00584130
  eigenvalues    EBANDS =     -5240.84970200
  atomic energy  EATOM  =     33037.69599157
  Solvation  Ediel_sol  =         0.00000000
  ---------------------------------------------------
  free energy    TOTEN  =      -261.02227086 eV

  energy without entropy =     -261.01642956  energy(sigma->0) =     -261.02032376


--------------------------------------------------------------------------------------------------------




--------------------------------------- Iteration      1(  48)  ---------------------------------------


    POTLOK:  cpu time    0.4980: real time    0.4981
    SETDIJ:  cpu time    0.0409: real time    0.0409
    EDDIAG:  cpu time    7.5731: real time    7.5871
  RMM-DIIS:  cpu time   21.1298: real time   21.6091
    ORTHCH:  cpu time    0.3929: real time    0.3929
       DOS:  cpu time    0.0264: real time    0.0264
    CHARGE:  cpu time    3.0136: real time    3.0171
    MIXING:  cpu time    0.0310: real time    0.0310
    --------------------------------------------
      LOOP:  cpu time   32.7057: real time   33.2027

 eigenvalue-minimisations  :  6759
 total energy-change (2. order) :-0.2306819E-01  (-0.3854223E-04)
 number of electron     282.9999992 magnetization      24.5163429
 augmentation part      100.4882248 magnetization      16.3754711

 Broyden mixing:
  rms(total) = 0.61118E+00    rms(broyden)= 0.61118E+00
  rms(prec ) = 0.62893E+00
  weight for this iteration     100.00

 eigenvalues of (default mixing * dielectric matrix)
  average eigenvalue GAMMA=   1.7073
 23.9306  8.2829  4.4502  2.3983  2.3983  2.1199  2.1199  1.7507  1.7507  1.1088
  1.1088  1.1671  1.1671  1.1941  1.1941  0.9211  0.9211  1.1374  0.9716  0.9716
  0.1650  0.6922  0.6922  0.6942  0.6942  0.5776  0.5776  0.7050  0.7050  0.3513
  0.3513  0.6726  0.6726  0.5642  0.5642  0.5804  0.5804  0.4891  0.4891  0.5227
  0.5227  0.4850  0.0009

 Free energy of the ion-electron system (eV)
  ---------------------------------------------------
  alpha Z        PSCENC =       367.19046233
  Ewald energy   TEWEN  =    349445.33445936
  -Hartree energ DENC   =   -378677.12855034
  -exchange      EXHF   =         0.00000000
  -V(xc)+E(xc)   XCENC  =      1415.69743316
  PAW double counting   =     33303.88211072   -33913.43327865
  entropy T*S    EENTRO =        -0.00631139
  eigenvalues    EBANDS =     -5240.27765581
  atomic energy  EATOM  =     33037.69599157
  Solvation  Ediel_sol  =         0.00000000
  ---------------------------------------------------
  free energy    TOTEN  =      -261.04533905 eV

  energy without entropy =     -261.03902766  energy(sigma->0) =     -261.04323525


--------------------------------------------------------------------------------------------------------




--------------------------------------- Iteration      1(  49)  ---------------------------------------


    POTLOK:  cpu time    0.4665: real time    0.4975
    SETDIJ:  cpu time    0.0410: real time    0.0410
    EDDIAG:  cpu time    7.6007: real time    7.6121
  RMM-DIIS:  cpu time   19.3996: real time   19.4339
    ORTHCH:  cpu time    0.3971: real time    0.3981
       DOS:  cpu time    0.0244: real time    0.0245
    CHARGE:  cpu time    3.0097: real time    3.0123
    MIXING:  cpu time    0.0317: real time    0.0317
    --------------------------------------------
      LOOP:  cpu time   30.9707: real time   31.0512

 eigenvalue-minimisations  :  6354
 total energy-change (2. order) :-0.4691992E-02  (-0.1005113E-04)
 number of electron     282.9999992 magnetization      24.5240604
 augmentation part      100.4881661 magnetization      16.3837485

 Broyden mixing:
  rms(total) = 0.61053E+00    rms(broyden)= 0.61053E+00
  rms(prec ) = 0.62831E+00
  weight for this iteration     100.00

 eigenvalues of (default mixing * dielectric matrix)
  average eigenvalue GAMMA=   1.7366
 24.5889  8.7228  4.9838  2.4887  2.4887  2.1475  2.1475  1.7476  1.7476  1.1088
  1.1088  1.1671  1.1671  1.2694  1.2694  0.9211  0.9211  1.0809  1.0809  0.8721
  0.8721  0.8888  0.1650  0.6924  0.6924  0.6945  0.6945  0.5776  0.5776  0.6850
  0.6850  0.3513  0.3513  0.5701  0.5701  0.6272  0.5858  0.5858  0.4891  0.4891
  0.5264  0.5264  0.4825  0.0009

 Free energy of the ion-electron system (eV)
  ---------------------------------------------------
  alpha Z        PSCENC =       367.19046233
  Ewald energy   TEWEN  =    349445.33445936
  -Hartree energ DENC   =   -378676.47970865
  -exchange      EXHF   =         0.00000000
  -V(xc)+E(xc)   XCENC  =      1415.68963522
  PAW double counting   =     33303.81100677   -33913.36238741
  entropy T*S    EENTRO =        -0.00623312
  eigenvalues    EBANDS =     -5240.92325712
  atomic energy  EATOM  =     33037.69599157
  Solvation  Ediel_sol  =         0.00000000
  ---------------------------------------------------
  free energy    TOTEN  =      -261.05003104 eV

  energy without entropy =     -261.04379792  energy(sigma->0) =     -261.04795334


--------------------------------------------------------------------------------------------------------




--------------------------------------- Iteration      1(  50)  ---------------------------------------


    POTLOK:  cpu time    0.4969: real time    0.4978
    SETDIJ:  cpu time    0.0410: real time    0.0410
    EDDIAG:  cpu time    7.5820: real time    7.5890
  RMM-DIIS:  cpu time   17.8610: real time   18.2024
    ORTHCH:  cpu time    0.3910: real time    0.3993
       DOS:  cpu time    0.0247: real time    0.0247
    CHARGE:  cpu time    3.0095: real time    3.0121
    MIXING:  cpu time    0.0310: real time    0.0317
    --------------------------------------------
      LOOP:  cpu time   29.4371: real time   29.7980

 eigenvalue-minimisations  :  5577
 total energy-change (2. order) :-0.6289608E-02  (-0.6730813E-05)
 number of electron     282.9999992 magnetization      24.5230085
 augmentation part      100.4878291 magnetization      16.3830280

 Broyden mixing:
  rms(total) = 0.60903E+00    rms(broyden)= 0.60903E+00
  rms(prec ) = 0.62679E+00
  weight for this iteration     100.00

 eigenvalues of (default mixing * dielectric matrix)
  average eigenvalue GAMMA=   1.7446
 25.0396  9.2440  2.1582  2.1582  2.1778  1.6789  1.6789  1.1036  1.1036  1.1640
  1.1640  1.5919  1.5919  1.4409  0.9348  0.9348  0.0009  0.9449  0.9449  0.1742
  0.7265  0.7265  0.7868  0.7868  0.5906  0.5906  0.3274  0.8122  0.7369  0.7369
  0.6469  0.6469  0.5781  0.5781  0.5776  0.5776  0.4943  0.5210  0.5566  0.5566

 Free energy of the ion-electron system (eV)
  ---------------------------------------------------
  alpha Z        PSCENC =       367.19046233
  Ewald energy   TEWEN  =    349445.33445936
  -Hartree energ DENC   =   -378676.63623027
  -exchange      EXHF   =         0.00000000
  -V(xc)+E(xc)   XCENC  =      1415.68393902
  PAW double counting   =     33303.63644367   -33913.18851952
  entropy T*S    EENTRO =        -0.00631248
  eigenvalues    EBANDS =     -5240.76655432
  atomic energy  EATOM  =     33037.69599157
  Solvation  Ediel_sol  =         0.00000000
  ---------------------------------------------------
  free energy    TOTEN  =      -261.05632065 eV

  energy without entropy =     -261.05000817  energy(sigma->0) =     -261.05421649


--------------------------------------------------------------------------------------------------------




--------------------------------------- Iteration      1(  51)  ---------------------------------------


    POTLOK:  cpu time    0.4961: real time    0.4963
    SETDIJ:  cpu time    0.0410: real time    0.0410
    EDDIAG:  cpu time    7.5408: real time    7.5515
  RMM-DIIS:  cpu time   16.2153: real time   16.2368
    ORTHCH:  cpu time    0.3914: real time    0.3914
       DOS:  cpu time    0.0262: real time    0.0262
    CHARGE:  cpu time    2.9874: real time    2.9960
    MIXING:  cpu time    0.0288: real time    0.0288
    --------------------------------------------
      LOOP:  cpu time   27.7270: real time   27.7680

 eigenvalue-minimisations  :  5208
 total energy-change (2. order) : 0.2573901E-02  (-0.3353103E-05)
 number of electron     282.9999992 magnetization      24.5239249
 augmentation part      100.4878531 magnetization      16.3839326

 Broyden mixing:
  rms(total) = 0.60857E+00    rms(broyden)= 0.60857E+00
  rms(prec ) = 0.62625E+00
  weight for this iteration     100.00

 eigenvalues of (default mixing * dielectric matrix)
  average eigenvalue GAMMA=   1.7277
 25.0154  9.3638  2.2396  2.2396  2.2599  1.6666  1.6666  1.6560  1.6560  1.1074
  1.1074  1.1646  1.1646  1.4394  0.9059  0.9059  0.0009  0.9822  0.9822  0.1802
  0.7746  0.7746  0.7720  0.7720  0.5920  0.5920  0.8091  0.8091  0.3200  0.6526
  0.6526  0.6836  0.5745  0.5745  0.5910  0.5910  0.4628  0.4969  0.5224  0.5576
  0.5576

 Free energy of the ion-electron system (eV)
  ---------------------------------------------------
  alpha Z        PSCENC =       367.19046233
  Ewald energy   TEWEN  =    349445.33445936
  -Hartree energ DENC   =   -378675.90350998
  -exchange      EXHF   =         0.00000000
  -V(xc)+E(xc)   XCENC  =      1415.68267743
  PAW double counting   =     33303.89867724   -33913.45422349
  entropy T*S    EENTRO =        -0.00632195
  eigenvalues    EBANDS =     -5241.49195926
  atomic energy  EATOM  =     33037.69599157
  Solvation  Ediel_sol  =         0.00000000
  ---------------------------------------------------
  free energy    TOTEN  =      -261.05374675 eV

  energy without entropy =     -261.04742480  energy(sigma->0) =     -261.05163943


--------------------------------------------------------------------------------------------------------




--------------------------------------- Iteration      1(  52)  ---------------------------------------


    POTLOK:  cpu time    0.4964: real time    0.4973
    SETDIJ:  cpu time    0.0409: real time    0.0409
    EDDIAG:  cpu time    7.5628: real time    7.5703
  RMM-DIIS:  cpu time   14.4450: real time   14.8759
    ORTHCH:  cpu time    0.4080: real time    0.4100
       DOS:  cpu time    0.0259: real time    0.0259
    CHARGE:  cpu time    3.0540: real time    3.0696
    MIXING:  cpu time    0.0301: real time    0.0301
    --------------------------------------------
      LOOP:  cpu time   26.0631: real time   26.5201

 eigenvalue-minimisations  :  4237
 total energy-change (2. order) :-0.1687456E-02  (-0.9367446E-06)
 number of electron     282.9999992 magnetization      24.5249326
 augmentation part      100.4877272 magnetization      16.3849235

 Broyden mixing:
  rms(total) = 0.60794E+00    rms(broyden)= 0.60794E+00
  rms(prec ) = 0.62559E+00
  weight for this iteration     100.00

 eigenvalues of (default mixing * dielectric matrix)
  average eigenvalue GAMMA=   1.7305
 25.0417  9.4665  2.3303  2.3303  2.2563  1.7074  1.7074  1.7694  1.7694  1.1205
  1.1205  1.1448  1.1448  1.3620  1.3620  0.9398  0.9398  0.0009  0.1639  0.8949
  0.8949  0.7801  0.7801  0.8831  0.7366  0.7366  0.6004  0.6004  0.3174  0.6903
  0.6903  0.6462  0.6462  0.5827  0.5827  0.6761  0.5760  0.5760  0.4969  0.5257
  0.5458  0.5458

 Free energy of the ion-electron system (eV)
  ---------------------------------------------------
  alpha Z        PSCENC =       367.19046233
  Ewald energy   TEWEN  =    349445.33445936
  -Hartree energ DENC   =   -378675.99445560
  -exchange      EXHF   =         0.00000000
  -V(xc)+E(xc)   XCENC  =      1415.68086323
  PAW double counting   =     33303.82970551   -33913.38488723
  entropy T*S    EENTRO =        -0.00636517
  eigenvalues    EBANDS =     -5241.40120821
  atomic energy  EATOM  =     33037.69599157
  Solvation  Ediel_sol  =         0.00000000
  ---------------------------------------------------
  free energy    TOTEN  =      -261.05543421 eV

  energy without entropy =     -261.04906904  energy(sigma->0) =     -261.05331248


--------------------------------------------------------------------------------------------------------




--------------------------------------- Iteration      1(  53)  ---------------------------------------


    POTLOK:  cpu time    0.4972: real time    0.4980
    SETDIJ:  cpu time    0.0409: real time    0.0409
    EDDIAG:  cpu time    7.5748: real time    7.5821
  RMM-DIIS:  cpu time   13.7877: real time   13.8145
    ORTHCH:  cpu time    0.3934: real time    0.3935
       DOS:  cpu time    0.0258: real time    0.0258
    CHARGE:  cpu time    3.0191: real time    3.0215
    MIXING:  cpu time    0.0311: real time    0.0311
    --------------------------------------------
      LOOP:  cpu time   25.3701: real time   25.4074

 eigenvalue-minimisations  :  4191
 total energy-change (2. order) :-0.8231964E-03  (-0.8670491E-06)
 number of electron     282.9999992 magnetization      24.5260629
 augmentation part      100.4874493 magnetization      16.3860231

 Broyden mixing:
  rms(total) = 0.60698E+00    rms(broyden)= 0.60698E+00
  rms(prec ) = 0.62458E+00
  weight for this iteration     100.00

 eigenvalues of (default mixing * dielectric matrix)
  average eigenvalue GAMMA=   1.7461
 25.0870  9.6910  2.7265  2.7265  2.2875  2.2875  1.7034  1.7034  1.0767  1.0767
  1.1814  1.1814  1.5984  1.5984  1.4288  0.9395  0.9395  0.0009  0.9858  0.9858
  0.1653  0.7779  0.7779  0.7383  0.7383  0.6020  0.6020  0.3196  0.7486  0.7486
  0.6637  0.6637  0.5753  0.5753  0.6402  0.6402  0.6479  0.5721  0.5721  0.5073
  0.5073  0.5451  0.5451

 Free energy of the ion-electron system (eV)
  ---------------------------------------------------
  alpha Z        PSCENC =       367.19046233
  Ewald energy   TEWEN  =    349445.33445936
  -Hartree energ DENC   =   -378675.96000379
  -exchange      EXHF   =         0.00000000
  -V(xc)+E(xc)   XCENC  =      1415.67920657
  PAW double counting   =     33303.72974921   -33913.28420814
  entropy T*S    EENTRO =        -0.00641196
  eigenvalues    EBANDS =     -5241.43550254
  atomic energy  EATOM  =     33037.69599157
  Solvation  Ediel_sol  =         0.00000000
  ---------------------------------------------------
  free energy    TOTEN  =      -261.05625740 eV

  energy without entropy =     -261.04984544  energy(sigma->0) =     -261.05412008


--------------------------------------------------------------------------------------------------------




--------------------------------------- Iteration      1(  54)  ---------------------------------------


    POTLOK:  cpu time    0.4670: real time    0.4983
    SETDIJ:  cpu time    0.0412: real time    0.0412
    EDDIAG:  cpu time    7.5686: real time    7.5815
  RMM-DIIS:  cpu time   13.9727: real time   14.0148
    ORTHCH:  cpu time    0.3919: real time    0.3928
       DOS:  cpu time    0.0253: real time    0.0253
    CHARGE:  cpu time    3.0326: real time    3.0449
    MIXING:  cpu time    0.0317: real time    0.0317
    --------------------------------------------
      LOOP:  cpu time   25.5310: real time   25.6306

 eigenvalue-minimisations  :  4220
 total energy-change (2. order) :-0.1199839E-02  (-0.1227332E-05)
 number of electron     282.9999992 magnetization      24.5264199
 augmentation part      100.4874599 magnetization      16.3866768

 Broyden mixing:
  rms(total) = 0.60627E+00    rms(broyden)= 0.60627E+00
  rms(prec ) = 0.62385E+00
  weight for this iteration     100.00

 eigenvalues of (default mixing * dielectric matrix)
  average eigenvalue GAMMA=   1.7570
 25.0561  9.8028  3.8263  2.8585  2.2486  2.2486  1.7019  1.7019  1.0772  1.0772
  1.1839  1.1839  1.6088  1.6088  1.4954  0.9706  0.9706  0.0009  0.9849  0.9849
  0.1708  0.7701  0.7701  0.7493  0.7493  0.6023  0.6023  0.3209  0.7842  0.7842
  0.7963  0.6694  0.6694  0.5758  0.5758  0.6431  0.6248  0.6248  0.5746  0.5746
  0.4938  0.5119  0.5393  0.5393

 Free energy of the ion-electron system (eV)
  ---------------------------------------------------
  alpha Z        PSCENC =       367.19046233
  Ewald energy   TEWEN  =    349445.33445936
  -Hartree energ DENC   =   -378675.92436011
  -exchange      EXHF   =         0.00000000
  -V(xc)+E(xc)   XCENC  =      1415.67730548
  PAW double counting   =     33303.66841900   -33913.22203233
  entropy T*S    EENTRO =        -0.00640104
  eigenvalues    EBANDS =     -5241.47130149
  atomic energy  EATOM  =     33037.69599157
  Solvation  Ediel_sol  =         0.00000000
  ---------------------------------------------------
  free energy    TOTEN  =      -261.05745724 eV

  energy without entropy =     -261.05105620  energy(sigma->0) =     -261.05532356


--------------------------------------------------------------------------------------------------------




--------------------------------------- Iteration      1(  55)  ---------------------------------------


    POTLOK:  cpu time    0.4954: real time    0.4964
    SETDIJ:  cpu time    0.0412: real time    0.0412
    EDDIAG:  cpu time    8.0055: real time    8.4455
  RMM-DIIS:  cpu time   13.6174: real time   13.6393
    ORTHCH:  cpu time    0.3940: real time    0.3950
       DOS:  cpu time    0.0249: real time    0.0250
    CHARGE:  cpu time    3.0308: real time    3.0336
    MIXING:  cpu time    0.0306: real time    0.0306
    --------------------------------------------
      LOOP:  cpu time   25.6399: real time   26.1065

 eigenvalue-minimisations  :  4112
 total energy-change (2. order) :-0.5517692E-03  (-0.6533263E-06)
 number of electron     282.9999992 magnetization      24.5270469
 augmentation part      100.4871697 magnetization      16.3873234

 Broyden mixing:
  rms(total) = 0.60515E+00    rms(broyden)= 0.60515E+00
  rms(prec ) = 0.62269E+00
  weight for this iteration     100.00

 eigenvalues of (default mixing * dielectric matrix)
  average eigenvalue GAMMA=   1.8326
 24.1883  9.8214  5.0115  2.9022  2.0776  2.0776  1.2905  1.2905  1.6373  1.6373
  1.0195  1.0195  1.4723  1.4723  0.0007  1.0899  1.0899  0.8166  0.8166  0.2725
  0.8765  0.7453  0.7453  0.6704  0.6704  0.4888  0.4888  0.6422  0.6422  0.6984
  0.6984  0.4147  0.5445  0.5445  0.6282  0.6282  0.5032  0.5032  0.5832  0.5832

 Free energy of the ion-electron system (eV)
  ---------------------------------------------------
  alpha Z        PSCENC =       367.19046233
  Ewald energy   TEWEN  =    349445.33445936
  -Hartree energ DENC   =   -378675.94726986
  -exchange      EXHF   =         0.00000000
  -V(xc)+E(xc)   XCENC  =      1415.67680702
  PAW double counting   =     33303.66664461   -33913.21992695
  entropy T*S    EENTRO =        -0.00645233
  eigenvalues    EBANDS =     -5241.44872477
  atomic energy  EATOM  =     33037.69599157
  Solvation  Ediel_sol  =         0.00000000
  ---------------------------------------------------
  free energy    TOTEN  =      -261.05800901 eV

  energy without entropy =     -261.05155668  energy(sigma->0) =     -261.05585823


--------------------------------------------------------------------------------------------------------




--------------------------------------- Iteration      1(  56)  ---------------------------------------


    POTLOK:  cpu time    0.4729: real time    0.5119
    SETDIJ:  cpu time    0.0411: real time    0.0411
    EDDIAG:  cpu time    7.5728: real time    7.5796
  RMM-DIIS:  cpu time   13.6243: real time   13.6372
    ORTHCH:  cpu time    0.3940: real time    0.3948
       DOS:  cpu time    0.0253: real time    0.0253
    CHARGE:  cpu time    3.0249: real time    3.0276
    MIXING:  cpu time    0.0290: real time    0.0290
    --------------------------------------------
      LOOP:  cpu time   25.1841: real time   25.2463

 eigenvalue-minimisations  :  4138
 total energy-change (2. order) : 0.3153628E-03  (-0.6996932E-06)
 number of electron     282.9999992 magnetization      24.5286253
 augmentation part      100.4869975 magnetization      16.3890668

 Broyden mixing:
  rms(total) = 0.60388E+00    rms(broyden)= 0.60388E+00
  rms(prec ) = 0.62139E+00
  weight for this iteration     100.00

 eigenvalues of (default mixing * dielectric matrix)
  average eigenvalue GAMMA=   1.8246
 24.1780  9.9254  5.7407  2.9153  2.0812  2.0812  1.6450  1.6450  1.2748  1.2748
  1.0271  1.0271  1.4651  1.4651  0.0010  1.1034  1.1034  0.7924  0.7924  0.9258
  0.3105  0.3105  0.7427  0.7427  0.6680  0.6680  0.7246  0.7246  0.6994  0.6994
  0.5051  0.5051  0.4465  0.5894  0.5894  0.6334  0.6334  0.5052  0.5052  0.5703
  0.5703

 Free energy of the ion-electron system (eV)
  ---------------------------------------------------
  alpha Z        PSCENC =       367.19046233
  Ewald energy   TEWEN  =    349445.33445936
  -Hartree energ DENC   =   -378675.93540986
  -exchange      EXHF   =         0.00000000
  -V(xc)+E(xc)   XCENC  =      1415.67711967
  PAW double counting   =     33303.64488457   -33913.19700205
  entropy T*S    EENTRO =        -0.00647623
  eigenvalues    EBANDS =     -5241.46172301
  atomic energy  EATOM  =     33037.69599157
  Solvation  Ediel_sol  =         0.00000000
  ---------------------------------------------------
  free energy    TOTEN  =      -261.05769365 eV

  energy without entropy =     -261.05121742  energy(sigma->0) =     -261.05553491


--------------------------------------------------------------------------------------------------------




--------------------------------------- Iteration      1(  57)  ---------------------------------------


    POTLOK:  cpu time    0.4711: real time    0.5022
    SETDIJ:  cpu time    0.0409: real time    0.0409
    EDDIAG:  cpu time    7.5678: real time    7.6236
  RMM-DIIS:  cpu time   14.1986: real time   14.5445
    ORTHCH:  cpu time    0.3909: real time    0.3909
       DOS:  cpu time    0.0259: real time    0.0259
    CHARGE:  cpu time    2.9974: real time    3.0001
    MIXING:  cpu time    0.0300: real time    0.0300
    --------------------------------------------
      LOOP:  cpu time   25.7227: real time   26.1582

 eigenvalue-minimisations  :  4182
 total energy-change (2. order) : 0.7543200E-03  (-0.8464556E-06)
 number of electron     282.9999992 magnetization      24.5301217
 augmentation part      100.4868086 magnetization      16.3907355

 Broyden mixing:
  rms(total) = 0.60261E+00    rms(broyden)= 0.60261E+00
  rms(prec ) = 0.62010E+00
  weight for this iteration     100.00

 eigenvalues of (default mixing * dielectric matrix)
  average eigenvalue GAMMA=   1.8342
 24.1725  9.9911  6.1949  3.0020  2.0680  2.0680  1.3690  1.3690  1.7265  1.7265
  1.5860  1.5860  0.9149  0.9149  1.0410  1.0410  0.0004  1.0304  1.0304  1.0374
  0.2540  0.7511  0.7511  0.5654  0.5654  0.6689  0.6689  0.7402  0.7402  0.4029
  0.6944  0.6944  0.6020  0.6020  0.5382  0.5382  0.6143  0.6143  0.4871  0.5726
  0.5726  0.5271

 Free energy of the ion-electron system (eV)
  ---------------------------------------------------
  alpha Z        PSCENC =       367.19046233
  Ewald energy   TEWEN  =    349445.33445936
  -Hartree energ DENC   =   -378675.90232034
  -exchange      EXHF   =         0.00000000
  -V(xc)+E(xc)   XCENC  =      1415.67762263
  PAW double counting   =     33303.59406970   -33913.14570723
  entropy T*S    EENTRO =        -0.00649515
  eigenvalues    EBANDS =     -5241.49502220
  atomic energy  EATOM  =     33037.69599157
  Solvation  Ediel_sol  =         0.00000000
  ---------------------------------------------------
  free energy    TOTEN  =      -261.05693933 eV

  energy without entropy =     -261.05044418  energy(sigma->0) =     -261.05477428


--------------------------------------------------------------------------------------------------------




--------------------------------------- Iteration      1(  58)  ---------------------------------------


    POTLOK:  cpu time    0.4658: real time    0.4975
    SETDIJ:  cpu time    0.0412: real time    0.0412
    EDDIAG:  cpu time    7.5827: real time    7.5935
  RMM-DIIS:  cpu time   13.8055: real time   13.8247
    ORTHCH:  cpu time    0.3940: real time    0.3940
       DOS:  cpu time    0.0262: real time    0.0262
    CHARGE:  cpu time    3.0325: real time    3.0360
    MIXING:  cpu time    0.0306: real time    0.0306
    --------------------------------------------
      LOOP:  cpu time   25.3786: real time   25.4437

 eigenvalue-minimisations  :  4216
 total energy-change (2. order) : 0.9381837E-03  (-0.1142191E-05)
 number of electron     282.9999992 magnetization      24.5332006
 augmentation part      100.4864750 magnetization      16.3938446

 Broyden mixing:
  rms(total) = 0.60056E+00    rms(broyden)= 0.60056E+00
  rms(prec ) = 0.61797E+00
  weight for this iteration     100.00

 eigenvalues of (default mixing * dielectric matrix)
  average eigenvalue GAMMA=   1.8460
 24.1986  9.9467  6.5843  3.4077  2.1139  2.1139  1.9511  1.9511  1.6443  1.6443
  1.2798  1.2798  1.0299  1.0299  1.2996  1.2996  0.0013  1.0838  1.0051  1.0051
  0.2011  0.7342  0.7342  0.2950  0.6605  0.6605  0.7240  0.7240  0.6684  0.6684
  0.6969  0.6969  0.5570  0.5570  0.4625  0.4625  0.6141  0.6141  0.5656  0.5656
  0.5230  0.5566  0.5655

 Free energy of the ion-electron system (eV)
  ---------------------------------------------------
  alpha Z        PSCENC =       367.19046233
  Ewald energy   TEWEN  =    349445.33445936
  -Hartree energ DENC   =   -378675.86597376
  -exchange      EXHF   =         0.00000000
  -V(xc)+E(xc)   XCENC  =      1415.67792914
  PAW double counting   =     33303.54809066   -33913.09949901
  entropy T*S    EENTRO =        -0.00659055
  eigenvalues    EBANDS =     -5241.53087089
  atomic energy  EATOM  =     33037.69599157
  Solvation  Ediel_sol  =         0.00000000
  ---------------------------------------------------
  free energy    TOTEN  =      -261.05600114 eV

  energy without entropy =     -261.04941060  energy(sigma->0) =     -261.05380430


--------------------------------------------------------------------------------------------------------




--------------------------------------- Iteration      1(  59)  ---------------------------------------


    POTLOK:  cpu time    0.4667: real time    0.4960
    SETDIJ:  cpu time    0.0410: real time    0.0411
    EDDIAG:  cpu time    7.5828: real time    7.5907
  RMM-DIIS:  cpu time   19.3149: real time   19.7327
    ORTHCH:  cpu time    0.3950: real time    0.3952
       DOS:  cpu time    0.0255: real time    0.0255
    CHARGE:  cpu time    3.0344: real time    3.0446
    MIXING:  cpu time    0.0318: real time    0.0318
    --------------------------------------------
      LOOP:  cpu time   30.8921: real time   31.3575

 eigenvalue-minimisations  :  6009
 total energy-change (2. order) : 0.1365583E-02  (-0.6072564E-05)
 number of electron     282.9999992 magnetization      24.5353019
 augmentation part      100.4856475 magnetization      16.3960371

 Broyden mixing:
  rms(total) = 0.59590E+00    rms(broyden)= 0.59590E+00
  rms(prec ) = 0.61316E+00
  weight for this iteration     100.00

 eigenvalues of (default mixing * dielectric matrix)
  average eigenvalue GAMMA=   1.8611
 24.2345  9.8075  6.5447  4.5052  2.2845  2.2845  2.0150  2.0150  1.3590  1.3590
  1.6992  1.6992  0.9610  0.9610  1.3717  1.3717  1.1485  0.0012  0.9918  0.9918
  0.1727  0.7530  0.7530  0.6689  0.6689  0.7358  0.7358  0.7255  0.7255  0.4709
  0.4709  0.3622  0.6948  0.6948  0.5450  0.5450  0.4741  0.6040  0.6040  0.6011
  0.6011  0.5298  0.5735  0.5735

 Free energy of the ion-electron system (eV)
  ---------------------------------------------------
  alpha Z        PSCENC =       367.19046233
  Ewald energy   TEWEN  =    349445.33445936
  -Hartree energ DENC   =   -378675.78436746
  -exchange      EXHF   =         0.00000000
  -V(xc)+E(xc)   XCENC  =      1415.67858042
  PAW double counting   =     33303.40248206   -33912.95353664
  entropy T*S    EENTRO =        -0.00676853
  eigenvalues    EBANDS =     -5241.61193867
  atomic energy  EATOM  =     33037.69599157
  Solvation  Ediel_sol  =         0.00000000
  ---------------------------------------------------
  free energy    TOTEN  =      -261.05463556 eV

  energy without entropy =     -261.04786703  energy(sigma->0) =     -261.05237939


--------------------------------------------------------------------------------------------------------




--------------------------------------- Iteration      1(  60)  ---------------------------------------


    POTLOK:  cpu time    0.4661: real time    0.4973
    SETDIJ:  cpu time    0.0413: real time    0.0413
    EDDIAG:  cpu time    7.5756: real time    7.5857
  RMM-DIIS:  cpu time   16.8511: real time   16.8780
    ORTHCH:  cpu time    0.3930: real time    0.3930
       DOS:  cpu time    0.0257: real time    0.0257
    --------------------------------------------
      LOOP:  cpu time   25.3527: real time   25.4209

 eigenvalue-minimisations  :  5411
 total energy-change (2. order) : 0.7383952E-04  (-0.4559992E-05)
 number of electron     282.9999992 magnetization      24.5353019
 augmentation part      100.4856475 magnetization      16.3960371

 Free energy of the ion-electron system (eV)
  ---------------------------------------------------
  alpha Z        PSCENC =       367.19046233
  Ewald energy   TEWEN  =    349445.33445936
  -Hartree energ DENC   =   -378675.71649373
  -exchange      EXHF   =         0.00000000
  -V(xc)+E(xc)   XCENC  =      1415.67837347
  PAW double counting   =     33303.17060833   -33912.71972240
  entropy T*S    EENTRO =        -0.00687282
  eigenvalues    EBANDS =     -5241.68136783
  atomic energy  EATOM  =     33037.69599157
  Solvation  Ediel_sol  =         0.00000000
  ---------------------------------------------------
  free energy    TOTEN  =      -261.05456172 eV

  energy without entropy =     -261.04768890  energy(sigma->0) =     -261.05227078


--------------------------------------------------------------------------------------------------------




 average (electrostatic) potential at core
  the test charge radii are     0.9577  0.7215  0.5201
  (the norm of the test charge is              1.0000)
       1 -76.7621       2 -76.5738       3 -76.6256       4 -76.4189       5 -76.6449
       6 -76.5344       7 -76.5107       8 -77.5242       9 -75.3522      10 -75.1003
      11 -75.0535      12 -75.0561      13 -75.9988      14 -76.3852      15 -76.4048
      16 -76.5780      17 -76.5420      18 -76.7159      19 -76.2372      20 -77.6148
      21 -75.5652      22 -76.3612      23 -76.6700      24 -76.3769      25 -76.4157
      26 -76.8400      27 -76.9682      28 -76.2574      29 -76.3870      30 -76.8945
      31 -76.5892      32 -76.6769      33 -40.5387      34 -38.8972      35 -40.4454
      36 -39.9425      37 -41.7984      38 -41.0050      39 -40.2151
 
 
 
 E-fermi :  -1.6163     XC(G=0):  -3.8052     alpha+bet : -3.3905


 spin component 1

 k-point     1 :       0.0000    0.0000    0.0000
  band No.  band energies     occupation 
      1     -52.2111      1.00000
      2     -52.1575      1.00000
      3     -52.0549      1.00000
      4     -52.0276      1.00000
      5     -51.9858      1.00000
      6     -51.9827      1.00000
      7     -51.9599      1.00000
      8     -51.9038      1.00000
      9     -51.9035      1.00000
     10     -51.8928      1.00000
     11     -51.7729      1.00000
     12     -51.7101      1.00000
     13     -51.5949      1.00000
     14     -51.5720      1.00000
     15     -50.9832      1.00000
     16     -50.9415      1.00000
     17     -50.9091      1.00000
     18     -50.8727      1.00000
     19     -50.8132      1.00000
     20     -50.7867      1.00000
     21     -50.7442      1.00000
     22     -50.7415      1.00000
     23     -50.7385      1.00000
     24     -50.7324      1.00000
     25     -50.7094      1.00000
     26     -50.6951      1.00000
     27     -50.6670      1.00000
     28     -48.0361      1.00000
     29     -48.0104      1.00000
     30     -47.8992      1.00000
     31     -47.8688      1.00000
     32     -47.8061      1.00000
     33     -47.6348      1.00000
     34     -47.0959      1.00000
     35     -46.9971      1.00000
     36     -46.8993      1.00000
     37     -21.6006      1.00000
     38     -20.8542      1.00000
     39     -20.6154      1.00000
     40     -20.3345      1.00000
     41     -20.1493      1.00000
     42     -20.0248      1.00000
     43     -19.8913      1.00000
     44     -19.7478      1.00000
     45     -19.5816      1.00000
     46     -19.5325      1.00000
     47     -19.4736      1.00000
     48     -19.4592      1.00000
     49     -19.3871      1.00000
     50     -19.2485      1.00000
     51     -19.2254      1.00000
     52     -19.1247      1.00000
     53     -19.1130      1.00000
     54     -19.0668      1.00000
     55     -18.5752      1.00000
     56     -18.3391      1.00000
     57      -9.8529      1.00000
     58      -9.0334      1.00000
     59      -8.6758      1.00000
     60      -8.5901      1.00000
     61      -8.5480      1.00000
     62      -8.2253      1.00000
     63      -8.0505      1.00000
     64      -8.0000      1.00000
     65      -7.8851      1.00000
     66      -7.7994      1.00000
     67      -7.7430      1.00000
     68      -7.7106      1.00000
     69      -7.6303      1.00000
     70      -7.4286      1.00000
     71      -7.3689      1.00000
     72      -7.2770      1.00000
     73      -7.1453      1.00000
     74      -7.1183      1.00000
     75      -7.0534      1.00000
     76      -6.9917      1.00000
     77      -6.9301      1.00000
     78      -6.8652      1.00000
     79      -6.8147      1.00000
     80      -6.7646      1.00000
     81      -6.6979      1.00000
     82      -6.6768      1.00000
     83      -6.5849      1.00000
     84      -6.5244      1.00000
     85      -6.4953      1.00000
     86      -6.4342      1.00000
     87      -6.3674      1.00000
     88      -6.3183      1.00000
     89      -6.2171      1.00000
     90      -6.1538      1.00000
     91      -6.1112      1.00000
     92      -6.0478      1.00000
     93      -6.0099      1.00000
     94      -5.9232      1.00000
     95      -5.8836      1.00000
     96      -5.8657      1.00000
     97      -5.7176      1.00000
     98      -5.7057      1.00000
     99      -5.6259      1.00000
    100      -5.5342      1.00000
    101      -5.3920      1.00000
    102      -5.2800      1.00000
    103      -5.2329      1.00000
    104      -5.2143      1.00000
    105      -5.1208      1.00000
    106      -5.0376      1.00000
    107      -5.0114      1.00000
    108      -4.9745      1.00000
    109      -4.9054      1.00000
    110      -4.8684      1.00000
    111      -4.7917      1.00000
    112      -4.7483      1.00000
    113      -4.6583      1.00000
    114      -4.6516      1.00000
    115      -4.6078      1.00000
    116      -4.5934      1.00000
    117      -4.5663      1.00000
    118      -4.4877      1.00000
    119      -4.3910      1.00000
    120      -4.3109      1.00000
    121      -4.2101      1.00000
    122      -4.1610      1.00000
    123      -4.1247      1.00000
    124      -4.0121      1.00000
    125      -3.9420      1.00000
    126      -3.8910      1.00000
    127      -3.8615      1.00000
    128      -3.8501      1.00000
    129      -3.7807      1.00000
    130      -3.7085      1.00000
    131      -3.6618      1.00000
    132      -3.6379      1.00000
    133      -3.5995      1.00000
    134      -3.5259      1.00000
    135      -3.2995      1.00000
    136      -3.1888      1.00000
    137      -3.1278      1.00000
    138      -3.0542      1.00000
    139      -2.9482      1.00000
    140      -2.9310      1.00000
    141      -2.8028      1.00000
    142      -2.7154      1.00000
    143      -2.4965      1.00000
    144      -2.4707      1.00000
    145      -2.3797      1.00000
    146      -2.2360      1.00005
    147      -2.0655      1.00334
    148      -2.0595      1.00374
    149      -1.9722      1.01524
    150      -1.9462      1.02080
    151      -1.7389      0.92570
    152      -1.6730      0.72977
    153      -1.6354      0.58058
    154      -1.5976      0.42117
    155      -1.3177     -0.02796
    156      -0.2302     -0.00000
    157       0.0969     -0.00000
    158       0.0984     -0.00000
    159       0.1887     -0.00000
    160       0.2489     -0.00000
    161       0.3936     -0.00000
    162       0.8479     -0.00000
    163       1.5174     -0.00000
    164       1.6407     -0.00000
    165       1.7908     -0.00000
    166       1.9179     -0.00000
    167       2.0372     -0.00000
    168       2.0786     -0.00000
    169       2.1826     -0.00000
    170       2.2918     -0.00000
    171       2.3133     -0.00000
    172       2.3692     -0.00000
    173       2.4945     -0.00000
    174       2.8462     -0.00000
    175       2.9222     -0.00000
    176       3.0117     -0.00000
    177       3.0622     -0.00000
    178       3.1389     -0.00000

 k-point     2 :       0.2500    0.0000   -0.0000
  band No.  band energies     occupation 
      1     -52.2111      1.00000
      2     -52.1575      1.00000
      3     -52.0549      1.00000
      4     -52.0276      1.00000
      5     -51.9858      1.00000
      6     -51.9827      1.00000
      7     -51.9599      1.00000
      8     -51.9038      1.00000
      9     -51.9035      1.00000
     10     -51.8928      1.00000
     11     -51.7729      1.00000
     12     -51.7101      1.00000
     13     -51.5949      1.00000
     14     -51.5720      1.00000
     15     -50.9832      1.00000
     16     -50.9415      1.00000
     17     -50.9091      1.00000
     18     -50.8727      1.00000
     19     -50.8132      1.00000
     20     -50.7867      1.00000
     21     -50.7442      1.00000
     22     -50.7415      1.00000
     23     -50.7385      1.00000
     24     -50.7324      1.00000
     25     -50.7094      1.00000
     26     -50.6951      1.00000
     27     -50.6670      1.00000
     28     -48.0361      1.00000
     29     -48.0101      1.00000
     30     -47.8993      1.00000
     31     -47.8689      1.00000
     32     -47.8061      1.00000
     33     -47.6348      1.00000
     34     -47.0954      1.00000
     35     -46.9978      1.00000
     36     -46.8994      1.00000
     37     -21.5842      1.00000
     38     -20.8599      1.00000
     39     -20.5716      1.00000
     40     -20.2830      1.00000
     41     -20.1412      1.00000
     42     -20.0253      1.00000
     43     -19.9012      1.00000
     44     -19.8197      1.00000
     45     -19.5737      1.00000
     46     -19.5452      1.00000
     47     -19.4874      1.00000
     48     -19.4745      1.00000
     49     -19.4058      1.00000
     50     -19.2662      1.00000
     51     -19.2254      1.00000
     52     -19.1264      1.00000
     53     -19.1071      1.00000
     54     -19.0633      1.00000
     55     -18.5778      1.00000
     56     -18.3428      1.00000
     57      -9.8284      1.00000
     58      -9.0039      1.00000
     59      -8.5846      1.00000
     60      -8.5670      1.00000
     61      -8.4776      1.00000
     62      -8.1792      1.00000
     63      -8.0376      1.00000
     64      -7.9946      1.00000
     65      -7.8555      1.00000
     66      -7.8266      1.00000
     67      -7.7569      1.00000
     68      -7.7036      1.00000
     69      -7.6174      1.00000
     70      -7.4455      1.00000
     71      -7.3974      1.00000
     72      -7.2694      1.00000
     73      -7.1566      1.00000
     74      -7.1096      1.00000
     75      -7.0336      1.00000
     76      -7.0035      1.00000
     77      -6.9380      1.00000
     78      -6.8409      1.00000
     79      -6.7627      1.00000
     80      -6.7212      1.00000
     81      -6.6401      1.00000
     82      -6.6012      1.00000
     83      -6.5398      1.00000
     84      -6.5095      1.00000
     85      -6.4429      1.00000
     86      -6.4113      1.00000
     87      -6.3369      1.00000
     88      -6.2675      1.00000
     89      -6.1883      1.00000
     90      -6.1590      1.00000
     91      -6.0975      1.00000
     92      -6.0335      1.00000
     93      -5.9767      1.00000
     94      -5.9410      1.00000
     95      -5.8853      1.00000
     96      -5.8024      1.00000
     97      -5.7361      1.00000
     98      -5.6733      1.00000
     99      -5.6247      1.00000
    100      -5.5423      1.00000
    101      -5.4774      1.00000
    102      -5.3530      1.00000
    103      -5.3068      1.00000
    104      -5.2441      1.00000
    105      -5.1987      1.00000
    106      -5.1510      1.00000
    107      -5.0650      1.00000
    108      -5.0170      1.00000
    109      -4.9581      1.00000
    110      -4.8585      1.00000
    111      -4.8205      1.00000
    112      -4.7439      1.00000
    113      -4.7263      1.00000
    114      -4.6976      1.00000
    115      -4.5899      1.00000
    116      -4.5615      1.00000
    117      -4.5011      1.00000
    118      -4.4428      1.00000
    119      -4.3278      1.00000
    120      -4.2835      1.00000
    121      -4.2465      1.00000
    122      -4.1827      1.00000
    123      -4.1030      1.00000
    124      -4.0739      1.00000
    125      -3.9985      1.00000
    126      -3.9353      1.00000
    127      -3.8649      1.00000
    128      -3.8128      1.00000
    129      -3.7536      1.00000
    130      -3.7355      1.00000
    131      -3.5918      1.00000
    132      -3.5744      1.00000
    133      -3.5423      1.00000
    134      -3.4157      1.00000
    135      -3.3437      1.00000
    136      -3.2224      1.00000
    137      -3.1294      1.00000
    138      -3.0545      1.00000
    139      -2.9678      1.00000
    140      -2.8936      1.00000
    141      -2.8250      1.00000
    142      -2.7010      1.00000
    143      -2.6416      1.00000
    144      -2.5585      1.00000
    145      -2.5104      1.00000
    146      -2.4208      1.00000
    147      -2.2420      1.00004
    148      -2.1744      1.00029
    149      -2.1101      1.00133
    150      -2.0077      1.00916
    151      -1.9588      1.01800
    152      -1.8842      1.03372
    153      -1.7859      1.00133
    154      -1.7343      0.91539
    155      -1.3914     -0.03369
    156      -0.2312     -0.00000
    157       0.0945     -0.00000
    158       0.1298     -0.00000
    159       0.2763     -0.00000
    160       0.4220     -0.00000
    161       0.5324     -0.00000
    162       0.8546     -0.00000
    163       1.7412     -0.00000
    164       1.8154     -0.00000
    165       1.9614     -0.00000
    166       2.0116     -0.00000
    167       2.0450     -0.00000
    168       2.1090     -0.00000
    169       2.2557     -0.00000
    170       2.3042     -0.00000
    171       2.3421     -0.00000
    172       2.3752     -0.00000
    173       2.4419     -0.00000
    174       2.5241     -0.00000
    175       2.7231     -0.00000
    176       2.7833     -0.00000
    177       2.8927     -0.00000
    178       3.0663     -0.00000

 k-point     3 :       0.5000    0.0000   -0.0000
  band No.  band energies     occupation 
      1     -52.2111      1.00000
      2     -52.1575      1.00000
      3     -52.0549      1.00000
      4     -52.0276      1.00000
      5     -51.9858      1.00000
      6     -51.9827      1.00000
      7     -51.9599      1.00000
      8     -51.9038      1.00000
      9     -51.9035      1.00000
     10     -51.8927      1.00000
     11     -51.7729      1.00000
     12     -51.7101      1.00000
     13     -51.5948      1.00000
     14     -51.5719      1.00000
     15     -50.9832      1.00000
     16     -50.9415      1.00000
     17     -50.9091      1.00000
     18     -50.8727      1.00000
     19     -50.8132      1.00000
     20     -50.7867      1.00000
     21     -50.7442      1.00000
     22     -50.7415      1.00000
     23     -50.7385      1.00000
     24     -50.7324      1.00000
     25     -50.7094      1.00000
     26     -50.6951      1.00000
     27     -50.6670      1.00000
     28     -48.0361      1.00000
     29     -48.0097      1.00000
     30     -47.8993      1.00000
     31     -47.8690      1.00000
     32     -47.8062      1.00000
     33     -47.6349      1.00000
     34     -47.0949      1.00000
     35     -46.9986      1.00000
     36     -46.8995      1.00000
     37     -21.5675      1.00000
     38     -20.8662      1.00000
     39     -20.5263      1.00000
     40     -20.1698      1.00000
     41     -20.1309      1.00000
     42     -20.0483      1.00000
     43     -20.0148      1.00000
     44     -19.8167      1.00000
     45     -19.5937      1.00000
     46     -19.5625      1.00000
     47     -19.5010      1.00000
     48     -19.4751      1.00000
     49     -19.4158      1.00000
     50     -19.2851      1.00000
     51     -19.2266      1.00000
     52     -19.1275      1.00000
     53     -19.1040      1.00000
     54     -19.0601      1.00000
     55     -18.5805      1.00000
     56     -18.3465      1.00000
     57      -9.8044      1.00000
     58      -8.9766      1.00000
     59      -8.5647      1.00000
     60      -8.4805      1.00000
     61      -8.3300      1.00000
     62      -8.1333      1.00000
     63      -8.0884      1.00000
     64      -7.9551      1.00000
     65      -7.9066      1.00000
     66      -7.8163      1.00000
     67      -7.7456      1.00000
     68      -7.6900      1.00000
     69      -7.6108      1.00000
     70      -7.4851      1.00000
     71      -7.4433      1.00000
     72      -7.2356      1.00000
     73      -7.1982      1.00000
     74      -7.1234      1.00000
     75      -7.0098      1.00000
     76      -7.0000      1.00000
     77      -6.9417      1.00000
     78      -6.7898      1.00000
     79      -6.7240      1.00000
     80      -6.6933      1.00000
     81      -6.5956      1.00000
     82      -6.5415      1.00000
     83      -6.4701      1.00000
     84      -6.4333      1.00000
     85      -6.3832      1.00000
     86      -6.3575      1.00000
     87      -6.3091      1.00000
     88      -6.2564      1.00000
     89      -6.1876      1.00000
     90      -6.0943      1.00000
     91      -6.0374      1.00000
     92      -6.0113      1.00000
     93      -5.9298      1.00000
     94      -5.8953      1.00000
     95      -5.8662      1.00000
     96      -5.7773      1.00000
     97      -5.7283      1.00000
     98      -5.6943      1.00000
     99      -5.6528      1.00000
    100      -5.5837      1.00000
    101      -5.5295      1.00000
    102      -5.4825      1.00000
    103      -5.4042      1.00000
    104      -5.2912      1.00000
    105      -5.2508      1.00000
    106      -5.2291      1.00000
    107      -5.1094      1.00000
    108      -5.0403      1.00000
    109      -4.9904      1.00000
    110      -4.9190      1.00000
    111      -4.8794      1.00000
    112      -4.8074      1.00000
    113      -4.7596      1.00000
    114      -4.6887      1.00000
    115      -4.6376      1.00000
    116      -4.5981      1.00000
    117      -4.5224      1.00000
    118      -4.3668      1.00000
    119      -4.3236      1.00000
    120      -4.2720      1.00000
    121      -4.2348      1.00000
    122      -4.1915      1.00000
    123      -4.1117      1.00000
    124      -4.0689      1.00000
    125      -4.0485      1.00000
    126      -3.9915      1.00000
    127      -3.8368      1.00000
    128      -3.8018      1.00000
    129      -3.7131      1.00000
    130      -3.6391      1.00000
    131      -3.5666      1.00000
    132      -3.5011      1.00000
    133      -3.3303      1.00000
    134      -3.2975      1.00000
    135      -3.2423      1.00000
    136      -3.1935      1.00000
    137      -3.1678      1.00000
    138      -3.0674      1.00000
    139      -2.9775      1.00000
    140      -2.9605      1.00000
    141      -2.9224      1.00000
    142      -2.8161      1.00000
    143      -2.7478      1.00000
    144      -2.6840      1.00000
    145      -2.6272      1.00000
    146      -2.5593      1.00000
    147      -2.4969      1.00000
    148      -2.3285      1.00000
    149      -2.2977      1.00001
    150      -2.1450      1.00060
    151      -2.1179      1.00112
    152      -1.9857      1.01269
    153      -1.9059      1.02990
    154      -1.7820      0.99695
    155      -1.4646      0.02135
    156      -0.2314     -0.00000
    157       0.0990     -0.00000
    158       0.1543     -0.00000
    159       0.3034     -0.00000
    160       0.4365     -0.00000
    161       0.8670     -0.00000
    162       1.0920     -0.00000
    163       1.6463     -0.00000
    164       1.8349     -0.00000
    165       1.9694     -0.00000
    166       2.0250     -0.00000
    167       2.0616     -0.00000
    168       2.0832     -0.00000
    169       2.1620     -0.00000
    170       2.1945     -0.00000
    171       2.2644     -0.00000
    172       2.3193     -0.00000
    173       2.4648     -0.00000
    174       2.5807     -0.00000
    175       2.7057     -0.00000
    176       2.8236     -0.00000
    177       3.3080     -0.00000
    178       3.5036     -0.00000

 k-point     4 :       0.0000    0.2500   -0.0000
  band No.  band energies     occupation 
      1     -52.2111      1.00000
      2     -52.1575      1.00000
      3     -52.0547      1.00000
      4     -52.0276      1.00000
      5     -51.9856      1.00000
      6     -51.9728      1.00000
      7     -51.9599      1.00000
      8     -51.9083      1.00000
      9     -51.9035      1.00000
     10     -51.8974      1.00000
     11     -51.7729      1.00000
     12     -51.7101      1.00000
     13     -51.5949      1.00000
     14     -51.5732      1.00000
     15     -50.9832      1.00000
     16     -50.9415      1.00000
     17     -50.9091      1.00000
     18     -50.8727      1.00000
     19     -50.8132      1.00000
     20     -50.7867      1.00000
     21     -50.7443      1.00000
     22     -50.7414      1.00000
     23     -50.7385      1.00000
     24     -50.7324      1.00000
     25     -50.7094      1.00000
     26     -50.6951      1.00000
     27     -50.6670      1.00000
     28     -48.0361      1.00000
     29     -48.0104      1.00000
     30     -47.8996      1.00000
     31     -47.8689      1.00000
     32     -47.8061      1.00000
     33     -47.6348      1.00000
     34     -47.0959      1.00000
     35     -46.9971      1.00000
     36     -46.8994      1.00000
     37     -21.5789      1.00000
     38     -20.8358      1.00000
     39     -20.5432      1.00000
     40     -20.2549      1.00000
     41     -20.1712      1.00000
     42     -20.0665      1.00000
     43     -19.8520      1.00000
     44     -19.7435      1.00000
     45     -19.6090      1.00000
     46     -19.5364      1.00000
     47     -19.5077      1.00000
     48     -19.4775      1.00000
     49     -19.3931      1.00000
     50     -19.2539      1.00000
     51     -19.2510      1.00000
     52     -19.1836      1.00000
     53     -19.1434      1.00000
     54     -19.0629      1.00000
     55     -18.6003      1.00000
     56     -18.3601      1.00000
     57      -9.7960      1.00000
     58      -8.9654      1.00000
     59      -8.6226      1.00000
     60      -8.5124      1.00000
     61      -8.4238      1.00000
     62      -8.1376      1.00000
     63      -7.9662      1.00000
     64      -7.9450      1.00000
     65      -7.7792      1.00000
     66      -7.7471      1.00000
     67      -7.6435      1.00000
     68      -7.5877      1.00000
     69      -7.5028      1.00000
     70      -7.4014      1.00000
     71      -7.3393      1.00000
     72      -7.2827      1.00000
     73      -7.2429      1.00000
     74      -7.0853      1.00000
     75      -7.0439      1.00000
     76      -7.0005      1.00000
     77      -6.9438      1.00000
     78      -6.9060      1.00000
     79      -6.8723      1.00000
     80      -6.7967      1.00000
     81      -6.7069      1.00000
     82      -6.6645      1.00000
     83      -6.6246      1.00000
     84      -6.5609      1.00000
     85      -6.4999      1.00000
     86      -6.4007      1.00000
     87      -6.3944      1.00000
     88      -6.2993      1.00000
     89      -6.1765      1.00000
     90      -6.1236      1.00000
     91      -6.0961      1.00000
     92      -6.0308      1.00000
     93      -6.0025      1.00000
     94      -5.9495      1.00000
     95      -5.9067      1.00000
     96      -5.8582      1.00000
     97      -5.8079      1.00000
     98      -5.7081      1.00000
     99      -5.6393      1.00000
    100      -5.5679      1.00000
    101      -5.3948      1.00000
    102      -5.3201      1.00000
    103      -5.3003      1.00000
    104      -5.2031      1.00000
    105      -5.1483      1.00000
    106      -5.0976      1.00000
    107      -5.0475      1.00000
    108      -5.0110      1.00000
    109      -4.9508      1.00000
    110      -4.9010      1.00000
    111      -4.8467      1.00000
    112      -4.8227      1.00000
    113      -4.7995      1.00000
    114      -4.7463      1.00000
    115      -4.6369      1.00000
    116      -4.5865      1.00000
    117      -4.5489      1.00000
    118      -4.5184      1.00000
    119      -4.4608      1.00000
    120      -4.2853      1.00000
    121      -4.2417      1.00000
    122      -4.1803      1.00000
    123      -4.1106      1.00000
    124      -4.0702      1.00000
    125      -3.9808      1.00000
    126      -3.9358      1.00000
    127      -3.8500      1.00000
    128      -3.8060      1.00000
    129      -3.7607      1.00000
    130      -3.6737      1.00000
    131      -3.5934      1.00000
    132      -3.5657      1.00000
    133      -3.4727      1.00000
    134      -3.3403      1.00000
    135      -3.2442      1.00000
    136      -3.2113      1.00000
    137      -3.1388      1.00000
    138      -3.0397      1.00000
    139      -2.9831      1.00000
    140      -2.9002      1.00000
    141      -2.8149      1.00000
    142      -2.7834      1.00000
    143      -2.6783      1.00000
    144      -2.4806      1.00000
    145      -2.4356      1.00000
    146      -2.3441      1.00000
    147      -2.2790      1.00001
    148      -2.1804      1.00025
    149      -2.0427      1.00510
    150      -1.9219      1.02639
    151      -1.8907      1.03274
    152      -1.7499      0.94818
    153      -1.6993      0.81983
    154      -1.6388      0.59455
    155      -1.5433      0.21261
    156      -0.5341     -0.00000
    157      -0.1587     -0.00000
    158      -0.0731     -0.00000
    159       0.0144     -0.00000
    160       0.4723     -0.00000
    161       0.5773     -0.00000
    162       0.6527     -0.00000
    163       1.5344     -0.00000
    164       1.8660     -0.00000
    165       1.9451     -0.00000
    166       2.0249     -0.00000
    167       2.0962     -0.00000
    168       2.1283     -0.00000
    169       2.2774     -0.00000
    170       2.2989     -0.00000
    171       2.3296     -0.00000
    172       2.4223     -0.00000
    173       2.4807     -0.00000
    174       2.6403     -0.00000
    175       2.7955     -0.00000
    176       2.8630     -0.00000
    177       2.9796     -0.00000
    178       3.0978     -0.00000

 k-point     5 :       0.2500    0.2500   -0.0000
  band No.  band energies     occupation 
      1     -52.2111      1.00000
      2     -52.1575      1.00000
      3     -52.0547      1.00000
      4     -52.0276      1.00000
      5     -51.9856      1.00000
      6     -51.9728      1.00000
      7     -51.9599      1.00000
      8     -51.9083      1.00000
      9     -51.9035      1.00000
     10     -51.8973      1.00000
     11     -51.7729      1.00000
     12     -51.7101      1.00000
     13     -51.5949      1.00000
     14     -51.5733      1.00000
     15     -50.9832      1.00000
     16     -50.9415      1.00000
     17     -50.9091      1.00000
     18     -50.8727      1.00000
     19     -50.8132      1.00000
     20     -50.7867      1.00000
     21     -50.7443      1.00000
     22     -50.7414      1.00000
     23     -50.7385      1.00000
     24     -50.7324      1.00000
     25     -50.7094      1.00000
     26     -50.6951      1.00000
     27     -50.6670      1.00000
     28     -48.0361      1.00000
     29     -48.0101      1.00000
     30     -47.8997      1.00000
     31     -47.8690      1.00000
     32     -47.8061      1.00000
     33     -47.6348      1.00000
     34     -47.0954      1.00000
     35     -46.9978      1.00000
     36     -46.8994      1.00000
     37     -21.5816      1.00000
     38     -20.8310      1.00000
     39     -20.5438      1.00000
     40     -20.2540      1.00000
     41     -20.1749      1.00000
     42     -20.0674      1.00000
     43     -19.8505      1.00000
     44     -19.7436      1.00000
     45     -19.6058      1.00000
     46     -19.5379      1.00000
     47     -19.5186      1.00000
     48     -19.4705      1.00000
     49     -19.3852      1.00000
     50     -19.2662      1.00000
     51     -19.2592      1.00000
     52     -19.1611      1.00000
     53     -19.1313      1.00000
     54     -19.0828      1.00000
     55     -18.5983      1.00000
     56     -18.3604      1.00000
     57      -9.7936      1.00000
     58      -8.9659      1.00000
     59      -8.6236      1.00000
     60      -8.5365      1.00000
     61      -8.4400      1.00000
     62      -8.1455      1.00000
     63      -7.9745      1.00000
     64      -7.9536      1.00000
     65      -7.8088      1.00000
     66      -7.7169      1.00000
     67      -7.6346      1.00000
     68      -7.5756      1.00000
     69      -7.4838      1.00000
     70      -7.4037      1.00000
     71      -7.3367      1.00000
     72      -7.2367      1.00000
     73      -7.1894      1.00000
     74      -7.1490      1.00000
     75      -7.0604      1.00000
     76      -7.0352      1.00000
     77      -6.9264      1.00000
     78      -6.9000      1.00000
     79      -6.8827      1.00000
     80      -6.7541      1.00000
     81      -6.6806      1.00000
     82      -6.6516      1.00000
     83      -6.5995      1.00000
     84      -6.5649      1.00000
     85      -6.5173      1.00000
     86      -6.4449      1.00000
     87      -6.3792      1.00000
     88      -6.3108      1.00000
     89      -6.2603      1.00000
     90      -6.1695      1.00000
     91      -6.0908      1.00000
     92      -6.0474      1.00000
     93      -5.9535      1.00000
     94      -5.9182      1.00000
     95      -5.8954      1.00000
     96      -5.8170      1.00000
     97      -5.7710      1.00000
     98      -5.6774      1.00000
     99      -5.6431      1.00000
    100      -5.5282      1.00000
    101      -5.4253      1.00000
    102      -5.3682      1.00000
    103      -5.2691      1.00000
    104      -5.2249      1.00000
    105      -5.1784      1.00000
    106      -5.1185      1.00000
    107      -5.0460      1.00000
    108      -4.9851      1.00000
    109      -4.9505      1.00000
    110      -4.8955      1.00000
    111      -4.8690      1.00000
    112      -4.8381      1.00000
    113      -4.7894      1.00000
    114      -4.7689      1.00000
    115      -4.6453      1.00000
    116      -4.5767      1.00000
    117      -4.5449      1.00000
    118      -4.4410      1.00000
    119      -4.3877      1.00000
    120      -4.3172      1.00000
    121      -4.2574      1.00000
    122      -4.2087      1.00000
    123      -4.1276      1.00000
    124      -4.0417      1.00000
    125      -4.0191      1.00000
    126      -3.9463      1.00000
    127      -3.8832      1.00000
    128      -3.8430      1.00000
    129      -3.7459      1.00000
    130      -3.6747      1.00000
    131      -3.5913      1.00000
    132      -3.5057      1.00000
    133      -3.4348      1.00000
    134      -3.3192      1.00000
    135      -3.2851      1.00000
    136      -3.2520      1.00000
    137      -3.1413      1.00000
    138      -3.0669      1.00000
    139      -2.9594      1.00000
    140      -2.8797      1.00000
    141      -2.8207      1.00000
    142      -2.7474      1.00000
    143      -2.6683      1.00000
    144      -2.5111      1.00000
    145      -2.4310      1.00000
    146      -2.3671      1.00000
    147      -2.2524      1.00003
    148      -2.1759      1.00028
    149      -2.0652      1.00336
    150      -2.0002      1.01027
    151      -1.8625      1.03545
    152      -1.7825      0.99760
    153      -1.7400      0.92826
    154      -1.6633      0.69278
    155      -1.4632      0.01939
    156      -0.5156     -0.00000
    157      -0.1279     -0.00000
    158      -0.0581     -0.00000
    159       0.0655     -0.00000
    160       0.3088     -0.00000
    161       0.6277     -0.00000
    162       0.6659     -0.00000
    163       1.7477     -0.00000
    164       1.8658     -0.00000
    165       1.9566     -0.00000
    166       2.0300     -0.00000
    167       2.1053     -0.00000
    168       2.1236     -0.00000
    169       2.2172     -0.00000
    170       2.2901     -0.00000
    171       2.3489     -0.00000
    172       2.3773     -0.00000
    173       2.4504     -0.00000
    174       2.5895     -0.00000
    175       2.6920     -0.00000
    176       2.8665     -0.00000
    177       2.9674     -0.00000
    178       3.1518     -0.00000

 k-point     6 :       0.5000    0.2500    0.0000
  band No.  band energies     occupation 
      1     -52.2111      1.00000
      2     -52.1575      1.00000
      3     -52.0547      1.00000
      4     -52.0276      1.00000
      5     -51.9856      1.00000
      6     -51.9727      1.00000
      7     -51.9599      1.00000
      8     -51.9083      1.00000
      9     -51.9035      1.00000
     10     -51.8973      1.00000
     11     -51.7729      1.00000
     12     -51.7101      1.00000
     13     -51.5949      1.00000
     14     -51.5732      1.00000
     15     -50.9832      1.00000
     16     -50.9415      1.00000
     17     -50.9091      1.00000
     18     -50.8728      1.00000
     19     -50.8132      1.00000
     20     -50.7867      1.00000
     21     -50.7443      1.00000
     22     -50.7414      1.00000
     23     -50.7385      1.00000
     24     -50.7324      1.00000
     25     -50.7094      1.00000
     26     -50.6951      1.00000
     27     -50.6670      1.00000
     28     -48.0361      1.00000
     29     -48.0097      1.00000
     30     -47.8997      1.00000
     31     -47.8692      1.00000
     32     -47.8062      1.00000
     33     -47.6348      1.00000
     34     -47.0949      1.00000
     35     -46.9986      1.00000
     36     -46.8994      1.00000
     37     -21.5654      1.00000
     38     -20.8360      1.00000
     39     -20.4980      1.00000
     40     -20.1789      1.00000
     41     -20.1395      1.00000
     42     -20.0744      1.00000
     43     -19.9377      1.00000
     44     -19.7770      1.00000
     45     -19.6244      1.00000
     46     -19.5552      1.00000
     47     -19.5288      1.00000
     48     -19.4725      1.00000
     49     -19.3891      1.00000
     50     -19.2911      1.00000
     51     -19.2774      1.00000
     52     -19.1756      1.00000
     53     -19.1067      1.00000
     54     -19.0704      1.00000
     55     -18.5993      1.00000
     56     -18.3639      1.00000
     57      -9.7710      1.00000
     58      -8.9330      1.00000
     59      -8.6229      1.00000
     60      -8.4241      1.00000
     61      -8.3221      1.00000
     62      -8.1015      1.00000
     63      -8.0076      1.00000
     64      -7.9310      1.00000
     65      -7.8331      1.00000
     66      -7.7478      1.00000
     67      -7.6006      1.00000
     68      -7.5289      1.00000
     69      -7.4507      1.00000
     70      -7.4224      1.00000
     71      -7.3688      1.00000
     72      -7.2270      1.00000
     73      -7.1924      1.00000
     74      -7.1429      1.00000
     75      -7.0705      1.00000
     76      -7.0398      1.00000
     77      -6.9865      1.00000
     78      -6.8810      1.00000
     79      -6.8112      1.00000
     80      -6.7231      1.00000
     81      -6.6699      1.00000
     82      -6.6291      1.00000
     83      -6.5696      1.00000
     84      -6.4639      1.00000
     85      -6.4327      1.00000
     86      -6.3713      1.00000
     87      -6.3368      1.00000
     88      -6.2718      1.00000
     89      -6.2358      1.00000
     90      -6.1751      1.00000
     91      -6.1036      1.00000
     92      -5.9987      1.00000
     93      -5.9674      1.00000
     94      -5.9050      1.00000
     95      -5.8543      1.00000
     96      -5.8162      1.00000
     97      -5.7406      1.00000
     98      -5.7100      1.00000
     99      -5.6310      1.00000
    100      -5.5742      1.00000
    101      -5.4908      1.00000
    102      -5.4384      1.00000
    103      -5.3666      1.00000
    104      -5.2397      1.00000
    105      -5.2286      1.00000
    106      -5.1372      1.00000
    107      -5.0946      1.00000
    108      -5.0394      1.00000
    109      -4.9931      1.00000
    110      -4.9492      1.00000
    111      -4.9008      1.00000
    112      -4.8516      1.00000
    113      -4.8016      1.00000
    114      -4.7183      1.00000
    115      -4.6905      1.00000
    116      -4.6082      1.00000
    117      -4.4674      1.00000
    118      -4.4334      1.00000
    119      -4.3828      1.00000
    120      -4.3240      1.00000
    121      -4.2688      1.00000
    122      -4.2342      1.00000
    123      -4.1701      1.00000
    124      -4.1027      1.00000
    125      -4.0568      1.00000
    126      -3.9357      1.00000
    127      -3.8964      1.00000
    128      -3.7940      1.00000
    129      -3.7407      1.00000
    130      -3.6601      1.00000
    131      -3.5144      1.00000
    132      -3.4451      1.00000
    133      -3.3650      1.00000
    134      -3.3187      1.00000
    135      -3.2742      1.00000
    136      -3.2122      1.00000
    137      -3.1098      1.00000
    138      -3.0602      1.00000
    139      -3.0173      1.00000
    140      -2.8749      1.00000
    141      -2.8303      1.00000
    142      -2.8132      1.00000
    143      -2.6661      1.00000
    144      -2.6268      1.00000
    145      -2.5831      1.00000
    146      -2.4904      1.00000
    147      -2.4392      1.00000
    148      -2.3136      1.00000
    149      -2.2639      1.00002
    150      -2.1032      1.00154
    151      -2.0446      1.00492
    152      -1.9916      1.01167
    153      -1.8372      1.03285
    154      -1.7324      0.91104
    155      -1.5378      0.19456
    156      -0.4853     -0.00000
    157      -0.0898     -0.00000
    158      -0.0574     -0.00000
    159       0.0865     -0.00000
    160       0.3664     -0.00000
    161       0.6361     -0.00000
    162       1.1248     -0.00000
    163       1.8984     -0.00000
    164       1.9816     -0.00000
    165       2.0489     -0.00000
    166       2.0635     -0.00000
    167       2.1065     -0.00000
    168       2.1217     -0.00000
    169       2.1562     -0.00000
    170       2.1747     -0.00000
    171       2.2604     -0.00000
    172       2.3188     -0.00000
    173       2.4206     -0.00000
    174       2.5466     -0.00000
    175       2.5617     -0.00000
    176       2.7290     -0.00000
    177       2.8774     -0.00000
    178       2.9865     -0.00000

 k-point     7 :      -0.2500    0.2500   -0.0000
  band No.  band energies     occupation 
      1     -52.2111      1.00000
      2     -52.1575      1.00000
      3     -52.0546      1.00000
      4     -52.0276      1.00000
      5     -51.9856      1.00000
      6     -51.9728      1.00000
      7     -51.9599      1.00000
      8     -51.9083      1.00000
      9     -51.9035      1.00000
     10     -51.8973      1.00000
     11     -51.7729      1.00000
     12     -51.7101      1.00000
     13     -51.5949      1.00000
     14     -51.5732      1.00000
     15     -50.9832      1.00000
     16     -50.9415      1.00000
     17     -50.9091      1.00000
     18     -50.8727      1.00000
     19     -50.8132      1.00000
     20     -50.7867      1.00000
     21     -50.7443      1.00000
     22     -50.7414      1.00000
     23     -50.7385      1.00000
     24     -50.7324      1.00000
     25     -50.7094      1.00000
     26     -50.6951      1.00000
     27     -50.6670      1.00000
     28     -48.0361      1.00000
     29     -48.0101      1.00000
     30     -47.8997      1.00000
     31     -47.8690      1.00000
     32     -47.8061      1.00000
     33     -47.6349      1.00000
     34     -47.0954      1.00000
     35     -46.9978      1.00000
     36     -46.8994      1.00000
     37     -21.5625      1.00000
     38     -20.8410      1.00000
     39     -20.4973      1.00000
     40     -20.1803      1.00000
     41     -20.1381      1.00000
     42     -20.0639      1.00000
     43     -19.9492      1.00000
     44     -19.7720      1.00000
     45     -19.6259      1.00000
     46     -19.5580      1.00000
     47     -19.5332      1.00000
     48     -19.4542      1.00000
     49     -19.4050      1.00000
     50     -19.2858      1.00000
     51     -19.2687      1.00000
     52     -19.1908      1.00000
     53     -19.1170      1.00000
     54     -19.0540      1.00000
     55     -18.6013      1.00000
     56     -18.3636      1.00000
     57      -9.7735      1.00000
     58      -8.9325      1.00000
     59      -8.6214      1.00000
     60      -8.4005      1.00000
     61      -8.2870      1.00000
     62      -8.1049      1.00000
     63      -8.0243      1.00000
     64      -7.9147      1.00000
     65      -7.7919      1.00000
     66      -7.7380      1.00000
     67      -7.6321      1.00000
     68      -7.5743      1.00000
     69      -7.4891      1.00000
     70      -7.4091      1.00000
     71      -7.3669      1.00000
     72      -7.2697      1.00000
     73      -7.2101      1.00000
     74      -7.1383      1.00000
     75      -7.0585      1.00000
     76      -6.9950      1.00000
     77      -6.9215      1.00000
     78      -6.9059      1.00000
     79      -6.8320      1.00000
     80      -6.8046      1.00000
     81      -6.7071      1.00000
     82      -6.5766      1.00000
     83      -6.5285      1.00000
     84      -6.4722      1.00000
     85      -6.4207      1.00000
     86      -6.3693      1.00000
     87      -6.3459      1.00000
     88      -6.2453      1.00000
     89      -6.1891      1.00000
     90      -6.1238      1.00000
     91      -6.0868      1.00000
     92      -6.0723      1.00000
     93      -5.9764      1.00000
     94      -5.9428      1.00000
     95      -5.9002      1.00000
     96      -5.8248      1.00000
     97      -5.7865      1.00000
     98      -5.6798      1.00000
     99      -5.5738      1.00000
    100      -5.5544      1.00000
    101      -5.5139      1.00000
    102      -5.4868      1.00000
    103      -5.4227      1.00000
    104      -5.2807      1.00000
    105      -5.2119      1.00000
    106      -5.1155      1.00000
    107      -5.1049      1.00000
    108      -5.0337      1.00000
    109      -4.9971      1.00000
    110      -4.9192      1.00000
    111      -4.8773      1.00000
    112      -4.8270      1.00000
    113      -4.7829      1.00000
    114      -4.7109      1.00000
    115      -4.6656      1.00000
    116      -4.5913      1.00000
    117      -4.5452      1.00000
    118      -4.4871      1.00000
    119      -4.4151      1.00000
    120      -4.3372      1.00000
    121      -4.2409      1.00000
    122      -4.1723      1.00000
    123      -4.1199      1.00000
    124      -4.0950      1.00000
    125      -3.9963      1.00000
    126      -3.9135      1.00000
    127      -3.8989      1.00000
    128      -3.8410      1.00000
    129      -3.7343      1.00000
    130      -3.6212      1.00000
    131      -3.5544      1.00000
    132      -3.4937      1.00000
    133      -3.3951      1.00000
    134      -3.3165      1.00000
    135      -3.2547      1.00000
    136      -3.1996      1.00000
    137      -3.0970      1.00000
    138      -3.0606      1.00000
    139      -3.0169      1.00000
    140      -2.9306      1.00000
    141      -2.8780      1.00000
    142      -2.7854      1.00000
    143      -2.6762      1.00000
    144      -2.6403      1.00000
    145      -2.5960      1.00000
    146      -2.4890      1.00000
    147      -2.4159      1.00000
    148      -2.2775      1.00002
    149      -2.1662      1.00035
    150      -2.1076      1.00140
    151      -2.0774      1.00264
    152      -1.9263      1.02537
    153      -1.8119      1.02273
    154      -1.7402      0.92851
    155      -1.5986      0.42534
    156      -0.4994     -0.00000
    157      -0.1172     -0.00000
    158      -0.0746     -0.00000
    159       0.0435     -0.00000
    160       0.4754     -0.00000
    161       0.6131     -0.00000
    162       1.1317     -0.00000
    163       1.7511     -0.00000
    164       1.8963     -0.00000
    165       1.9886     -0.00000
    166       2.0238     -0.00000
    167       2.0886     -0.00000
    168       2.1153     -0.00000
    169       2.1994     -0.00000
    170       2.2495     -0.00000
    171       2.2839     -0.00000
    172       2.3399     -0.00000
    173       2.4029     -0.00000
    174       2.6199     -0.00000
    175       2.7312     -0.00000
    176       2.7932     -0.00000
    177       2.8462     -0.00000
    178       3.0235     -0.00000

 k-point     8 :       0.0000    0.5000   -0.0000
  band No.  band energies     occupation 
      1     -52.2111      1.00000
      2     -52.1575      1.00000
      3     -52.0544      1.00000
      4     -52.0275      1.00000
      5     -51.9855      1.00000
      6     -51.9607      1.00000
      7     -51.9573      1.00000
      8     -51.9200      1.00000
      9     -51.9035      1.00000
     10     -51.8991      1.00000
     11     -51.7728      1.00000
     12     -51.7101      1.00000
     13     -51.5950      1.00000
     14     -51.5745      1.00000
     15     -50.9832      1.00000
     16     -50.9415      1.00000
     17     -50.9091      1.00000
     18     -50.8728      1.00000
     19     -50.8132      1.00000
     20     -50.7867      1.00000
     21     -50.7444      1.00000
     22     -50.7413      1.00000
     23     -50.7385      1.00000
     24     -50.7324      1.00000
     25     -50.7094      1.00000
     26     -50.6951      1.00000
     27     -50.6670      1.00000
     28     -48.0361      1.00000
     29     -48.0104      1.00000
     30     -47.9000      1.00000
     31     -47.8690      1.00000
     32     -47.8061      1.00000
     33     -47.6349      1.00000
     34     -47.0960      1.00000
     35     -46.9971      1.00000
     36     -46.8994      1.00000
     37     -21.5571      1.00000
     38     -20.8145      1.00000
     39     -20.4577      1.00000
     40     -20.2126      1.00000
     41     -20.1404      1.00000
     42     -20.0501      1.00000
     43     -19.9198      1.00000
     44     -19.7051      1.00000
     45     -19.6562      1.00000
     46     -19.5605      1.00000
     47     -19.5229      1.00000
     48     -19.5084      1.00000
     49     -19.3834      1.00000
     50     -19.2777      1.00000
     51     -19.2679      1.00000
     52     -19.2263      1.00000
     53     -19.1728      1.00000
     54     -19.0668      1.00000
     55     -18.6229      1.00000
     56     -18.3812      1.00000
     57      -9.7392      1.00000
     58      -8.8624      1.00000
     59      -8.7089      1.00000
     60      -8.3273      1.00000
     61      -8.1974      1.00000
     62      -8.0749      1.00000
     63      -7.9879      1.00000
     64      -7.8896      1.00000
     65      -7.6993      1.00000
     66      -7.6715      1.00000
     67      -7.5548      1.00000
     68      -7.4650      1.00000
     69      -7.3863      1.00000
     70      -7.3261      1.00000
     71      -7.2983      1.00000
     72      -7.2065      1.00000
     73      -7.1392      1.00000
     74      -7.1212      1.00000
     75      -7.0443      1.00000
     76      -6.9930      1.00000
     77      -6.9622      1.00000
     78      -6.9052      1.00000
     79      -6.8858      1.00000
     80      -6.8503      1.00000
     81      -6.8153      1.00000
     82      -6.7045      1.00000
     83      -6.6154      1.00000
     84      -6.5272      1.00000
     85      -6.4318      1.00000
     86      -6.3806      1.00000
     87      -6.3741      1.00000
     88      -6.2842      1.00000
     89      -6.2746      1.00000
     90      -6.1777      1.00000
     91      -6.1640      1.00000
     92      -6.1116      1.00000
     93      -6.0182      1.00000
     94      -5.9774      1.00000
     95      -5.9621      1.00000
     96      -5.9495      1.00000
     97      -5.7877      1.00000
     98      -5.6881      1.00000
     99      -5.6422      1.00000
    100      -5.4702      1.00000
    101      -5.4374      1.00000
    102      -5.4016      1.00000
    103      -5.3641      1.00000
    104      -5.3032      1.00000
    105      -5.2562      1.00000
    106      -5.1486      1.00000
    107      -5.0662      1.00000
    108      -5.0288      1.00000
    109      -4.9905      1.00000
    110      -4.9273      1.00000
    111      -4.9114      1.00000
    112      -4.8424      1.00000
    113      -4.8054      1.00000
    114      -4.7444      1.00000
    115      -4.7134      1.00000
    116      -4.6434      1.00000
    117      -4.5839      1.00000
    118      -4.5430      1.00000
    119      -4.5036      1.00000
    120      -4.4472      1.00000
    121      -4.3148      1.00000
    122      -4.2076      1.00000
    123      -4.1143      1.00000
    124      -4.0683      1.00000
    125      -3.9008      1.00000
    126      -3.8956      1.00000
    127      -3.8265      1.00000
    128      -3.8136      1.00000
    129      -3.6758      1.00000
    130      -3.6267      1.00000
    131      -3.5281      1.00000
    132      -3.4237      1.00000
    133      -3.3768      1.00000
    134      -3.2728      1.00000
    135      -3.2530      1.00000
    136      -3.1918      1.00000
    137      -3.1160      1.00000
    138      -3.0436      1.00000
    139      -2.9935      1.00000
    140      -2.8619      1.00000
    141      -2.8273      1.00000
    142      -2.7493      1.00000
    143      -2.7062      1.00000
    144      -2.5677      1.00000
    145      -2.5100      1.00000
    146      -2.4803      1.00000
    147      -2.4111      1.00000
    148      -2.3837      1.00000
    149      -2.1659      1.00036
    150      -1.9747      1.01474
    151      -1.9474      1.02051
    152      -1.8830      1.03389
    153      -1.7763      0.99011
    154      -1.7524      0.95292
    155      -1.5983      0.42424
    156      -0.7232     -0.00000
    157      -0.3259     -0.00000
    158      -0.3211     -0.00000
    159      -0.2124     -0.00000
    160       0.3636     -0.00000
    161       0.5608     -0.00000
    162       1.3515     -0.00000
    163       1.5395     -0.00000
    164       1.7467     -0.00000
    165       1.9267     -0.00000
    166       1.9586     -0.00000
    167       2.0710     -0.00000
    168       2.1574     -0.00000
    169       2.1873     -0.00000
    170       2.2552     -0.00000
    171       2.2883     -0.00000
    172       2.3257     -0.00000
    173       2.4088     -0.00000
    174       2.6111     -0.00000
    175       2.7581     -0.00000
    176       2.8274     -0.00000
    177       2.9256     -0.00000
    178       3.0344     -0.00000

 k-point     9 :       0.2500    0.5000   -0.0000
  band No.  band energies     occupation 
      1     -52.2111      1.00000
      2     -52.1575      1.00000
      3     -52.0544      1.00000
      4     -52.0275      1.00000
      5     -51.9855      1.00000
      6     -51.9607      1.00000
      7     -51.9574      1.00000
      8     -51.9200      1.00000
      9     -51.9035      1.00000
     10     -51.8991      1.00000
     11     -51.7729      1.00000
     12     -51.7101      1.00000
     13     -51.5949      1.00000
     14     -51.5745      1.00000
     15     -50.9832      1.00000
     16     -50.9415      1.00000
     17     -50.9091      1.00000
     18     -50.8728      1.00000
     19     -50.8132      1.00000
     20     -50.7867      1.00000
     21     -50.7444      1.00000
     22     -50.7413      1.00000
     23     -50.7385      1.00000
     24     -50.7324      1.00000
     25     -50.7094      1.00000
     26     -50.6951      1.00000
     27     -50.6670      1.00000
     28     -48.0361      1.00000
     29     -48.0101      1.00000
     30     -47.9001      1.00000
     31     -47.8691      1.00000
     32     -47.8061      1.00000
     33     -47.6348      1.00000
     34     -47.0954      1.00000
     35     -46.9978      1.00000
     36     -46.8994      1.00000
     37     -21.5601      1.00000
     38     -20.8089      1.00000
     39     -20.4592      1.00000
     40     -20.2146      1.00000
     41     -20.1357      1.00000
     42     -20.0750      1.00000
     43     -19.8719      1.00000
     44     -19.7096      1.00000
     45     -19.7010      1.00000
     46     -19.5450      1.00000
     47     -19.5189      1.00000
     48     -19.5039      1.00000
     49     -19.3745      1.00000
     50     -19.3022      1.00000
     51     -19.2833      1.00000
     52     -19.2100      1.00000
     53     -19.1482      1.00000
     54     -19.0795      1.00000
     55     -18.6214      1.00000
     56     -18.3815      1.00000
     57      -9.7370      1.00000
     58      -8.8643      1.00000
     59      -8.7094      1.00000
     60      -8.3440      1.00000
     61      -8.2505      1.00000
     62      -8.0770      1.00000
     63      -7.9609      1.00000
     64      -7.8888      1.00000
     65      -7.7287      1.00000
     66      -7.6212      1.00000
     67      -7.5743      1.00000
     68      -7.4566      1.00000
     69      -7.3717      1.00000
     70      -7.3464      1.00000
     71      -7.3322      1.00000
     72      -7.2018      1.00000
     73      -7.1618      1.00000
     74      -7.0704      1.00000
     75      -7.0434      1.00000
     76      -6.9904      1.00000
     77      -6.9566      1.00000
     78      -6.9153      1.00000
     79      -6.8592      1.00000
     80      -6.8184      1.00000
     81      -6.7422      1.00000
     82      -6.6391      1.00000
     83      -6.5721      1.00000
     84      -6.5415      1.00000
     85      -6.5225      1.00000
     86      -6.4504      1.00000
     87      -6.3898      1.00000
     88      -6.3308      1.00000
     89      -6.2744      1.00000
     90      -6.1809      1.00000
     91      -6.1726      1.00000
     92      -6.0986      1.00000
     93      -6.0441      1.00000
     94      -5.9982      1.00000
     95      -5.9252      1.00000
     96      -5.8672      1.00000
     97      -5.7753      1.00000
     98      -5.7441      1.00000
     99      -5.6284      1.00000
    100      -5.5097      1.00000
    101      -5.4323      1.00000
    102      -5.3861      1.00000
    103      -5.3640      1.00000
    104      -5.2933      1.00000
    105      -5.2084      1.00000
    106      -5.1531      1.00000
    107      -5.0954      1.00000
    108      -5.0326      1.00000
    109      -4.9833      1.00000
    110      -4.9514      1.00000
    111      -4.9321      1.00000
    112      -4.8383      1.00000
    113      -4.8098      1.00000
    114      -4.7831      1.00000
    115      -4.6789      1.00000
    116      -4.6326      1.00000
    117      -4.5607      1.00000
    118      -4.5159      1.00000
    119      -4.4367      1.00000
    120      -4.3816      1.00000
    121      -4.2839      1.00000
    122      -4.2665      1.00000
    123      -4.1723      1.00000
    124      -4.0559      1.00000
    125      -3.9564      1.00000
    126      -3.9060      1.00000
    127      -3.8147      1.00000
    128      -3.7766      1.00000
    129      -3.6814      1.00000
    130      -3.5723      1.00000
    131      -3.5136      1.00000
    132      -3.4279      1.00000
    133      -3.3733      1.00000
    134      -3.3115      1.00000
    135      -3.2530      1.00000
    136      -3.2114      1.00000
    137      -3.1174      1.00000
    138      -3.0922      1.00000
    139      -2.9943      1.00000
    140      -2.9223      1.00000
    141      -2.8745      1.00000
    142      -2.7886      1.00000
    143      -2.7019      1.00000
    144      -2.6335      1.00000
    145      -2.5486      1.00000
    146      -2.5098      1.00000
    147      -2.3381      1.00000
    148      -2.2470      1.00004
    149      -2.0679      1.00319
    150      -2.0269      1.00671
    151      -1.9959      1.01096
    152      -1.8348      1.03226
    153      -1.7756      0.98919
    154      -1.7090      0.84942
    155      -1.6514      0.64616
    156      -0.7442     -0.00000
    157      -0.3446     -0.00000
    158      -0.2526     -0.00000
    159      -0.2023     -0.00000
    160       0.3267     -0.00000
    161       0.5018     -0.00000
    162       1.2780     -0.00000
    163       1.7501     -0.00000
    164       1.9340     -0.00000
    165       1.9839     -0.00000
    166       2.0617     -0.00000
    167       2.1000     -0.00000
    168       2.1449     -0.00000
    169       2.1888     -0.00000
    170       2.2338     -0.00000
    171       2.2897     -0.00000
    172       2.3488     -0.00000
    173       2.3972     -0.00000
    174       2.4809     -0.00000
    175       2.5509     -0.00000
    176       2.7318     -0.00000
    177       2.8587     -0.00000
    178       2.9449     -0.00000

 k-point    10 :       0.5000    0.5000   -0.0000
  band No.  band energies     occupation 
      1     -52.2111      1.00000
      2     -52.1575      1.00000
      3     -52.0544      1.00000
      4     -52.0275      1.00000
      5     -51.9855      1.00000
      6     -51.9606      1.00000
      7     -51.9574      1.00000
      8     -51.9200      1.00000
      9     -51.9035      1.00000
     10     -51.8991      1.00000
     11     -51.7729      1.00000
     12     -51.7101      1.00000
     13     -51.5949      1.00000
     14     -51.5746      1.00000
     15     -50.9832      1.00000
     16     -50.9415      1.00000
     17     -50.9091      1.00000
     18     -50.8728      1.00000
     19     -50.8132      1.00000
     20     -50.7867      1.00000
     21     -50.7444      1.00000
     22     -50.7413      1.00000
     23     -50.7385      1.00000
     24     -50.7324      1.00000
     25     -50.7094      1.00000
     26     -50.6951      1.00000
     27     -50.6670      1.00000
     28     -48.0360      1.00000
     29     -48.0097      1.00000
     30     -47.9001      1.00000
     31     -47.8693      1.00000
     32     -47.8061      1.00000
     33     -47.6348      1.00000
     34     -47.0948      1.00000
     35     -46.9986      1.00000
     36     -46.8994      1.00000
     37     -21.5628      1.00000
     38     -20.8034      1.00000
     39     -20.4595      1.00000
     40     -20.2160      1.00000
     41     -20.1260      1.00000
     42     -20.0892      1.00000
     43     -19.8799      1.00000
     44     -19.7250      1.00000
     45     -19.6610      1.00000
     46     -19.5515      1.00000
     47     -19.5240      1.00000
     48     -19.5098      1.00000
     49     -19.3639      1.00000
     50     -19.3057      1.00000
     51     -19.3021      1.00000
     52     -19.1726      1.00000
     53     -19.1487      1.00000
     54     -19.1006      1.00000
     55     -18.6196      1.00000
     56     -18.3819      1.00000
     57      -9.7345      1.00000
     58      -8.8644      1.00000
     59      -8.7119      1.00000
     60      -8.3547      1.00000
     61      -8.2792      1.00000
     62      -8.1080      1.00000
     63      -7.9298      1.00000
     64      -7.8884      1.00000
     65      -7.7846      1.00000
     66      -7.6367      1.00000
     67      -7.5279      1.00000
     68      -7.4091      1.00000
     69      -7.3715      1.00000
     70      -7.3345      1.00000
     71      -7.3243      1.00000
     72      -7.2036      1.00000
     73      -7.1992      1.00000
     74      -7.1725      1.00000
     75      -7.0156      1.00000
     76      -6.9997      1.00000
     77      -6.9449      1.00000
     78      -6.9209      1.00000
     79      -6.8178      1.00000
     80      -6.7298      1.00000
     81      -6.6744      1.00000
     82      -6.6371      1.00000
     83      -6.5963      1.00000
     84      -6.5165      1.00000
     85      -6.5033      1.00000
     86      -6.4581      1.00000
     87      -6.4053      1.00000
     88      -6.3388      1.00000
     89      -6.3045      1.00000
     90      -6.2008      1.00000
     91      -6.1571      1.00000
     92      -6.1446      1.00000
     93      -6.0661      1.00000
     94      -5.9368      1.00000
     95      -5.9195      1.00000
     96      -5.8162      1.00000
     97      -5.7945      1.00000
     98      -5.6896      1.00000
     99      -5.5384      1.00000
    100      -5.5058      1.00000
    101      -5.4305      1.00000
    102      -5.3809      1.00000
    103      -5.3780      1.00000
    104      -5.3586      1.00000
    105      -5.2235      1.00000
    106      -5.1798      1.00000
    107      -5.1386      1.00000
    108      -5.0861      1.00000
    109      -5.0358      1.00000
    110      -5.0002      1.00000
    111      -4.9340      1.00000
    112      -4.9121      1.00000
    113      -4.8115      1.00000
    114      -4.7643      1.00000
    115      -4.7084      1.00000
    116      -4.6068      1.00000
    117      -4.5000      1.00000
    118      -4.4830      1.00000
    119      -4.4165      1.00000
    120      -4.3637      1.00000
    121      -4.2895      1.00000
    122      -4.2344      1.00000
    123      -4.1205      1.00000
    124      -4.0739      1.00000
    125      -3.9605      1.00000
    126      -3.8909      1.00000
    127      -3.8667      1.00000
    128      -3.8197      1.00000
    129      -3.6668      1.00000
    130      -3.6030      1.00000
    131      -3.5086      1.00000
    132      -3.3661      1.00000
    133      -3.3415      1.00000
    134      -3.3264      1.00000
    135      -3.2376      1.00000
    136      -3.1996      1.00000
    137      -3.1233      1.00000
    138      -3.0663      1.00000
    139      -3.0210      1.00000
    140      -2.9558      1.00000
    141      -2.9218      1.00000
    142      -2.6887      1.00000
    143      -2.6263      1.00000
    144      -2.5676      1.00000
    145      -2.4800      1.00000
    146      -2.4363      1.00000
    147      -2.4077      1.00000
    148      -2.3456      1.00000
    149      -2.2535      1.00003
    150      -2.0837      1.00233
    151      -1.9929      1.01145
    152      -1.9207      1.02666
    153      -1.8448      1.03429
    154      -1.6325      0.56830
    155      -1.6010      0.43555
    156      -0.6860     -0.00000
    157      -0.3488     -0.00000
    158      -0.2222     -0.00000
    159      -0.1236     -0.00000
    160       0.1694     -0.00000
    161       0.5783     -0.00000
    162       1.3322     -0.00000
    163       1.8302     -0.00000
    164       1.9912     -0.00000
    165       1.9955     -0.00000
    166       2.0495     -0.00000
    167       2.0831     -0.00000
    168       2.1163     -0.00000
    169       2.1498     -0.00000
    170       2.1685     -0.00000
    171       2.2071     -0.00000
    172       2.2848     -0.00000
    173       2.3816     -0.00000
    174       2.4327     -0.00000
    175       2.6066     -0.00000
    176       2.7510     -0.00000
    177       2.7949     -0.00000
    178       3.0994     -0.00000

 spin component 2

 k-point     1 :       0.0000    0.0000    0.0000
  band No.  band energies     occupation 
      1     -51.9923      1.00000
      2     -51.9631      1.00000
      3     -51.8872      1.00000
      4     -51.8649      1.00000
      5     -51.8292      1.00000
      6     -51.8068      1.00000
      7     -51.6745      1.00000
      8     -51.5910      1.00000
      9     -51.5568      1.00000
     10     -50.4232      1.00000
     11     -49.9019      1.00000
     12     -49.1196      1.00000
     13     -48.0465      1.00000
     14     -48.0459      1.00000
     15     -47.9993      1.00000
     16     -47.9684      1.00000
     17     -47.9307      1.00000
     18     -47.8818      1.00000
     19     -47.8288      1.00000
     20     -47.7318      1.00000
     21     -47.2274      1.00000
     22     -47.1312      1.00000
     23     -47.0477      1.00000
     24     -46.9798      1.00000
     25     -46.3038      1.00000
     26     -46.1813      1.00000
     27     -46.1338      1.00000
     28     -45.9262      1.00000
     29     -45.9118      1.00000
     30     -45.9031      1.00000
     31     -45.8953      1.00000
     32     -45.8830      1.00000
     33     -45.8809      1.00000
     34     -45.8798      1.00000
     35     -45.8662      1.00000
     36     -45.8434      1.00000
     37     -21.6161      1.00000
     38     -20.8395      1.00000
     39     -20.5757      1.00000
     40     -20.3039      1.00000
     41     -20.0863      1.00000
     42     -19.9728      1.00000
     43     -19.8228      1.00000
     44     -19.7152      1.00000
     45     -19.5361      1.00000
     46     -19.5114      1.00000
     47     -19.4366      1.00000
     48     -19.4229      1.00000
     49     -19.3708      1.00000
     50     -19.1803      1.00000
     51     -19.1384      1.00000
     52     -19.0784      1.00000
     53     -19.0517      1.00000
     54     -18.9755      1.00000
     55     -18.5801      1.00000
     56     -18.5735      1.00000
     57      -9.7019      1.00000
     58      -8.7663      1.00000
     59      -8.6529      1.00000
     60      -8.4999      1.00000
     61      -8.1405      1.00000
     62      -8.1042      1.00000
     63      -7.9440      1.00000
     64      -7.6730      1.00000
     65      -7.4844      1.00000
     66      -7.3971      1.00000
     67      -7.3791      1.00000
     68      -7.2107      1.00000
     69      -7.0719      1.00000
     70      -7.0046      1.00000
     71      -6.9642      1.00000
     72      -6.8731      1.00000
     73      -6.7384      1.00000
     74      -6.6795      1.00000
     75      -6.6149      1.00000
     76      -6.5643      1.00000
     77      -6.5270      1.00000
     78      -6.4428      1.00000
     79      -6.3757      1.00000
     80      -6.3145      1.00000
     81      -6.2817      1.00000
     82      -6.2540      1.00000
     83      -6.1456      1.00000
     84      -6.1032      1.00000
     85      -6.0460      1.00000
     86      -5.7377      1.00000
     87      -5.6230      1.00000
     88      -5.5069      1.00000
     89      -5.4301      1.00000
     90      -5.3329      1.00000
     91      -5.3257      1.00000
     92      -5.2659      1.00000
     93      -5.2226      1.00000
     94      -5.1506      1.00000
     95      -5.0377      1.00000
     96      -4.9509      1.00000
     97      -4.8708      1.00000
     98      -4.8028      1.00000
     99      -4.7530      1.00000
    100      -4.7089      1.00000
    101      -4.6643      1.00000
    102      -4.6004      1.00000
    103      -4.4981      1.00000
    104      -4.4679      1.00000
    105      -4.4118      1.00000
    106      -4.3766      1.00000
    107      -4.3358      1.00000
    108      -4.2469      1.00000
    109      -4.0969      1.00000
    110      -4.0178      1.00000
    111      -3.9766      1.00000
    112      -3.9025      1.00000
    113      -3.8553      1.00000
    114      -3.8118      1.00000
    115      -3.8018      1.00000
    116      -3.7181      1.00000
    117      -3.6753      1.00000
    118      -3.6319      1.00000
    119      -3.5400      1.00000
    120      -3.5137      1.00000
    121      -3.3186      1.00000
    122      -3.1444      1.00000
    123      -3.0526      1.00000
    124      -2.9128      1.00000
    125      -2.5496      1.00000
    126      -2.4250      1.00000
    127      -2.2495      1.00004
    128      -2.1839      1.00022
    129      -2.1319      1.00081
    130      -0.0926     -0.00000
    131       0.0818     -0.00000
    132       0.2466     -0.00000
    133       0.2699     -0.00000
    134       0.4483     -0.00000
    135       0.6112     -0.00000
    136       0.9854     -0.00000
    137       1.4518     -0.00000
    138       1.5271     -0.00000
    139       1.6038     -0.00000
    140       1.7580     -0.00000
    141       1.8179     -0.00000
    142       1.8581     -0.00000
    143       1.9127     -0.00000
    144       1.9553     -0.00000
    145       2.0737     -0.00000
    146       2.1254     -0.00000
    147       2.1492     -0.00000
    148       2.1800     -0.00000
    149       2.2781     -0.00000
    150       2.3082     -0.00000
    151       2.3401     -0.00000
    152       2.3471     -0.00000
    153       2.4083     -0.00000
    154       2.4500     -0.00000
    155       2.6205     -0.00000
    156       2.6234     -0.00000
    157       2.6428     -0.00000
    158       2.8089     -0.00000
    159       2.8289     -0.00000
    160       2.8547     -0.00000
    161       2.9225     -0.00000
    162       2.9789     -0.00000
    163       3.0187     -0.00000
    164       3.0638     -0.00000
    165       3.1132     -0.00000
    166       3.1357     -0.00000
    167       3.1798     -0.00000
    168       3.2455     -0.00000
    169       3.2800     -0.00000
    170       3.3231     -0.00000
    171       3.3464     -0.00000
    172       3.3799     -0.00000
    173       3.4350     -0.00000
    174       3.5204     -0.00000
    175       3.7021     -0.00000
    176       3.7136     -0.00000
    177       3.8873      0.00000
    178       3.9506      0.00000

 k-point     2 :       0.2500    0.0000   -0.0000
  band No.  band energies     occupation 
      1     -51.9923      1.00000
      2     -51.9627      1.00000
      3     -51.8872      1.00000
      4     -51.8649      1.00000
      5     -51.8292      1.00000
      6     -51.8067      1.00000
      7     -51.6742      1.00000
      8     -51.5917      1.00000
      9     -51.5568      1.00000
     10     -50.4232      1.00000
     11     -49.9019      1.00000
     12     -49.1196      1.00000
     13     -48.0465      1.00000
     14     -48.0459      1.00000
     15     -47.9993      1.00000
     16     -47.9684      1.00000
     17     -47.9307      1.00000
     18     -47.8818      1.00000
     19     -47.8288      1.00000
     20     -47.7318      1.00000
     21     -47.2274      1.00000
     22     -47.1312      1.00000
     23     -47.0477      1.00000
     24     -46.9798      1.00000
     25     -46.3038      1.00000
     26     -46.1813      1.00000
     27     -46.1338      1.00000
     28     -45.9262      1.00000
     29     -45.9118      1.00000
     30     -45.9031      1.00000
     31     -45.8953      1.00000
     32     -45.8830      1.00000
     33     -45.8809      1.00000
     34     -45.8798      1.00000
     35     -45.8662      1.00000
     36     -45.8434      1.00000
     37     -21.6009      1.00000
     38     -20.8427      1.00000
     39     -20.5269      1.00000
     40     -20.2500      1.00000
     41     -20.0751      1.00000
     42     -19.9733      1.00000
     43     -19.8546      1.00000
     44     -19.7783      1.00000
     45     -19.5540      1.00000
     46     -19.4981      1.00000
     47     -19.4483      1.00000
     48     -19.4360      1.00000
     49     -19.3769      1.00000
     50     -19.2068      1.00000
     51     -19.1407      1.00000
     52     -19.0751      1.00000
     53     -19.0536      1.00000
     54     -18.9778      1.00000
     55     -18.5831      1.00000
     56     -18.5764      1.00000
     57      -9.6779      1.00000
     58      -8.7098      1.00000
     59      -8.6145      1.00000
     60      -8.3335      1.00000
     61      -8.1194      1.00000
     62      -8.0801      1.00000
     63      -7.9044      1.00000
     64      -7.6143      1.00000
     65      -7.4720      1.00000
     66      -7.3491      1.00000
     67      -7.2875      1.00000
     68      -7.2278      1.00000
     69      -7.1179      1.00000
     70      -7.0186      1.00000
     71      -6.9564      1.00000
     72      -6.8460      1.00000
     73      -6.8010      1.00000
     74      -6.7093      1.00000
     75      -6.5752      1.00000
     76      -6.5367      1.00000
     77      -6.4847      1.00000
     78      -6.3946      1.00000
     79      -6.3289      1.00000
     80      -6.2782      1.00000
     81      -6.2197      1.00000
     82      -6.1653      1.00000
     83      -6.0691      1.00000
     84      -5.9753      1.00000
     85      -5.8630      1.00000
     86      -5.8157      1.00000
     87      -5.6806      1.00000
     88      -5.5301      1.00000
     89      -5.5086      1.00000
     90      -5.4272      1.00000
     91      -5.3454      1.00000
     92      -5.2975      1.00000
     93      -5.2326      1.00000
     94      -5.1767      1.00000
     95      -5.1160      1.00000
     96      -5.0755      1.00000
     97      -5.0271      1.00000
     98      -4.9750      1.00000
     99      -4.8271      1.00000
    100      -4.7843      1.00000
    101      -4.6634      1.00000
    102      -4.5954      1.00000
    103      -4.5184      1.00000
    104      -4.4797      1.00000
    105      -4.3913      1.00000
    106      -4.3759      1.00000
    107      -4.2336      1.00000
    108      -4.2083      1.00000
    109      -4.1235      1.00000
    110      -4.0600      1.00000
    111      -3.9973      1.00000
    112      -3.9458      1.00000
    113      -3.9111      1.00000
    114      -3.8774      1.00000
    115      -3.8058      1.00000
    116      -3.7543      1.00000
    117      -3.6863      1.00000
    118      -3.6455      1.00000
    119      -3.6046      1.00000
    120      -3.5055      1.00000
    121      -3.3499      1.00000
    122      -3.1604      1.00000
    123      -3.1207      1.00000
    124      -2.9159      1.00000
    125      -2.6584      1.00000
    126      -2.5490      1.00000
    127      -2.4421      1.00000
    128      -2.3659      1.00000
    129      -2.2742      1.00002
    130      -0.0909     -0.00000
    131       0.1139     -0.00000
    132       0.2325     -0.00000
    133       0.4598     -0.00000
    134       0.5458     -0.00000
    135       0.5830     -0.00000
    136       0.9029     -0.00000
    137       1.4277     -0.00000
    138       1.5777     -0.00000
    139       1.6422     -0.00000
    140       1.7887     -0.00000
    141       1.8510     -0.00000
    142       1.9203     -0.00000
    143       1.9318     -0.00000
    144       1.9984     -0.00000
    145       2.0809     -0.00000
    146       2.1219     -0.00000
    147       2.1775     -0.00000
    148       2.2251     -0.00000
    149       2.2609     -0.00000
    150       2.2886     -0.00000
    151       2.3512     -0.00000
    152       2.3886     -0.00000
    153       2.4693     -0.00000
    154       2.5577     -0.00000
    155       2.6402     -0.00000
    156       2.7056     -0.00000
    157       2.7408     -0.00000
    158       2.7816     -0.00000
    159       2.8447     -0.00000
    160       2.9258     -0.00000
    161       2.9735     -0.00000
    162       3.0525     -0.00000
    163       3.0737     -0.00000
    164       3.0970     -0.00000
    165       3.1498     -0.00000
    166       3.1843     -0.00000
    167       3.2231     -0.00000
    168       3.2618     -0.00000
    169       3.2827     -0.00000
    170       3.3149     -0.00000
    171       3.3450     -0.00000
    172       3.4067     -0.00000
    173       3.4774     -0.00000
    174       3.5384     -0.00000
    175       3.5654     -0.00000
    176       3.6420     -0.00000
    177       3.7671     -0.00000
    178       3.8914      0.00000

 k-point     3 :       0.5000    0.0000   -0.0000
  band No.  band energies     occupation 
      1     -51.9922      1.00000
      2     -51.9624      1.00000
      3     -51.8872      1.00000
      4     -51.8648      1.00000
      5     -51.8291      1.00000
      6     -51.8067      1.00000
      7     -51.6740      1.00000
      8     -51.5923      1.00000
      9     -51.5567      1.00000
     10     -50.4232      1.00000
     11     -49.9019      1.00000
     12     -49.1197      1.00000
     13     -48.0465      1.00000
     14     -48.0459      1.00000
     15     -47.9993      1.00000
     16     -47.9684      1.00000
     17     -47.9307      1.00000
     18     -47.8818      1.00000
     19     -47.8288      1.00000
     20     -47.7319      1.00000
     21     -47.2274      1.00000
     22     -47.1313      1.00000
     23     -47.0477      1.00000
     24     -46.9799      1.00000
     25     -46.3038      1.00000
     26     -46.1813      1.00000
     27     -46.1338      1.00000
     28     -45.9262      1.00000
     29     -45.9118      1.00000
     30     -45.9031      1.00000
     31     -45.8954      1.00000
     32     -45.8830      1.00000
     33     -45.8809      1.00000
     34     -45.8798      1.00000
     35     -45.8661      1.00000
     36     -45.8435      1.00000
     37     -21.5854      1.00000
     38     -20.8462      1.00000
     39     -20.4752      1.00000
     40     -20.1170      1.00000
     41     -20.0635      1.00000
     42     -20.0290      1.00000
     43     -19.9713      1.00000
     44     -19.7716      1.00000
     45     -19.5742      1.00000
     46     -19.5257      1.00000
     47     -19.4429      1.00000
     48     -19.4333      1.00000
     49     -19.3811      1.00000
     50     -19.2309      1.00000
     51     -19.1482      1.00000
     52     -19.0726      1.00000
     53     -19.0555      1.00000
     54     -18.9800      1.00000
     55     -18.5863      1.00000
     56     -18.5792      1.00000
     57      -9.6538      1.00000
     58      -8.6525      1.00000
     59      -8.5739      1.00000
     60      -8.1182      1.00000
     61      -8.0611      1.00000
     62      -8.0128      1.00000
     63      -7.9420      1.00000
     64      -7.6401      1.00000
     65      -7.4281      1.00000
     66      -7.4190      1.00000
     67      -7.3003      1.00000
     68      -7.2110      1.00000
     69      -7.0857      1.00000
     70      -6.9690      1.00000
     71      -6.8726      1.00000
     72      -6.8322      1.00000
     73      -6.7813      1.00000
     74      -6.5676      1.00000
     75      -6.5645      1.00000
     76      -6.4865      1.00000
     77      -6.3904      1.00000
     78      -6.3708      1.00000
     79      -6.2554      1.00000
     80      -6.1864      1.00000
     81      -6.1553      1.00000
     82      -6.1304      1.00000
     83      -6.0292      1.00000
     84      -5.9941      1.00000
     85      -5.8533      1.00000
     86      -5.8092      1.00000
     87      -5.6982      1.00000
     88      -5.6603      1.00000
     89      -5.6165      1.00000
     90      -5.5313      1.00000
     91      -5.4500      1.00000
     92      -5.3823      1.00000
     93      -5.3260      1.00000
     94      -5.2238      1.00000
     95      -5.1700      1.00000
     96      -5.0947      1.00000
     97      -5.0667      1.00000
     98      -4.9983      1.00000
     99      -4.9449      1.00000
    100      -4.8066      1.00000
    101      -4.6711      1.00000
    102      -4.6353      1.00000
    103      -4.5704      1.00000
    104      -4.5025      1.00000
    105      -4.4688      1.00000
    106      -4.3844      1.00000
    107      -4.2265      1.00000
    108      -4.1602      1.00000
    109      -4.1095      1.00000
    110      -4.0646      1.00000
    111      -4.0563      1.00000
    112      -3.9648      1.00000
    113      -3.9069      1.00000
    114      -3.8192      1.00000
    115      -3.8013      1.00000
    116      -3.7177      1.00000
    117      -3.6777      1.00000
    118      -3.6642      1.00000
    119      -3.5955      1.00000
    120      -3.5748      1.00000
    121      -3.4451      1.00000
    122      -3.2537      1.00000
    123      -3.0747      1.00000
    124      -2.9377      1.00000
    125      -2.7948      1.00000
    126      -2.7577      1.00000
    127      -2.7060      1.00000
    128      -2.5156      1.00000
    129      -2.3228      1.00000
    130      -0.0868     -0.00000
    131       0.1559     -0.00000
    132       0.2151     -0.00000
    133       0.4690     -0.00000
    134       0.5509     -0.00000
    135       0.8119     -0.00000
    136       0.9932     -0.00000
    137       1.4095     -0.00000
    138       1.4629     -0.00000
    139       1.6278     -0.00000
    140       1.8081     -0.00000
    141       1.8305     -0.00000
    142       1.8943     -0.00000
    143       1.9726     -0.00000
    144       1.9977     -0.00000
    145       1.9986     -0.00000
    146       2.0924     -0.00000
    147       2.1445     -0.00000
    148       2.1917     -0.00000
    149       2.2689     -0.00000
    150       2.2937     -0.00000
    151       2.3200     -0.00000
    152       2.4078     -0.00000
    153       2.4359     -0.00000
    154       2.5598     -0.00000
    155       2.7041     -0.00000
    156       2.7894     -0.00000
    157       2.8122     -0.00000
    158       2.8874     -0.00000
    159       3.0073     -0.00000
    160       3.0535     -0.00000
    161       3.1271     -0.00000
    162       3.1570     -0.00000
    163       3.1984     -0.00000
    164       3.2236     -0.00000
    165       3.2369     -0.00000
    166       3.2673     -0.00000
    167       3.2754     -0.00000
    168       3.2840     -0.00000
    169       3.3485     -0.00000
    170       3.3891     -0.00000
    171       3.4129     -0.00000
    172       3.4675     -0.00000
    173       3.4882     -0.00000
    174       3.5206     -0.00000
    175       3.6267     -0.00000
    176       3.6536     -0.00000
    177       3.8342     -0.00000
    178       4.0563      0.00000

 k-point     4 :       0.0000    0.2500   -0.0000
  band No.  band energies     occupation 
      1     -51.9923      1.00000
      2     -51.9631      1.00000
      3     -51.8870      1.00000
      4     -51.8648      1.00000
      5     -51.8292      1.00000
      6     -51.8067      1.00000
      7     -51.6744      1.00000
      8     -51.5910      1.00000
      9     -51.5568      1.00000
     10     -50.4231      1.00000
     11     -49.9012      1.00000
     12     -49.1196      1.00000
     13     -48.0466      1.00000
     14     -48.0464      1.00000
     15     -47.9993      1.00000
     16     -47.9688      1.00000
     17     -47.9308      1.00000
     18     -47.8818      1.00000
     19     -47.8288      1.00000
     20     -47.7321      1.00000
     21     -47.2274      1.00000
     22     -47.1312      1.00000
     23     -47.0477      1.00000
     24     -46.9798      1.00000
     25     -46.3038      1.00000
     26     -46.1813      1.00000
     27     -46.1338      1.00000
     28     -45.9262      1.00000
     29     -45.9118      1.00000
     30     -45.9031      1.00000
     31     -45.8953      1.00000
     32     -45.8830      1.00000
     33     -45.8809      1.00000
     34     -45.8799      1.00000
     35     -45.8662      1.00000
     36     -45.8434      1.00000
     37     -21.5970      1.00000
     38     -20.8197      1.00000
     39     -20.4968      1.00000
     40     -20.2228      1.00000
     41     -20.1058      1.00000
     42     -20.0212      1.00000
     43     -19.7826      1.00000
     44     -19.7053      1.00000
     45     -19.5530      1.00000
     46     -19.5287      1.00000
     47     -19.4855      1.00000
     48     -19.4499      1.00000
     49     -19.3610      1.00000
     50     -19.2027      1.00000
     51     -19.1535      1.00000
     52     -19.1191      1.00000
     53     -19.0681      1.00000
     54     -18.9995      1.00000
     55     -18.6029      1.00000
     56     -18.5966      1.00000
     57      -9.6724      1.00000
     58      -8.6102      1.00000
     59      -8.5728      1.00000
     60      -8.3341      1.00000
     61      -8.1612      1.00000
     62      -8.0897      1.00000
     63      -7.7732      1.00000
     64      -7.5728      1.00000
     65      -7.4325      1.00000
     66      -7.2566      1.00000
     67      -7.2222      1.00000
     68      -7.1903      1.00000
     69      -7.0504      1.00000
     70      -6.9743      1.00000
     71      -6.9029      1.00000
     72      -6.8656      1.00000
     73      -6.8103      1.00000
     74      -6.7277      1.00000
     75      -6.6045      1.00000
     76      -6.5838      1.00000
     77      -6.4644      1.00000
     78      -6.4355      1.00000
     79      -6.3518      1.00000
     80      -6.2524      1.00000
     81      -6.2292      1.00000
     82      -6.1930      1.00000
     83      -6.1202      1.00000
     84      -6.0296      1.00000
     85      -5.9652      1.00000
     86      -5.8119      1.00000
     87      -5.6744      1.00000
     88      -5.6155      1.00000
     89      -5.5513      1.00000
     90      -5.4587      1.00000
     91      -5.3727      1.00000
     92      -5.2848      1.00000
     93      -5.1835      1.00000
     94      -5.0952      1.00000
     95      -5.0531      1.00000
     96      -4.9992      1.00000
     97      -4.9191      1.00000
     98      -4.8642      1.00000
     99      -4.8142      1.00000
    100      -4.7879      1.00000
    101      -4.6437      1.00000
    102      -4.5950      1.00000
    103      -4.5593      1.00000
    104      -4.5336      1.00000
    105      -4.4902      1.00000
    106      -4.3898      1.00000
    107      -4.3079      1.00000
    108      -4.2547      1.00000
    109      -4.2041      1.00000
    110      -4.1377      1.00000
    111      -4.0556      1.00000
    112      -3.9905      1.00000
    113      -3.9552      1.00000
    114      -3.8840      1.00000
    115      -3.8465      1.00000
    116      -3.8036      1.00000
    117      -3.7666      1.00000
    118      -3.6923      1.00000
    119      -3.6098      1.00000
    120      -3.4779      1.00000
    121      -3.3343      1.00000
    122      -3.2351      1.00000
    123      -3.0927      1.00000
    124      -2.8637      1.00000
    125      -2.7910      1.00000
    126      -2.4051      1.00000
    127      -2.3382      1.00000
    128      -2.2997      1.00001
    129      -2.1647      1.00037
    130      -0.2477     -0.00000
    131      -0.0631     -0.00000
    132       0.0338     -0.00000
    133       0.4840     -0.00000
    134       0.5796     -0.00000
    135       0.6652     -0.00000
    136       1.0251     -0.00000
    137       1.1941     -0.00000
    138       1.5590     -0.00000
    139       1.6794     -0.00000
    140       1.7847     -0.00000
    141       1.8543     -0.00000
    142       1.9145     -0.00000
    143       1.9342     -0.00000
    144       2.0002     -0.00000
    145       2.0513     -0.00000
    146       2.0863     -0.00000
    147       2.1185     -0.00000
    148       2.1901     -0.00000
    149       2.2195     -0.00000
    150       2.2953     -0.00000
    151       2.3277     -0.00000
    152       2.3577     -0.00000
    153       2.4365     -0.00000
    154       2.4876     -0.00000
    155       2.5555     -0.00000
    156       2.6616     -0.00000
    157       2.7630     -0.00000
    158       2.7792     -0.00000
    159       2.9003     -0.00000
    160       2.9569     -0.00000
    161       2.9818     -0.00000
    162       3.0271     -0.00000
    163       3.0874     -0.00000
    164       3.1488     -0.00000
    165       3.1770     -0.00000
    166       3.1958     -0.00000
    167       3.2759     -0.00000
    168       3.3090     -0.00000
    169       3.3452     -0.00000
    170       3.3843     -0.00000
    171       3.3998     -0.00000
    172       3.4336     -0.00000
    173       3.4579     -0.00000
    174       3.5796     -0.00000
    175       3.6530     -0.00000
    176       3.6938     -0.00000
    177       3.7758     -0.00000
    178       3.8947      0.00000

 k-point     5 :       0.2500    0.2500   -0.0000
  band No.  band energies     occupation 
      1     -51.9923      1.00000
      2     -51.9627      1.00000
      3     -51.8870      1.00000
      4     -51.8648      1.00000
      5     -51.8292      1.00000
      6     -51.8068      1.00000
      7     -51.6743      1.00000
      8     -51.5917      1.00000
      9     -51.5568      1.00000
     10     -50.4231      1.00000
     11     -49.9012      1.00000
     12     -49.1195      1.00000
     13     -48.0466      1.00000
     14     -48.0464      1.00000
     15     -47.9993      1.00000
     16     -47.9688      1.00000
     17     -47.9308      1.00000
     18     -47.8818      1.00000
     19     -47.8288      1.00000
     20     -47.7321      1.00000
     21     -47.2274      1.00000
     22     -47.1312      1.00000
     23     -47.0477      1.00000
     24     -46.9799      1.00000
     25     -46.3038      1.00000
     26     -46.1813      1.00000
     27     -46.1338      1.00000
     28     -45.9262      1.00000
     29     -45.9118      1.00000
     30     -45.9031      1.00000
     31     -45.8953      1.00000
     32     -45.8830      1.00000
     33     -45.8809      1.00000
     34     -45.8799      1.00000
     35     -45.8661      1.00000
     36     -45.8434      1.00000
     37     -21.5995      1.00000
     38     -20.8158      1.00000
     39     -20.4968      1.00000
     40     -20.2196      1.00000
     41     -20.1095      1.00000
     42     -20.0222      1.00000
     43     -19.7881      1.00000
     44     -19.7047      1.00000
     45     -19.5462      1.00000
     46     -19.5259      1.00000
     47     -19.4816      1.00000
     48     -19.4452      1.00000
     49     -19.3631      1.00000
     50     -19.2083      1.00000
     51     -19.1587      1.00000
     52     -19.1209      1.00000
     53     -19.0723      1.00000
     54     -18.9981      1.00000
     55     -18.5983      1.00000
     56     -18.5969      1.00000
     57      -9.6774      1.00000
     58      -8.6313      1.00000
     59      -8.5709      1.00000
     60      -8.2904      1.00000
     61      -8.1489      1.00000
     62      -8.1020      1.00000
     63      -7.8076      1.00000
     64      -7.5214      1.00000
     65      -7.3921      1.00000
     66      -7.2451      1.00000
     67      -7.1918      1.00000
     68      -7.1638      1.00000
     69      -7.1030      1.00000
     70      -6.9787      1.00000
     71      -6.9202      1.00000
     72      -6.8720      1.00000
     73      -6.8024      1.00000
     74      -6.7182      1.00000
     75      -6.6535      1.00000
     76      -6.6001      1.00000
     77      -6.5562      1.00000
     78      -6.4576      1.00000
     79      -6.3882      1.00000
     80      -6.3022      1.00000
     81      -6.2313      1.00000
     82      -6.1964      1.00000
     83      -6.0611      1.00000
     84      -6.0085      1.00000
     85      -5.8897      1.00000
     86      -5.7294      1.00000
     87      -5.6363      1.00000
     88      -5.6131      1.00000
     89      -5.5324      1.00000
     90      -5.4944      1.00000
     91      -5.3814      1.00000
     92      -5.3284      1.00000
     93      -5.2501      1.00000
     94      -5.1757      1.00000
     95      -5.1024      1.00000
     96      -5.0213      1.00000
     97      -4.9371      1.00000
     98      -4.8958      1.00000
     99      -4.8004      1.00000
    100      -4.7666      1.00000
    101      -4.6922      1.00000
    102      -4.6225      1.00000
    103      -4.5280      1.00000
    104      -4.4640      1.00000
    105      -4.3713      1.00000
    106      -4.3386      1.00000
    107      -4.3011      1.00000
    108      -4.2512      1.00000
    109      -4.1390      1.00000
    110      -4.1063      1.00000
    111      -4.0165      1.00000
    112      -3.9586      1.00000
    113      -3.9433      1.00000
    114      -3.9104      1.00000
    115      -3.8525      1.00000
    116      -3.7899      1.00000
    117      -3.7576      1.00000
    118      -3.6647      1.00000
    119      -3.6434      1.00000
    120      -3.4826      1.00000
    121      -3.3557      1.00000
    122      -3.2681      1.00000
    123      -3.0569      1.00000
    124      -2.9027      1.00000
    125      -2.8374      1.00000
    126      -2.4410      1.00000
    127      -2.3409      1.00000
    128      -2.2588      1.00003
    129      -2.2300      1.00006
    130      -0.2763     -0.00000
    131      -0.1011     -0.00000
    132       0.0127     -0.00000
    133       0.5239     -0.00000
    134       0.5885     -0.00000
    135       0.6583     -0.00000
    136       0.9968     -0.00000
    137       1.2683     -0.00000
    138       1.5507     -0.00000
    139       1.6819     -0.00000
    140       1.7890     -0.00000
    141       1.8898     -0.00000
    142       1.9162     -0.00000
    143       1.9298     -0.00000
    144       2.0047     -0.00000
    145       2.0662     -0.00000
    146       2.0929     -0.00000
    147       2.1431     -0.00000
    148       2.2268     -0.00000
    149       2.2539     -0.00000
    150       2.2817     -0.00000
    151       2.3026     -0.00000
    152       2.3389     -0.00000
    153       2.4278     -0.00000
    154       2.4824     -0.00000
    155       2.5507     -0.00000
    156       2.7150     -0.00000
    157       2.7721     -0.00000
    158       2.7930     -0.00000
    159       2.8143     -0.00000
    160       2.8888     -0.00000
    161       2.9793     -0.00000
    162       3.0644     -0.00000
    163       3.0976     -0.00000
    164       3.1378     -0.00000
    165       3.1843     -0.00000
    166       3.2266     -0.00000
    167       3.2394     -0.00000
    168       3.2612     -0.00000
    169       3.3222     -0.00000
    170       3.3757     -0.00000
    171       3.3870     -0.00000
    172       3.4067     -0.00000
    173       3.4704     -0.00000
    174       3.5595     -0.00000
    175       3.6024     -0.00000
    176       3.6528     -0.00000
    177       3.7815     -0.00000
    178       3.9417      0.00000

 k-point     6 :       0.5000    0.2500    0.0000
  band No.  band energies     occupation 
      1     -51.9922      1.00000
      2     -51.9624      1.00000
      3     -51.8870      1.00000
      4     -51.8647      1.00000
      5     -51.8292      1.00000
      6     -51.8067      1.00000
      7     -51.6740      1.00000
      8     -51.5923      1.00000
      9     -51.5567      1.00000
     10     -50.4231      1.00000
     11     -49.9012      1.00000
     12     -49.1196      1.00000
     13     -48.0466      1.00000
     14     -48.0464      1.00000
     15     -47.9993      1.00000
     16     -47.9688      1.00000
     17     -47.9308      1.00000
     18     -47.8818      1.00000
     19     -47.8288      1.00000
     20     -47.7322      1.00000
     21     -47.2274      1.00000
     22     -47.1312      1.00000
     23     -47.0477      1.00000
     24     -46.9799      1.00000
     25     -46.3038      1.00000
     26     -46.1813      1.00000
     27     -46.1338      1.00000
     28     -45.9262      1.00000
     29     -45.9118      1.00000
     30     -45.9031      1.00000
     31     -45.8953      1.00000
     32     -45.8830      1.00000
     33     -45.8809      1.00000
     34     -45.8799      1.00000
     35     -45.8661      1.00000
     36     -45.8434      1.00000
     37     -21.5845      1.00000
     38     -20.8183      1.00000
     39     -20.4436      1.00000
     40     -20.1177      1.00000
     41     -20.0905      1.00000
     42     -20.0316      1.00000
     43     -19.9077      1.00000
     44     -19.7245      1.00000
     45     -19.5733      1.00000
     46     -19.5457      1.00000
     47     -19.5002      1.00000
     48     -19.4131      1.00000
     49     -19.3644      1.00000
     50     -19.2344      1.00000
     51     -19.1898      1.00000
     52     -19.1355      1.00000
     53     -19.0462      1.00000
     54     -18.9923      1.00000
     55     -18.5994      1.00000
     56     -18.5992      1.00000
     57      -9.6539      1.00000
     58      -8.5668      1.00000
     59      -8.5272      1.00000
     60      -8.1777      1.00000
     61      -8.0896      1.00000
     62      -7.9521      1.00000
     63      -7.8178      1.00000
     64      -7.5794      1.00000
     65      -7.3451      1.00000
     66      -7.2542      1.00000
     67      -7.2204      1.00000
     68      -7.1493      1.00000
     69      -7.0602      1.00000
     70      -6.9664      1.00000
     71      -6.9506      1.00000
     72      -6.8192      1.00000
     73      -6.7461      1.00000
     74      -6.6069      1.00000
     75      -6.5489      1.00000
     76      -6.5400      1.00000
     77      -6.4640      1.00000
     78      -6.3827      1.00000
     79      -6.3032      1.00000
     80      -6.2636      1.00000
     81      -6.1965      1.00000
     82      -6.0909      1.00000
     83      -6.0522      1.00000
     84      -5.9695      1.00000
     85      -5.8962      1.00000
     86      -5.8453      1.00000
     87      -5.7802      1.00000
     88      -5.7202      1.00000
     89      -5.6323      1.00000
     90      -5.5685      1.00000
     91      -5.4926      1.00000
     92      -5.3789      1.00000
     93      -5.3019      1.00000
     94      -5.2114      1.00000
     95      -5.1125      1.00000
     96      -5.0908      1.00000
     97      -4.9518      1.00000
     98      -4.9238      1.00000
     99      -4.8499      1.00000
    100      -4.8000      1.00000
    101      -4.7184      1.00000
    102      -4.6713      1.00000
    103      -4.5430      1.00000
    104      -4.5218      1.00000
    105      -4.4534      1.00000
    106      -4.3925      1.00000
    107      -4.3030      1.00000
    108      -4.1681      1.00000
    109      -4.1041      1.00000
    110      -4.0929      1.00000
    111      -4.0542      1.00000
    112      -3.9986      1.00000
    113      -3.9321      1.00000
    114      -3.9130      1.00000
    115      -3.8384      1.00000
    116      -3.8196      1.00000
    117      -3.7335      1.00000
    118      -3.7117      1.00000
    119      -3.6735      1.00000
    120      -3.5569      1.00000
    121      -3.4820      1.00000
    122      -3.3825      1.00000
    123      -3.0257      1.00000
    124      -2.8855      1.00000
    125      -2.8301      1.00000
    126      -2.6185      1.00000
    127      -2.5639      1.00000
    128      -2.3894      1.00000
    129      -2.3680      1.00000
    130      -0.2603     -0.00000
    131      -0.0837     -0.00000
    132       0.0139     -0.00000
    133       0.5288     -0.00000
    134       0.6382     -0.00000
    135       0.9534     -0.00000
    136       0.9863     -0.00000
    137       1.2107     -0.00000
    138       1.4971     -0.00000
    139       1.6743     -0.00000
    140       1.8229     -0.00000
    141       1.8858     -0.00000
    142       1.9354     -0.00000
    143       1.9583     -0.00000
    144       1.9839     -0.00000
    145       2.0288     -0.00000
    146       2.0865     -0.00000
    147       2.1134     -0.00000
    148       2.1829     -0.00000
    149       2.2059     -0.00000
    150       2.2933     -0.00000
    151       2.3311     -0.00000
    152       2.3818     -0.00000
    153       2.4659     -0.00000
    154       2.4807     -0.00000
    155       2.5753     -0.00000
    156       2.6575     -0.00000
    157       2.7394     -0.00000
    158       2.7801     -0.00000
    159       2.9441     -0.00000
    160       3.0684     -0.00000
    161       3.0820     -0.00000
    162       3.1193     -0.00000
    163       3.2048     -0.00000
    164       3.2126     -0.00000
    165       3.2512     -0.00000
    166       3.2679     -0.00000
    167       3.3145     -0.00000
    168       3.3561     -0.00000
    169       3.3753     -0.00000
    170       3.4015     -0.00000
    171       3.4467     -0.00000
    172       3.4765     -0.00000
    173       3.5092     -0.00000
    174       3.5531     -0.00000
    175       3.6474     -0.00000
    176       3.7626     -0.00000
    177       3.8265     -0.00000
    178       3.9277      0.00000

 k-point     7 :      -0.2500    0.2500   -0.0000
  band No.  band energies     occupation 
      1     -51.9922      1.00000
      2     -51.9627      1.00000
      3     -51.8870      1.00000
      4     -51.8648      1.00000
      5     -51.8292      1.00000
      6     -51.8067      1.00000
      7     -51.6742      1.00000
      8     -51.5917      1.00000
      9     -51.5567      1.00000
     10     -50.4231      1.00000
     11     -49.9013      1.00000
     12     -49.1197      1.00000
     13     -48.0466      1.00000
     14     -48.0464      1.00000
     15     -47.9993      1.00000
     16     -47.9688      1.00000
     17     -47.9308      1.00000
     18     -47.8818      1.00000
     19     -47.8288      1.00000
     20     -47.7321      1.00000
     21     -47.2274      1.00000
     22     -47.1313      1.00000
     23     -47.0477      1.00000
     24     -46.9798      1.00000
     25     -46.3038      1.00000
     26     -46.1813      1.00000
     27     -46.1338      1.00000
     28     -45.9262      1.00000
     29     -45.9118      1.00000
     30     -45.9031      1.00000
     31     -45.8953      1.00000
     32     -45.8830      1.00000
     33     -45.8809      1.00000
     34     -45.8799      1.00000
     35     -45.8661      1.00000
     36     -45.8434      1.00000
     37     -21.5819      1.00000
     38     -20.8223      1.00000
     39     -20.4434      1.00000
     40     -20.1269      1.00000
     41     -20.0897      1.00000
     42     -20.0195      1.00000
     43     -19.9059      1.00000
     44     -19.7252      1.00000
     45     -19.5777      1.00000
     46     -19.5467      1.00000
     47     -19.5084      1.00000
     48     -19.4208      1.00000
     49     -19.3528      1.00000
     50     -19.2425      1.00000
     51     -19.1750      1.00000
     52     -19.1327      1.00000
     53     -19.0450      1.00000
     54     -18.9927      1.00000
     55     -18.6037      1.00000
     56     -18.5991      1.00000
     57      -9.6488      1.00000
     58      -8.5446      1.00000
     59      -8.5291      1.00000
     60      -8.1810      1.00000
     61      -8.1038      1.00000
     62      -8.0593      1.00000
     63      -7.7338      1.00000
     64      -7.5662      1.00000
     65      -7.3992      1.00000
     66      -7.2847      1.00000
     67      -7.1877      1.00000
     68      -7.1237      1.00000
     69      -7.0392      1.00000
     70      -7.0159      1.00000
     71      -6.9738      1.00000
     72      -6.8141      1.00000
     73      -6.7473      1.00000
     74      -6.6263      1.00000
     75      -6.5590      1.00000
     76      -6.4934      1.00000
     77      -6.4004      1.00000
     78      -6.3659      1.00000
     79      -6.2801      1.00000
     80      -6.2326      1.00000
     81      -6.1548      1.00000
     82      -6.1002      1.00000
     83      -6.0433      1.00000
     84      -5.9832      1.00000
     85      -5.9347      1.00000
     86      -5.8411      1.00000
     87      -5.7645      1.00000
     88      -5.7176      1.00000
     89      -5.6348      1.00000
     90      -5.5226      1.00000
     91      -5.4378      1.00000
     92      -5.4047      1.00000
     93      -5.3243      1.00000
     94      -5.2398      1.00000
     95      -5.1715      1.00000
     96      -5.0926      1.00000
     97      -4.9842      1.00000
     98      -4.9514      1.00000
     99      -4.8534      1.00000
    100      -4.7512      1.00000
    101      -4.6544      1.00000
    102      -4.6264      1.00000
    103      -4.5932      1.00000
    104      -4.5474      1.00000
    105      -4.4461      1.00000
    106      -4.3718      1.00000
    107      -4.2665      1.00000
    108      -4.2334      1.00000
    109      -4.1591      1.00000
    110      -4.1299      1.00000
    111      -4.0745      1.00000
    112      -4.0299      1.00000
    113      -3.9986      1.00000
    114      -3.9089      1.00000
    115      -3.8773      1.00000
    116      -3.8003      1.00000
    117      -3.7740      1.00000
    118      -3.7368      1.00000
    119      -3.6277      1.00000
    120      -3.5390      1.00000
    121      -3.4747      1.00000
    122      -3.3103      1.00000
    123      -3.0888      1.00000
    124      -2.8735      1.00000
    125      -2.7749      1.00000
    126      -2.5744      1.00000
    127      -2.4759      1.00000
    128      -2.4253      1.00000
    129      -2.3680      1.00000
    130      -0.2384     -0.00000
    131      -0.0623     -0.00000
    132       0.0499     -0.00000
    133       0.4857     -0.00000
    134       0.6444     -0.00000
    135       0.9460     -0.00000
    136       0.9768     -0.00000
    137       1.1810     -0.00000
    138       1.5306     -0.00000
    139       1.6634     -0.00000
    140       1.7731     -0.00000
    141       1.8437     -0.00000
    142       1.9268     -0.00000
    143       1.9467     -0.00000
    144       2.0029     -0.00000
    145       2.0313     -0.00000
    146       2.0569     -0.00000
    147       2.1058     -0.00000
    148       2.1548     -0.00000
    149       2.1945     -0.00000
    150       2.2522     -0.00000
    151       2.3380     -0.00000
    152       2.4092     -0.00000
    153       2.5137     -0.00000
    154       2.5348     -0.00000
    155       2.6128     -0.00000
    156       2.6364     -0.00000
    157       2.7428     -0.00000
    158       2.8531     -0.00000
    159       2.8960     -0.00000
    160       3.0467     -0.00000
    161       3.1238     -0.00000
    162       3.1568     -0.00000
    163       3.1773     -0.00000
    164       3.2202     -0.00000
    165       3.2448     -0.00000
    166       3.2790     -0.00000
    167       3.3079     -0.00000
    168       3.3487     -0.00000
    169       3.3674     -0.00000
    170       3.4089     -0.00000
    171       3.4295     -0.00000
    172       3.4583     -0.00000
    173       3.5140     -0.00000
    174       3.5972     -0.00000
    175       3.6297     -0.00000
    176       3.7467     -0.00000
    177       3.8313     -0.00000
    178       3.9056      0.00000

 k-point     8 :       0.0000    0.5000   -0.0000
  band No.  band energies     occupation 
      1     -51.9923      1.00000
      2     -51.9631      1.00000
      3     -51.8868      1.00000
      4     -51.8647      1.00000
      5     -51.8292      1.00000
      6     -51.8067      1.00000
      7     -51.6744      1.00000
      8     -51.5910      1.00000
      9     -51.5567      1.00000
     10     -50.4230      1.00000
     11     -49.9006      1.00000
     12     -49.1197      1.00000
     13     -48.0472      1.00000
     14     -48.0464      1.00000
     15     -47.9993      1.00000
     16     -47.9692      1.00000
     17     -47.9309      1.00000
     18     -47.8818      1.00000
     19     -47.8288      1.00000
     20     -47.7324      1.00000
     21     -47.2274      1.00000
     22     -47.1313      1.00000
     23     -47.0477      1.00000
     24     -46.9798      1.00000
     25     -46.3038      1.00000
     26     -46.1813      1.00000
     27     -46.1338      1.00000
     28     -45.9262      1.00000
     29     -45.9118      1.00000
     30     -45.9032      1.00000
     31     -45.8953      1.00000
     32     -45.8830      1.00000
     33     -45.8809      1.00000
     34     -45.8799      1.00000
     35     -45.8661      1.00000
     36     -45.8434      1.00000
     37     -21.5780      1.00000
     38     -20.7971      1.00000
     39     -20.3979      1.00000
     40     -20.1447      1.00000
     41     -20.1102      1.00000
     42     -20.0321      1.00000
     43     -19.8266      1.00000
     44     -19.6552      1.00000
     45     -19.6167      1.00000
     46     -19.5513      1.00000
     47     -19.5233      1.00000
     48     -19.4838      1.00000
     49     -19.3245      1.00000
     50     -19.2506      1.00000
     51     -19.1638      1.00000
     52     -19.1500      1.00000
     53     -19.0848      1.00000
     54     -19.0206      1.00000
     55     -18.6233      1.00000
     56     -18.6201      1.00000
     57      -9.6431      1.00000
     58      -8.4598      1.00000
     59      -8.4075      1.00000
     60      -8.2746      1.00000
     61      -8.1237      1.00000
     62      -8.0897      1.00000
     63      -7.6086      1.00000
     64      -7.5103      1.00000
     65      -7.3702      1.00000
     66      -7.1760      1.00000
     67      -7.0876      1.00000
     68      -7.0760      1.00000
     69      -7.0418      1.00000
     70      -6.9368      1.00000
     71      -6.8836      1.00000
     72      -6.8320      1.00000
     73      -6.7092      1.00000
     74      -6.5810      1.00000
     75      -6.5502      1.00000
     76      -6.4694      1.00000
     77      -6.4523      1.00000
     78      -6.4085      1.00000
     79      -6.3454      1.00000
     80      -6.2598      1.00000
     81      -6.1295      1.00000
     82      -6.1106      1.00000
     83      -6.0591      1.00000
     84      -6.0374      1.00000
     85      -5.9635      1.00000
     86      -5.9554      1.00000
     87      -5.8103      1.00000
     88      -5.6840      1.00000
     89      -5.6455      1.00000
     90      -5.5564      1.00000
     91      -5.4499      1.00000
     92      -5.3828      1.00000
     93      -5.3489      1.00000
     94      -5.2730      1.00000
     95      -5.1391      1.00000
     96      -5.0173      1.00000
     97      -4.9735      1.00000
     98      -4.9400      1.00000
     99      -4.8171      1.00000
    100      -4.7939      1.00000
    101      -4.7633      1.00000
    102      -4.6848      1.00000
    103      -4.6119      1.00000
    104      -4.5804      1.00000
    105      -4.5554      1.00000
    106      -4.5160      1.00000
    107      -4.3547      1.00000
    108      -4.2597      1.00000
    109      -4.2170      1.00000
    110      -4.1196      1.00000
    111      -4.0807      1.00000
    112      -4.0206      1.00000
    113      -3.9586      1.00000
    114      -3.9033      1.00000
    115      -3.8714      1.00000
    116      -3.8237      1.00000
    117      -3.7619      1.00000
    118      -3.7075      1.00000
    119      -3.6038      1.00000
    120      -3.4453      1.00000
    121      -3.3726      1.00000
    122      -3.3302      1.00000
    123      -3.2046      1.00000
    124      -3.0796      1.00000
    125      -2.8085      1.00000
    126      -2.4582      1.00000
    127      -2.4165      1.00000
    128      -2.3622      1.00000
    129      -2.1753      1.00028
    130      -0.3987     -0.00000
    131      -0.2905     -0.00000
    132      -0.0472     -0.00000
    133       0.4502     -0.00000
    134       0.7457     -0.00000
    135       0.9270     -0.00000
    136       1.1069     -0.00000
    137       1.1516     -0.00000
    138       1.3305     -0.00000
    139       1.6943     -0.00000
    140       1.7976     -0.00000
    141       1.8574     -0.00000
    142       1.8824     -0.00000
    143       1.9423     -0.00000
    144       1.9548     -0.00000
    145       2.0185     -0.00000
    146       2.0415     -0.00000
    147       2.0787     -0.00000
    148       2.1171     -0.00000
    149       2.1513     -0.00000
    150       2.2530     -0.00000
    151       2.2885     -0.00000
    152       2.3430     -0.00000
    153       2.4028     -0.00000
    154       2.4508     -0.00000
    155       2.5700     -0.00000
    156       2.6967     -0.00000
    157       2.7272     -0.00000
    158       2.9275     -0.00000
    159       3.0253     -0.00000
    160       3.0409     -0.00000
    161       3.0980     -0.00000
    162       3.1092     -0.00000
    163       3.1833     -0.00000
    164       3.2087     -0.00000
    165       3.2680     -0.00000
    166       3.2831     -0.00000
    167       3.3205     -0.00000
    168       3.3646     -0.00000
    169       3.4103     -0.00000
    170       3.4689     -0.00000
    171       3.5033     -0.00000
    172       3.5315     -0.00000
    173       3.5697     -0.00000
    174       3.6298     -0.00000
    175       3.7058     -0.00000
    176       3.7328     -0.00000
    177       3.8559      0.00000
    178       3.9818      0.00000

 k-point     9 :       0.2500    0.5000   -0.0000
  band No.  band energies     occupation 
      1     -51.9923      1.00000
      2     -51.9627      1.00000
      3     -51.8868      1.00000
      4     -51.8647      1.00000
      5     -51.8292      1.00000
      6     -51.8067      1.00000
      7     -51.6742      1.00000
      8     -51.5917      1.00000
      9     -51.5568      1.00000
     10     -50.4230      1.00000
     11     -49.9006      1.00000
     12     -49.1196      1.00000
     13     -48.0472      1.00000
     14     -48.0464      1.00000
     15     -47.9993      1.00000
     16     -47.9692      1.00000
     17     -47.9309      1.00000
     18     -47.8818      1.00000
     19     -47.8288      1.00000
     20     -47.7325      1.00000
     21     -47.2274      1.00000
     22     -47.1312      1.00000
     23     -47.0477      1.00000
     24     -46.9799      1.00000
     25     -46.3038      1.00000
     26     -46.1813      1.00000
     27     -46.1338      1.00000
     28     -45.9262      1.00000
     29     -45.9118      1.00000
     30     -45.9032      1.00000
     31     -45.8953      1.00000
     32     -45.8830      1.00000
     33     -45.8809      1.00000
     34     -45.8799      1.00000
     35     -45.8661      1.00000
     36     -45.8434      1.00000
     37     -21.5807      1.00000
     38     -20.7927      1.00000
     39     -20.3989      1.00000
     40     -20.1455      1.00000
     41     -20.1037      1.00000
     42     -20.0421      1.00000
     43     -19.8108      1.00000
     44     -19.6639      1.00000
     45     -19.6437      1.00000
     46     -19.5325      1.00000
     47     -19.5115      1.00000
     48     -19.4744      1.00000
     49     -19.3335      1.00000
     50     -19.2400      1.00000
     51     -19.1917      1.00000
     52     -19.1548      1.00000
     53     -19.0814      1.00000
     54     -19.0135      1.00000
     55     -18.6203      1.00000
     56     -18.6192      1.00000
     57      -9.6482      1.00000
     58      -8.4585      1.00000
     59      -8.4321      1.00000
     60      -8.2710      1.00000
     61      -8.1291      1.00000
     62      -8.0015      1.00000
     63      -7.6213      1.00000
     64      -7.4844      1.00000
     65      -7.3424      1.00000
     66      -7.1650      1.00000
     67      -7.0965      1.00000
     68      -7.0752      1.00000
     69      -7.0060      1.00000
     70      -6.9735      1.00000
     71      -6.8837      1.00000
     72      -6.7768      1.00000
     73      -6.7408      1.00000
     74      -6.7004      1.00000
     75      -6.6544      1.00000
     76      -6.6081      1.00000
     77      -6.4998      1.00000
     78      -6.4352      1.00000
     79      -6.3478      1.00000
     80      -6.3149      1.00000
     81      -6.1661      1.00000
     82      -6.0565      1.00000
     83      -6.0031      1.00000
     84      -5.9627      1.00000
     85      -5.9202      1.00000
     86      -5.7773      1.00000
     87      -5.7234      1.00000
     88      -5.6416      1.00000
     89      -5.6006      1.00000
     90      -5.4898      1.00000
     91      -5.4426      1.00000
     92      -5.3972      1.00000
     93      -5.3461      1.00000
     94      -5.2730      1.00000
     95      -5.2360      1.00000
     96      -5.1219      1.00000
     97      -5.0446      1.00000
     98      -5.0074      1.00000
     99      -4.9155      1.00000
    100      -4.8580      1.00000
    101      -4.7098      1.00000
    102      -4.6747      1.00000
    103      -4.6128      1.00000
    104      -4.5450      1.00000
    105      -4.4528      1.00000
    106      -4.4088      1.00000
    107      -4.3374      1.00000
    108      -4.2439      1.00000
    109      -4.1969      1.00000
    110      -4.1614      1.00000
    111      -4.0821      1.00000
    112      -4.0026      1.00000
    113      -3.9607      1.00000
    114      -3.9019      1.00000
    115      -3.8737      1.00000
    116      -3.7865      1.00000
    117      -3.7587      1.00000
    118      -3.7089      1.00000
    119      -3.6571      1.00000
    120      -3.5232      1.00000
    121      -3.4046      1.00000
    122      -3.3030      1.00000
    123      -3.1713      1.00000
    124      -3.0545      1.00000
    125      -2.8257      1.00000
    126      -2.4417      1.00000
    127      -2.3883      1.00000
    128      -2.3210      1.00000
    129      -2.2472      1.00004
    130      -0.4432     -0.00000
    131      -0.3393     -0.00000
    132      -0.0862     -0.00000
    133       0.4969     -0.00000
    134       0.7390     -0.00000
    135       0.9679     -0.00000
    136       1.0503     -0.00000
    137       1.1372     -0.00000
    138       1.4069     -0.00000
    139       1.6960     -0.00000
    140       1.8448     -0.00000
    141       1.8645     -0.00000
    142       1.9153     -0.00000
    143       1.9561     -0.00000
    144       1.9810     -0.00000
    145       2.0005     -0.00000
    146       2.0635     -0.00000
    147       2.1013     -0.00000
    148       2.1200     -0.00000
    149       2.1821     -0.00000
    150       2.2453     -0.00000
    151       2.2791     -0.00000
    152       2.3408     -0.00000
    153       2.4141     -0.00000
    154       2.4659     -0.00000
    155       2.5176     -0.00000
    156       2.6240     -0.00000
    157       2.7435     -0.00000
    158       2.8264     -0.00000
    159       2.9131     -0.00000
    160       3.0424     -0.00000
    161       3.0924     -0.00000
    162       3.1564     -0.00000
    163       3.2127     -0.00000
    164       3.2432     -0.00000
    165       3.2599     -0.00000
    166       3.3002     -0.00000
    167       3.3061     -0.00000
    168       3.3755     -0.00000
    169       3.4002     -0.00000
    170       3.4287     -0.00000
    171       3.4552     -0.00000
    172       3.5043     -0.00000
    173       3.5258     -0.00000
    174       3.5803     -0.00000
    175       3.7386     -0.00000
    176       3.8176     -0.00000
    177       3.8717      0.00000
    178       3.9450      0.00000

 k-point    10 :       0.5000    0.5000   -0.0000
  band No.  band energies     occupation 
      1     -51.9922      1.00000
      2     -51.9624      1.00000
      3     -51.8868      1.00000
      4     -51.8646      1.00000
      5     -51.8291      1.00000
      6     -51.8067      1.00000
      7     -51.6741      1.00000
      8     -51.5923      1.00000
      9     -51.5568      1.00000
     10     -50.4230      1.00000
     11     -49.9006      1.00000
     12     -49.1195      1.00000
     13     -48.0472      1.00000
     14     -48.0464      1.00000
     15     -47.9993      1.00000
     16     -47.9692      1.00000
     17     -47.9309      1.00000
     18     -47.8818      1.00000
     19     -47.8288      1.00000
     20     -47.7325      1.00000
     21     -47.2274      1.00000
     22     -47.1312      1.00000
     23     -47.0477      1.00000
     24     -46.9799      1.00000
     25     -46.3038      1.00000
     26     -46.1813      1.00000
     27     -46.1338      1.00000
     28     -45.9261      1.00000
     29     -45.9118      1.00000
     30     -45.9031      1.00000
     31     -45.8953      1.00000
     32     -45.8830      1.00000
     33     -45.8809      1.00000
     34     -45.8799      1.00000
     35     -45.8660      1.00000
     36     -45.8434      1.00000
     37     -21.5831      1.00000
     38     -20.7883      1.00000
     39     -20.3980      1.00000
     40     -20.1464      1.00000
     41     -20.0926      1.00000
     42     -20.0462      1.00000
     43     -19.8543      1.00000
     44     -19.6603      1.00000
     45     -19.5885      1.00000
     46     -19.5244      1.00000
     47     -19.5102      1.00000
     48     -19.4949      1.00000
     49     -19.3343      1.00000
     50     -19.2510      1.00000
     51     -19.1904      1.00000
     52     -19.1463      1.00000
     53     -19.0956      1.00000
     54     -19.0142      1.00000
     55     -18.6206      1.00000
     56     -18.6146      1.00000
     57      -9.6532      1.00000
     58      -8.4592      1.00000
     59      -8.4485      1.00000
     60      -8.2667      1.00000
     61      -8.1418      1.00000
     62      -7.8278      1.00000
     63      -7.6968      1.00000
     64      -7.5446      1.00000
     65      -7.2784      1.00000
     66      -7.1732      1.00000
     67      -7.1347      1.00000
     68      -7.0818      1.00000
     69      -7.0154      1.00000
     70      -6.9910      1.00000
     71      -6.8896      1.00000
     72      -6.8727      1.00000
     73      -6.7688      1.00000
     74      -6.7303      1.00000
     75      -6.6630      1.00000
     76      -6.5686      1.00000
     77      -6.5078      1.00000
     78      -6.3742      1.00000
     79      -6.2878      1.00000
     80      -6.1839      1.00000
     81      -6.1084      1.00000
     82      -6.0442      1.00000
     83      -5.9981      1.00000
     84      -5.9549      1.00000
     85      -5.9202      1.00000
     86      -5.8602      1.00000
     87      -5.7559      1.00000
     88      -5.6646      1.00000
     89      -5.6609      1.00000
     90      -5.5691      1.00000
     91      -5.4390      1.00000
     92      -5.4334      1.00000
     93      -5.3691      1.00000
     94      -5.2695      1.00000
     95      -5.1971      1.00000
     96      -5.1379      1.00000
     97      -5.0919      1.00000
     98      -5.0215      1.00000
     99      -4.8761      1.00000
    100      -4.7914      1.00000
    101      -4.7661      1.00000
    102      -4.7040      1.00000
    103      -4.5873      1.00000
    104      -4.5745      1.00000
    105      -4.3814      1.00000
    106      -4.3695      1.00000
    107      -4.3231      1.00000
    108      -4.2900      1.00000
    109      -4.2311      1.00000
    110      -4.1505      1.00000
    111      -4.0368      1.00000
    112      -3.9880      1.00000
    113      -3.9469      1.00000
    114      -3.9124      1.00000
    115      -3.8154      1.00000
    116      -3.8126      1.00000
    117      -3.6808      1.00000
    118      -3.6570      1.00000
    119      -3.6228      1.00000
    120      -3.4481      1.00000
    121      -3.3471      1.00000
    122      -3.3197      1.00000
    123      -3.2591      1.00000
    124      -3.0294      1.00000
    125      -2.8689      1.00000
    126      -2.5189      1.00000
    127      -2.4944      1.00000
    128      -2.3011      1.00001
    129      -2.2867      1.00001
    130      -0.4249     -0.00000
    131      -0.3773     -0.00000
    132      -0.1177     -0.00000
    133       0.5369     -0.00000
    134       0.7298     -0.00000
    135       0.9205     -0.00000
    136       1.1066     -0.00000
    137       1.2362     -0.00000
    138       1.3321     -0.00000
    139       1.6984     -0.00000
    140       1.8321     -0.00000
    141       1.8926     -0.00000
    142       1.9493     -0.00000
    143       1.9637     -0.00000
    144       1.9785     -0.00000
    145       2.0214     -0.00000
    146       2.0769     -0.00000
    147       2.1007     -0.00000
    148       2.1492     -0.00000
    149       2.1846     -0.00000
    150       2.2109     -0.00000
    151       2.2663     -0.00000
    152       2.3286     -0.00000
    153       2.3824     -0.00000
    154       2.4513     -0.00000
    155       2.5580     -0.00000
    156       2.6699     -0.00000
    157       2.7235     -0.00000
    158       2.8198     -0.00000
    159       3.0056     -0.00000
    160       3.0498     -0.00000
    161       3.1076     -0.00000
    162       3.1440     -0.00000
    163       3.1853     -0.00000
    164       3.2265     -0.00000
    165       3.2409     -0.00000
    166       3.2736     -0.00000
    167       3.2897     -0.00000
    168       3.3369     -0.00000
    169       3.3925     -0.00000
    170       3.4470     -0.00000
    171       3.4810     -0.00000
    172       3.5027     -0.00000
    173       3.5577     -0.00000
    174       3.5860     -0.00000
    175       3.6946     -0.00000
    176       3.8436      0.00000
    177       3.9589      0.00000
    178       3.9971      0.00000


--------------------------------------------------------------------------------------------------------


 soft charge-density along one line, spin component           1
         0         1         2         3         4         5         6         7         8         9
 total charge-density along one line
 
 soft charge-density along one line, spin component           2
         0         1         2         3         4         5         6         7         8         9
 total charge-density along one line
 
 pseudopotential strength for first ion, spin component:           1
-49.547  -0.026  -0.005  11.161   0.012   0.002   0.001  -0.026
 -0.026 -49.368  -0.002   0.012  11.081   0.001   0.000  -0.027
 -0.005  -0.002 -49.593   0.002   0.001  11.177  -0.026   0.000
 11.161   0.012   0.002   4.230  -0.004  -0.001  -0.000   0.007
  0.012  11.081   0.001  -0.004   4.258  -0.000  -0.000   0.008
  0.002   0.001  11.177  -0.001  -0.000   4.225   0.009  -0.000
  0.001   0.000  -0.026  -0.000  -0.000   0.009  -9.253   0.004
 -0.026  -0.027   0.000   0.007   0.008  -0.000   0.004 -10.668
  0.015  -0.031  -0.001  -0.005   0.009   0.000  -0.010  -0.021
  0.000   0.002  -0.030  -0.000  -0.000   0.007   0.138  -0.004
  0.027  -0.002   0.001  -0.007   0.000  -0.000   0.003   0.014
  0.001   0.000  -0.025  -0.000  -0.000   0.009  -9.655   0.004
 -0.025  -0.026   0.000   0.007   0.008  -0.000   0.004 -11.112
  0.015  -0.031  -0.001  -0.005   0.009   0.000  -0.010  -0.021
  0.000   0.002  -0.029  -0.000  -0.000   0.007   0.142  -0.004
  0.027  -0.002   0.001  -0.007   0.000  -0.000   0.004   0.014
  0.010   0.010  -0.001   0.000   0.002  -0.000   0.001   0.006
  0.021   0.020  -0.001   0.001   0.004  -0.000   0.002   0.013
 pseudopotential strength for first ion, spin component:           2
-46.726  -0.051  -0.008   9.863   0.023   0.003   0.001  -0.037
 -0.051 -46.234  -0.001   0.023   9.642   0.000   0.000  -0.037
 -0.008  -0.001 -46.781   0.003   0.000   9.884  -0.029   0.000
  9.863   0.023   0.003   4.668  -0.006  -0.001  -0.000   0.012
  0.023   9.642   0.000  -0.006   4.728  -0.000  -0.000   0.012
  0.003   0.000   9.884  -0.001  -0.000   4.660   0.010  -0.000
  0.001   0.000  -0.029  -0.000  -0.000   0.010  -5.976   0.001
 -0.037  -0.037   0.000   0.012   0.012  -0.000   0.001  -4.759
  0.018  -0.037  -0.000  -0.006   0.011  -0.000   0.005  -0.004
  0.000   0.003  -0.045  -0.000  -0.001   0.014  -0.093  -0.004
  0.038  -0.004   0.002  -0.012   0.001  -0.000  -0.001  -0.011
  0.001   0.000  -0.029  -0.000  -0.000   0.010  -6.376   0.001
 -0.036  -0.036   0.000   0.012   0.012  -0.000   0.001  -5.148
  0.017  -0.036  -0.000  -0.006   0.011   0.000   0.005  -0.003
  0.000   0.002  -0.044  -0.000  -0.001   0.014  -0.093  -0.004
  0.037  -0.004   0.002  -0.012   0.001  -0.000  -0.001  -0.012
  0.014   0.015  -0.001  -0.000   0.001  -0.000   0.002   0.012
  0.028   0.030  -0.001   0.000   0.002  -0.000   0.003   0.024
 total augmentation occupancy for first ion, spin component:           1
  1.989  -0.000  -0.000  -0.045  -0.001  -0.000   0.000   0.002   0.001   0.000   0.003  -0.000   0.000  -0.002  -0.000  -0.005
 -0.000   1.991   0.000  -0.001  -0.039   0.000  -0.000  -0.003  -0.002   0.000  -0.002  -0.000   0.004   0.003  -0.000   0.002
 -0.000   0.000   1.989  -0.000   0.000  -0.045   0.001  -0.000  -0.000  -0.001   0.000  -0.000   0.000   0.000   0.004  -0.000
 -0.045  -0.001  -0.000   0.234   0.012   0.000   0.004   0.020   0.031   0.001  -0.017  -0.003  -0.019  -0.035  -0.001   0.015
 -0.001  -0.039   0.000   0.012   0.102   0.000  -0.003  -0.013  -0.030  -0.003   0.019   0.002   0.018   0.035   0.002  -0.017
 -0.000   0.000  -0.045   0.000   0.000   0.204   0.019  -0.003  -0.007   0.046  -0.003   0.010   0.002   0.006  -0.038   0.002
  0.000  -0.000   0.001   0.004  -0.003   0.019   5.801  -0.027   0.097  -0.325  -0.014  -6.293   0.019  -0.075   0.095   0.010
  0.002  -0.003  -0.000   0.020  -0.013  -0.003  -0.027   5.826   0.111   0.017   0.161   0.018  -3.803  -0.080  -0.015  -0.144
  0.001  -0.002  -0.000   0.031  -0.030  -0.007   0.097   0.111  10.580   0.084   0.734  -0.075  -0.081  -8.555  -0.070  -0.750
  0.000   0.000  -0.001   0.001  -0.003   0.046  -0.325   0.017   0.084   5.460   0.011   0.097  -0.014  -0.069  -3.469  -0.011
  0.003  -0.002   0.000  -0.017   0.019  -0.003  -0.014   0.161   0.734   0.011   6.988   0.009  -0.141  -0.751  -0.011  -4.933
 -0.000  -0.000  -0.000  -0.003   0.002   0.010  -6.293   0.018  -0.075   0.097   0.009   7.528  -0.013   0.059   0.089  -0.006
  0.000   0.004   0.000  -0.019   0.018   0.002   0.019  -3.803  -0.081  -0.014  -0.141  -0.013   2.942   0.054   0.013   0.135
 -0.002   0.003   0.000  -0.035   0.035   0.006  -0.075  -0.080  -8.555  -0.069  -0.751   0.059   0.054   7.740   0.057   0.769
 -0.000  -0.000   0.004  -0.001   0.002  -0.038   0.095  -0.015  -0.070  -3.469  -0.011   0.089   0.013   0.057   2.634   0.010
 -0.005   0.002  -0.000   0.015  -0.017   0.002   0.010  -0.144  -0.750  -0.011  -4.933  -0.006   0.135   0.769   0.010   4.060
 -0.034  -0.045   0.002   0.027   0.007  -0.002   0.004  -0.326   1.667  -0.006   0.330  -0.005   0.320  -1.634   0.001  -0.375
  0.018   0.023  -0.001  -0.000  -0.003   0.000  -0.001   0.022  -0.155   0.003   0.021   0.002  -0.026   0.161  -0.001   0.012
 total augmentation occupancy for first ion, spin component:           2
 -0.003  -0.000   0.000  -0.010   0.000   0.000  -0.000  -0.004   0.002  -0.000   0.005   0.000   0.003  -0.001   0.000  -0.004
 -0.000  -0.002   0.000  -0.000  -0.010   0.000  -0.000  -0.005  -0.004   0.000  -0.001   0.000   0.004   0.003   0.000   0.001
  0.000   0.000  -0.003   0.000   0.000  -0.009  -0.000  -0.000  -0.000  -0.006   0.000   0.000   0.000   0.000   0.005  -0.000
 -0.010  -0.000   0.000   0.021   0.001  -0.000   0.002   0.020   0.016  -0.001  -0.022  -0.002  -0.011  -0.009   0.001   0.009
  0.000  -0.010   0.000   0.001   0.015   0.000  -0.004   0.006  -0.011  -0.007   0.014   0.003  -0.001   0.009   0.007  -0.009
  0.000   0.000  -0.009  -0.000   0.000   0.019   0.036  -0.005  -0.007   0.041  -0.004  -0.031   0.005   0.005  -0.023   0.003
 -0.000  -0.000  -0.000   0.002  -0.004   0.036  -0.078  -0.027   0.102  -0.587  -0.014   0.814   0.018  -0.082   0.426   0.010
 -0.004  -0.005  -0.000   0.020   0.006  -0.005  -0.027   4.921   0.143   0.018   0.191   0.016  -2.669  -0.116  -0.016  -0.150
  0.002  -0.004  -0.000   0.016  -0.011  -0.007   0.102   0.143   7.361   0.086   0.348  -0.080  -0.116  -4.690  -0.074  -0.299
 -0.000   0.000  -0.006  -0.001  -0.007   0.041  -0.587   0.018   0.086   4.671   0.009   0.424  -0.016  -0.074  -2.463  -0.009
  0.005  -0.001   0.000  -0.022   0.014  -0.004  -0.014   0.191   0.348   0.009   5.629   0.009  -0.150  -0.302  -0.009  -3.240
  0.000   0.000   0.000  -0.002   0.003  -0.031   0.814   0.016  -0.080   0.424   0.009  -1.156  -0.009   0.063  -0.325  -0.006
  0.003   0.004   0.000  -0.011  -0.001   0.005   0.018  -2.669  -0.116  -0.016  -0.150  -0.009   1.515   0.093   0.015   0.106
 -0.001   0.003   0.000  -0.009   0.009   0.005  -0.082  -0.116  -4.690  -0.074  -0.302   0.063   0.093   3.063   0.065   0.244
  0.000   0.000   0.005   0.001   0.007  -0.023   0.426  -0.016  -0.074  -2.463  -0.009  -0.325   0.015   0.065   1.345   0.009
 -0.004   0.001  -0.000   0.009  -0.009   0.003   0.010  -0.150  -0.299  -0.009  -3.240  -0.006   0.106   0.244   0.009   1.940
  0.003   0.003  -0.000  -0.002  -0.001  -0.001   0.001  -0.083   0.474  -0.013   0.026  -0.003   0.041  -0.296   0.012  -0.024
 -0.001  -0.002   0.000   0.001   0.000  -0.000   0.002  -0.016   0.018   0.003   0.074  -0.001   0.016  -0.022  -0.002  -0.049


------------------------ aborting loop because EDIFF is reached ----------------------------------------


 


 total charge     
 
# of ion       s       p       d       tot
------------------------------------------
    1        0.280   6.311   4.810  11.401
    2        0.285   6.311   4.823  11.418
    3        0.291   6.325   4.828  11.444
    4        0.286   6.318   4.786  11.390
    5        0.292   6.326   4.839  11.457
    6        0.289   6.325   4.857  11.470
    7        0.291   6.325   4.816  11.431
    8        0.300   6.356   5.197  11.853
    9        0.246   6.240   4.877  11.362
   10        0.223   6.204   4.920  11.346
   11        0.231   6.218   4.935  11.383
   12        0.248   6.243   4.931  11.422
   13        1.579   3.430   0.000   5.009
   14        1.562   3.412   0.000   4.974
   15        1.559   3.467   0.000   5.026
   16        1.559   3.488   0.000   5.046
   17        1.561   3.484   0.000   5.045
   18        1.561   3.482   0.000   5.042
   19        1.558   3.468   0.000   5.027
   20        1.551   3.597   0.000   5.148
   21        1.567   3.244   0.000   4.812
   22        1.559   3.458   0.000   5.017
   23        1.559   3.483   0.000   5.042
   24        1.559   3.481   0.000   5.040
   25        1.559   3.472   0.000   5.031
   26        1.564   3.535   0.000   5.098
   27        1.552   3.483   0.000   5.035
   28        1.558   3.544   0.000   5.102
   29        1.559   3.471   0.000   5.030
   30        1.552   3.478   0.000   5.029
   31        1.558   3.464   0.000   5.022
   32        1.561   3.482   0.000   5.043
   33        0.495   0.055   0.000   0.549
   34        0.500   0.056   0.000   0.557
   35        0.493   0.055   0.000   0.548
   36        0.506   0.055   0.000   0.560
   37        0.613   0.122   0.000   0.735
   38        0.615   0.119   0.000   0.734
   39        0.598   0.119   0.000   0.716
--------------------------------------------------
tot         38.275 145.502  58.617 242.394
 


 magnetization (x)
 
# of ion       s       p       d       tot
------------------------------------------
    1        0.032   0.032   3.888   3.952
    2        0.033   0.032   3.875   3.939
    3       -0.025  -0.024  -3.733  -3.783
    4       -0.027  -0.027  -3.811  -3.864
    5        0.033   0.034   3.850   3.917
    6        0.032   0.033   3.827   3.892
    7       -0.026  -0.025  -3.741  -3.791
    8        0.010   0.014   1.864   1.888
    9        0.027   0.049   4.297   4.372
   10        0.031   0.047   4.482   4.560
   11        0.028   0.048   4.457   4.532
   12        0.028   0.051   4.392   4.471
   13        0.001  -0.006   0.000  -0.005
   14        0.009  -0.057   0.000  -0.048
   15        0.008   0.031   0.000   0.039
   16       -0.002  -0.021   0.000  -0.023
   17       -0.002  -0.027   0.000  -0.029
   18        0.008   0.013   0.000   0.021
   19        0.007   0.028   0.000   0.034
   20       -0.005  -0.019   0.000  -0.024
   21        0.001  -0.303   0.000  -0.302
   22       -0.001  -0.025   0.000  -0.027
   23        0.007   0.015   0.000   0.022
   24        0.007   0.021   0.000   0.028
   25        0.008   0.036   0.000   0.044
   26        0.002   0.036   0.000   0.039
   27        0.004  -0.029   0.000  -0.025
   28        0.006   0.069   0.000   0.075
   29       -0.002  -0.022   0.000  -0.024
   30        0.004  -0.041   0.000  -0.038
   31        0.004   0.002   0.000   0.006
   32       -0.002  -0.041   0.000  -0.042
   33        0.009   0.000   0.000   0.009
   34        0.010  -0.002   0.000   0.008
   35        0.009   0.000   0.000   0.009
   36        0.010   0.000   0.000   0.010
   37       -0.000  -0.000   0.000  -0.000
   38       -0.002   0.001   0.000  -0.001
   39       -0.002   0.001   0.000  -0.001
--------------------------------------------------
tot          0.270  -0.076  23.647  23.840
 
    CHARGE:  cpu time    3.0396: real time    3.0495
    FORLOC:  cpu time    0.0759: real time    0.0761
    FORNL :  cpu time   10.5939: real time   10.6045
    FORCOR:  cpu time    0.5528: real time    0.5774
    FORHAR:  cpu time    0.0982: real time    0.0988
    MIXING:  cpu time    0.0306: real time    0.0306
    OFIELD:  cpu time    0.0001: real time    0.0001

 VOLUME and BASIS-vectors are now :
 -----------------------------------------------------------------------------
  energy-cutoff  :      520.00
  volume of cell :     1228.02
      direct lattice vectors                 reciprocal lattice vectors
     2.873573495 -2.873573495  4.708335110     0.000000000 -0.094445153  0.154747888
     5.747146990  0.000000000  0.000000000     0.173999378  0.047222576 -0.077373944
     0.000000000 33.065691007 20.180529009     0.000000000  0.022035073  0.013448363

  length of vectors
     6.219587508  5.747146990 38.737496987     0.181292017  0.196195011  0.025814781


 FORCES acting on ions
    electron-ion (+dipol)            ewald-force                    non-local-force                 convergence-correction
 -----------------------------------------------------------------------------------------------
   -.389E+01 0.427E+04 0.262E+04   0.375E+01 -.426E+04 -.261E+04   -.243E-01 0.569E+00 0.179E+01   0.319E+00 -.830E+01 -.525E+01
   -.600E+01 -.141E+04 -.852E+03   0.481E+01 0.143E+04 0.867E+03   -.590E+00 -.396E+00 -.332E+00   0.171E+01 -.190E+02 -.147E+02
   0.141E+01 0.141E+04 0.866E+03   -.136E+01 -.140E+04 -.856E+03   -.306E-01 -.554E+00 -.299E+00   0.537E-01 -.169E+02 -.101E+02
   -.229E+02 -.422E+04 -.255E+04   0.225E+02 0.423E+04 0.255E+04   0.580E+00 -.120E+01 0.468E+00   -.148E+00 -.841E+01 -.457E+01
   -.402E+01 0.141E+04 0.868E+03   0.368E+01 -.139E+04 -.857E+03   0.119E+00 -.278E+00 -.668E+00   0.195E+00 -.163E+02 -.989E+01
   0.421E+02 -.427E+04 -.260E+04   -.366E+02 0.427E+04 0.260E+04   -.308E+01 -.323E+00 -.981E+00   -.253E+01 -.843E+01 -.432E+01
   0.367E+01 0.141E+04 0.864E+03   -.321E+01 -.139E+04 -.853E+03   -.176E+00 -.490E+00 -.530E+00   -.199E+00 -.163E+02 -.999E+01
   -.343E+02 -.420E+04 -.256E+04   0.297E+02 0.421E+04 0.257E+04   0.372E+01 -.432E+00 -.127E+01   0.101E+01 -.864E+01 -.497E+01
   0.500E+01 0.356E+04 0.217E+04   -.435E+01 -.355E+04 -.217E+04   -.770E+00 0.221E+01 0.116E+01   0.117E+00 -.146E+02 -.987E+01
   -.100E+02 -.211E+04 -.129E+04   0.826E+01 0.213E+04 0.130E+04   0.154E+01 -.667E+00 -.964E+00   0.220E+00 -.188E+02 -.978E+01
   0.458E+01 -.732E+03 -.452E+03   -.336E+01 0.752E+03 0.464E+03   -.203E+00 0.666E+00 0.628E+00   -.100E+01 -.215E+02 -.124E+02
   -.336E+01 0.475E+04 0.286E+04   0.347E+01 -.474E+04 -.285E+04   0.254E+00 0.167E+01 -.243E+00   -.373E+00 -.630E+01 -.315E+01
   0.215E+02 -.271E+04 -.140E+04   -.167E+02 0.272E+04 0.140E+04   0.104E+01 -.238E+02 0.836E+00   -.542E+01 0.380E+01 -.163E+01
   -.110E+02 0.249E+04 0.148E+04   0.128E+02 -.247E+04 -.146E+04   -.207E+01 -.190E+02 -.179E+02   -.208E-01 -.132E+01 -.793E+00
   0.195E+01 -.126E+03 0.531E+02   -.110E+01 0.144E+03 -.445E+02   -.373E+00 -.922E+01 -.349E+01   -.567E+00 -.927E+01 -.504E+01
   0.665E+00 0.138E+04 0.768E+03   -.115E+00 -.138E+04 -.761E+03   0.100E-01 0.914E+01 -.302E+01   -.584E+00 -.561E+01 -.358E+01
   0.978E+01 -.119E+04 -.799E+03   -.526E+01 0.119E+04 0.804E+03   0.260E+00 0.101E+02 -.231E+01   -.456E+01 -.114E+02 -.254E+01
   0.163E+03 0.128E+04 0.819E+03   -.172E+03 -.128E+04 -.812E+03   0.941E+01 0.373E+00 -.260E+01   0.185E-01 -.597E+01 -.419E+01
   -.167E+03 -.131E+04 -.764E+03   0.177E+03 0.131E+04 0.773E+03   -.916E+01 -.653E-01 -.358E+01   -.666E+00 -.625E+01 -.507E+01
   -.124E+02 -.260E+04 -.153E+04   0.816E+01 0.258E+04 0.152E+04   -.282E+00 0.163E+02 0.179E+02   0.431E+01 0.322E+01 -.220E+01
   0.290E+02 0.252E+04 0.156E+04   -.508E+02 -.250E+04 -.157E+04   0.240E+02 -.115E+02 0.782E+01   0.765E-01 -.133E+01 -.471E+00
   0.157E+01 -.941E+02 0.244E+01   -.243E+01 0.113E+03 0.925E+00   0.320E+00 -.101E+02 0.173E+01   0.570E+00 -.923E+01 -.515E+01
   -.825E+00 0.143E+04 0.740E+03   0.905E-01 -.143E+04 -.739E+03   0.173E+00 0.925E+01 0.255E+01   0.563E+00 -.626E+01 -.344E+01
   -.122E+02 -.119E+04 -.871E+03   0.775E+01 0.120E+04 0.872E+03   -.521E+00 0.758E+01 0.255E+01   0.477E+01 -.108E+02 -.379E+01
   -.162E+03 0.308E+02 -.137E+02   0.171E+03 -.217E+02 0.159E+02   -.894E+01 -.306E+00 0.336E+01   -.343E+00 -.885E+01 -.553E+01
   -.180E+03 -.244E+04 -.161E+04   0.206E+03 0.242E+04 0.160E+04   -.253E+02 0.228E+02 0.448E+00   -.590E+00 -.268E+01 0.533E+01
   0.197E+02 0.251E+04 0.153E+04   -.209E+02 -.250E+04 -.152E+04   0.372E-01 -.172E+02 -.119E+02   0.208E+00 -.124E+01 -.897E+00
   0.139E+03 -.254E+04 -.159E+04   -.120E+03 0.256E+04 0.158E+04   -.198E+02 -.210E+02 0.972E+01   0.471E+00 -.175E+01 0.283E+00
   0.160E+03 0.152E+02 -.181E+02   -.169E+03 -.542E+01 0.207E+02   0.875E+01 -.552E+00 0.354E+01   0.380E+00 -.924E+01 -.620E+01
   -.200E+02 0.251E+04 0.154E+04   0.208E+02 -.249E+04 -.153E+04   0.430E+00 -.178E+02 -.107E+02   -.153E+00 -.129E+01 -.790E+00
   0.168E+03 -.134E+04 -.757E+03   -.178E+03 0.135E+04 0.768E+03   0.875E+01 -.230E+00 -.102E+01   0.123E+01 -.562E+01 -.975E+01
   -.163E+03 0.129E+04 0.820E+03   0.173E+03 -.128E+04 -.813E+03   -.930E+01 0.242E+00 -.272E+01   0.764E-01 -.605E+01 -.385E+01
   0.871E+00 0.493E+03 0.303E+03   -.415E+00 -.494E+03 -.303E+03   0.106E+00 0.420E+01 0.266E+01   -.217E-02 0.156E+00 0.782E-01
   -.305E+02 0.470E+03 0.269E+03   0.324E+02 -.471E+03 -.269E+03   -.369E+01 0.321E+01 0.131E+00   -.749E+00 0.675E+00 0.145E-01
   -.205E+01 0.493E+03 0.303E+03   0.162E+01 -.493E+03 -.304E+03   -.233E+00 0.422E+01 0.263E+01   0.535E-02 0.180E+00 0.930E-01
   -.105E+01 0.493E+03 0.296E+03   0.140E+01 -.494E+03 -.297E+03   0.569E-02 0.430E+01 0.234E+01   0.295E-03 0.217E+00 0.122E+00
   -.103E+01 -.517E+03 -.315E+03   0.687E+00 0.523E+03 0.319E+03   0.156E-01 -.705E+01 -.451E+01   0.264E+00 0.524E+00 0.600E-01
   0.193E+02 -.510E+03 -.302E+03   -.227E+02 0.517E+03 0.303E+03   0.358E+01 -.702E+01 -.214E+01   -.122E+00 0.741E-01 0.664E+00
   0.727E+02 -.395E+03 -.289E+03   -.798E+02 0.393E+03 0.293E+03   0.690E+01 0.175E+01 -.376E+01   0.170E+00 -.516E-01 -.176E+00
 -----------------------------------------------------------------------------------------------
   0.158E+02 0.310E+03 0.170E+03   0.213E-12 -.318E-11 -.455E-12   -.146E+02 -.505E+02 -.127E+02   -.128E+01 -.259E+03 -.157E+03
 
 
 POSITION                                       TOTAL-FORCE (eV/Angst)
 -----------------------------------------------------------------------------------
      5.76288      2.30925      2.83538         0.157005     -1.525557     -1.441472
      2.91678      5.25936      7.60958        -0.069524     -0.044357     -0.059376
      2.88931      2.30925      7.54371         0.076424      0.839281      0.137029
      2.91979      8.21684      7.58044        -0.003157     -0.308109     -0.099533
      4.32610      3.74603      5.18954        -0.023555      0.698751      0.304120
      4.41534      6.81422     10.00695        -0.128784      0.032308     -0.015413
      1.45252      3.74603      5.18954         0.082787      0.650092      0.286602
      7.18331      6.79947      9.94557         0.180637      0.050703     -0.178149
      5.76288      0.87246      6.36663        -0.009760     -1.231791     -0.812112
      5.80494      6.74769      6.39738        -0.014936     -0.073724      0.000043
      5.77571      3.82848      8.76761         0.014729     -0.025352      0.001111
      2.88931      0.87246      4.01246        -0.002070     -0.394161      0.314726
      5.82044      8.03056      9.93583         0.462300     -0.397234      0.058703
      2.88931     -0.69884      5.25540        -0.313888     -3.547934     -1.962103
      2.88682      5.07165      5.29718        -0.090493     -0.111152      0.031229
      2.88931      2.44376      5.25540        -0.023715      0.064312      0.268095
      2.91877      8.29484      5.33245         0.223375      0.272942     -0.008934
      4.46061      3.74603      2.90123         0.074327      0.007885      0.372875
      4.19532      6.73033      7.64662        -0.078497      0.023076      0.114368
      2.93982      8.16624      9.80678        -0.217939     -0.238267      0.096016
      5.76288     -0.69884      5.12368         2.247425     -1.934532     -0.094041
      5.76656      5.08233      5.13126         0.032143     -0.104657     -0.058693
      5.76288      2.44376      5.12368         0.002317      0.007916     -0.390447
      0.05962      8.37812      5.15321        -0.212600      0.339958      0.027428
      4.19682      3.76949      7.47258        -0.091660     -0.098352     -0.036133
      4.32875      9.59810      7.34113         0.016609      0.275710     -0.475038
      4.46061      0.87246      2.76952        -1.008858     -3.609873     -2.135353
      1.59493      9.60030      7.50865        -0.060491      0.111291     -0.048700
      7.35695      3.78765      7.48371         0.086280     -0.038090     -0.002901
      1.31801      0.87246      2.76952         1.116698     -3.652112     -1.921469
      7.35808      6.72936      7.77483        -0.021393     -0.073216      0.453452
      1.31801      3.74603      2.90123        -0.037959      0.085139      0.272003
      4.44914     -0.05819      2.16465         0.560016      3.771975      2.295635
      6.59433     -1.43378      5.09818        -2.537084      2.700390      0.425097
      1.35527     -0.06710      2.17965        -0.656781      3.904410      2.084421
      2.87242     -1.67143      4.72073         0.355821      3.614927      2.148871
      2.93620      8.98048     10.33563        -0.062564     -0.061411      0.040451
      3.89592     10.43650      7.59669         0.010520     -0.002817      0.017276
      6.50351      9.36715      7.96441        -0.033704      0.021635     -0.009683
 -----------------------------------------------------------------------------------
    total drift:                               -0.021229      0.178812     -0.025204


--------------------------------------------------------------------------------------------------------



  FREE ENERGIE OF THE ION-ELECTRON SYSTEM (eV)
  ---------------------------------------------------
  free  energy   TOTEN  =      -261.05456172 eV

  energy  without entropy=     -261.04768890  energy(sigma->0) =     -261.05227078
 


--------------------------------------------------------------------------------------------------------


    POTLOK:  cpu time    0.5121: real time    0.5130


--------------------------------------------------------------------------------------------------------


 stress matrix after NEB project (eV)
      0.00000      0.00000      0.00000
      0.00000      0.00000      0.00000
      0.00000      0.00000      0.00000
  FORCES: max atom, RMS     0.612341    0.203129
  FORCE total and by dimension    1.268541    0.475038
  Stress total and by dimension    0.000000    0.000000


--------------------------------------------------------------------------------------------------------


    WAVPRE:  cpu time    0.0831: real time    0.1234
    FEWALD:  cpu time    0.0019: real time    0.0019

 real space projection operators:
  total allocation   :      16344.59 KBytes
  max/ min on nodes  :        750.05        255.13

    ORTHCH:  cpu time    3.8868: real time    3.9343
     LOOP+:  cpu time 2010.2257: real time 2028.2453


--------------------------------------- Iteration      2(   1)  ---------------------------------------


    POTLOK:  cpu time    0.4831: real time    0.4915
    SETDIJ:  cpu time    0.0412: real time    0.0412
     EDDAV:  cpu time   39.7903: real time   40.3228
       DOS:  cpu time    0.0264: real time    0.0264
    CHARGE:  cpu time    3.0114: real time    3.0214
    MIXING:  cpu time    0.0093: real time    0.0094
    --------------------------------------------
      LOOP:  cpu time   43.3619: real time   43.9129

 eigenvalue-minimisations  :  8204
 total energy-change (2. order) : 0.4261649E+00  (-0.1982377E+01)
 number of electron     282.9999985 magnetization      25.0466023
 augmentation part      100.3837546 magnetization      16.6247916

  free energy =  -0.260628470645E+03  energy without entropy=  -0.260603643915E+03


--------------------------------------------------------------------------------------------------------




--------------------------------------- Iteration      2(   2)  ---------------------------------------


    POTLOK:  cpu time    0.4635: real time    0.4957
    SETDIJ:  cpu time    0.0411: real time    0.0411
    EDDIAG:  cpu time    7.5486: real time    7.5561
  RMM-DIIS:  cpu time   25.8618: real time   26.2748
    ORTHCH:  cpu time    0.3935: real time    0.3935
       DOS:  cpu time    0.0255: real time    0.0255
    CHARGE:  cpu time    3.0330: real time    3.0365
    MIXING:  cpu time    0.0092: real time    0.0092
    --------------------------------------------
      LOOP:  cpu time   37.3763: real time   37.8324

 eigenvalue-minimisations  :  8463
 total energy-change (2. order) :-0.1840939E+01  (-0.5088194E+00)
 number of electron     282.9999986 magnetization      25.0453893
 augmentation part      100.9222540 magnetization      17.2721411

 eigenvalues of (default mixing * dielectric matrix)
  average eigenvalue GAMMA=   0.1850
  0.1850

  free energy =  -0.262469409502E+03  energy without entropy=  -0.262445317211E+03


--------------------------------------------------------------------------------------------------------




--------------------------------------- Iteration      2(   3)  ---------------------------------------


    POTLOK:  cpu time    0.5012: real time    0.5014
    SETDIJ:  cpu time    0.0411: real time    0.0411
    EDDIAG:  cpu time    7.5802: real time    7.6049
  RMM-DIIS:  cpu time   23.4188: real time   23.4480
    ORTHCH:  cpu time    0.3929: real time    0.3930
       DOS:  cpu time    0.0261: real time    0.0261
    CHARGE:  cpu time    3.0440: real time    3.0892
    MIXING:  cpu time    0.0093: real time    0.0093
    --------------------------------------------
      LOOP:  cpu time   35.0136: real time   35.1129

 eigenvalue-minimisations  :  7822
 total energy-change (2. order) : 0.1573764E+01  (-0.1383596E+00)
 number of electron     282.9999985 magnetization      25.0505877
 augmentation part      100.3609753 magnetization      16.7961020

 eigenvalues of (default mixing * dielectric matrix)
  average eigenvalue GAMMA=   0.2772
  0.2772  0.2772

  free energy =  -0.260895645935E+03  energy without entropy=  -0.260875837299E+03


--------------------------------------------------------------------------------------------------------




--------------------------------------- Iteration      2(   4)  ---------------------------------------


    POTLOK:  cpu time    0.4959: real time    0.4962
    SETDIJ:  cpu time    0.0410: real time    0.0410
    EDDIAG:  cpu time    7.9041: real time    8.4622
  RMM-DIIS:  cpu time   23.6827: real time   23.7203
    ORTHCH:  cpu time    0.3921: real time    0.3929
       DOS:  cpu time    0.0250: real time    0.0250
    CHARGE:  cpu time    3.0418: real time    3.0519
    MIXING:  cpu time    0.0095: real time    0.0095
    --------------------------------------------
      LOOP:  cpu time   35.5921: real time   36.1991

 eigenvalue-minimisations  :  7944
 total energy-change (2. order) :-0.2845285E+00  (-0.3046396E-01)
 number of electron     282.9999986 magnetization      25.0489987
 augmentation part      100.2082996 magnetization      16.0024046

 eigenvalues of (default mixing * dielectric matrix)
  average eigenvalue GAMMA=   0.2008
  0.2758  0.2758  0.0506

  free energy =  -0.261180174465E+03  energy without entropy=  -0.261198364009E+03


--------------------------------------------------------------------------------------------------------




--------------------------------------- Iteration      2(   5)  ---------------------------------------


    POTLOK:  cpu time    0.4628: real time    0.4947
    SETDIJ:  cpu time    0.0415: real time    0.0415
    EDDIAG:  cpu time    7.5657: real time    7.5724
  RMM-DIIS:  cpu time   22.8722: real time   23.2269
    ORTHCH:  cpu time    0.4163: real time    0.4604
       DOS:  cpu time    0.0240: real time    0.0240
    CHARGE:  cpu time    3.2375: real time    3.2670
    MIXING:  cpu time    0.0095: real time    0.0095
    --------------------------------------------
      LOOP:  cpu time   34.6293: real time   35.0964

 eigenvalue-minimisations  :  7549
 total energy-change (2. order) :-0.4335749E+00  (-0.6443941E-02)
 number of electron     282.9999986 magnetization      25.0577740
 augmentation part      100.1760384 magnetization      15.9603063

 eigenvalues of (default mixing * dielectric matrix)
  average eigenvalue GAMMA=   0.2200
  0.2620  0.2620  0.1780  0.1780

  free energy =  -0.261613749412E+03  energy without entropy=  -0.261633874624E+03


--------------------------------------------------------------------------------------------------------




--------------------------------------- Iteration      2(   6)  ---------------------------------------


    POTLOK:  cpu time    0.4631: real time    0.4950
    SETDIJ:  cpu time    0.0409: real time    0.0410
    EDDIAG:  cpu time    7.5641: real time    7.5783
  RMM-DIIS:  cpu time   22.2234: real time   22.2560
    ORTHCH:  cpu time    0.3957: real time    0.3967
       DOS:  cpu time    0.0248: real time    0.0248
    CHARGE:  cpu time    3.0240: real time    3.0267
    MIXING:  cpu time    0.0099: real time    0.0098
    --------------------------------------------
      LOOP:  cpu time   33.7459: real time   33.8283

 eigenvalue-minimisations  :  7431
 total energy-change (2. order) : 0.1174904E+00  (-0.3969570E-02)
 number of electron     282.9999986 magnetization      25.1087594
 augmentation part      100.1655237 magnetization      16.0159159

 eigenvalues of (default mixing * dielectric matrix)
  average eigenvalue GAMMA=   0.4527
  0.7647  0.7647  0.4125  0.1609  0.1609

  free energy =  -0.261496259017E+03  energy without entropy=  -0.261509502404E+03


--------------------------------------------------------------------------------------------------------




--------------------------------------- Iteration      2(   7)  ---------------------------------------


    POTLOK:  cpu time    0.4627: real time    0.4951
    SETDIJ:  cpu time    0.0410: real time    0.0410
    EDDIAG:  cpu time    7.5702: real time    7.5769
  RMM-DIIS:  cpu time   23.8007: real time   24.2758
    ORTHCH:  cpu time    0.3920: real time    0.3930
       DOS:  cpu time    0.0243: real time    0.0243
    CHARGE:  cpu time    3.0090: real time    3.0115
    MIXING:  cpu time    0.0100: real time    0.0100
    --------------------------------------------
      LOOP:  cpu time   35.3097: real time   35.8275

 eigenvalue-minimisations  :  7683
 total energy-change (2. order) : 0.3505126E+00  (-0.1911464E-01)
 number of electron     282.9999986 magnetization      25.1986850
 augmentation part      100.1761719 magnetization      16.1341918

 eigenvalues of (default mixing * dielectric matrix)
  average eigenvalue GAMMA=   0.5689
  1.0423  1.0423  0.5035  0.5035  0.1608  0.1608

  free energy =  -0.261145746464E+03  energy without entropy=  -0.261164224328E+03


--------------------------------------------------------------------------------------------------------




--------------------------------------- Iteration      2(   8)  ---------------------------------------


    POTLOK:  cpu time    0.4946: real time    0.4956
    SETDIJ:  cpu time    0.0410: real time    0.0410
    EDDIAG:  cpu time    7.5531: real time    7.5633
  RMM-DIIS:  cpu time   23.3171: real time   23.3544
    ORTHCH:  cpu time    0.3924: real time    0.3932
       DOS:  cpu time    0.0264: real time    0.0264
    CHARGE:  cpu time    3.0438: real time    3.0463
    MIXING:  cpu time    0.0102: real time    0.0102
    --------------------------------------------
      LOOP:  cpu time   34.8784: real time   34.9304

 eigenvalue-minimisations  :  7842
 total energy-change (2. order) : 0.3268683E+00  (-0.2869598E-01)
 number of electron     282.9999987 magnetization      25.2021056
 augmentation part      100.4415038 magnetization      16.8640496

 eigenvalues of (default mixing * dielectric matrix)
  average eigenvalue GAMMA=   0.4985
  1.0529  1.0529  0.5053  0.5053  0.1606  0.1606  0.0515

  free energy =  -0.260818878208E+03  energy without entropy=  -0.260783913268E+03


--------------------------------------------------------------------------------------------------------




--------------------------------------- Iteration      2(   9)  ---------------------------------------


    POTLOK:  cpu time    0.4966: real time    0.4976
    SETDIJ:  cpu time    0.0410: real time    0.0410
    EDDIAG:  cpu time    7.5813: real time    7.6271
  RMM-DIIS:  cpu time   24.1213: real time   24.4513
    ORTHCH:  cpu time    0.3930: real time    0.3939
       DOS:  cpu time    0.0256: real time    0.0256
    CHARGE:  cpu time    3.0106: real time    3.0132
    MIXING:  cpu time    0.0102: real time    0.0102
    --------------------------------------------
      LOOP:  cpu time   35.6795: real time   36.0599

 eigenvalue-minimisations  :  7795
 total energy-change (2. order) :-0.2757787E+00  (-0.6592744E-02)
 number of electron     282.9999987 magnetization      25.2001040
 augmentation part      100.6072460 magnetization      17.1458692

 eigenvalues of (default mixing * dielectric matrix)
  average eigenvalue GAMMA=   0.4469
  1.0520  1.0520  0.5032  0.5032  0.1609  0.1609  0.0991  0.0436

  free energy =  -0.261094656913E+03  energy without entropy=  -0.261070666498E+03


--------------------------------------------------------------------------------------------------------




--------------------------------------- Iteration      2(  10)  ---------------------------------------


    POTLOK:  cpu time    0.4948: real time    0.5057
    SETDIJ:  cpu time    0.0410: real time    0.0410
    EDDIAG:  cpu time    7.5387: real time    7.5454
  RMM-DIIS:  cpu time   21.3713: real time   21.4471
    ORTHCH:  cpu time    0.3991: real time    0.4034
       DOS:  cpu time    0.0257: real time    0.0267
    CHARGE:  cpu time    2.9971: real time    3.0065
    MIXING:  cpu time    0.0107: real time    0.0107
    --------------------------------------------
      LOOP:  cpu time   32.8784: real time   32.9864

 eigenvalue-minimisations  :  7113
 total energy-change (2. order) :-0.1858993E+00  (-0.4529698E-02)
 number of electron     282.9999988 magnetization      25.1963309
 augmentation part      100.6626658 magnetization      17.2966851

 eigenvalues of (default mixing * dielectric matrix)
  average eigenvalue GAMMA=   0.4154
  1.0651  1.0651  0.4896  0.4896  0.1617  0.1617  0.1270  0.0894  0.0894

  free energy =  -0.261280556198E+03  energy without entropy=  -0.261276448688E+03


--------------------------------------------------------------------------------------------------------




--------------------------------------- Iteration      2(  11)  ---------------------------------------


    POTLOK:  cpu time    0.4958: real time    0.4970
    SETDIJ:  cpu time    0.0412: real time    0.0411
    EDDIAG:  cpu time    8.2357: real time    8.5721
  RMM-DIIS:  cpu time   22.0797: real time   22.1139
    ORTHCH:  cpu time    0.3963: real time    0.3962
       DOS:  cpu time    0.0255: real time    0.0255
    CHARGE:  cpu time    3.0061: real time    3.0097
    MIXING:  cpu time    0.0108: real time    0.0108
    --------------------------------------------
      LOOP:  cpu time   34.2913: real time   34.6666

 eigenvalue-minimisations  :  7402
 total energy-change (2. order) : 0.1036934E+00  (-0.2598371E-02)
 number of electron     282.9999988 magnetization      25.1979631
 augmentation part      100.6230102 magnetization      17.1605414

 eigenvalues of (default mixing * dielectric matrix)
  average eigenvalue GAMMA=   0.3999
  1.0737  1.0737  0.4834  0.4834  0.1630  0.1630  0.1610  0.1610  0.1184  0.1184

  free energy =  -0.261176862838E+03  energy without entropy=  -0.261162122010E+03


--------------------------------------------------------------------------------------------------------




--------------------------------------- Iteration      2(  12)  ---------------------------------------


    POTLOK:  cpu time    0.4649: real time    0.4966
    SETDIJ:  cpu time    0.0408: real time    0.0407
    EDDIAG:  cpu time    7.5448: real time    7.5589
  RMM-DIIS:  cpu time   24.4708: real time   24.8372
    ORTHCH:  cpu time    0.3922: real time    0.4051
       DOS:  cpu time    0.0264: real time    0.0264
    CHARGE:  cpu time    3.0391: real time    3.0480
    MIXING:  cpu time    0.0112: real time    0.0112
    --------------------------------------------
      LOOP:  cpu time   35.9898: real time   36.4237

 eigenvalue-minimisations  :  7871
 total energy-change (2. order) : 0.5192025E-02  (-0.2936133E-03)
 number of electron     282.9999988 magnetization      25.1996865
 augmentation part      100.6064046 magnetization      17.0756293

 eigenvalues of (default mixing * dielectric matrix)
  average eigenvalue GAMMA=   0.4174
  1.0650  1.0650  0.4800  0.4800  0.3134  0.3134  0.2246  0.1602  0.1602  0.1650
  0.1650

  free energy =  -0.261171670813E+03  energy without entropy=  -0.261154255666E+03


--------------------------------------------------------------------------------------------------------




--------------------------------------- Iteration      2(  13)  ---------------------------------------


    POTLOK:  cpu time    0.4969: real time    0.4979
    SETDIJ:  cpu time    0.0413: real time    0.0413
    EDDIAG:  cpu time    7.5656: real time    7.5730
  RMM-DIIS:  cpu time   20.9792: real time   21.0153
    ORTHCH:  cpu time    0.3933: real time    0.3933
       DOS:  cpu time    0.0263: real time    0.0322
    CHARGE:  cpu time    3.0156: real time    3.0193
    MIXING:  cpu time    0.0112: real time    0.0112
    --------------------------------------------
      LOOP:  cpu time   32.5294: real time   32.5833

 eigenvalue-minimisations  :  6970
 total energy-change (2. order) :-0.3572833E-01  (-0.1866056E-03)
 number of electron     282.9999988 magnetization      25.1940990
 augmentation part      100.6137804 magnetization      17.0919930

 eigenvalues of (default mixing * dielectric matrix)
  average eigenvalue GAMMA=   0.4171
  1.0645  1.0645  0.3588  0.4825  0.4825  0.2974  0.2974  0.2896  0.1599  0.1599
  0.1739  0.1739

  free energy =  -0.261207399144E+03  energy without entropy=  -0.261190428597E+03


--------------------------------------------------------------------------------------------------------




--------------------------------------- Iteration      2(  14)  ---------------------------------------


    POTLOK:  cpu time    0.4645: real time    0.4966
    SETDIJ:  cpu time    0.0410: real time    0.0410
    EDDIAG:  cpu time    7.5533: real time    7.5613
  RMM-DIIS:  cpu time   23.2098: real time   23.5768
    ORTHCH:  cpu time    0.3920: real time    0.3920
       DOS:  cpu time    0.0260: real time    0.0260
    CHARGE:  cpu time    3.0105: real time    3.0140
    MIXING:  cpu time    0.0119: real time    0.0119
    --------------------------------------------
      LOOP:  cpu time   34.7092: real time   35.1197

 eigenvalue-minimisations  :  7526
 total energy-change (2. order) : 0.8190906E-01  (-0.1510025E-03)
 number of electron     282.9999988 magnetization      25.2016852
 augmentation part      100.5868239 magnetization      16.9486122

 eigenvalues of (default mixing * dielectric matrix)
  average eigenvalue GAMMA=   0.4566
  1.0636  1.0636  0.5450  0.5450  0.4923  0.4923  0.3471  0.3471  0.3594  0.1598
  0.1598  0.1804  0.1804

  free energy =  -0.261125490084E+03  energy without entropy=  -0.261107676820E+03


--------------------------------------------------------------------------------------------------------




--------------------------------------- Iteration      2(  15)  ---------------------------------------


    POTLOK:  cpu time    0.4648: real time    0.4963
    SETDIJ:  cpu time    0.0410: real time    0.0410
    EDDIAG:  cpu time    7.5701: real time    7.5914
  RMM-DIIS:  cpu time   21.4504: real time   21.4990
    ORTHCH:  cpu time    0.3935: real time    0.3934
       DOS:  cpu time    0.0253: real time    0.0253
    CHARGE:  cpu time    3.0136: real time    3.0176
    MIXING:  cpu time    0.0119: real time    0.0119
    --------------------------------------------
      LOOP:  cpu time   32.9705: real time   33.0758

 eigenvalue-minimisations  :  7080
 total energy-change (2. order) : 0.7214277E-02  (-0.5760116E-03)
 number of electron     282.9999987 magnetization      25.2346382
 augmentation part      100.5491069 magnetization      16.7890982

 eigenvalues of (default mixing * dielectric matrix)
  average eigenvalue GAMMA=   0.5120
  0.9868  0.9868  1.0348  1.0348  0.3491  0.3491  0.5157  0.5157  0.3573  0.3573
  0.1597  0.1597  0.1803  0.1803

  free energy =  -0.261118275807E+03  energy without entropy=  -0.261103223167E+03


--------------------------------------------------------------------------------------------------------




--------------------------------------- Iteration      2(  16)  ---------------------------------------


    POTLOK:  cpu time    0.4652: real time    0.4965
    SETDIJ:  cpu time    0.0410: real time    0.0410
    EDDIAG:  cpu time    7.5432: real time    7.6548
  RMM-DIIS:  cpu time   22.1061: real time   22.5313
    ORTHCH:  cpu time    0.3918: real time    0.3918
       DOS:  cpu time    0.0265: real time    0.0265
    CHARGE:  cpu time    2.9895: real time    2.9930
    MIXING:  cpu time    0.0123: real time    0.0123
    --------------------------------------------
      LOOP:  cpu time   33.5757: real time   34.1472

 eigenvalue-minimisations  :  7224
 total energy-change (2. order) :-0.1460006E+00  (-0.2752798E-02)
 number of electron     282.9999987 magnetization      25.3022556
 augmentation part      100.5610246 magnetization      16.9435645

 eigenvalues of (default mixing * dielectric matrix)
  average eigenvalue GAMMA=   0.6017
  1.6269  1.6269  0.9866  0.9866  0.5631  0.5631  0.3541  0.3541  0.4473  0.4473
  0.3886  0.1597  0.1597  0.1805  0.1805

  free energy =  -0.261264276369E+03  energy without entropy=  -0.261246745462E+03


--------------------------------------------------------------------------------------------------------




--------------------------------------- Iteration      2(  17)  ---------------------------------------


    POTLOK:  cpu time    0.4658: real time    0.4967
    SETDIJ:  cpu time    0.0411: real time    0.0411
    EDDIAG:  cpu time    7.5789: real time    7.6012
  RMM-DIIS:  cpu time   22.1273: real time   22.2000
    ORTHCH:  cpu time    0.3965: real time    0.3967
       DOS:  cpu time    0.0265: real time    0.0264
    CHARGE:  cpu time    3.0038: real time    3.0065
    MIXING:  cpu time    0.0127: real time    0.0127
    --------------------------------------------
      LOOP:  cpu time   33.6525: real time   33.7812

 eigenvalue-minimisations  :  7348
 total energy-change (2. order) :-0.8324184E-01  (-0.8024088E-02)
 number of electron     282.9999987 magnetization      25.3580507
 augmentation part      100.5702902 magnetization      17.0603730

 eigenvalues of (default mixing * dielectric matrix)
  average eigenvalue GAMMA=   0.6433
  1.9301  1.9301  0.9538  0.9538  0.6841  0.6841  0.3552  0.3552  0.4899  0.4899
  0.3931  0.3931  0.1597  0.1597  0.1805  0.1805

  free energy =  -0.261347518211E+03  energy without entropy=  -0.261331050459E+03


--------------------------------------------------------------------------------------------------------




--------------------------------------- Iteration      2(  18)  ---------------------------------------


    POTLOK:  cpu time    0.4952: real time    0.4962
    SETDIJ:  cpu time    0.0412: real time    0.0412
    EDDIAG:  cpu time    7.9846: real time    8.3585
  RMM-DIIS:  cpu time   21.9236: real time   21.9509
    ORTHCH:  cpu time    0.3932: real time    0.3932
       DOS:  cpu time    0.0251: real time    0.0252
    CHARGE:  cpu time    3.0288: real time    3.0322
    MIXING:  cpu time    0.0131: real time    0.0131
    --------------------------------------------
      LOOP:  cpu time   33.9049: real time   34.3105

 eigenvalue-minimisations  :  7270
 total energy-change (2. order) :-0.7346446E-01  (-0.2916477E-02)
 number of electron     282.9999987 magnetization      25.4001838
 augmentation part      100.5783582 magnetization      17.1925818

 eigenvalues of (default mixing * dielectric matrix)
  average eigenvalue GAMMA=   0.6756
  2.0846  2.0846  0.9636  0.9636  0.7736  0.7736  0.3548  0.3548  0.5724  0.5724
  0.4553  0.4553  0.3961  0.1597  0.1597  0.1805  0.1805

  free energy =  -0.261420982670E+03  energy without entropy=  -0.261402896114E+03


--------------------------------------------------------------------------------------------------------




--------------------------------------- Iteration      2(  19)  ---------------------------------------


    POTLOK:  cpu time    0.4648: real time    0.4956
    SETDIJ:  cpu time    0.0410: real time    0.0410
    EDDIAG:  cpu time    7.5718: real time    7.5854
  RMM-DIIS:  cpu time   23.7242: real time   24.1537
    ORTHCH:  cpu time    0.4050: real time    0.4059
       DOS:  cpu time    0.0260: real time    0.0260
    CHARGE:  cpu time    2.9889: real time    2.9997
    MIXING:  cpu time    0.0134: real time    0.0134
    --------------------------------------------
      LOOP:  cpu time   35.2350: real time   35.7206

 eigenvalue-minimisations  :  7814
 total energy-change (2. order) : 0.7116378E-01  (-0.1353522E-02)
 number of electron     282.9999987 magnetization      25.4416882
 augmentation part      100.5471586 magnetization      17.0478764

 eigenvalues of (default mixing * dielectric matrix)
  average eigenvalue GAMMA=   0.7072
  2.2830  2.2830  0.9607  0.9607  0.9084  0.9084  0.3547  0.3547  0.6064  0.6064
  0.4958  0.4958  0.4153  0.4153  0.1597  0.1597  0.1805  0.1805

  free energy =  -0.261349818891E+03  energy without entropy=  -0.261337983977E+03


--------------------------------------------------------------------------------------------------------




--------------------------------------- Iteration      2(  20)  ---------------------------------------


    POTLOK:  cpu time    0.4956: real time    0.4957
    SETDIJ:  cpu time    0.0410: real time    0.0410
    EDDIAG:  cpu time    7.5461: real time    7.5538
  RMM-DIIS:  cpu time   22.8291: real time   22.8668
    ORTHCH:  cpu time    0.3930: real time    0.3940
       DOS:  cpu time    0.0245: real time    0.0245
    CHARGE:  cpu time    3.0268: real time    3.0295
    MIXING:  cpu time    0.0140: real time    0.0140
    --------------------------------------------
      LOOP:  cpu time   34.3700: real time   34.4194

 eigenvalue-minimisations  :  7668
 total energy-change (2. order) : 0.3738147E-01  (-0.1496629E-02)
 number of electron     282.9999987 magnetization      25.4959255
 augmentation part      100.4964228 magnetization      16.7923523

 eigenvalues of (default mixing * dielectric matrix)
  average eigenvalue GAMMA=   0.7451
  2.5123  2.5123  1.1113  1.1113  0.9123  0.9123  0.6759  0.6759  0.3546  0.3546
  0.5121  0.5121  0.4523  0.4523  0.4156  0.1597  0.1597  0.1805  0.1805

  free energy =  -0.261312437424E+03  energy without entropy=  -0.261326149839E+03


--------------------------------------------------------------------------------------------------------




--------------------------------------- Iteration      2(  21)  ---------------------------------------


    POTLOK:  cpu time    0.4646: real time    0.4964
    SETDIJ:  cpu time    0.0410: real time    0.0410
    EDDIAG:  cpu time    7.5651: real time    7.5718
  RMM-DIIS:  cpu time   22.5221: real time   23.0335
    ORTHCH:  cpu time    0.3937: real time    0.3937
       DOS:  cpu time    0.0250: real time    0.0251
    CHARGE:  cpu time    2.9980: real time    3.0016
    MIXING:  cpu time    0.0145: real time    0.0145
    --------------------------------------------
      LOOP:  cpu time   34.0241: real time   34.5777

 eigenvalue-minimisations  :  7266
 total energy-change (2. order) :-0.5437658E-01  (-0.2031863E-02)
 number of electron     282.9999987 magnetization      25.5208674
 augmentation part      100.4851025 magnetization      16.7695898

 eigenvalues of (default mixing * dielectric matrix)
  average eigenvalue GAMMA=   0.7317
  2.5905  2.5905  1.1152  1.1152  0.9301  0.9301  0.6526  0.6526  0.3546  0.3546
  0.4615  0.4615  0.4656  0.4656  0.4065  0.4065  0.1597  0.1597  0.1805  0.1805

  free energy =  -0.261366814003E+03  energy without entropy=  -0.261384563687E+03


--------------------------------------------------------------------------------------------------------




--------------------------------------- Iteration      2(  22)  ---------------------------------------


    POTLOK:  cpu time    0.4646: real time    0.4955
    SETDIJ:  cpu time    0.0410: real time    0.0410
    EDDIAG:  cpu time    7.5431: real time    7.5535
  RMM-DIIS:  cpu time   22.6296: real time   22.6611
    ORTHCH:  cpu time    0.3928: real time    0.3927
       DOS:  cpu time    0.0254: real time    0.0254
    CHARGE:  cpu time    3.0397: real time    3.0433
    MIXING:  cpu time    0.0149: real time    0.0149
    --------------------------------------------
      LOOP:  cpu time   34.1511: real time   34.2274

 eigenvalue-minimisations  :  7496
 total energy-change (2. order) :-0.2024519E-02  (-0.5856581E-03)
 number of electron     282.9999987 magnetization      25.6175086
 augmentation part      100.4846966 magnetization      16.8744762

 eigenvalues of (default mixing * dielectric matrix)
  average eigenvalue GAMMA=   0.8006
  2.8745  2.8745  1.2207  1.2207  0.9611  0.9611  0.8116  0.8116  0.3546  0.3546
  0.6342  0.6342  0.5354  0.5354  0.4639  0.4639  0.4206  0.1597  0.1597  0.1805
  0.1805

  free energy =  -0.261368838522E+03  energy without entropy=  -0.261384627510E+03


--------------------------------------------------------------------------------------------------------




--------------------------------------- Iteration      2(  23)  ---------------------------------------


    POTLOK:  cpu time    0.4648: real time    0.4958
    SETDIJ:  cpu time    0.0410: real time    0.0410
    EDDIAG:  cpu time    7.5428: real time    7.5819
  RMM-DIIS:  cpu time   22.3998: real time   22.8191
    ORTHCH:  cpu time    0.3910: real time    0.3919
       DOS:  cpu time    0.0250: real time    0.0250
    CHARGE:  cpu time    2.9749: real time    2.9775
    MIXING:  cpu time    0.0152: real time    0.0152
    --------------------------------------------
      LOOP:  cpu time   33.8546: real time   34.3473

 eigenvalue-minimisations  :  7359
 total energy-change (2. order) :-0.5349337E-01  (-0.1622392E-02)
 number of electron     282.9999987 magnetization      25.8200169
 augmentation part      100.4954678 magnetization      17.0865441

 eigenvalues of (default mixing * dielectric matrix)
  average eigenvalue GAMMA=   0.8644
  3.2600  3.2600  1.4255  1.4255  0.9540  0.9540  0.9253  0.9253  0.7217  0.7217
  0.3546  0.3546  0.5673  0.5673  0.5186  0.5186  0.4569  0.4252  0.1597  0.1597
  0.1805  0.1805

  free energy =  -0.261422331891E+03  energy without entropy=  -0.261437200032E+03


--------------------------------------------------------------------------------------------------------




--------------------------------------- Iteration      2(  24)  ---------------------------------------


    POTLOK:  cpu time    0.4642: real time    0.4962
    SETDIJ:  cpu time    0.0409: real time    0.0409
    EDDIAG:  cpu time    7.5533: real time    7.5666
  RMM-DIIS:  cpu time   21.7353: real time   21.8059
    ORTHCH:  cpu time    0.3924: real time    0.3934
       DOS:  cpu time    0.0255: real time    0.0255
    CHARGE:  cpu time    3.0872: real time    3.1281
    MIXING:  cpu time    0.0159: real time    0.0159
    --------------------------------------------
      LOOP:  cpu time   33.3146: real time   33.4725

 eigenvalue-minimisations  :  7213
 total energy-change (2. order) :-0.1058084E+00  (-0.4574206E-02)
 number of electron     282.9999987 magnetization      25.9177069
 augmentation part      100.5128989 magnetization      17.1911358

 eigenvalues of (default mixing * dielectric matrix)
  average eigenvalue GAMMA=   0.8750
  3.3296  3.3296  1.4854  1.4854  1.0175  1.0175  0.9788  0.9788  0.7130  0.7130
  0.3546  0.3546  0.5935  0.5935  0.5549  0.5549  0.4824  0.4824  0.4240  0.1597
  0.1597  0.1805  0.1805

  free energy =  -0.261528140251E+03  energy without entropy=  -0.261539777399E+03


--------------------------------------------------------------------------------------------------------




--------------------------------------- Iteration      2(  25)  ---------------------------------------


    POTLOK:  cpu time    0.5246: real time    0.5992
    SETDIJ:  cpu time    0.0408: real time    0.0408
    EDDIAG:  cpu time    8.0770: real time    8.3558
  RMM-DIIS:  cpu time   22.3226: real time   22.3817
    ORTHCH:  cpu time    0.3922: real time    0.3930
       DOS:  cpu time    0.0253: real time    0.0253
    CHARGE:  cpu time    3.0059: real time    3.0086
    MIXING:  cpu time    0.0166: real time    0.0166
    --------------------------------------------
      LOOP:  cpu time   34.4051: real time   34.8210

 eigenvalue-minimisations  :  7395
 total energy-change (2. order) :-0.6421193E-01  (-0.1346261E-02)
 number of electron     282.9999987 magnetization      26.1180861
 augmentation part      100.5119674 magnetization      17.3870967

 eigenvalues of (default mixing * dielectric matrix)
  average eigenvalue GAMMA=   0.9053
  3.0967  3.0967  1.9533  1.9533  1.1195  1.1195  1.0115  1.0115  0.7404  0.7404
  0.3546  0.3546  0.6900  0.6900  0.5752  0.5752  0.5343  0.5343  0.4732  0.4236
  0.1597  0.1597  0.1805  0.1805

  free energy =  -0.261592352185E+03  energy without entropy=  -0.261601843619E+03


--------------------------------------------------------------------------------------------------------




--------------------------------------- Iteration      2(  26)  ---------------------------------------


    POTLOK:  cpu time    0.4640: real time    0.4960
    SETDIJ:  cpu time    0.0406: real time    0.0406
    EDDIAG:  cpu time    7.5369: real time    7.5504
  RMM-DIIS:  cpu time   22.7125: real time   23.0990
    ORTHCH:  cpu time    0.4127: real time    0.4138
       DOS:  cpu time    0.0257: real time    0.0257
    CHARGE:  cpu time    2.9972: real time    3.0067
    MIXING:  cpu time    0.0172: real time    0.0172
    --------------------------------------------
      LOOP:  cpu time   34.2069: real time   34.6495

 eigenvalue-minimisations  :  7299
 total energy-change (2. order) :-0.1126549E+00  (-0.3294144E-02)
 number of electron     282.9999987 magnetization      26.2585347
 augmentation part      100.5240518 magnetization      17.5390464

 eigenvalues of (default mixing * dielectric matrix)
  average eigenvalue GAMMA=   0.9504
  3.9052  2.9091  2.1797  2.1797  1.1973  1.1973  1.0800  1.0800  0.7649  0.7649
  0.3546  0.3546  0.7282  0.7282  0.5818  0.5818  0.5491  0.5491  0.4858  0.4858
  0.4232  0.1597  0.1597  0.1805  0.1805

  free energy =  -0.261705007054E+03  energy without entropy=  -0.261715898778E+03


--------------------------------------------------------------------------------------------------------




--------------------------------------- Iteration      2(  27)  ---------------------------------------


    POTLOK:  cpu time    0.4942: real time    0.5004
    SETDIJ:  cpu time    0.0411: real time    0.0411
    EDDIAG:  cpu time    7.5566: real time    7.5640
  RMM-DIIS:  cpu time   22.4391: real time   22.4789
    ORTHCH:  cpu time    0.3927: real time    0.3927
       DOS:  cpu time    0.0260: real time    0.0261
    CHARGE:  cpu time    3.0007: real time    3.0043
    MIXING:  cpu time    0.0175: real time    0.0175
    --------------------------------------------
      LOOP:  cpu time   33.9679: real time   34.0249

 eigenvalue-minimisations  :  7526
 total energy-change (2. order) :-0.1132973E+00  (-0.1699974E-02)
 number of electron     282.9999987 magnetization      26.4019175
 augmentation part      100.5451128 magnetization      17.7680563

 eigenvalues of (default mixing * dielectric matrix)
  average eigenvalue GAMMA=   1.0227
  4.3114  4.3114  2.2489  2.2489  1.2123  1.2123  1.0870  1.0870  0.7737  0.7737
  0.8006  0.8006  0.3546  0.3546  0.6067  0.6067  0.5759  0.5759  0.5355  0.5355
  0.4716  0.4239  0.1597  0.1597  0.1805  0.1805

  free energy =  -0.261818304383E+03  energy without entropy=  -0.261825441179E+03


--------------------------------------------------------------------------------------------------------




--------------------------------------- Iteration      2(  28)  ---------------------------------------


    POTLOK:  cpu time    0.4640: real time    0.4952
    SETDIJ:  cpu time    0.0411: real time    0.0411
    EDDIAG:  cpu time    7.5396: real time    7.5475
  RMM-DIIS:  cpu time   22.4728: real time   22.8593
    ORTHCH:  cpu time    0.3929: real time    0.3938
       DOS:  cpu time    0.0236: real time    0.0236
    CHARGE:  cpu time    3.0337: real time    3.0365
    MIXING:  cpu time    0.0181: real time    0.0181
    --------------------------------------------
      LOOP:  cpu time   33.9860: real time   34.4152

 eigenvalue-minimisations  :  7348
 total energy-change (2. order) :-0.5009596E-01  (-0.1134666E-02)
 number of electron     282.9999987 magnetization      26.5955266
 augmentation part      100.5614661 magnetization      18.0355040

 eigenvalues of (default mixing * dielectric matrix)
  average eigenvalue GAMMA=   1.0943
  7.8160  2.6915  2.3228  2.3228  1.2010  1.2010  1.1198  1.1198  0.9106  0.9106
  0.7572  0.7572  0.3546  0.3546  0.6667  0.6667  0.5819  0.5819  0.1805  0.1805
  0.1597  0.1597  0.5645  0.5645  0.4875  0.4875  0.4234

  free energy =  -0.261868400338E+03  energy without entropy=  -0.261871716372E+03


--------------------------------------------------------------------------------------------------------




--------------------------------------- Iteration      2(  29)  ---------------------------------------


    POTLOK:  cpu time    0.4652: real time    0.5036
    SETDIJ:  cpu time    0.0411: real time    0.0411
    EDDIAG:  cpu time    7.5710: real time    7.5945
  RMM-DIIS:  cpu time   21.3448: real time   21.3718
    ORTHCH:  cpu time    0.3918: real time    0.3925
       DOS:  cpu time    0.0249: real time    0.0249
    CHARGE:  cpu time    3.0208: real time    3.0233
    MIXING:  cpu time    0.0189: real time    0.0189
    --------------------------------------------
      LOOP:  cpu time   32.8785: real time   32.9708

 eigenvalue-minimisations  :  7097
 total energy-change (2. order) : 0.2976498E-01  (-0.1280999E-02)
 number of electron     282.9999987 magnetization      26.6646157
 augmentation part      100.5565239 magnetization      18.0792355

 eigenvalues of (default mixing * dielectric matrix)
  average eigenvalue GAMMA=   1.1133
  8.5794  2.2761  2.2761  2.3927  1.2043  1.2043  1.1428  1.1428  1.1253  1.1253
  0.7523  0.7523  0.3546  0.3546  0.7391  0.7391  0.5916  0.5916  0.5883  0.5883
  0.5367  0.5367  0.4742  0.4237  0.1597  0.1597  0.1805  0.1805

  free energy =  -0.261838635357E+03  energy without entropy=  -0.261842966567E+03


--------------------------------------------------------------------------------------------------------




--------------------------------------- Iteration      2(  30)  ---------------------------------------


    POTLOK:  cpu time    0.4633: real time    0.4959
    SETDIJ:  cpu time    0.0410: real time    0.0410
    EDDIAG:  cpu time    7.5349: real time    7.6241
  RMM-DIIS:  cpu time   23.1269: real time   23.5136
    ORTHCH:  cpu time    0.3925: real time    0.3934
       DOS:  cpu time    0.0248: real time    0.0248
    CHARGE:  cpu time    3.0358: real time    3.0384
    MIXING:  cpu time    0.0195: real time    0.0195
    --------------------------------------------
      LOOP:  cpu time   34.6387: real time   35.1506

 eigenvalue-minimisations  :  7559
 total energy-change (2. order) : 0.4228586E-01  (-0.6334521E-03)
 number of electron     282.9999987 magnetization      26.7279695
 augmentation part      100.5412680 magnetization      18.0528219

 eigenvalues of (default mixing * dielectric matrix)
  average eigenvalue GAMMA=   1.1281
  9.2007  2.2258  2.2258  2.4326  1.2714  1.2714  1.1587  1.1587  1.2309  1.2309
  0.7597  0.7597  0.3546  0.3546  0.7555  0.7555  0.1805  0.1805  0.1597  0.1597
  0.5967  0.5967  0.6101  0.6101  0.5501  0.5501  0.4235  0.4753  0.4753

  free energy =  -0.261796349496E+03  energy without entropy=  -0.261805777614E+03


--------------------------------------------------------------------------------------------------------




--------------------------------------- Iteration      2(  31)  ---------------------------------------


    POTLOK:  cpu time    0.4638: real time    0.4957
    SETDIJ:  cpu time    0.0413: real time    0.0413
    EDDIAG:  cpu time    7.5626: real time    7.5804
  RMM-DIIS:  cpu time   21.5287: real time   21.5946
    ORTHCH:  cpu time    0.3921: real time    0.3930
       DOS:  cpu time    0.0257: real time    0.0257
    CHARGE:  cpu time    3.0156: real time    3.0272
    MIXING:  cpu time    0.0206: real time    0.0205
    --------------------------------------------
      LOOP:  cpu time   33.0505: real time   33.1784

 eigenvalue-minimisations  :  7112
 total energy-change (2. order) :-0.1343195E-03  (-0.5621474E-03)
 number of electron     282.9999987 magnetization      26.8081434
 augmentation part      100.5314540 magnetization      18.0966022

 eigenvalues of (default mixing * dielectric matrix)
  average eigenvalue GAMMA=   1.1882
  9.3708  3.2679  2.2218  2.2218  1.8085  1.8085  1.1675  1.1675  1.2031  1.2031
  0.7614  0.7614  0.8050  0.8050  0.3546  0.3546  0.6926  0.6926  0.5856  0.5856
  0.5830  0.5830  0.5309  0.5309  0.4753  0.4237  0.1805  0.1805  0.1597  0.1597

  free energy =  -0.261796483816E+03  energy without entropy=  -0.261806323689E+03


--------------------------------------------------------------------------------------------------------




--------------------------------------- Iteration      2(  32)  ---------------------------------------


    POTLOK:  cpu time    0.4631: real time    0.4950
    SETDIJ:  cpu time    0.0408: real time    0.0408
    EDDIAG:  cpu time    7.9888: real time    8.4185
  RMM-DIIS:  cpu time   22.4369: real time   22.4662
    ORTHCH:  cpu time    0.3930: real time    0.3941
       DOS:  cpu time    0.0252: real time    0.0252
    CHARGE:  cpu time    2.9883: real time    2.9909
    MIXING:  cpu time    0.0209: real time    0.0209
    --------------------------------------------
      LOOP:  cpu time   34.3570: real time   34.8516

 eigenvalue-minimisations  :  7550
 total energy-change (2. order) : 0.1417318E-01  (-0.1831776E-02)
 number of electron     282.9999987 magnetization      26.9016543
 augmentation part      100.5262082 magnetization      18.1965804

 eigenvalues of (default mixing * dielectric matrix)
  average eigenvalue GAMMA=   1.2263
 10.0914  3.7597  2.2894  2.2894  1.9947  1.9947  1.1832  1.1832  1.1357  1.1357
  0.8470  0.8470  0.7557  0.7557  0.3546  0.3546  0.7416  0.7416  0.1805  0.1805
  0.1597  0.1597  0.5893  0.5893  0.5851  0.5851  0.4237  0.5580  0.5580  0.4786
  0.5117

  free energy =  -0.261782310633E+03  energy without entropy=  -0.261785324798E+03


--------------------------------------------------------------------------------------------------------




--------------------------------------- Iteration      2(  33)  ---------------------------------------


    POTLOK:  cpu time    0.4638: real time    0.4958
    SETDIJ:  cpu time    0.0411: real time    0.0411
    EDDIAG:  cpu time    7.5673: real time    7.5806
  RMM-DIIS:  cpu time   24.2024: real time   24.6637
    ORTHCH:  cpu time    0.3921: real time    0.3921
       DOS:  cpu time    0.0252: real time    0.0252
    CHARGE:  cpu time    3.0159: real time    3.0249
    MIXING:  cpu time    0.0218: real time    0.0218
    --------------------------------------------
      LOOP:  cpu time   35.7296: real time   36.2452

 eigenvalue-minimisations  :  7874
 total energy-change (2. order) : 0.4453512E-01  (-0.1321020E-02)
 number of electron     282.9999987 magnetization      26.9433972
 augmentation part      100.5199731 magnetization      18.2359604

 eigenvalues of (default mixing * dielectric matrix)
  average eigenvalue GAMMA=   1.2197
 10.1579  3.9055  2.3262  2.3262  2.0925  2.0925  1.1925  1.1925  1.1095  1.1095
  0.3546  0.3546  0.8555  0.8555  0.7531  0.7531  0.7763  0.7763  0.1805  0.1805
  0.1597  0.1597  0.5997  0.5997  0.5949  0.5949  0.5572  0.5572  0.4237  0.4872
  0.4872  0.4651

  free energy =  -0.261737775514E+03  energy without entropy=  -0.261744527760E+03


--------------------------------------------------------------------------------------------------------




--------------------------------------- Iteration      2(  34)  ---------------------------------------


    POTLOK:  cpu time    0.4642: real time    0.4955
    SETDIJ:  cpu time    0.0411: real time    0.0411
    EDDIAG:  cpu time    7.5374: real time    7.5445
  RMM-DIIS:  cpu time   23.8775: real time   23.9118
    ORTHCH:  cpu time    0.3926: real time    0.3936
       DOS:  cpu time    0.0243: real time    0.0243
    CHARGE:  cpu time    3.0252: real time    3.0279
    MIXING:  cpu time    0.0224: real time    0.0224
    --------------------------------------------
      LOOP:  cpu time   35.3847: real time   35.4611

 eigenvalue-minimisations  :  8029
 total energy-change (2. order) : 0.4572934E-01  (-0.8858912E-03)
 number of electron     282.9999987 magnetization      27.0085443
 augmentation part      100.5104144 magnetization      18.2918693

 eigenvalues of (default mixing * dielectric matrix)
  average eigenvalue GAMMA=   1.2180
 10.7032  3.2983  2.3684  2.3684  2.2574  2.2574  1.1984  1.1984  1.0923  1.0923
  0.3546  0.3546  0.8926  0.8926  0.7440  0.7440  0.7541  0.7541  0.1805  0.1805
  0.1597  0.1597  0.6774  0.6774  0.5834  0.5834  0.5728  0.5728  0.4237  0.5532
  0.5532  0.4783  0.5120

  free energy =  -0.261692046175E+03  energy without entropy=  -0.261698691250E+03


--------------------------------------------------------------------------------------------------------




--------------------------------------- Iteration      2(  35)  ---------------------------------------


    POTLOK:  cpu time    0.4637: real time    0.4959
    SETDIJ:  cpu time    0.0409: real time    0.0409
    EDDIAG:  cpu time    7.6342: real time    7.6753
  RMM-DIIS:  cpu time   24.2872: real time   24.6028
    ORTHCH:  cpu time    0.3924: real time    0.3924
       DOS:  cpu time    0.0263: real time    0.0263
    CHARGE:  cpu time    3.0208: real time    3.0283
    MIXING:  cpu time    0.0230: real time    0.0240
    --------------------------------------------
      LOOP:  cpu time   35.8885: real time   36.2859

 eigenvalue-minimisations  :  7946
 total energy-change (2. order) : 0.2189693E-01  (-0.8699387E-03)
 number of electron     282.9999987 magnetization      26.9920738
 augmentation part      100.4836706 magnetization      18.2519840

 eigenvalues of (default mixing * dielectric matrix)
  average eigenvalue GAMMA=   1.1998
 10.3684  3.9371  2.3049  2.3049  2.1433  2.1433  1.1893  1.1893  1.1420  1.1420
  0.8897  0.8897  0.7573  0.7573  0.7858  0.7858  0.3546  0.3546  0.5902  0.5902
  0.6116  0.6116  0.5967  0.5967  0.5222  0.5222  0.4759  0.4237  0.1597  0.1597
  0.1805  0.1805  0.5663  0.5663

  free energy =  -0.261670149243E+03  energy without entropy=  -0.261664667885E+03


--------------------------------------------------------------------------------------------------------




--------------------------------------- Iteration      2(  36)  ---------------------------------------


    POTLOK:  cpu time    0.4644: real time    0.4957
    SETDIJ:  cpu time    0.0410: real time    0.0410
    EDDIAG:  cpu time    7.5485: real time    7.5594
  RMM-DIIS:  cpu time   21.8041: real time   21.8327
    ORTHCH:  cpu time    0.3931: real time    0.3931
       DOS:  cpu time    0.0255: real time    0.0255
    CHARGE:  cpu time    3.0549: real time    3.1396
    MIXING:  cpu time    0.0245: real time    0.0276
    --------------------------------------------
      LOOP:  cpu time   33.3561: real time   33.5146

 eigenvalue-minimisations  :  7297
 total energy-change (2. order) :-0.2339671E-01  (-0.2168167E-03)
 number of electron     282.9999987 magnetization      26.9933614
 augmentation part      100.4858155 magnetization      18.2563451

 eigenvalues of (default mixing * dielectric matrix)
  average eigenvalue GAMMA=   1.1669
 10.0673  3.8587  2.3040  2.3040  2.1392  2.1392  1.1887  1.1887  1.1471  1.1471
  0.6502  0.6502  0.3546  0.3546  0.8967  0.8967  0.7580  0.7580  0.7916  0.7916
  0.1805  0.1805  0.1597  0.1597  0.5901  0.5901  0.6195  0.6195  0.5969  0.5969
  0.4237  0.4748  0.5104  0.5104  0.2423

  free energy =  -0.261693545958E+03  energy without entropy=  -0.261687495810E+03


--------------------------------------------------------------------------------------------------------




--------------------------------------- Iteration      2(  37)  ---------------------------------------


    POTLOK:  cpu time    0.4661: real time    0.4969
    SETDIJ:  cpu time    0.0412: real time    0.0412
    EDDIAG:  cpu time    8.0391: real time    8.3916
  RMM-DIIS:  cpu time   21.3935: real time   21.4460
    ORTHCH:  cpu time    0.3938: real time    0.3938
       DOS:  cpu time    0.0248: real time    0.0249
    CHARGE:  cpu time    2.9637: real time    2.9670
    MIXING:  cpu time    0.0244: real time    0.0244
    --------------------------------------------
      LOOP:  cpu time   33.3468: real time   33.7859

 eigenvalue-minimisations  :  7041
 total energy-change (2. order) :-0.1864172E-02  (-0.1144726E-04)
 number of electron     282.9999987 magnetization      26.9906969
 augmentation part      100.4861104 magnetization      18.2537688

 eigenvalues of (default mixing * dielectric matrix)
  average eigenvalue GAMMA=   1.1450
  9.8094  3.8053  2.3180  2.3180  2.1931  2.1931  1.1900  1.1900  1.1433  1.1433
  0.7259  0.7259  0.3546  0.3546  0.9042  0.9042  0.7585  0.7585  0.7949  0.7949
  0.1597  0.1597  0.1805  0.1805  0.5899  0.5899  0.6193  0.6193  0.6039  0.6039
  0.4237  0.4754  0.5157  0.5157  0.3016  0.3016

  free energy =  -0.261695410130E+03  energy without entropy=  -0.261689374944E+03


--------------------------------------------------------------------------------------------------------




--------------------------------------- Iteration      2(  38)  ---------------------------------------


    POTLOK:  cpu time    0.4641: real time    0.4950
    SETDIJ:  cpu time    0.0412: real time    0.0411
    EDDIAG:  cpu time    7.5361: real time    7.5437
  RMM-DIIS:  cpu time   20.8023: real time   20.8978
    ORTHCH:  cpu time    0.3929: real time    0.3929
       DOS:  cpu time    0.0257: real time    0.0257
    CHARGE:  cpu time    3.3592: real time    3.7776
    MIXING:  cpu time    0.0387: real time    0.0387
    --------------------------------------------
      LOOP:  cpu time   32.6601: real time   33.2124

 eigenvalue-minimisations  :  6926
 total energy-change (2. order) :-0.6141252E-04  (-0.3278156E-04)
 number of electron     282.9999987 magnetization      26.9858558
 augmentation part      100.4813701 magnetization      18.2454861

 eigenvalues of (default mixing * dielectric matrix)
  average eigenvalue GAMMA=   1.1430
  9.8446  3.3966  2.3106  2.3106  2.2974  2.2974  1.1938  1.1938  0.9349  0.9349
  1.1309  1.1309  0.9129  0.9129  0.3546  0.3546  0.8042  0.8042  0.7601  0.7601
  0.1597  0.1597  0.1805  0.1805  0.6322  0.6322  0.5906  0.5906  0.6028  0.6028
  0.5120  0.5120  0.4745  0.4237  0.5111  0.5111  0.3751

  free energy =  -0.261695471542E+03  energy without entropy=  -0.261688226603E+03


--------------------------------------------------------------------------------------------------------




--------------------------------------- Iteration      2(  39)  ---------------------------------------


    POTLOK:  cpu time    0.4834: real time    0.5745
    SETDIJ:  cpu time    0.0411: real time    0.0411
    EDDIAG:  cpu time    7.6283: real time    7.6475
  RMM-DIIS:  cpu time   21.4793: real time   21.5100
    ORTHCH:  cpu time    0.3931: real time    0.3930
       DOS:  cpu time    0.0256: real time    0.0256
    CHARGE:  cpu time    3.0103: real time    3.0137
    MIXING:  cpu time    0.0264: real time    0.0264
    --------------------------------------------
      LOOP:  cpu time   33.0875: real time   33.2318

 eigenvalue-minimisations  :  7176
 total energy-change (2. order) :-0.3649855E-03  (-0.8100380E-04)
 number of electron     282.9999987 magnetization      26.9525589
 augmentation part      100.4754636 magnetization      18.2090090

 eigenvalues of (default mixing * dielectric matrix)
  average eigenvalue GAMMA=   1.1387
  9.0618  4.0741  2.3173  2.3173  2.3214  2.3214  1.0604  1.0604  1.2035  1.2035
  1.1031  1.1031  0.3546  0.3546  0.8077  0.8077  0.8733  0.8733  0.7466  0.7466
  0.7736  0.7736  0.1805  0.1805  0.1597  0.1597  0.5939  0.5939  0.6147  0.6147
  0.5863  0.5863  0.4237  0.4756  0.5151  0.5151  0.4067  0.4067

  free energy =  -0.261695836528E+03  energy without entropy=  -0.261687338014E+03


--------------------------------------------------------------------------------------------------------




--------------------------------------- Iteration      2(  40)  ---------------------------------------


    POTLOK:  cpu time    0.4969: real time    0.4971
    SETDIJ:  cpu time    0.0409: real time    0.0409
    EDDIAG:  cpu time    7.5446: real time    7.5585
  RMM-DIIS:  cpu time   22.3522: real time   22.7691
    ORTHCH:  cpu time    0.3916: real time    0.3925
       DOS:  cpu time    0.0260: real time    0.0260
    CHARGE:  cpu time    3.0317: real time    3.0343
    MIXING:  cpu time    0.0271: real time    0.0271
    --------------------------------------------
      LOOP:  cpu time   33.9111: real time   34.3455

 eigenvalue-minimisations  :  7199
 total energy-change (2. order) :-0.1528316E-01  (-0.4314380E-03)
 number of electron     282.9999987 magnetization      26.9385408
 augmentation part      100.4511542 magnetization      18.1753026

 eigenvalues of (default mixing * dielectric matrix)
  average eigenvalue GAMMA=   1.1167
  8.9408  4.0318  2.3129  2.3129  2.3170  2.3170  1.1135  1.1135  1.2074  1.2074
  1.0846  1.0846  0.8833  0.8833  0.3546  0.3546  0.8733  0.8733  0.7532  0.7532
  0.7683  0.7683  0.1805  0.1805  0.1597  0.1597  0.5932  0.5932  0.6156  0.6156
  0.5871  0.5871  0.5141  0.5141  0.4755  0.4237  0.3998  0.3998  0.2423

  free energy =  -0.261711119685E+03  energy without entropy=  -0.261699212588E+03


--------------------------------------------------------------------------------------------------------




--------------------------------------- Iteration      2(  41)  ---------------------------------------


    POTLOK:  cpu time    0.4643: real time    0.4961
    SETDIJ:  cpu time    0.0410: real time    0.0410
    EDDIAG:  cpu time    7.5659: real time    7.5728
  RMM-DIIS:  cpu time   20.9387: real time   20.9712
    ORTHCH:  cpu time    0.3926: real time    0.3934
       DOS:  cpu time    0.0259: real time    0.0259
    CHARGE:  cpu time    3.0148: real time    3.0237
    MIXING:  cpu time    0.0279: real time    0.0280
    --------------------------------------------
      LOOP:  cpu time   32.4711: real time   32.5521

 eigenvalue-minimisations  :  6927
 total energy-change (2. order) :-0.1556346E-01  (-0.1362725E-03)
 number of electron     282.9999987 magnetization      26.9615729
 augmentation part      100.4413001 magnetization      18.1894991

 eigenvalues of (default mixing * dielectric matrix)
  average eigenvalue GAMMA=   1.1380
  9.0182  4.3778  2.3341  2.3341  2.4227  2.4227  1.0533  1.0533  1.2174  1.2174
  0.7667  1.0816  1.0816  1.0562  1.0562  0.3546  0.3546  0.7584  0.7584  0.8401
  0.8401  0.7874  0.7874  0.1805  0.1805  0.1597  0.1597  0.5912  0.5912  0.6106
  0.6106  0.5786  0.5786  0.4237  0.5158  0.5158  0.4819  0.4873  0.4408  0.4408

  free energy =  -0.261726683141E+03  energy without entropy=  -0.261713484454E+03


--------------------------------------------------------------------------------------------------------




--------------------------------------- Iteration      2(  42)  ---------------------------------------


    POTLOK:  cpu time    0.4635: real time    0.4957
    SETDIJ:  cpu time    0.0409: real time    0.0409
    EDDIAG:  cpu time    7.5454: real time    7.5523
  RMM-DIIS:  cpu time   23.6606: real time   24.1061
    ORTHCH:  cpu time    0.3938: real time    0.3947
       DOS:  cpu time    0.0257: real time    0.0257
    CHARGE:  cpu time    3.0372: real time    3.0399
    MIXING:  cpu time    0.0288: real time    0.0288
    --------------------------------------------
      LOOP:  cpu time   35.1960: real time   35.6842

 eigenvalue-minimisations  :  7442
 total energy-change (2. order) :-0.1951877E-01  (-0.1329877E-03)
 number of electron     282.9999987 magnetization      26.9151721
 augmentation part      100.4245076 magnetization      18.1270981

 eigenvalues of (default mixing * dielectric matrix)
  average eigenvalue GAMMA=   1.1200
  6.6710  6.1335  2.2318  2.2318  2.2919  2.2919  1.4257  1.4257  1.1896  1.1896
  1.1322  1.1322  1.1190  1.1190  0.7584  0.7584  0.8357  0.8357  0.8098  0.8098
  0.3546  0.3546  0.6237  0.6237  0.1597  0.1597  0.1805  0.1805  0.5906  0.5906
  0.6115  0.6115  0.5909  0.5909  0.4237  0.5231  0.5231  0.4791  0.4931  0.4316
  0.4316

  free energy =  -0.261746201915E+03  energy without entropy=  -0.261734063839E+03


--------------------------------------------------------------------------------------------------------




--------------------------------------- Iteration      2(  43)  ---------------------------------------


    POTLOK:  cpu time    0.4681: real time    0.5023
    SETDIJ:  cpu time    0.0442: real time    0.0453
    EDDIAG:  cpu time    7.5806: real time    7.5908
  RMM-DIIS:  cpu time   21.3615: real time   21.3894
    ORTHCH:  cpu time    0.3920: real time    0.3930
       DOS:  cpu time    0.0254: real time    0.0254
    CHARGE:  cpu time    3.0032: real time    3.0062
    MIXING:  cpu time    0.0297: real time    0.0297
    --------------------------------------------
      LOOP:  cpu time   32.9048: real time   32.9820

 eigenvalue-minimisations  :  7095
 total energy-change (2. order) :-0.1172310E-01  (-0.2605747E-03)
 number of electron     282.9999987 magnetization      26.8393910
 augmentation part      100.4209177 magnetization      18.0486046

 eigenvalues of (default mixing * dielectric matrix)
  average eigenvalue GAMMA=   1.1397
  6.0504  6.0504  2.3311  2.3311  2.1697  2.1697  1.9922  1.9922  1.5253  1.5253
  1.1858  1.1858  1.1313  1.1313  0.3546  0.3546  0.8840  0.8840  0.7597  0.7597
  0.8276  0.8276  0.6488  0.6488  0.1805  0.1805  0.1597  0.1597  0.6273  0.6273
  0.5897  0.5897  0.5839  0.5839  0.4237  0.5208  0.5208  0.4765  0.5209  0.5209
  0.4399  0.4399

  free energy =  -0.261757925017E+03  energy without entropy=  -0.261743953489E+03


--------------------------------------------------------------------------------------------------------




--------------------------------------- Iteration      2(  44)  ---------------------------------------


    POTLOK:  cpu time    0.4643: real time    0.4952
    SETDIJ:  cpu time    0.0400: real time    0.0407
    EDDIAG:  cpu time    7.5599: real time    7.5919
  RMM-DIIS:  cpu time   22.5242: real time   23.0247
    ORTHCH:  cpu time    0.3934: real time    0.3933
       DOS:  cpu time    0.0255: real time    0.0255
    CHARGE:  cpu time    3.0429: real time    3.0464
    MIXING:  cpu time    0.0310: real time    0.0310
    --------------------------------------------
      LOOP:  cpu time   34.0810: real time   34.6486

 eigenvalue-minimisations  :  7307
 total energy-change (2. order) :-0.1925489E-01  (-0.7642108E-03)
 number of electron     282.9999987 magnetization      26.7456553
 augmentation part      100.4200733 magnetization      17.9563964

 eigenvalues of (default mixing * dielectric matrix)
  average eigenvalue GAMMA=   1.1668
  5.8918  5.8918  3.0703  3.0703  2.2851  2.2851  2.1907  2.1907  1.3989  1.3989
  1.1838  1.1838  1.1478  1.1478  0.9967  0.9967  0.3546  0.3546  0.7596  0.7596
  0.7966  0.7966  0.6095  0.6095  0.1805  0.1805  0.1597  0.1597  0.6651  0.6651
  0.5872  0.5872  0.5885  0.5885  0.5800  0.5800  0.4237  0.5119  0.5119  0.4773
  0.4773  0.4387  0.4387

  free energy =  -0.261777179906E+03  energy without entropy=  -0.261761574874E+03


--------------------------------------------------------------------------------------------------------




--------------------------------------- Iteration      2(  45)  ---------------------------------------


    POTLOK:  cpu time    0.4955: real time    0.4956
    SETDIJ:  cpu time    0.0410: real time    0.0410
    EDDIAG:  cpu time    7.5735: real time    7.5894
  RMM-DIIS:  cpu time   21.8521: real time   21.9169
    ORTHCH:  cpu time    0.3922: real time    0.3931
       DOS:  cpu time    0.0257: real time    0.0257
    CHARGE:  cpu time    3.0047: real time    3.0073
    MIXING:  cpu time    0.0325: real time    0.0325
    --------------------------------------------
      LOOP:  cpu time   33.4171: real time   33.5016

 eigenvalue-minimisations  :  7235
 total energy-change (2. order) :-0.2517107E-01  (-0.1887187E-02)
 number of electron     282.9999987 magnetization      26.6946553
 augmentation part      100.4175283 magnetization      17.9059332

 eigenvalues of (default mixing * dielectric matrix)
  average eigenvalue GAMMA=   1.1803
  5.4800  5.4800  3.8939  3.8939  2.3880  2.3880  2.0806  2.0806  1.3879  1.3879
  1.1801  1.1801  1.1692  1.1692  0.9982  0.9982  0.3546  0.3546  0.7146  0.7146
  0.7590  0.7590  0.8235  0.8235  0.1805  0.1805  0.1597  0.1597  0.6557  0.6557
  0.6289  0.6289  0.5934  0.5934  0.5355  0.5355  0.5811  0.5811  0.4237  0.4768
  0.5206  0.5206  0.4310  0.4310

  free energy =  -0.261802350974E+03  energy without entropy=  -0.261785522231E+03


--------------------------------------------------------------------------------------------------------




--------------------------------------- Iteration      2(  46)  ---------------------------------------


    POTLOK:  cpu time    0.4667: real time    0.5004
    SETDIJ:  cpu time    0.0412: real time    0.0412
    EDDIAG:  cpu time    8.1311: real time    8.8396
  RMM-DIIS:  cpu time   21.9437: real time   21.9814
    ORTHCH:  cpu time    0.3939: real time    0.3939
       DOS:  cpu time    0.0245: real time    0.0245
    CHARGE:  cpu time    3.0222: real time    3.0258
    MIXING:  cpu time    0.0308: real time    0.0308
    --------------------------------------------
      LOOP:  cpu time   34.0540: real time   34.8376

 eigenvalue-minimisations  :  7321
 total energy-change (2. order) :-0.3846332E-01  (-0.1209224E-02)
 number of electron     282.9999987 magnetization      26.6696328
 augmentation part      100.4248266 magnetization      17.8911257

 eigenvalues of (default mixing * dielectric matrix)
  average eigenvalue GAMMA=   1.1032
  4.5541  4.5541  3.8703  2.0980  2.0980  1.8728  1.8728  1.8760  1.3105  1.3105
  1.1965  1.1965  1.0332  1.0332  0.1361  0.1361  0.4830  0.4830  1.0704  0.1047
  0.6998  0.6998  0.8623  0.8623  0.5849  0.5849  0.4988  0.4988  0.2902  0.6059
  0.6059  0.5616  0.5616  0.6631  0.6329  0.6329  0.4346  0.5058  0.5058  0.5465

  free energy =  -0.261840814293E+03  energy without entropy=  -0.261822895197E+03


--------------------------------------------------------------------------------------------------------




--------------------------------------- Iteration      2(  47)  ---------------------------------------


    POTLOK:  cpu time    0.4966: real time    0.4967
    SETDIJ:  cpu time    0.0408: real time    0.0408
    EDDIAG:  cpu time    7.5709: real time    7.5845
  RMM-DIIS:  cpu time   22.6106: real time   22.9656
    ORTHCH:  cpu time    0.4059: real time    0.4093
       DOS:  cpu time    0.0243: real time    0.0244
    CHARGE:  cpu time    2.9912: real time    3.0011
    MIXING:  cpu time    0.0292: real time    0.0292
    --------------------------------------------
      LOOP:  cpu time   34.1695: real time   34.5517

 eigenvalue-minimisations  :  7403
 total energy-change (2. order) :-0.5294108E-01  (-0.7900401E-03)
 number of electron     282.9999987 magnetization      26.7100133
 augmentation part      100.4180481 magnetization      17.9249684

 eigenvalues of (default mixing * dielectric matrix)
  average eigenvalue GAMMA=   1.1120
  4.3601  4.3601  4.6221  2.0676  2.0676  1.8667  1.8667  1.3668  1.3668  1.2590
  1.2590  1.5161  1.5161  0.1738  0.1738  0.6153  0.6153  0.9825  0.9825  0.7583
  0.7583  0.0979  0.9012  0.2713  0.5525  0.5525  0.4961  0.4961  0.6619  0.6619
  0.7315  0.7315  0.6342  0.6342  0.4402  0.4841  0.4841  0.5604  0.5604  0.5387
  0.5468

  free energy =  -0.261893755370E+03  energy without entropy=  -0.261876679020E+03


--------------------------------------------------------------------------------------------------------




--------------------------------------- Iteration      2(  48)  ---------------------------------------


    POTLOK:  cpu time    0.4644: real time    0.4970
    SETDIJ:  cpu time    0.0411: real time    0.0411
    EDDIAG:  cpu time    7.5436: real time    7.5565
  RMM-DIIS:  cpu time   22.4985: real time   22.5313
    ORTHCH:  cpu time    0.3919: real time    0.3994
       DOS:  cpu time    0.0255: real time    0.0255
    CHARGE:  cpu time    3.0333: real time    3.0361
    MIXING:  cpu time    0.0296: real time    0.0296
    --------------------------------------------
      LOOP:  cpu time   34.0278: real time   34.1163

 eigenvalue-minimisations  :  7559
 total energy-change (2. order) :-0.9382155E-01  (-0.1091707E-02)
 number of electron     282.9999987 magnetization      26.7091574
 augmentation part      100.3806120 magnetization      17.8872941

 eigenvalues of (default mixing * dielectric matrix)
  average eigenvalue GAMMA=   1.1334
  4.3039  4.3039  4.4703  2.8863  2.8863  1.7914  1.7914  1.5068  1.5068  1.2569
  1.2569  1.5284  1.5284  0.1488  0.1488  0.9903  0.9903  0.6155  0.6155  0.7539
  0.7539  0.0954  0.9316  0.3782  0.3782  0.6532  0.6532  0.5350  0.5350  0.2979
  0.6071  0.6071  0.7060  0.7060  0.5654  0.5654  0.6208  0.6208  0.4787  0.5426
  0.5426  0.5490

  free energy =  -0.261987576923E+03  energy without entropy=  -0.261982435534E+03


--------------------------------------------------------------------------------------------------------




--------------------------------------- Iteration      2(  49)  ---------------------------------------


    POTLOK:  cpu time    0.4955: real time    0.4966
    SETDIJ:  cpu time    0.0411: real time    0.0411
    EDDIAG:  cpu time    7.5739: real time    7.5812
  RMM-DIIS:  cpu time   22.7266: real time   23.1749
    ORTHCH:  cpu time    0.3924: real time    0.3933
       DOS:  cpu time    0.0254: real time    0.0254
    CHARGE:  cpu time    3.0055: real time    3.0082
    MIXING:  cpu time    0.0308: real time    0.0308
    --------------------------------------------
      LOOP:  cpu time   34.2912: real time   34.7514

 eigenvalue-minimisations  :  7356
 total energy-change (2. order) :-0.7631527E-01  (-0.6848873E-03)
 number of electron     282.9999987 magnetization      26.7114194
 augmentation part      100.3457468 magnetization      17.8555405

 eigenvalues of (default mixing * dielectric matrix)
  average eigenvalue GAMMA=   1.1138
  4.2882  4.2882  4.4626  2.9009  2.9009  1.6953  1.6953  1.5635  1.5635  1.5982
  1.5982  1.2580  1.2580  0.2023  0.7385  0.7385  0.9974  0.9974  0.0477  0.0477
  0.7310  0.7310  0.9301  0.3089  0.3089  0.2121  0.6562  0.6562  0.5339  0.5339
  0.2990  0.6097  0.6097  0.6986  0.6986  0.6264  0.6264  0.5743  0.5743  0.5331
  0.5331  0.5490  0.5178

  free energy =  -0.262063892192E+03  energy without entropy=  -0.262074397465E+03


--------------------------------------------------------------------------------------------------------




--------------------------------------- Iteration      2(  50)  ---------------------------------------


    POTLOK:  cpu time    0.4640: real time    0.4964
    SETDIJ:  cpu time    0.0413: real time    0.0413
    EDDIAG:  cpu time    7.5590: real time    7.5806
  RMM-DIIS:  cpu time   21.1713: real time   21.1924
    ORTHCH:  cpu time    0.3930: real time    0.3930
       DOS:  cpu time    0.0246: real time    0.0246
    CHARGE:  cpu time    3.0255: real time    3.0294
    MIXING:  cpu time    0.0317: real time    0.0317
    --------------------------------------------
      LOOP:  cpu time   32.7105: real time   32.7895

 eigenvalue-minimisations  :  7024
 total energy-change (2. order) :-0.4213736E-01  (-0.3261181E-03)
 number of electron     282.9999987 magnetization      26.7057020
 augmentation part      100.3267502 magnetization      17.8292574

 eigenvalues of (default mixing * dielectric matrix)
  average eigenvalue GAMMA=   1.1200
  4.5842  4.5842  4.2837  2.8072  2.8072  1.5897  1.5897  1.6794  1.6794  1.5794
  1.5794  1.2636  1.2636  0.5044  0.8003  0.8003  0.9772  0.9772  0.0930  0.0930
  0.9583  0.7205  0.7205  0.2892  0.2892  0.6778  0.6778  0.2257  0.2954  0.5409
  0.5409  0.7388  0.7388  0.6497  0.6497  0.5650  0.5650  0.6317  0.6317  0.5190
  0.5190  0.5079  0.5533  0.5399

  free energy =  -0.262106029550E+03  energy without entropy=  -0.262123313195E+03


--------------------------------------------------------------------------------------------------------




--------------------------------------- Iteration      2(  51)  ---------------------------------------


    POTLOK:  cpu time    0.4672: real time    0.4981
    SETDIJ:  cpu time    0.0411: real time    0.0411
    EDDIAG:  cpu time    7.5943: real time    7.6439
  RMM-DIIS:  cpu time   22.6542: real time   23.0479
    ORTHCH:  cpu time    0.3948: real time    0.3948
       DOS:  cpu time    0.0243: real time    0.0243
    CHARGE:  cpu time    3.0011: real time    3.0035
    MIXING:  cpu time    0.0307: real time    0.0307
    --------------------------------------------
      LOOP:  cpu time   34.2075: real time   34.6842

 eigenvalue-minimisations  :  7241
 total energy-change (2. order) :-0.2242640E-01  (-0.2109683E-03)
 number of electron     282.9999987 magnetization      26.7642202
 augmentation part      100.3126831 magnetization      17.8778921

 eigenvalues of (default mixing * dielectric matrix)
  average eigenvalue GAMMA=   0.9292
  3.5309  2.0940  2.0940  2.2263  1.7290  1.7290  1.4410  1.4410  1.2574  1.2574
  0.3600  0.6154  0.6154  1.0693  1.0693  1.0593  0.7920  0.7920  0.0456  0.3816
  0.3816  0.5487  0.5487  0.2505  0.3161  0.3161  0.8054  0.8054  0.8675  0.6682
  0.6682  0.4445  0.6736  0.6736  0.7131  0.4991  0.6081  0.6081  0.6022  0.5712

  free energy =  -0.262128455955E+03  energy without entropy=  -0.262147028752E+03


--------------------------------------------------------------------------------------------------------




--------------------------------------- Iteration      2(  52)  ---------------------------------------


    POTLOK:  cpu time    0.4648: real time    0.4976
    SETDIJ:  cpu time    0.0410: real time    0.0410
    EDDIAG:  cpu time    7.5509: real time    7.5724
  RMM-DIIS:  cpu time   21.9556: real time   22.0368
    ORTHCH:  cpu time    0.3980: real time    0.3989
       DOS:  cpu time    0.0222: real time    0.0222
    CHARGE:  cpu time    3.0103: real time    3.0165
    MIXING:  cpu time    0.0291: real time    0.0291
    --------------------------------------------
      LOOP:  cpu time   33.4720: real time   33.6146

 eigenvalue-minimisations  :  7303
 total energy-change (2. order) :-0.8081324E-02  (-0.9964173E-03)
 number of electron     282.9999987 magnetization      26.7723705
 augmentation part      100.3109235 magnetization      17.8799535

 eigenvalues of (default mixing * dielectric matrix)
  average eigenvalue GAMMA=   0.9388
  3.6922  2.0817  2.0817  2.2356  0.8010  1.7802  1.7802  1.6001  1.6001  1.2735
  1.2735  0.5879  0.5879  1.1259  1.1259  0.8520  0.8520  0.3076  0.3076  0.0884
  0.0884  0.5548  0.5548  0.9484  0.9484  0.7730  0.7730  0.3204  0.3699  0.3699
  0.6569  0.6569  0.4979  0.4979  0.6775  0.6775  0.7015  0.6027  0.6027  0.5704
  0.6145

  free energy =  -0.262136537279E+03  energy without entropy=  -0.262158164340E+03


--------------------------------------------------------------------------------------------------------




--------------------------------------- Iteration      2(  53)  ---------------------------------------


    POTLOK:  cpu time    0.4649: real time    0.4969
    SETDIJ:  cpu time    0.0410: real time    0.0410
    EDDIAG:  cpu time    8.1297: real time    8.5636
  RMM-DIIS:  cpu time   23.9256: real time   23.9687
    ORTHCH:  cpu time    0.3931: real time    0.3931
       DOS:  cpu time    0.0250: real time    0.0250
    CHARGE:  cpu time    2.9910: real time    2.9946
    MIXING:  cpu time    0.0299: real time    0.0299
    --------------------------------------------
      LOOP:  cpu time   36.0002: real time   36.5128

 eigenvalue-minimisations  :  7969
 total energy-change (2. order) :-0.1826158E-01  (-0.9814051E-04)
 number of electron     282.9999987 magnetization      26.7564888
 augmentation part      100.3061351 magnetization      17.8592783

 eigenvalues of (default mixing * dielectric matrix)
  average eigenvalue GAMMA=   0.9337
  3.3612  1.4939  1.9758  1.9758  2.2942  1.8151  1.8151  1.2568  1.2568  1.5239
  1.5239  1.1424  1.1424  0.1405  0.5866  0.5866  0.2617  0.2617  0.8812  0.8812
  0.2769  0.2769  0.9610  0.9610  0.5335  0.5335  0.3615  0.3615  0.7758  0.7758
  0.3699  0.6536  0.6536  0.6927  0.6927  0.7079  0.5357  0.5357  0.6383  0.5703
  0.5853  0.5853

  free energy =  -0.262154798857E+03  energy without entropy=  -0.262177208957E+03


--------------------------------------------------------------------------------------------------------




--------------------------------------- Iteration      2(  54)  ---------------------------------------


    POTLOK:  cpu time    0.4922: real time    0.4962
    SETDIJ:  cpu time    0.0412: real time    0.0412
    EDDIAG:  cpu time    7.5460: real time    7.5601
  RMM-DIIS:  cpu time   21.0797: real time   21.4321
    ORTHCH:  cpu time    0.4121: real time    0.4136
       DOS:  cpu time    0.0253: real time    0.0253
    CHARGE:  cpu time    3.0771: real time    3.0939
    MIXING:  cpu time    0.0410: real time    0.0422
    --------------------------------------------
      LOOP:  cpu time   32.7146: real time   33.1045

 eigenvalue-minimisations  :  6891
 total energy-change (2. order) : 0.1599873E-01  (-0.6585445E-04)
 number of electron     282.9999987 magnetization      26.7445318
 augmentation part      100.3076702 magnetization      17.8478243

 eigenvalues of (default mixing * dielectric matrix)
  average eigenvalue GAMMA=   0.9327
  3.4721  2.0814  2.0814  2.1988  1.0843  1.0843  1.5922  1.5922  1.8885  0.6917
  0.6917  1.3884  1.3884  1.3829  1.0501  1.0501  0.2951  0.2951  0.0463  0.9335
  0.9335  0.7877  0.7877  0.5542  0.5542  0.3094  0.3094  0.2802  0.4520  0.4520
  0.7737  0.7737  0.6438  0.6438  0.7190  0.7190  0.5412  0.5412  0.6403  0.6327
  0.6327  0.5671  0.5671

  free energy =  -0.262138800122E+03  energy without entropy=  -0.262159710658E+03


--------------------------------------------------------------------------------------------------------




--------------------------------------- Iteration      2(  55)  ---------------------------------------


    POTLOK:  cpu time    0.4751: real time    0.4782
    SETDIJ:  cpu time    0.0438: real time    0.0438
    EDDIAG:  cpu time    7.5789: real time    7.5878
  RMM-DIIS:  cpu time   21.4125: real time   21.4390
    ORTHCH:  cpu time    0.3929: real time    0.3929
       DOS:  cpu time    0.0249: real time    0.0250
    CHARGE:  cpu time    3.0142: real time    3.0230
    MIXING:  cpu time    0.0320: real time    0.0320
    --------------------------------------------
      LOOP:  cpu time   32.9744: real time   33.0217

 eigenvalue-minimisations  :  7115
 total energy-change (2. order) : 0.1390404E-01  (-0.1217199E-03)
 number of electron     282.9999987 magnetization      26.7492270
 augmentation part      100.3127641 magnetization      17.8555463

 eigenvalues of (default mixing * dielectric matrix)
  average eigenvalue GAMMA=   0.9576
  3.1274  2.9581  2.0972  2.0972  1.4172  1.4172  1.6638  1.6638  1.7334  1.7334
  0.6684  0.6684  1.3917  1.3917  1.0131  1.0131  0.2816  0.2816  0.1705  0.1705
  0.5579  0.5579  0.8335  0.8335  0.6236  0.6236  0.3386  0.3386  0.7651  0.7651
  0.8458  0.8458  0.3709  0.7422  0.7422  0.6311  0.6311  0.5407  0.5407  0.5672
  0.5672  0.6320  0.6320  0.6498

  free energy =  -0.262124896080E+03  energy without entropy=  -0.262144187924E+03


--------------------------------------------------------------------------------------------------------




--------------------------------------- Iteration      2(  56)  ---------------------------------------


    POTLOK:  cpu time    0.4639: real time    0.4651
    SETDIJ:  cpu time    0.0410: real time    0.0410
    EDDIAG:  cpu time    7.5475: real time    7.5543
  RMM-DIIS:  cpu time   22.7331: real time   23.1947
    ORTHCH:  cpu time    0.3922: real time    0.3932
       DOS:  cpu time    0.0251: real time    0.0251
    CHARGE:  cpu time    3.0259: real time    3.0286
    MIXING:  cpu time    0.0320: real time    0.0327
    --------------------------------------------
      LOOP:  cpu time   34.2608: real time   34.7346

 eigenvalue-minimisations  :  7417
 total energy-change (2. order) : 0.1435852E-01  (-0.2540360E-03)
 number of electron     282.9999987 magnetization      26.7614739
 augmentation part      100.3232811 magnetization      17.8757360

 eigenvalues of (default mixing * dielectric matrix)
  average eigenvalue GAMMA=   0.9930
  3.8124  2.9481  2.9481  2.0603  2.0603  1.3306  1.3306  1.6547  1.3024  1.3024
  1.3536  1.3536  0.1526  0.4891  0.4891  1.1356  1.0307  0.7541  0.7541  0.1087
  0.6024  0.6024  0.3423  0.3423  0.2989  0.2989  0.8284  0.8284  0.6558  0.6558
  0.6589  0.6589  0.5252  0.5252  0.6760  0.5994  0.5994  0.6290  0.5030  0.5204

  free energy =  -0.262110537558E+03  energy without entropy=  -0.262125526491E+03


--------------------------------------------------------------------------------------------------------




--------------------------------------- Iteration      2(  57)  ---------------------------------------


    POTLOK:  cpu time    0.4642: real time    0.4648
    SETDIJ:  cpu time    0.0411: real time    0.0410
    EDDIAG:  cpu time    7.5636: real time    7.5866
  RMM-DIIS:  cpu time   22.7220: real time   22.7579
    ORTHCH:  cpu time    0.3929: real time    0.3929
       DOS:  cpu time    0.0258: real time    0.0258
    CHARGE:  cpu time    3.0029: real time    3.0059
    MIXING:  cpu time    0.0297: real time    0.0296
    --------------------------------------------
      LOOP:  cpu time   34.2421: real time   34.3046

 eigenvalue-minimisations  :  7603
 total energy-change (2. order) : 0.1012334E-01  (-0.6260968E-03)
 number of electron     282.9999987 magnetization      26.8006695
 augmentation part      100.3492285 magnetization      17.9387110

 eigenvalues of (default mixing * dielectric matrix)
  average eigenvalue GAMMA=   1.0119
  3.5901  3.9203  2.3325  2.3325  2.4349  1.4421  1.4421  1.3169  1.3169  1.6132
  0.5154  0.5154  1.2121  1.2121  0.1023  1.1326  1.1326  0.8737  0.8737  0.1229
  0.5748  0.5748  0.1926  0.9791  0.3353  0.3353  0.6937  0.6937  0.8127  0.5184
  0.5184  0.4381  0.6638  0.6638  0.6754  0.5362  0.5362  0.5175  0.5839  0.5839
  0.6286

  free energy =  -0.262100414215E+03  energy without entropy=  -0.262103299792E+03


--------------------------------------------------------------------------------------------------------




--------------------------------------- Iteration      2(  58)  ---------------------------------------


    POTLOK:  cpu time    0.4642: real time    0.4651
    SETDIJ:  cpu time    0.0410: real time    0.0410
    EDDIAG:  cpu time    7.5316: real time    7.5944
  RMM-DIIS:  cpu time   22.8850: real time   23.2307
    ORTHCH:  cpu time    0.3889: real time    0.3896
       DOS:  cpu time    0.0259: real time    0.0259
    CHARGE:  cpu time    2.9885: real time    2.9910
    MIXING:  cpu time    0.0298: real time    0.0298
    --------------------------------------------
      LOOP:  cpu time   34.3549: real time   34.7675

 eigenvalue-minimisations  :  7503
 total energy-change (2. order) :-0.6606842E-01  (-0.2613747E-03)
 number of electron     282.9999987 magnetization      26.8030974
 augmentation part      100.3522779 magnetization      17.9447534

 eigenvalues of (default mixing * dielectric matrix)
  average eigenvalue GAMMA=   1.0157
  4.5515  2.5139  2.3059  2.3059  2.2577  1.5016  1.5016  0.7090  1.6807  1.4060
  1.4060  1.3251  1.3251  1.3830  1.2398  1.1224  0.7501  0.7501  0.0624  0.4353
  0.4353  0.1543  0.6189  0.6189  0.2846  0.2846  0.7421  0.7421  0.8110  0.4890
  0.4890  0.6925  0.6925  0.6304  0.6304  0.5731  0.5731  0.5564  0.5564  0.5080
  0.5211  0.5211

  free energy =  -0.262166482639E+03  energy without entropy=  -0.262171324169E+03


--------------------------------------------------------------------------------------------------------




--------------------------------------- Iteration      2(  59)  ---------------------------------------


    POTLOK:  cpu time    0.4638: real time    0.4647
    SETDIJ:  cpu time    0.0406: real time    0.0406
    EDDIAG:  cpu time    7.5221: real time    7.5402
  RMM-DIIS:  cpu time   23.5522: real time   23.6420
    ORTHCH:  cpu time    0.3878: real time    0.3878
       DOS:  cpu time    0.0259: real time    0.0259
    CHARGE:  cpu time    2.9883: real time    3.0132
    MIXING:  cpu time    0.0307: real time    0.0307
    --------------------------------------------
      LOOP:  cpu time   35.0115: real time   35.1452

 eigenvalue-minimisations  :  7884
 total energy-change (2. order) :-0.1039598E-02  (-0.1836503E-03)
 number of electron     282.9999987 magnetization      26.8298913
 augmentation part      100.3704770 magnetization      17.9895998

 eigenvalues of (default mixing * dielectric matrix)
  average eigenvalue GAMMA=   1.0225
  4.7881  2.3684  2.2928  2.2928  2.2154  1.5506  1.5506  0.7713  1.9312  1.5621
  1.5621  1.3096  1.3096  1.3568  1.1427  1.1427  0.7896  0.7896  0.1129  0.1129
  0.2648  0.2648  0.3944  0.3944  0.5781  0.5781  0.7409  0.7409  0.8007  0.7573
  0.7573  0.5002  0.5002  0.6767  0.5942  0.5942  0.6234  0.5874  0.5874  0.5308
  0.5308  0.4920  0.5252

  free energy =  -0.262167522237E+03  energy without entropy=  -0.262163075334E+03


--------------------------------------------------------------------------------------------------------




--------------------------------------- Iteration      2(  60)  ---------------------------------------


    POTLOK:  cpu time    0.5329: real time    0.5970
    SETDIJ:  cpu time    0.0767: real time    0.0848
    EDDIAG:  cpu time    8.1868: real time    8.4304
  RMM-DIIS:  cpu time   20.3798: real time   20.4547
    ORTHCH:  cpu time    0.3870: real time    0.3880
       DOS:  cpu time    0.0257: real time    0.0257
    --------------------------------------------
      LOOP:  cpu time   29.5889: real time   29.9806

 eigenvalue-minimisations  :  6807
 total energy-change (2. order) :-0.2711928E-01  (-0.1240053E-03)
 number of electron     282.9999987 magnetization      26.8298913
 augmentation part      100.3704770 magnetization      17.9895998

  free energy =  -0.262194641517E+03  energy without entropy=  -0.262188088658E+03


--------------------------------------------------------------------------------------------------------




 average (electrostatic) potential at core
  the test charge radii are     0.9577  0.7215  0.5201
  (the norm of the test charge is              1.0000)
       1 -76.7459       2 -76.7048       3 -76.8117       4 -76.7567       5 -76.7278
       6 -76.4436       7 -76.8190       8 -76.9161       9 -75.1559      10 -75.2823
      11 -75.2256      12 -74.9576      13 -75.7313      14 -76.2676      15 -76.5662
      16 -76.6958      17 -76.5650      18 -76.6999      19 -76.4201      20 -77.6109
      21 -75.5551      22 -76.5400      23 -76.7258      24 -76.2550      25 -76.5360
      26 -76.8852      27 -76.9164      28 -76.3391      29 -76.5520      30 -76.8504
      31 -76.7879      32 -76.7264      33 -40.4965      34 -38.8712      35 -40.4097
      36 -39.8494      37 -41.7253      38 -41.0875      39 -40.2548
 
 
 
 E-fermi :  -1.4404     XC(G=0):  -3.3767     alpha+bet : -3.3905


 spin component 1

 k-point     1 :       0.0000    0.0000    0.0000
  band No.  band energies     occupation 
      1     -52.2042      1.00000
      2     -52.1475      1.00000
      3     -52.1425      1.00000
      4     -52.1374      1.00000
      5     -52.1266      1.00000
      6     -52.1203      1.00000
      7     -52.0962      1.00000
      8     -52.0839      1.00000
      9     -51.9775      1.00000
     10     -51.8751      1.00000
     11     -51.8541      1.00000
     12     -51.8457      1.00000
     13     -51.8242      1.00000
     14     -51.8216      1.00000
     15     -51.5280      1.00000
     16     -51.0056      1.00000
     17     -50.9632      1.00000
     18     -50.9254      1.00000
     19     -50.9204      1.00000
     20     -50.9030      1.00000
     21     -50.8715      1.00000
     22     -50.8029      1.00000
     23     -50.7714      1.00000
     24     -50.7533      1.00000
     25     -50.6544      1.00000
     26     -50.6181      1.00000
     27     -50.5698      1.00000
     28     -48.2665      1.00000
     29     -48.2548      1.00000
     30     -48.2346      1.00000
     31     -48.2178      1.00000
     32     -48.2111      1.00000
     33     -48.0058      1.00000
     34     -47.2825      1.00000
     35     -47.2594      1.00000
     36     -47.1997      1.00000
     37     -21.5973      1.00000
     38     -20.8933      1.00000
     39     -20.6426      1.00000
     40     -20.3797      1.00000
     41     -20.2144      1.00000
     42     -19.9946      1.00000
     43     -19.9802      1.00000
     44     -19.8064      1.00000
     45     -19.6693      1.00000
     46     -19.5450      1.00000
     47     -19.5131      1.00000
     48     -19.5092      1.00000
     49     -19.4383      1.00000
     50     -19.3943      1.00000
     51     -19.3000      1.00000
     52     -19.2835      1.00000
     53     -19.2467      1.00000
     54     -19.1963      1.00000
     55     -18.3806      1.00000
     56     -18.3105      1.00000
     57      -9.9813      1.00000
     58      -9.0090      1.00000
     59      -8.7619      1.00000
     60      -8.6514      1.00000
     61      -8.5356      1.00000
     62      -8.3425      1.00000
     63      -8.1245      1.00000
     64      -8.0291      1.00000
     65      -7.9602      1.00000
     66      -7.8803      1.00000
     67      -7.8152      1.00000
     68      -7.7686      1.00000
     69      -7.6963      1.00000
     70      -7.5765      1.00000
     71      -7.4555      1.00000
     72      -7.4249      1.00000
     73      -7.2317      1.00000
     74      -7.2085      1.00000
     75      -7.1420      1.00000
     76      -7.0699      1.00000
     77      -7.0178      1.00000
     78      -6.9917      1.00000
     79      -6.8933      1.00000
     80      -6.8413      1.00000
     81      -6.7622      1.00000
     82      -6.7066      1.00000
     83      -6.7009      1.00000
     84      -6.6331      1.00000
     85      -6.5923      1.00000
     86      -6.5334      1.00000
     87      -6.4345      1.00000
     88      -6.3915      1.00000
     89      -6.3532      1.00000
     90      -6.2674      1.00000
     91      -6.2316      1.00000
     92      -6.1452      1.00000
     93      -6.0925      1.00000
     94      -6.0387      1.00000
     95      -5.9472      1.00000
     96      -5.9294      1.00000
     97      -5.8415      1.00000
     98      -5.7967      1.00000
     99      -5.7551      1.00000
    100      -5.6386      1.00000
    101      -5.6081      1.00000
    102      -5.4690      1.00000
    103      -5.3428      1.00000
    104      -5.2295      1.00000
    105      -5.1985      1.00000
    106      -5.1763      1.00000
    107      -5.1119      1.00000
    108      -5.0029      1.00000
    109      -4.9557      1.00000
    110      -4.9121      1.00000
    111      -4.8467      1.00000
    112      -4.8305      1.00000
    113      -4.7615      1.00000
    114      -4.7348      1.00000
    115      -4.7040      1.00000
    116      -4.7000      1.00000
    117      -4.6586      1.00000
    118      -4.6098      1.00000
    119      -4.5623      1.00000
    120      -4.4647      1.00000
    121      -4.3744      1.00000
    122      -4.2670      1.00000
    123      -4.2398      1.00000
    124      -4.1859      1.00000
    125      -4.0880      1.00000
    126      -4.0297      1.00000
    127      -3.9762      1.00000
    128      -3.9484      1.00000
    129      -3.8714      1.00000
    130      -3.8413      1.00000
    131      -3.7638      1.00000
    132      -3.6971      1.00000
    133      -3.6549      1.00000
    134      -3.6484      1.00000
    135      -3.5167      1.00000
    136      -3.3332      1.00000
    137      -3.2055      1.00000
    138      -3.1452      1.00000
    139      -3.0405      1.00000
    140      -2.9078      1.00000
    141      -2.8749      1.00000
    142      -2.7957      1.00000
    143      -2.6505      1.00000
    144      -2.6183      1.00000
    145      -2.4192      1.00000
    146      -2.2805      1.00000
    147      -2.2067      1.00000
    148      -2.1629      1.00000
    149      -2.0904      1.00002
    150      -1.9796      1.00046
    151      -1.8103      1.01261
    152      -1.7105      1.03342
    153      -1.6301      1.01889
    154      -1.5586      0.91598
    155      -1.2747      0.00294
    156      -1.2506     -0.01900
    157      -0.2358     -0.00000
    158      -0.0295     -0.00000
    159       0.0124     -0.00000
    160       0.1922     -0.00000
    161       0.3303     -0.00000
    162       0.5538     -0.00000
    163       1.3169     -0.00000
    164       1.5441     -0.00000
    165       1.5790     -0.00000
    166       1.7127     -0.00000
    167       1.7377     -0.00000
    168       1.8014     -0.00000
    169       1.9968     -0.00000
    170       2.0447     -0.00000
    171       2.0482     -0.00000
    172       2.2462     -0.00000
    173       2.2676     -0.00000
    174       2.5495     -0.00000
    175       2.6985     -0.00000
    176       2.7205     -0.00000
    177       2.8716     -0.00000
    178       3.1204     -0.00000

 k-point     2 :       0.2500    0.0000   -0.0000
  band No.  band energies     occupation 
      1     -52.2042      1.00000
      2     -52.1474      1.00000
      3     -52.1425      1.00000
      4     -52.1374      1.00000
      5     -52.1266      1.00000
      6     -52.1203      1.00000
      7     -52.0962      1.00000
      8     -52.0839      1.00000
      9     -51.9774      1.00000
     10     -51.8751      1.00000
     11     -51.8541      1.00000
     12     -51.8457      1.00000
     13     -51.8242      1.00000
     14     -51.8215      1.00000
     15     -51.5280      1.00000
     16     -51.0056      1.00000
     17     -50.9632      1.00000
     18     -50.9255      1.00000
     19     -50.9204      1.00000
     20     -50.9030      1.00000
     21     -50.8715      1.00000
     22     -50.8029      1.00000
     23     -50.7714      1.00000
     24     -50.7533      1.00000
     25     -50.6544      1.00000
     26     -50.6181      1.00000
     27     -50.5698      1.00000
     28     -48.2663      1.00000
     29     -48.2550      1.00000
     30     -48.2323      1.00000
     31     -48.2200      1.00000
     32     -48.2111      1.00000
     33     -48.0059      1.00000
     34     -47.2794      1.00000
     35     -47.2626      1.00000
     36     -47.1997      1.00000
     37     -21.5793      1.00000
     38     -20.8990      1.00000
     39     -20.5805      1.00000
     40     -20.3494      1.00000
     41     -20.2080      1.00000
     42     -20.0045      1.00000
     43     -19.9819      1.00000
     44     -19.8876      1.00000
     45     -19.6418      1.00000
     46     -19.5725      1.00000
     47     -19.5411      1.00000
     48     -19.5102      1.00000
     49     -19.4483      1.00000
     50     -19.4104      1.00000
     51     -19.2995      1.00000
     52     -19.2866      1.00000
     53     -19.2504      1.00000
     54     -19.1840      1.00000
     55     -18.3837      1.00000
     56     -18.3142      1.00000
     57      -9.9564      1.00000
     58      -8.9766      1.00000
     59      -8.6605      1.00000
     60      -8.5826      1.00000
     61      -8.5185      1.00000
     62      -8.2869      1.00000
     63      -8.0985      1.00000
     64      -8.0544      1.00000
     65      -7.9417      1.00000
     66      -7.8783      1.00000
     67      -7.8214      1.00000
     68      -7.7797      1.00000
     69      -7.6698      1.00000
     70      -7.6139      1.00000
     71      -7.5016      1.00000
     72      -7.3958      1.00000
     73      -7.2302      1.00000
     74      -7.1914      1.00000
     75      -7.0999      1.00000
     76      -7.0728      1.00000
     77      -7.0389      1.00000
     78      -6.9535      1.00000
     79      -6.8473      1.00000
     80      -6.8021      1.00000
     81      -6.7470      1.00000
     82      -6.6911      1.00000
     83      -6.6671      1.00000
     84      -6.6056      1.00000
     85      -6.5563      1.00000
     86      -6.4691      1.00000
     87      -6.4108      1.00000
     88      -6.3694      1.00000
     89      -6.3241      1.00000
     90      -6.2706      1.00000
     91      -6.2071      1.00000
     92      -6.1092      1.00000
     93      -6.0739      1.00000
     94      -5.9985      1.00000
     95      -5.9889      1.00000
     96      -5.8770      1.00000
     97      -5.8401      1.00000
     98      -5.7989      1.00000
     99      -5.7537      1.00000
    100      -5.6467      1.00000
    101      -5.5936      1.00000
    102      -5.5236      1.00000
    103      -5.4154      1.00000
    104      -5.3466      1.00000
    105      -5.2947      1.00000
    106      -5.2450      1.00000
    107      -5.1877      1.00000
    108      -5.1042      1.00000
    109      -4.9957      1.00000
    110      -4.9542      1.00000
    111      -4.8937      1.00000
    112      -4.8363      1.00000
    113      -4.7862      1.00000
    114      -4.7584      1.00000
    115      -4.7319      1.00000
    116      -4.6808      1.00000
    117      -4.6010      1.00000
    118      -4.5651      1.00000
    119      -4.4946      1.00000
    120      -4.4043      1.00000
    121      -4.3390      1.00000
    122      -4.2928      1.00000
    123      -4.2644      1.00000
    124      -4.1643      1.00000
    125      -4.0976      1.00000
    126      -4.0621      1.00000
    127      -4.0089      1.00000
    128      -3.9154      1.00000
    129      -3.8569      1.00000
    130      -3.7824      1.00000
    131      -3.7394      1.00000
    132      -3.6798      1.00000
    133      -3.5963      1.00000
    134      -3.5813      1.00000
    135      -3.4462      1.00000
    136      -3.3334      1.00000
    137      -3.2331      1.00000
    138      -3.1052      1.00000
    139      -3.0568      1.00000
    140      -3.0009      1.00000
    141      -2.9060      1.00000
    142      -2.8035      1.00000
    143      -2.7241      1.00000
    144      -2.6624      1.00000
    145      -2.5634      1.00000
    146      -2.4740      1.00000
    147      -2.3874      1.00000
    148      -2.2879      1.00000
    149      -2.2599      1.00000
    150      -1.9904      1.00035
    151      -1.9599      1.00074
    152      -1.8935      1.00310
    153      -1.7804      1.01855
    154      -1.7558      1.02413
    155      -1.3832      0.26863
    156      -1.3479      0.15099
    157      -0.2411     -0.00000
    158      -0.0129     -0.00000
    159       0.0418     -0.00000
    160       0.2332     -0.00000
    161       0.5946     -0.00000
    162       0.6761     -0.00000
    163       1.5287     -0.00000
    164       1.5959     -0.00000
    165       1.7162     -0.00000
    166       1.7472     -0.00000
    167       1.7762     -0.00000
    168       1.9307     -0.00000
    169       2.0200     -0.00000
    170       2.0273     -0.00000
    171       2.0671     -0.00000
    172       2.1523     -0.00000
    173       2.3694     -0.00000
    174       2.5105     -0.00000
    175       2.5859     -0.00000
    176       2.6131     -0.00000
    177       2.6958     -0.00000
    178       2.7218     -0.00000

 k-point     3 :       0.5000    0.0000   -0.0000
  band No.  band energies     occupation 
      1     -52.2042      1.00000
      2     -52.1474      1.00000
      3     -52.1425      1.00000
      4     -52.1374      1.00000
      5     -52.1266      1.00000
      6     -52.1203      1.00000
      7     -52.0962      1.00000
      8     -52.0838      1.00000
      9     -51.9774      1.00000
     10     -51.8751      1.00000
     11     -51.8541      1.00000
     12     -51.8457      1.00000
     13     -51.8242      1.00000
     14     -51.8215      1.00000
     15     -51.5280      1.00000
     16     -51.0056      1.00000
     17     -50.9632      1.00000
     18     -50.9255      1.00000
     19     -50.9203      1.00000
     20     -50.9030      1.00000
     21     -50.8715      1.00000
     22     -50.8029      1.00000
     23     -50.7714      1.00000
     24     -50.7533      1.00000
     25     -50.6544      1.00000
     26     -50.6181      1.00000
     27     -50.5698      1.00000
     28     -48.2661      1.00000
     29     -48.2551      1.00000
     30     -48.2284      1.00000
     31     -48.2239      1.00000
     32     -48.2111      1.00000
     33     -48.0059      1.00000
     34     -47.2740      1.00000
     35     -47.2683      1.00000
     36     -47.1998      1.00000
     37     -21.5607      1.00000
     38     -20.9053      1.00000
     39     -20.5069      1.00000
     40     -20.2849      1.00000
     41     -20.2007      1.00000
     42     -20.1032      1.00000
     43     -19.9843      1.00000
     44     -19.9130      1.00000
     45     -19.6259      1.00000
     46     -19.6024      1.00000
     47     -19.5638      1.00000
     48     -19.5100      1.00000
     49     -19.4613      1.00000
     50     -19.4257      1.00000
     51     -19.3002      1.00000
     52     -19.2889      1.00000
     53     -19.2525      1.00000
     54     -19.1753      1.00000
     55     -18.3868      1.00000
     56     -18.3179      1.00000
     57      -9.9320      1.00000
     58      -8.9478      1.00000
     59      -8.5489      1.00000
     60      -8.5414      1.00000
     61      -8.4193      1.00000
     62      -8.2139      1.00000
     63      -8.1550      1.00000
     64      -8.0566      1.00000
     65      -7.9430      1.00000
     66      -7.8875      1.00000
     67      -7.7977      1.00000
     68      -7.7746      1.00000
     69      -7.6799      1.00000
     70      -7.6391      1.00000
     71      -7.5881      1.00000
     72      -7.3311      1.00000
     73      -7.2478      1.00000
     74      -7.1797      1.00000
     75      -7.1149      1.00000
     76      -7.0476      1.00000
     77      -7.0036      1.00000
     78      -6.9011      1.00000
     79      -6.8375      1.00000
     80      -6.7338      1.00000
     81      -6.7172      1.00000
     82      -6.6905      1.00000
     83      -6.6257      1.00000
     84      -6.5463      1.00000
     85      -6.5088      1.00000
     86      -6.4641      1.00000
     87      -6.3996      1.00000
     88      -6.3347      1.00000
     89      -6.2889      1.00000
     90      -6.2434      1.00000
     91      -6.1135      1.00000
     92      -6.0804      1.00000
     93      -6.0241      1.00000
     94      -5.9659      1.00000
     95      -5.9347      1.00000
     96      -5.8933      1.00000
     97      -5.8540      1.00000
     98      -5.8197      1.00000
     99      -5.7831      1.00000
    100      -5.6995      1.00000
    101      -5.6299      1.00000
    102      -5.5499      1.00000
    103      -5.4938      1.00000
    104      -5.4364      1.00000
    105      -5.3648      1.00000
    106      -5.2991      1.00000
    107      -5.2512      1.00000
    108      -5.1281      1.00000
    109      -5.0674      1.00000
    110      -5.0070      1.00000
    111      -4.9440      1.00000
    112      -4.9116      1.00000
    113      -4.8722      1.00000
    114      -4.7477      1.00000
    115      -4.7193      1.00000
    116      -4.6880      1.00000
    117      -4.6507      1.00000
    118      -4.6036      1.00000
    119      -4.3972      1.00000
    120      -4.3809      1.00000
    121      -4.3162      1.00000
    122      -4.2948      1.00000
    123      -4.2602      1.00000
    124      -4.1778      1.00000
    125      -4.1170      1.00000
    126      -4.0822      1.00000
    127      -4.0228      1.00000
    128      -3.8692      1.00000
    129      -3.8035      1.00000
    130      -3.7070      1.00000
    131      -3.6795      1.00000
    132      -3.6300      1.00000
    133      -3.5216      1.00000
    134      -3.3845      1.00000
    135      -3.3403      1.00000
    136      -3.2664      1.00000
    137      -3.2372      1.00000
    138      -3.1334      1.00000
    139      -3.0814      1.00000
    140      -3.0238      1.00000
    141      -2.9825      1.00000
    142      -2.8647      1.00000
    143      -2.8564      1.00000
    144      -2.7730      1.00000
    145      -2.6952      1.00000
    146      -2.6367      1.00000
    147      -2.5748      1.00000
    148      -2.4720      1.00000
    149      -2.4162      1.00000
    150      -2.2453      1.00000
    151      -2.1059      1.00001
    152      -1.9467      1.00101
    153      -1.8905      1.00328
    154      -1.8168      1.01150
    155      -1.4862      0.68822
    156      -1.4338      0.47195
    157      -0.2452     -0.00000
    158      -0.0023     -0.00000
    159       0.0725     -0.00000
    160       0.2632     -0.00000
    161       0.6331     -0.00000
    162       1.2210     -0.00000
    163       1.6398     -0.00000
    164       1.6515     -0.00000
    165       1.7016     -0.00000
    166       1.8176     -0.00000
    167       1.8802     -0.00000
    168       1.8911     -0.00000
    169       1.9190     -0.00000
    170       1.9269     -0.00000
    171       1.9827     -0.00000
    172       2.0203     -0.00000
    173       2.2914     -0.00000
    174       2.3441     -0.00000
    175       2.4722     -0.00000
    176       2.5265     -0.00000
    177       2.6898     -0.00000
    178       2.6953     -0.00000

 k-point     4 :       0.0000    0.2500   -0.0000
  band No.  band energies     occupation 
      1     -52.2042      1.00000
      2     -52.1472      1.00000
      3     -52.1424      1.00000
      4     -52.1337      1.00000
      5     -52.1266      1.00000
      6     -52.1202      1.00000
      7     -52.0962      1.00000
      8     -52.0833      1.00000
      9     -51.9772      1.00000
     10     -51.8751      1.00000
     11     -51.8580      1.00000
     12     -51.8457      1.00000
     13     -51.8244      1.00000
     14     -51.8222      1.00000
     15     -51.5281      1.00000
     16     -51.0056      1.00000
     17     -50.9632      1.00000
     18     -50.9255      1.00000
     19     -50.9203      1.00000
     20     -50.9030      1.00000
     21     -50.8715      1.00000
     22     -50.8029      1.00000
     23     -50.7714      1.00000
     24     -50.7533      1.00000
     25     -50.6544      1.00000
     26     -50.6181      1.00000
     27     -50.5698      1.00000
     28     -48.2669      1.00000
     29     -48.2548      1.00000
     30     -48.2347      1.00000
     31     -48.2179      1.00000
     32     -48.2111      1.00000
     33     -48.0059      1.00000
     34     -47.2825      1.00000
     35     -47.2594      1.00000
     36     -47.1997      1.00000
     37     -21.5730      1.00000
     38     -20.8744      1.00000
     39     -20.5508      1.00000
     40     -20.3187      1.00000
     41     -20.2357      1.00000
     42     -20.0301      1.00000
     43     -19.9553      1.00000
     44     -19.8123      1.00000
     45     -19.6893      1.00000
     46     -19.5778      1.00000
     47     -19.5431      1.00000
     48     -19.5187      1.00000
     49     -19.4307      1.00000
     50     -19.4002      1.00000
     51     -19.3480      1.00000
     52     -19.3117      1.00000
     53     -19.2534      1.00000
     54     -19.2105      1.00000
     55     -18.4106      1.00000
     56     -18.3324      1.00000
     57      -9.9133      1.00000
     58      -8.9379      1.00000
     59      -8.6095      1.00000
     60      -8.5880      1.00000
     61      -8.4984      1.00000
     62      -8.2314      1.00000
     63      -8.0244      1.00000
     64      -7.9860      1.00000
     65      -7.8679      1.00000
     66      -7.8040      1.00000
     67      -7.7385      1.00000
     68      -7.6838      1.00000
     69      -7.5925      1.00000
     70      -7.5100      1.00000
     71      -7.4578      1.00000
     72      -7.4094      1.00000
     73      -7.3500      1.00000
     74      -7.2027      1.00000
     75      -7.1441      1.00000
     76      -7.0622      1.00000
     77      -7.0463      1.00000
     78      -6.9725      1.00000
     79      -6.9492      1.00000
     80      -6.8843      1.00000
     81      -6.7882      1.00000
     82      -6.7518      1.00000
     83      -6.6868      1.00000
     84      -6.6603      1.00000
     85      -6.5644      1.00000
     86      -6.5333      1.00000
     87      -6.4592      1.00000
     88      -6.4203      1.00000
     89      -6.3436      1.00000
     90      -6.2461      1.00000
     91      -6.1958      1.00000
     92      -6.1327      1.00000
     93      -6.0846      1.00000
     94      -6.0218      1.00000
     95      -5.9952      1.00000
     96      -5.9440      1.00000
     97      -5.8958      1.00000
     98      -5.8365      1.00000
     99      -5.7226      1.00000
    100      -5.7008      1.00000
    101      -5.5850      1.00000
    102      -5.4572      1.00000
    103      -5.3523      1.00000
    104      -5.2992      1.00000
    105      -5.2227      1.00000
    106      -5.1730      1.00000
    107      -5.1424      1.00000
    108      -5.0993      1.00000
    109      -5.0455      1.00000
    110      -5.0150      1.00000
    111      -4.9255      1.00000
    112      -4.8984      1.00000
    113      -4.8706      1.00000
    114      -4.8247      1.00000
    115      -4.7540      1.00000
    116      -4.7003      1.00000
    117      -4.6339      1.00000
    118      -4.5863      1.00000
    119      -4.5462      1.00000
    120      -4.5152      1.00000
    121      -4.3241      1.00000
    122      -4.3041      1.00000
    123      -4.2264      1.00000
    124      -4.1961      1.00000
    125      -4.1360      1.00000
    126      -4.0405      1.00000
    127      -3.9889      1.00000
    128      -3.8860      1.00000
    129      -3.8609      1.00000
    130      -3.7911      1.00000
    131      -3.7147      1.00000
    132      -3.6615      1.00000
    133      -3.6048      1.00000
    134      -3.4979      1.00000
    135      -3.4030      1.00000
    136      -3.2807      1.00000
    137      -3.2262      1.00000
    138      -3.0925      1.00000
    139      -3.0358      1.00000
    140      -2.9560      1.00000
    141      -2.8902      1.00000
    142      -2.8244      1.00000
    143      -2.7645      1.00000
    144      -2.5744      1.00000
    145      -2.5656      1.00000
    146      -2.4767      1.00000
    147      -2.3560      1.00000
    148      -2.1887      1.00000
    149      -2.1492      1.00000
    150      -1.9882      1.00037
    151      -1.9249      1.00163
    152      -1.8142      1.01193
    153      -1.7204      1.03178
    154      -1.6098      1.00105
    155      -1.5179      0.80218
    156      -1.3597      0.18716
    157      -0.5336     -0.00000
    158      -0.2191     -0.00000
    159      -0.1797     -0.00000
    160       0.0034     -0.00000
    161       0.2928     -0.00000
    162       0.7844     -0.00000
    163       1.3218     -0.00000
    164       1.6412     -0.00000
    165       1.7310     -0.00000
    166       1.7764     -0.00000
    167       1.8374     -0.00000
    168       1.8925     -0.00000
    169       2.0064     -0.00000
    170       2.0350     -0.00000
    171       2.0605     -0.00000
    172       2.2090     -0.00000
    173       2.3367     -0.00000
    174       2.4388     -0.00000
    175       2.5401     -0.00000
    176       2.6083     -0.00000
    177       2.7822     -0.00000
    178       2.8990     -0.00000

 k-point     5 :       0.2500    0.2500   -0.0000
  band No.  band energies     occupation 
      1     -52.2042      1.00000
      2     -52.1472      1.00000
      3     -52.1424      1.00000
      4     -52.1337      1.00000
      5     -52.1266      1.00000
      6     -52.1202      1.00000
      7     -52.0962      1.00000
      8     -52.0833      1.00000
      9     -51.9772      1.00000
     10     -51.8751      1.00000
     11     -51.8580      1.00000
     12     -51.8457      1.00000
     13     -51.8244      1.00000
     14     -51.8222      1.00000
     15     -51.5280      1.00000
     16     -51.0056      1.00000
     17     -50.9632      1.00000
     18     -50.9255      1.00000
     19     -50.9204      1.00000
     20     -50.9029      1.00000
     21     -50.8715      1.00000
     22     -50.8029      1.00000
     23     -50.7714      1.00000
     24     -50.7533      1.00000
     25     -50.6544      1.00000
     26     -50.6181      1.00000
     27     -50.5698      1.00000
     28     -48.2667      1.00000
     29     -48.2549      1.00000
     30     -48.2324      1.00000
     31     -48.2201      1.00000
     32     -48.2111      1.00000
     33     -48.0058      1.00000
     34     -47.2794      1.00000
     35     -47.2626      1.00000
     36     -47.1997      1.00000
     37     -21.5762      1.00000
     38     -20.8703      1.00000
     39     -20.5517      1.00000
     40     -20.3165      1.00000
     41     -20.2381      1.00000
     42     -20.0310      1.00000
     43     -19.9567      1.00000
     44     -19.8082      1.00000
     45     -19.6944      1.00000
     46     -19.5881      1.00000
     47     -19.5311      1.00000
     48     -19.5075      1.00000
     49     -19.4289      1.00000
     50     -19.4087      1.00000
     51     -19.3435      1.00000
     52     -19.3149      1.00000
     53     -19.2600      1.00000
     54     -19.2090      1.00000
     55     -18.4088      1.00000
     56     -18.3327      1.00000
     57      -9.9136      1.00000
     58      -8.9384      1.00000
     59      -8.6258      1.00000
     60      -8.5929      1.00000
     61      -8.5160      1.00000
     62      -8.2461      1.00000
     63      -8.0422      1.00000
     64      -8.0032      1.00000
     65      -7.8615      1.00000
     66      -7.7794      1.00000
     67      -7.7357      1.00000
     68      -7.6297      1.00000
     69      -7.5679      1.00000
     70      -7.5174      1.00000
     71      -7.4373      1.00000
     72      -7.3726      1.00000
     73      -7.3478      1.00000
     74      -7.2859      1.00000
     75      -7.1811      1.00000
     76      -7.0701      1.00000
     77      -7.0419      1.00000
     78      -6.9866      1.00000
     79      -6.9474      1.00000
     80      -6.8360      1.00000
     81      -6.7507      1.00000
     82      -6.7252      1.00000
     83      -6.6646      1.00000
     84      -6.6530      1.00000
     85      -6.5767      1.00000
     86      -6.5441      1.00000
     87      -6.4699      1.00000
     88      -6.4549      1.00000
     89      -6.3799      1.00000
     90      -6.2914      1.00000
     91      -6.2267      1.00000
     92      -6.1232      1.00000
     93      -6.0405      1.00000
     94      -6.0055      1.00000
     95      -5.9558      1.00000
     96      -5.9159      1.00000
     97      -5.8681      1.00000
     98      -5.7936      1.00000
     99      -5.7338      1.00000
    100      -5.6802      1.00000
    101      -5.5576      1.00000
    102      -5.4677      1.00000
    103      -5.4306      1.00000
    104      -5.3045      1.00000
    105      -5.2224      1.00000
    106      -5.2084      1.00000
    107      -5.1608      1.00000
    108      -5.1066      1.00000
    109      -5.0466      1.00000
    110      -4.9774      1.00000
    111      -4.9285      1.00000
    112      -4.9132      1.00000
    113      -4.8557      1.00000
    114      -4.8232      1.00000
    115      -4.7805      1.00000
    116      -4.6939      1.00000
    117      -4.6192      1.00000
    118      -4.6059      1.00000
    119      -4.5017      1.00000
    120      -4.4366      1.00000
    121      -4.3722      1.00000
    122      -4.3129      1.00000
    123      -4.2547      1.00000
    124      -4.2127      1.00000
    125      -4.1244      1.00000
    126      -4.0898      1.00000
    127      -3.9969      1.00000
    128      -3.9370      1.00000
    129      -3.8994      1.00000
    130      -3.7505      1.00000
    131      -3.7108      1.00000
    132      -3.6387      1.00000
    133      -3.5328      1.00000
    134      -3.4661      1.00000
    135      -3.3723      1.00000
    136      -3.3180      1.00000
    137      -3.2277      1.00000
    138      -3.1459      1.00000
    139      -3.0326      1.00000
    140      -2.9385      1.00000
    141      -2.8949      1.00000
    142      -2.8284      1.00000
    143      -2.7559      1.00000
    144      -2.6229      1.00000
    145      -2.5419      1.00000
    146      -2.4589      1.00000
    147      -2.3514      1.00000
    148      -2.2112      1.00000
    149      -2.1553      1.00000
    150      -2.0784      1.00003
    151      -1.9410      1.00114
    152      -1.8184      1.01122
    153      -1.7204      1.03177
    154      -1.6594      1.03238
    155      -1.4183      0.40683
    156      -1.2747      0.00293
    157      -0.5196     -0.00000
    158      -0.2337     -0.00000
    159      -0.1791     -0.00000
    160       0.0383     -0.00000
    161       0.2208     -0.00000
    162       0.7824     -0.00000
    163       1.5355     -0.00000
    164       1.6365     -0.00000
    165       1.7496     -0.00000
    166       1.7856     -0.00000
    167       1.8248     -0.00000
    168       1.8894     -0.00000
    169       1.9896     -0.00000
    170       2.0116     -0.00000
    171       2.0560     -0.00000
    172       2.1411     -0.00000
    173       2.2795     -0.00000
    174       2.3879     -0.00000
    175       2.4717     -0.00000
    176       2.6642     -0.00000
    177       2.7276     -0.00000
    178       2.9013     -0.00000

 k-point     6 :       0.5000    0.2500    0.0000
  band No.  band energies     occupation 
      1     -52.2042      1.00000
      2     -52.1472      1.00000
      3     -52.1424      1.00000
      4     -52.1337      1.00000
      5     -52.1266      1.00000
      6     -52.1202      1.00000
      7     -52.0962      1.00000
      8     -52.0833      1.00000
      9     -51.9772      1.00000
     10     -51.8751      1.00000
     11     -51.8579      1.00000
     12     -51.8457      1.00000
     13     -51.8244      1.00000
     14     -51.8222      1.00000
     15     -51.5280      1.00000
     16     -51.0056      1.00000
     17     -50.9632      1.00000
     18     -50.9255      1.00000
     19     -50.9203      1.00000
     20     -50.9029      1.00000
     21     -50.8715      1.00000
     22     -50.8029      1.00000
     23     -50.7714      1.00000
     24     -50.7533      1.00000
     25     -50.6544      1.00000
     26     -50.6181      1.00000
     27     -50.5698      1.00000
     28     -48.2665      1.00000
     29     -48.2551      1.00000
     30     -48.2285      1.00000
     31     -48.2239      1.00000
     32     -48.2111      1.00000
     33     -48.0059      1.00000
     34     -47.2740      1.00000
     35     -47.2682      1.00000
     36     -47.1998      1.00000
     37     -21.5583      1.00000
     38     -20.8751      1.00000
     39     -20.4801      1.00000
     40     -20.2591      1.00000
     41     -20.2203      1.00000
     42     -20.0557      1.00000
     43     -20.0061      1.00000
     44     -19.8751      1.00000
     45     -19.6929      1.00000
     46     -19.5935      1.00000
     47     -19.5549      1.00000
     48     -19.5014      1.00000
     49     -19.4438      1.00000
     50     -19.4240      1.00000
     51     -19.3681      1.00000
     52     -19.3234      1.00000
     53     -19.2470      1.00000
     54     -19.1874      1.00000
     55     -18.4107      1.00000
     56     -18.3362      1.00000
     57      -9.8901      1.00000
     58      -8.9038      1.00000
     59      -8.5929      1.00000
     60      -8.5055      1.00000
     61      -8.4025      1.00000
     62      -8.1802      1.00000
     63      -8.0817      1.00000
     64      -7.9954      1.00000
     65      -7.8869      1.00000
     66      -7.8176      1.00000
     67      -7.6746      1.00000
     68      -7.6088      1.00000
     69      -7.5522      1.00000
     70      -7.5183      1.00000
     71      -7.5005      1.00000
     72      -7.3716      1.00000
     73      -7.2983      1.00000
     74      -7.2587      1.00000
     75      -7.1632      1.00000
     76      -7.1273      1.00000
     77      -7.0279      1.00000
     78      -6.9513      1.00000
     79      -6.8961      1.00000
     80      -6.8219      1.00000
     81      -6.7704      1.00000
     82      -6.7440      1.00000
     83      -6.6398      1.00000
     84      -6.5832      1.00000
     85      -6.5309      1.00000
     86      -6.4806      1.00000
     87      -6.4582      1.00000
     88      -6.3719      1.00000
     89      -6.3493      1.00000
     90      -6.2987      1.00000
     91      -6.2153      1.00000
     92      -6.0916      1.00000
     93      -6.0389      1.00000
     94      -5.9786      1.00000
     95      -5.9357      1.00000
     96      -5.9015      1.00000
     97      -5.8530      1.00000
     98      -5.8064      1.00000
     99      -5.7012      1.00000
    100      -5.6949      1.00000
    101      -5.6373      1.00000
    102      -5.5316      1.00000
    103      -5.4741      1.00000
    104      -5.3935      1.00000
    105      -5.3045      1.00000
    106      -5.2568      1.00000
    107      -5.1634      1.00000
    108      -5.1529      1.00000
    109      -5.0875      1.00000
    110      -5.0131      1.00000
    111      -4.9885      1.00000
    112      -4.9555      1.00000
    113      -4.8657      1.00000
    114      -4.8180      1.00000
    115      -4.7771      1.00000
    116      -4.7026      1.00000
    117      -4.6555      1.00000
    118      -4.5487      1.00000
    119      -4.4739      1.00000
    120      -4.4553      1.00000
    121      -4.3605      1.00000
    122      -4.3088      1.00000
    123      -4.2947      1.00000
    124      -4.1979      1.00000
    125      -4.1598      1.00000
    126      -4.0826      1.00000
    127      -4.0138      1.00000
    128      -3.9736      1.00000
    129      -3.8115      1.00000
    130      -3.7412      1.00000
    131      -3.6644      1.00000
    132      -3.5892      1.00000
    133      -3.4921      1.00000
    134      -3.3960      1.00000
    135      -3.3297      1.00000
    136      -3.2763      1.00000
    137      -3.1556      1.00000
    138      -3.1393      1.00000
    139      -3.1219      1.00000
    140      -2.9951      1.00000
    141      -2.9059      1.00000
    142      -2.8481      1.00000
    143      -2.8154      1.00000
    144      -2.7085      1.00000
    145      -2.6269      1.00000
    146      -2.6093      1.00000
    147      -2.5186      1.00000
    148      -2.4249      1.00000
    149      -2.2891      1.00000
    150      -2.2053      1.00000
    151      -2.0713      1.00004
    152      -1.9576      1.00078
    153      -1.8772      1.00422
    154      -1.7390      1.02797
    155      -1.5058      0.76087
    156      -1.3872      0.28324
    157      -0.4896     -0.00000
    158      -0.2024     -0.00000
    159      -0.1709     -0.00000
    160       0.0740     -0.00000
    161       0.2663     -0.00000
    162       1.2608     -0.00000
    163       1.6825     -0.00000
    164       1.7418     -0.00000
    165       1.7810     -0.00000
    166       1.8476     -0.00000
    167       1.8811     -0.00000
    168       1.8860     -0.00000
    169       1.9147     -0.00000
    170       1.9774     -0.00000
    171       2.0165     -0.00000
    172       2.1688     -0.00000
    173       2.2321     -0.00000
    174       2.3036     -0.00000
    175       2.3887     -0.00000
    176       2.4711     -0.00000
    177       2.5948     -0.00000
    178       2.6809     -0.00000

 k-point     7 :      -0.2500    0.2500   -0.0000
  band No.  band energies     occupation 
      1     -52.2042      1.00000
      2     -52.1472      1.00000
      3     -52.1424      1.00000
      4     -52.1337      1.00000
      5     -52.1266      1.00000
      6     -52.1202      1.00000
      7     -52.0962      1.00000
      8     -52.0833      1.00000
      9     -51.9772      1.00000
     10     -51.8751      1.00000
     11     -51.8579      1.00000
     12     -51.8457      1.00000
     13     -51.8244      1.00000
     14     -51.8222      1.00000
     15     -51.5280      1.00000
     16     -51.0056      1.00000
     17     -50.9632      1.00000
     18     -50.9255      1.00000
     19     -50.9203      1.00000
     20     -50.9030      1.00000
     21     -50.8715      1.00000
     22     -50.8029      1.00000
     23     -50.7714      1.00000
     24     -50.7533      1.00000
     25     -50.6544      1.00000
     26     -50.6181      1.00000
     27     -50.5698      1.00000
     28     -48.2667      1.00000
     29     -48.2550      1.00000
     30     -48.2324      1.00000
     31     -48.2201      1.00000
     32     -48.2111      1.00000
     33     -48.0059      1.00000
     34     -47.2795      1.00000
     35     -47.2626      1.00000
     36     -47.1998      1.00000
     37     -21.5550      1.00000
     38     -20.8795      1.00000
     39     -20.4789      1.00000
     40     -20.2645      1.00000
     41     -20.2147      1.00000
     42     -20.0482      1.00000
     43     -20.0152      1.00000
     44     -19.8724      1.00000
     45     -19.6937      1.00000
     46     -19.5932      1.00000
     47     -19.5529      1.00000
     48     -19.5103      1.00000
     49     -19.4473      1.00000
     50     -19.4198      1.00000
     51     -19.3670      1.00000
     52     -19.3209      1.00000
     53     -19.2454      1.00000
     54     -19.1866      1.00000
     55     -18.4126      1.00000
     56     -18.3359      1.00000
     57      -9.8898      1.00000
     58      -8.9034      1.00000
     59      -8.5923      1.00000
     60      -8.4839      1.00000
     61      -8.3669      1.00000
     62      -8.1834      1.00000
     63      -8.0900      1.00000
     64      -7.9480      1.00000
     65      -7.8763      1.00000
     66      -7.8192      1.00000
     67      -7.7229      1.00000
     68      -7.6758      1.00000
     69      -7.5859      1.00000
     70      -7.5166      1.00000
     71      -7.5014      1.00000
     72      -7.4105      1.00000
     73      -7.2866      1.00000
     74      -7.1871      1.00000
     75      -7.1497      1.00000
     76      -7.0923      1.00000
     77      -6.9895      1.00000
     78      -6.9688      1.00000
     79      -6.9541      1.00000
     80      -6.8582      1.00000
     81      -6.7933      1.00000
     82      -6.6855      1.00000
     83      -6.6290      1.00000
     84      -6.5664      1.00000
     85      -6.5297      1.00000
     86      -6.4678      1.00000
     87      -6.4573      1.00000
     88      -6.4031      1.00000
     89      -6.3076      1.00000
     90      -6.2768      1.00000
     91      -6.1931      1.00000
     92      -6.1408      1.00000
     93      -6.1085      1.00000
     94      -5.9983      1.00000
     95      -5.9853      1.00000
     96      -5.9217      1.00000
     97      -5.8701      1.00000
     98      -5.7988      1.00000
     99      -5.7470      1.00000
    100      -5.6318      1.00000
    101      -5.5980      1.00000
    102      -5.5691      1.00000
    103      -5.5062      1.00000
    104      -5.4018      1.00000
    105      -5.3001      1.00000
    106      -5.2628      1.00000
    107      -5.1752      1.00000
    108      -5.1354      1.00000
    109      -5.0632      1.00000
    110      -5.0203      1.00000
    111      -4.9695      1.00000
    112      -4.9527      1.00000
    113      -4.8264      1.00000
    114      -4.7898      1.00000
    115      -4.7494      1.00000
    116      -4.7103      1.00000
    117      -4.6411      1.00000
    118      -4.6046      1.00000
    119      -4.5245      1.00000
    120      -4.4554      1.00000
    121      -4.3480      1.00000
    122      -4.2755      1.00000
    123      -4.2178      1.00000
    124      -4.1958      1.00000
    125      -4.1129      1.00000
    126      -4.0602      1.00000
    127      -4.0006      1.00000
    128      -3.9627      1.00000
    129      -3.8547      1.00000
    130      -3.7191      1.00000
    131      -3.6555      1.00000
    132      -3.6076      1.00000
    133      -3.5580      1.00000
    134      -3.4621      1.00000
    135      -3.3340      1.00000
    136      -3.2815      1.00000
    137      -3.1756      1.00000
    138      -3.1126      1.00000
    139      -3.0564      1.00000
    140      -3.0133      1.00000
    141      -2.9736      1.00000
    142      -2.8368      1.00000
    143      -2.8111      1.00000
    144      -2.7378      1.00000
    145      -2.6628      1.00000
    146      -2.5791      1.00000
    147      -2.5171      1.00000
    148      -2.3695      1.00000
    149      -2.1941      1.00000
    150      -2.1633      1.00000
    151      -2.0861      1.00002
    152      -1.9356      1.00129
    153      -1.8255      1.01009
    154      -1.7525      1.02491
    155      -1.5889      0.97379
    156      -1.4785      0.65807
    157      -0.4995     -0.00000
    158      -0.1986     -0.00000
    159      -0.1588     -0.00000
    160       0.0337     -0.00000
    161       0.3333     -0.00000
    162       1.2670     -0.00000
    163       1.5407     -0.00000
    164       1.6757     -0.00000
    165       1.7526     -0.00000
    166       1.7794     -0.00000
    167       1.8186     -0.00000
    168       1.9398     -0.00000
    169       1.9875     -0.00000
    170       2.0019     -0.00000
    171       2.0778     -0.00000
    172       2.1525     -0.00000
    173       2.2247     -0.00000
    174       2.3997     -0.00000
    175       2.4884     -0.00000
    176       2.5248     -0.00000
    177       2.5998     -0.00000
    178       2.6604     -0.00000

 k-point     8 :       0.0000    0.5000   -0.0000
  band No.  band energies     occupation 
      1     -52.2042      1.00000
      2     -52.1470      1.00000
      3     -52.1424      1.00000
      4     -52.1301      1.00000
      5     -52.1264      1.00000
      6     -52.1202      1.00000
      7     -52.0961      1.00000
      8     -52.0826      1.00000
      9     -51.9769      1.00000
     10     -51.8751      1.00000
     11     -51.8621      1.00000
     12     -51.8457      1.00000
     13     -51.8247      1.00000
     14     -51.8226      1.00000
     15     -51.5281      1.00000
     16     -51.0056      1.00000
     17     -50.9632      1.00000
     18     -50.9256      1.00000
     19     -50.9202      1.00000
     20     -50.9030      1.00000
     21     -50.8715      1.00000
     22     -50.8029      1.00000
     23     -50.7714      1.00000
     24     -50.7533      1.00000
     25     -50.6544      1.00000
     26     -50.6181      1.00000
     27     -50.5698      1.00000
     28     -48.2673      1.00000
     29     -48.2549      1.00000
     30     -48.2348      1.00000
     31     -48.2179      1.00000
     32     -48.2111      1.00000
     33     -48.0059      1.00000
     34     -47.2825      1.00000
     35     -47.2594      1.00000
     36     -47.1997      1.00000
     37     -21.5486      1.00000
     38     -20.8522      1.00000
     39     -20.4367      1.00000
     40     -20.2858      1.00000
     41     -20.1678      1.00000
     42     -20.0703      1.00000
     43     -20.0108      1.00000
     44     -19.8373      1.00000
     45     -19.7180      1.00000
     46     -19.6026      1.00000
     47     -19.5644      1.00000
     48     -19.5186      1.00000
     49     -19.4297      1.00000
     50     -19.4121      1.00000
     51     -19.3806      1.00000
     52     -19.3370      1.00000
     53     -19.2618      1.00000
     54     -19.2297      1.00000
     55     -18.4389      1.00000
     56     -18.3545      1.00000
     57      -9.8434      1.00000
     58      -8.8334      1.00000
     59      -8.6766      1.00000
     60      -8.4318      1.00000
     61      -8.2606      1.00000
     62      -8.1532      1.00000
     63      -8.0589      1.00000
     64      -7.8727      1.00000
     65      -7.8370      1.00000
     66      -7.7584      1.00000
     67      -7.6607      1.00000
     68      -7.5897      1.00000
     69      -7.5206      1.00000
     70      -7.4485      1.00000
     71      -7.3686      1.00000
     72      -7.3314      1.00000
     73      -7.2531      1.00000
     74      -7.1889      1.00000
     75      -7.1234      1.00000
     76      -7.0841      1.00000
     77      -7.0402      1.00000
     78      -7.0256      1.00000
     79      -6.9620      1.00000
     80      -6.8899      1.00000
     81      -6.8605      1.00000
     82      -6.8174      1.00000
     83      -6.7194      1.00000
     84      -6.5856      1.00000
     85      -6.5675      1.00000
     86      -6.5137      1.00000
     87      -6.4603      1.00000
     88      -6.4074      1.00000
     89      -6.3650      1.00000
     90      -6.3233      1.00000
     91      -6.3026      1.00000
     92      -6.2037      1.00000
     93      -6.1656      1.00000
     94      -6.0924      1.00000
     95      -6.0477      1.00000
     96      -5.9791      1.00000
     97      -5.9338      1.00000
     98      -5.7999      1.00000
     99      -5.7160      1.00000
    100      -5.5498      1.00000
    101      -5.5274      1.00000
    102      -5.4996      1.00000
    103      -5.4307      1.00000
    104      -5.3765      1.00000
    105      -5.3486      1.00000
    106      -5.2759      1.00000
    107      -5.2184      1.00000
    108      -5.1253      1.00000
    109      -5.0860      1.00000
    110      -5.0204      1.00000
    111      -4.9691      1.00000
    112      -4.9569      1.00000
    113      -4.8824      1.00000
    114      -4.8557      1.00000
    115      -4.8271      1.00000
    116      -4.7148      1.00000
    117      -4.6554      1.00000
    118      -4.6339      1.00000
    119      -4.5731      1.00000
    120      -4.5486      1.00000
    121      -4.4553      1.00000
    122      -4.3294      1.00000
    123      -4.2532      1.00000
    124      -4.1696      1.00000
    125      -4.0993      1.00000
    126      -3.9984      1.00000
    127      -3.8936      1.00000
    128      -3.8771      1.00000
    129      -3.8178      1.00000
    130      -3.7534      1.00000
    131      -3.6847      1.00000
    132      -3.5473      1.00000
    133      -3.4823      1.00000
    134      -3.4404      1.00000
    135      -3.3064      1.00000
    136      -3.2514      1.00000
    137      -3.2042      1.00000
    138      -3.1320      1.00000
    139      -3.0733      1.00000
    140      -3.0130      1.00000
    141      -2.8289      1.00000
    142      -2.7979      1.00000
    143      -2.7599      1.00000
    144      -2.7027      1.00000
    145      -2.6132      1.00000
    146      -2.5032      1.00000
    147      -2.4286      1.00000
    148      -2.4096      1.00000
    149      -2.2030      1.00000
    150      -2.1047      1.00001
    151      -2.0128      1.00020
    152      -1.8815      1.00390
    153      -1.8226      1.01055
    154      -1.7550      1.02431
    155      -1.6037      0.99407
    156      -1.4892      0.69960
    157      -0.7186     -0.00000
    158      -0.3843     -0.00000
    159      -0.3646     -0.00000
    160      -0.2739     -0.00000
    161       0.1485     -0.00000
    162       1.2959     -0.00000
    163       1.5063     -0.00000
    164       1.6689     -0.00000
    165       1.7220     -0.00000
    166       1.7531     -0.00000
    167       1.8353     -0.00000
    168       1.8959     -0.00000
    169       1.9887     -0.00000
    170       1.9952     -0.00000
    171       2.0212     -0.00000
    172       2.1069     -0.00000
    173       2.1495     -0.00000
    174       2.3616     -0.00000
    175       2.4767     -0.00000
    176       2.5614     -0.00000
    177       2.6428     -0.00000
    178       2.7976     -0.00000

 k-point     9 :       0.2500    0.5000   -0.0000
  band No.  band energies     occupation 
      1     -52.2042      1.00000
      2     -52.1470      1.00000
      3     -52.1424      1.00000
      4     -52.1301      1.00000
      5     -52.1264      1.00000
      6     -52.1202      1.00000
      7     -52.0962      1.00000
      8     -52.0826      1.00000
      9     -51.9769      1.00000
     10     -51.8751      1.00000
     11     -51.8621      1.00000
     12     -51.8457      1.00000
     13     -51.8247      1.00000
     14     -51.8226      1.00000
     15     -51.5281      1.00000
     16     -51.0056      1.00000
     17     -50.9632      1.00000
     18     -50.9255      1.00000
     19     -50.9203      1.00000
     20     -50.9029      1.00000
     21     -50.8715      1.00000
     22     -50.8029      1.00000
     23     -50.7714      1.00000
     24     -50.7533      1.00000
     25     -50.6544      1.00000
     26     -50.6181      1.00000
     27     -50.5698      1.00000
     28     -48.2671      1.00000
     29     -48.2550      1.00000
     30     -48.2325      1.00000
     31     -48.2201      1.00000
     32     -48.2111      1.00000
     33     -48.0059      1.00000
     34     -47.2794      1.00000
     35     -47.2626      1.00000
     36     -47.1997      1.00000
     37     -21.5521      1.00000
     38     -20.8473      1.00000
     39     -20.4395      1.00000
     40     -20.2848      1.00000
     41     -20.1738      1.00000
     42     -20.0818      1.00000
     43     -19.9739      1.00000
     44     -19.8321      1.00000
     45     -19.7645      1.00000
     46     -19.5865      1.00000
     47     -19.5598      1.00000
     48     -19.5028      1.00000
     49     -19.4347      1.00000
     50     -19.4159      1.00000
     51     -19.3811      1.00000
     52     -19.3495      1.00000
     53     -19.2655      1.00000
     54     -19.2197      1.00000
     55     -18.4372      1.00000
     56     -18.3549      1.00000
     57      -9.8438      1.00000
     58      -8.8352      1.00000
     59      -8.6774      1.00000
     60      -8.4478      1.00000
     61      -8.3220      1.00000
     62      -8.1381      1.00000
     63      -8.0448      1.00000
     64      -7.8923      1.00000
     65      -7.8064      1.00000
     66      -7.7472      1.00000
     67      -7.6550      1.00000
     68      -7.5867      1.00000
     69      -7.5074      1.00000
     70      -7.4506      1.00000
     71      -7.4011      1.00000
     72      -7.3574      1.00000
     73      -7.2625      1.00000
     74      -7.1797      1.00000
     75      -7.1354      1.00000
     76      -7.0736      1.00000
     77      -7.0424      1.00000
     78      -6.9931      1.00000
     79      -6.9157      1.00000
     80      -6.8721      1.00000
     81      -6.7960      1.00000
     82      -6.7630      1.00000
     83      -6.6851      1.00000
     84      -6.6694      1.00000
     85      -6.5709      1.00000
     86      -6.5436      1.00000
     87      -6.5003      1.00000
     88      -6.4523      1.00000
     89      -6.3823      1.00000
     90      -6.3316      1.00000
     91      -6.2851      1.00000
     92      -6.2034      1.00000
     93      -6.1377      1.00000
     94      -6.0933      1.00000
     95      -6.0181      1.00000
     96      -5.9666      1.00000
     97      -5.8794      1.00000
     98      -5.7923      1.00000
     99      -5.7513      1.00000
    100      -5.6097      1.00000
    101      -5.5720      1.00000
    102      -5.4818      1.00000
    103      -5.4358      1.00000
    104      -5.4018      1.00000
    105      -5.2895      1.00000
    106      -5.2644      1.00000
    107      -5.1879      1.00000
    108      -5.1324      1.00000
    109      -5.1016      1.00000
    110      -5.0579      1.00000
    111      -4.9803      1.00000
    112      -4.9418      1.00000
    113      -4.8823      1.00000
    114      -4.8286      1.00000
    115      -4.8009      1.00000
    116      -4.7442      1.00000
    117      -4.6368      1.00000
    118      -4.5880      1.00000
    119      -4.5701      1.00000
    120      -4.4683      1.00000
    121      -4.4222      1.00000
    122      -4.3518      1.00000
    123      -4.3278      1.00000
    124      -4.2470      1.00000
    125      -4.1292      1.00000
    126      -4.0112      1.00000
    127      -3.9530      1.00000
    128      -3.8602      1.00000
    129      -3.7757      1.00000
    130      -3.6983      1.00000
    131      -3.6253      1.00000
    132      -3.5780      1.00000
    133      -3.5132      1.00000
    134      -3.3778      1.00000
    135      -3.3414      1.00000
    136      -3.2688      1.00000
    137      -3.2258      1.00000
    138      -3.1221      1.00000
    139      -3.1106      1.00000
    140      -2.9544      1.00000
    141      -2.8943      1.00000
    142      -2.8175      1.00000
    143      -2.7805      1.00000
    144      -2.7295      1.00000
    145      -2.6648      1.00000
    146      -2.6000      1.00000
    147      -2.4987      1.00000
    148      -2.1990      1.00000
    149      -2.1448      1.00000
    150      -2.1091      1.00001
    151      -2.0752      1.00003
    152      -1.8973      1.00287
    153      -1.7630      1.02247
    154      -1.7238      1.03114
    155      -1.6201      1.01109
    156      -1.3842      0.27201
    157      -0.7424     -0.00000
    158      -0.4379     -0.00000
    159      -0.3566     -0.00000
    160      -0.2127     -0.00000
    161       0.0327     -0.00000
    162       1.4006     -0.00000
    163       1.5418     -0.00000
    164       1.7161     -0.00000
    165       1.7712     -0.00000
    166       1.8107     -0.00000
    167       1.8504     -0.00000
    168       1.9267     -0.00000
    169       1.9529     -0.00000
    170       2.0015     -0.00000
    171       2.0552     -0.00000
    172       2.1109     -0.00000
    173       2.1911     -0.00000
    174       2.2592     -0.00000
    175       2.3761     -0.00000
    176       2.4615     -0.00000
    177       2.6535     -0.00000
    178       2.7278     -0.00000

 k-point    10 :       0.5000    0.5000   -0.0000
  band No.  band energies     occupation 
      1     -52.2042      1.00000
      2     -52.1470      1.00000
      3     -52.1424      1.00000
      4     -52.1301      1.00000
      5     -52.1264      1.00000
      6     -52.1202      1.00000
      7     -52.0961      1.00000
      8     -52.0826      1.00000
      9     -51.9769      1.00000
     10     -51.8751      1.00000
     11     -51.8621      1.00000
     12     -51.8457      1.00000
     13     -51.8246      1.00000
     14     -51.8226      1.00000
     15     -51.5280      1.00000
     16     -51.0056      1.00000
     17     -50.9632      1.00000
     18     -50.9255      1.00000
     19     -50.9203      1.00000
     20     -50.9029      1.00000
     21     -50.8715      1.00000
     22     -50.8029      1.00000
     23     -50.7714      1.00000
     24     -50.7533      1.00000
     25     -50.6544      1.00000
     26     -50.6181      1.00000
     27     -50.5698      1.00000
     28     -48.2668      1.00000
     29     -48.2551      1.00000
     30     -48.2287      1.00000
     31     -48.2239      1.00000
     32     -48.2111      1.00000
     33     -48.0059      1.00000
     34     -47.2740      1.00000
     35     -47.2682      1.00000
     36     -47.1997      1.00000
     37     -21.5553      1.00000
     38     -20.8426      1.00000
     39     -20.4396      1.00000
     40     -20.2832      1.00000
     41     -20.1702      1.00000
     42     -20.0919      1.00000
     43     -19.9801      1.00000
     44     -19.8394      1.00000
     45     -19.7379      1.00000
     46     -19.6006      1.00000
     47     -19.5560      1.00000
     48     -19.4936      1.00000
     49     -19.4395      1.00000
     50     -19.4169      1.00000
     51     -19.3899      1.00000
     52     -19.3301      1.00000
     53     -19.2770      1.00000
     54     -19.2218      1.00000
     55     -18.4354      1.00000
     56     -18.3552      1.00000
     57      -9.8438      1.00000
     58      -8.8352      1.00000
     59      -8.6801      1.00000
     60      -8.4583      1.00000
     61      -8.3529      1.00000
     62      -8.1690      1.00000
     63      -8.0056      1.00000
     64      -7.9363      1.00000
     65      -7.7922      1.00000
     66      -7.7709      1.00000
     67      -7.6169      1.00000
     68      -7.5374      1.00000
     69      -7.4684      1.00000
     70      -7.4618      1.00000
     71      -7.4155      1.00000
     72      -7.3968      1.00000
     73      -7.3047      1.00000
     74      -7.2641      1.00000
     75      -7.0877      1.00000
     76      -7.0666      1.00000
     77      -7.0293      1.00000
     78      -7.0040      1.00000
     79      -6.8622      1.00000
     80      -6.8456      1.00000
     81      -6.7622      1.00000
     82      -6.7155      1.00000
     83      -6.6892      1.00000
     84      -6.5940      1.00000
     85      -6.5842      1.00000
     86      -6.5518      1.00000
     87      -6.5118      1.00000
     88      -6.4734      1.00000
     89      -6.4273      1.00000
     90      -6.3415      1.00000
     91      -6.2737      1.00000
     92      -6.2116      1.00000
     93      -6.1399      1.00000
     94      -6.0411      1.00000
     95      -5.9741      1.00000
     96      -5.9365      1.00000
     97      -5.8459      1.00000
     98      -5.7660      1.00000
     99      -5.7448      1.00000
    100      -5.6309      1.00000
    101      -5.5684      1.00000
    102      -5.4888      1.00000
    103      -5.4562      1.00000
    104      -5.4142      1.00000
    105      -5.3846      1.00000
    106      -5.2921      1.00000
    107      -5.2476      1.00000
    108      -5.1280      1.00000
    109      -5.0931      1.00000
    110      -5.0585      1.00000
    111      -5.0325      1.00000
    112      -4.9859      1.00000
    113      -4.9135      1.00000
    114      -4.8017      1.00000
    115      -4.7820      1.00000
    116      -4.7612      1.00000
    117      -4.6697      1.00000
    118      -4.5470      1.00000
    119      -4.5143      1.00000
    120      -4.4781      1.00000
    121      -4.4449      1.00000
    122      -4.3511      1.00000
    123      -4.2755      1.00000
    124      -4.1863      1.00000
    125      -4.1303      1.00000
    126      -4.0429      1.00000
    127      -3.9584      1.00000
    128      -3.9288      1.00000
    129      -3.8224      1.00000
    130      -3.7022      1.00000
    131      -3.5887      1.00000
    132      -3.5645      1.00000
    133      -3.4300      1.00000
    134      -3.3944      1.00000
    135      -3.3428      1.00000
    136      -3.2345      1.00000
    137      -3.1689      1.00000
    138      -3.1478      1.00000
    139      -3.0657      1.00000
    140      -2.9662      1.00000
    141      -2.9605      1.00000
    142      -2.8336      1.00000
    143      -2.7510      1.00000
    144      -2.7042      1.00000
    145      -2.5802      1.00000
    146      -2.5220      1.00000
    147      -2.4809      1.00000
    148      -2.3550      1.00000
    149      -2.2988      1.00000
    150      -2.1505      1.00000
    151      -2.0355      1.00011
    152      -1.9630      1.00069
    153      -1.8975      1.00286
    154      -1.6406      1.02521
    155      -1.5554      0.90834
    156      -1.3010      0.04117
    157      -0.6845     -0.00000
    158      -0.4767     -0.00000
    159      -0.3534     -0.00000
    160      -0.1734     -0.00000
    161       0.0036     -0.00000
    162       1.4481     -0.00000
    163       1.7261     -0.00000
    164       1.7768     -0.00000
    165       1.8124     -0.00000
    166       1.8313     -0.00000
    167       1.8583     -0.00000
    168       1.8904     -0.00000
    169       1.9038     -0.00000
    170       1.9449     -0.00000
    171       1.9523     -0.00000
    172       2.0166     -0.00000
    173       2.0971     -0.00000
    174       2.1858     -0.00000
    175       2.3831     -0.00000
    176       2.5264     -0.00000
    177       2.5769     -0.00000
    178       2.7769     -0.00000

 spin component 2

 k-point     1 :       0.0000    0.0000    0.0000
  band No.  band energies     occupation 
      1     -52.1604      1.00000
      2     -52.1556      1.00000
      3     -52.1414      1.00000
      4     -52.1354      1.00000
      5     -52.1248      1.00000
      6     -52.1039      1.00000
      7     -51.8406      1.00000
      8     -51.8234      1.00000
      9     -51.8212      1.00000
     10     -48.4046      1.00000
     11     -48.0836      1.00000
     12     -48.0621      1.00000
     13     -48.0488      1.00000
     14     -48.0282      1.00000
     15     -48.0247      1.00000
     16     -47.9891      1.00000
     17     -47.9726      1.00000
     18     -47.9372      1.00000
     19     -47.7591      1.00000
     20     -47.6196      1.00000
     21     -47.1970      1.00000
     22     -47.1852      1.00000
     23     -47.1555      1.00000
     24     -46.8913      1.00000
     25     -46.1147      1.00000
     26     -46.0735      1.00000
     27     -46.0620      1.00000
     28     -46.0594      1.00000
     29     -46.0370      1.00000
     30     -46.0314      1.00000
     31     -46.0131      1.00000
     32     -45.9775      1.00000
     33     -45.9569      1.00000
     34     -45.8273      1.00000
     35     -45.8002      1.00000
     36     -45.7674      1.00000
     37     -21.6186      1.00000
     38     -20.9058      1.00000
     39     -20.5984      1.00000
     40     -20.3364      1.00000
     41     -20.1459      1.00000
     42     -19.9288      1.00000
     43     -19.9167      1.00000
     44     -19.7772      1.00000
     45     -19.6085      1.00000
     46     -19.5164      1.00000
     47     -19.5013      1.00000
     48     -19.4433      1.00000
     49     -19.4124      1.00000
     50     -19.3271      1.00000
     51     -19.2570      1.00000
     52     -19.1931      1.00000
     53     -19.1780      1.00000
     54     -19.0607      1.00000
     55     -18.5675      1.00000
     56     -18.4104      1.00000
     57      -9.6370      1.00000
     58      -8.8033      1.00000
     59      -8.6358      1.00000
     60      -8.5994      1.00000
     61      -8.1656      1.00000
     62      -8.1514      1.00000
     63      -8.0024      1.00000
     64      -7.7656      1.00000
     65      -7.5717      1.00000
     66      -7.4573      1.00000
     67      -7.4424      1.00000
     68      -7.3185      1.00000
     69      -7.1649      1.00000
     70      -7.0604      1.00000
     71      -7.0514      1.00000
     72      -6.9765      1.00000
     73      -6.8336      1.00000
     74      -6.7726      1.00000
     75      -6.6920      1.00000
     76      -6.5994      1.00000
     77      -6.5318      1.00000
     78      -6.5218      1.00000
     79      -6.4700      1.00000
     80      -6.4076      1.00000
     81      -6.3523      1.00000
     82      -6.3018      1.00000
     83      -6.2354      1.00000
     84      -6.1518      1.00000
     85      -5.8810      1.00000
     86      -5.7402      1.00000
     87      -5.6137      1.00000
     88      -5.5452      1.00000
     89      -5.4713      1.00000
     90      -5.3980      1.00000
     91      -5.3570      1.00000
     92      -5.3211      1.00000
     93      -5.2027      1.00000
     94      -5.1906      1.00000
     95      -5.0999      1.00000
     96      -5.0324      1.00000
     97      -4.9489      1.00000
     98      -4.8706      1.00000
     99      -4.8597      1.00000
    100      -4.7244      1.00000
    101      -4.6920      1.00000
    102      -4.6489      1.00000
    103      -4.5731      1.00000
    104      -4.5114      1.00000
    105      -4.4858      1.00000
    106      -4.4330      1.00000
    107      -4.3793      1.00000
    108      -4.2459      1.00000
    109      -4.1364      1.00000
    110      -4.0961      1.00000
    111      -4.0241      1.00000
    112      -3.9675      1.00000
    113      -3.8782      1.00000
    114      -3.8479      1.00000
    115      -3.8255      1.00000
    116      -3.7457      1.00000
    117      -3.6923      1.00000
    118      -3.6438      1.00000
    119      -3.5982      1.00000
    120      -3.5238      1.00000
    121      -3.2933      1.00000
    122      -2.9970      1.00000
    123      -2.8638      1.00000
    124      -2.5963      1.00000
    125      -2.4423      1.00000
    126      -2.3984      1.00000
    127      -2.2782      1.00000
    128      -2.2551      1.00000
    129      -0.2532     -0.00000
    130      -0.0373     -0.00000
    131       0.1189     -0.00000
    132       0.3037     -0.00000
    133       1.2114     -0.00000
    134       1.3499     -0.00000
    135       1.5343     -0.00000
    136       1.5633     -0.00000
    137       1.7035     -0.00000
    138       1.7268     -0.00000
    139       1.8047     -0.00000
    140       1.8673     -0.00000
    141       1.8866     -0.00000
    142       1.9538     -0.00000
    143       1.9712     -0.00000
    144       2.1011     -0.00000
    145       2.1353     -0.00000
    146       2.1944     -0.00000
    147       2.2312     -0.00000
    148       2.2733     -0.00000
    149       2.3294     -0.00000
    150       2.3569     -0.00000
    151       2.4030     -0.00000
    152       2.4384     -0.00000
    153       2.5227     -0.00000
    154       2.5849     -0.00000
    155       2.6197     -0.00000
    156       2.6969     -0.00000
    157       2.7447     -0.00000
    158       2.8018     -0.00000
    159       2.8248     -0.00000
    160       2.9223     -0.00000
    161       2.9329     -0.00000
    162       2.9857     -0.00000
    163       3.0282     -0.00000
    164       3.0811     -0.00000
    165       3.0943     -0.00000
    166       3.1084     -0.00000
    167       3.1924     -0.00000
    168       3.2085     -0.00000
    169       3.2710     -0.00000
    170       3.2984     -0.00000
    171       3.3258     -0.00000
    172       3.3528     -0.00000
    173       3.4088     -0.00000
    174       3.4321     -0.00000
    175       3.4799     -0.00000
    176       3.5773     -0.00000
    177       3.6264     -0.00000
    178       3.7447     -0.00000

 k-point     2 :       0.2500    0.0000   -0.0000
  band No.  band energies     occupation 
      1     -52.1603      1.00000
      2     -52.1554      1.00000
      3     -52.1401      1.00000
      4     -52.1354      1.00000
      5     -52.1260      1.00000
      6     -52.1038      1.00000
      7     -51.8384      1.00000
      8     -51.8237      1.00000
      9     -51.8234      1.00000
     10     -48.4046      1.00000
     11     -48.0836      1.00000
     12     -48.0621      1.00000
     13     -48.0488      1.00000
     14     -48.0282      1.00000
     15     -48.0247      1.00000
     16     -47.9891      1.00000
     17     -47.9726      1.00000
     18     -47.9372      1.00000
     19     -47.7591      1.00000
     20     -47.6197      1.00000
     21     -47.1970      1.00000
     22     -47.1852      1.00000
     23     -47.1555      1.00000
     24     -46.8913      1.00000
     25     -46.1147      1.00000
     26     -46.0735      1.00000
     27     -46.0620      1.00000
     28     -46.0594      1.00000
     29     -46.0369      1.00000
     30     -46.0314      1.00000
     31     -46.0132      1.00000
     32     -45.9775      1.00000
     33     -45.9569      1.00000
     34     -45.8273      1.00000
     35     -45.8002      1.00000
     36     -45.7675      1.00000
     37     -21.6016      1.00000
     38     -20.9103      1.00000
     39     -20.5307      1.00000
     40     -20.3034      1.00000
     41     -20.1332      1.00000
     42     -19.9455      1.00000
     43     -19.9245      1.00000
     44     -19.8575      1.00000
     45     -19.5836      1.00000
     46     -19.5530      1.00000
     47     -19.5051      1.00000
     48     -19.4461      1.00000
     49     -19.4215      1.00000
     50     -19.3438      1.00000
     51     -19.2606      1.00000
     52     -19.1963      1.00000
     53     -19.1797      1.00000
     54     -19.0633      1.00000
     55     -18.5702      1.00000
     56     -18.4137      1.00000
     57      -9.6147      1.00000
     58      -8.7471      1.00000
     59      -8.5915      1.00000
     60      -8.4368      1.00000
     61      -8.1319      1.00000
     62      -8.1193      1.00000
     63      -7.9826      1.00000
     64      -7.6880      1.00000
     65      -7.5671      1.00000
     66      -7.4308      1.00000
     67      -7.3965      1.00000
     68      -7.3143      1.00000
     69      -7.1886      1.00000
     70      -7.1053      1.00000
     71      -7.0312      1.00000
     72      -6.9663      1.00000
     73      -6.9027      1.00000
     74      -6.7789      1.00000
     75      -6.6431      1.00000
     76      -6.5876      1.00000
     77      -6.5224      1.00000
     78      -6.4770      1.00000
     79      -6.3998      1.00000
     80      -6.3466      1.00000
     81      -6.2654      1.00000
     82      -6.1879      1.00000
     83      -6.0831      1.00000
     84      -6.0557      1.00000
     85      -5.8736      1.00000
     86      -5.7683      1.00000
     87      -5.6426      1.00000
     88      -5.5987      1.00000
     89      -5.5712      1.00000
     90      -5.4774      1.00000
     91      -5.4280      1.00000
     92      -5.3248      1.00000
     93      -5.2797      1.00000
     94      -5.2065      1.00000
     95      -5.1735      1.00000
     96      -5.1013      1.00000
     97      -5.0319      1.00000
     98      -4.9549      1.00000
     99      -4.8593      1.00000
    100      -4.7893      1.00000
    101      -4.6996      1.00000
    102      -4.6359      1.00000
    103      -4.5694      1.00000
    104      -4.5233      1.00000
    105      -4.4799      1.00000
    106      -4.4439      1.00000
    107      -4.3079      1.00000
    108      -4.2594      1.00000
    109      -4.1698      1.00000
    110      -4.1398      1.00000
    111      -4.0362      1.00000
    112      -3.9840      1.00000
    113      -3.9473      1.00000
    114      -3.8672      1.00000
    115      -3.8423      1.00000
    116      -3.7818      1.00000
    117      -3.7531      1.00000
    118      -3.7069      1.00000
    119      -3.6680      1.00000
    120      -3.5193      1.00000
    121      -3.2310      1.00000
    122      -3.1123      1.00000
    123      -2.9739      1.00000
    124      -2.7403      1.00000
    125      -2.6046      1.00000
    126      -2.5711      1.00000
    127      -2.5234      1.00000
    128      -2.2964      1.00000
    129      -0.2254     -0.00000
    130      -0.0175     -0.00000
    131       0.1036     -0.00000
    132       0.5799     -0.00000
    133       1.2388     -0.00000
    134       1.4007     -0.00000
    135       1.5780     -0.00000
    136       1.6137     -0.00000
    137       1.7025     -0.00000
    138       1.7587     -0.00000
    139       1.8222     -0.00000
    140       1.8780     -0.00000
    141       1.9273     -0.00000
    142       1.9605     -0.00000
    143       2.0501     -0.00000
    144       2.0776     -0.00000
    145       2.1465     -0.00000
    146       2.1692     -0.00000
    147       2.2201     -0.00000
    148       2.2635     -0.00000
    149       2.3543     -0.00000
    150       2.3626     -0.00000
    151       2.3988     -0.00000
    152       2.5100     -0.00000
    153       2.5557     -0.00000
    154       2.6217     -0.00000
    155       2.6747     -0.00000
    156       2.6953     -0.00000
    157       2.7738     -0.00000
    158       2.8114     -0.00000
    159       2.8735     -0.00000
    160       2.9271     -0.00000
    161       3.0201     -0.00000
    162       3.0285     -0.00000
    163       3.0953     -0.00000
    164       3.1328     -0.00000
    165       3.1630     -0.00000
    166       3.1940     -0.00000
    167       3.2061     -0.00000
    168       3.2353     -0.00000
    169       3.2599     -0.00000
    170       3.2841     -0.00000
    171       3.3464     -0.00000
    172       3.3858     -0.00000
    173       3.4189     -0.00000
    174       3.4387     -0.00000
    175       3.4971     -0.00000
    176       3.5241     -0.00000
    177       3.6163     -0.00000
    178       3.6900     -0.00000

 k-point     3 :       0.5000    0.0000   -0.0000
  band No.  band energies     occupation 
      1     -52.1601      1.00000
      2     -52.1553      1.00000
      3     -52.1386      1.00000
      4     -52.1354      1.00000
      5     -52.1274      1.00000
      6     -52.1038      1.00000
      7     -51.8350      1.00000
      8     -51.8274      1.00000
      9     -51.8233      1.00000
     10     -48.4046      1.00000
     11     -48.0837      1.00000
     12     -48.0622      1.00000
     13     -48.0488      1.00000
     14     -48.0282      1.00000
     15     -48.0247      1.00000
     16     -47.9891      1.00000
     17     -47.9726      1.00000
     18     -47.9372      1.00000
     19     -47.7591      1.00000
     20     -47.6197      1.00000
     21     -47.1970      1.00000
     22     -47.1852      1.00000
     23     -47.1555      1.00000
     24     -46.8913      1.00000
     25     -46.1147      1.00000
     26     -46.0735      1.00000
     27     -46.0620      1.00000
     28     -46.0594      1.00000
     29     -46.0369      1.00000
     30     -46.0314      1.00000
     31     -46.0132      1.00000
     32     -45.9775      1.00000
     33     -45.9569      1.00000
     34     -45.8273      1.00000
     35     -45.8002      1.00000
     36     -45.7675      1.00000
     37     -21.5842      1.00000
     38     -20.9153      1.00000
     39     -20.4477      1.00000
     40     -20.2278      1.00000
     41     -20.1205      1.00000
     42     -20.0761      1.00000
     43     -19.9264      1.00000
     44     -19.8787      1.00000
     45     -19.5932      1.00000
     46     -19.5582      1.00000
     47     -19.5120      1.00000
     48     -19.4519      1.00000
     49     -19.4255      1.00000
     50     -19.3645      1.00000
     51     -19.2646      1.00000
     52     -19.1993      1.00000
     53     -19.1827      1.00000
     54     -19.0655      1.00000
     55     -18.5728      1.00000
     56     -18.4170      1.00000
     57      -9.5928      1.00000
     58      -8.6906      1.00000
     59      -8.5473      1.00000
     60      -8.1584      1.00000
     61      -8.1038      1.00000
     62      -8.0874      1.00000
     63      -8.0241      1.00000
     64      -7.6695      1.00000
     65      -7.5488      1.00000
     66      -7.5248      1.00000
     67      -7.4064      1.00000
     68      -7.2595      1.00000
     69      -7.2270      1.00000
     70      -7.0310      1.00000
     71      -6.9789      1.00000
     72      -6.9572      1.00000
     73      -6.8345      1.00000
     74      -6.6552      1.00000
     75      -6.6318      1.00000
     76      -6.5442      1.00000
     77      -6.4908      1.00000
     78      -6.4292      1.00000
     79      -6.3125      1.00000
     80      -6.2852      1.00000
     81      -6.2724      1.00000
     82      -6.1560      1.00000
     83      -6.0952      1.00000
     84      -5.9194      1.00000
     85      -5.8674      1.00000
     86      -5.8096      1.00000
     87      -5.7641      1.00000
     88      -5.7026      1.00000
     89      -5.6166      1.00000
     90      -5.4845      1.00000
     91      -5.4483      1.00000
     92      -5.4093      1.00000
     93      -5.3176      1.00000
     94      -5.2668      1.00000
     95      -5.2017      1.00000
     96      -5.1664      1.00000
     97      -5.0816      1.00000
     98      -5.0244      1.00000
     99      -4.9233      1.00000
    100      -4.8461      1.00000
    101      -4.7072      1.00000
    102      -4.6429      1.00000
    103      -4.6151      1.00000
    104      -4.5550      1.00000
    105      -4.5183      1.00000
    106      -4.4196      1.00000
    107      -4.3218      1.00000
    108      -4.2312      1.00000
    109      -4.2023      1.00000
    110      -4.0912      1.00000
    111      -4.0572      1.00000
    112      -4.0006      1.00000
    113      -3.9273      1.00000
    114      -3.8624      1.00000
    115      -3.8294      1.00000
    116      -3.8057      1.00000
    117      -3.7988      1.00000
    118      -3.7201      1.00000
    119      -3.6924      1.00000
    120      -3.5565      1.00000
    121      -3.2689      1.00000
    122      -3.2160      1.00000
    123      -3.0274      1.00000
    124      -2.9130      1.00000
    125      -2.8739      1.00000
    126      -2.7601      1.00000
    127      -2.7160      1.00000
    128      -2.3056      1.00000
    129      -0.2032     -0.00000
    130       0.0127     -0.00000
    131       0.0842     -0.00000
    132       1.0180     -0.00000
    133       1.2585     -0.00000
    134       1.4244     -0.00000
    135       1.5073     -0.00000
    136       1.6105     -0.00000
    137       1.7177     -0.00000
    138       1.7453     -0.00000
    139       1.8083     -0.00000
    140       1.8400     -0.00000
    141       1.9024     -0.00000
    142       1.9667     -0.00000
    143       1.9875     -0.00000
    144       1.9913     -0.00000
    145       2.0762     -0.00000
    146       2.1800     -0.00000
    147       2.2096     -0.00000
    148       2.2316     -0.00000
    149       2.3134     -0.00000
    150       2.3734     -0.00000
    151       2.4488     -0.00000
    152       2.4923     -0.00000
    153       2.5717     -0.00000
    154       2.6627     -0.00000
    155       2.7035     -0.00000
    156       2.7677     -0.00000
    157       2.8486     -0.00000
    158       3.0180     -0.00000
    159       3.0521     -0.00000
    160       3.1164     -0.00000
    161       3.1260     -0.00000
    162       3.1428     -0.00000
    163       3.1687     -0.00000
    164       3.1950     -0.00000
    165       3.2263     -0.00000
    166       3.2663     -0.00000
    167       3.2994     -0.00000
    168       3.3054     -0.00000
    169       3.3475     -0.00000
    170       3.3508     -0.00000
    171       3.3799     -0.00000
    172       3.4417     -0.00000
    173       3.4598     -0.00000
    174       3.5146     -0.00000
    175       3.6229     -0.00000
    176       3.6631     -0.00000
    177       3.7809     -0.00000
    178       3.9205     -0.00000

 k-point     4 :       0.0000    0.2500   -0.0000
  band No.  band energies     occupation 
      1     -52.1602      1.00000
      2     -52.1555      1.00000
      3     -52.1413      1.00000
      4     -52.1354      1.00000
      5     -52.1248      1.00000
      6     -52.1038      1.00000
      7     -51.8406      1.00000
      8     -51.8234      1.00000
      9     -51.8212      1.00000
     10     -48.4022      1.00000
     11     -48.0812      1.00000
     12     -48.0625      1.00000
     13     -48.0488      1.00000
     14     -48.0282      1.00000
     15     -48.0249      1.00000
     16     -47.9891      1.00000
     17     -47.9726      1.00000
     18     -47.9409      1.00000
     19     -47.7591      1.00000
     20     -47.6210      1.00000
     21     -47.1970      1.00000
     22     -47.1852      1.00000
     23     -47.1555      1.00000
     24     -46.8913      1.00000
     25     -46.1147      1.00000
     26     -46.0735      1.00000
     27     -46.0620      1.00000
     28     -46.0595      1.00000
     29     -46.0369      1.00000
     30     -46.0314      1.00000
     31     -46.0131      1.00000
     32     -45.9775      1.00000
     33     -45.9569      1.00000
     34     -45.8273      1.00000
     35     -45.8002      1.00000
     36     -45.7674      1.00000
     37     -21.5977      1.00000
     38     -20.8885      1.00000
     39     -20.5009      1.00000
     40     -20.2726      1.00000
     41     -20.1590      1.00000
     42     -19.9774      1.00000
     43     -19.8872      1.00000
     44     -19.7745      1.00000
     45     -19.6302      1.00000
     46     -19.5558      1.00000
     47     -19.5289      1.00000
     48     -19.4705      1.00000
     49     -19.4000      1.00000
     50     -19.3469      1.00000
     51     -19.2895      1.00000
     52     -19.2121      1.00000
     53     -19.1880      1.00000
     54     -19.0798      1.00000
     55     -18.5930      1.00000
     56     -18.4345      1.00000
     57      -9.6150      1.00000
     58      -8.6464      1.00000
     59      -8.5492      1.00000
     60      -8.4377      1.00000
     61      -8.1425      1.00000
     62      -8.1341      1.00000
     63      -7.8665      1.00000
     64      -7.6817      1.00000
     65      -7.4689      1.00000
     66      -7.3745      1.00000
     67      -7.3313      1.00000
     68      -7.2795      1.00000
     69      -7.1207      1.00000
     70      -7.0641      1.00000
     71      -7.0040      1.00000
     72      -6.9385      1.00000
     73      -6.9150      1.00000
     74      -6.7861      1.00000
     75      -6.6901      1.00000
     76      -6.6729      1.00000
     77      -6.5234      1.00000
     78      -6.4906      1.00000
     79      -6.3652      1.00000
     80      -6.3414      1.00000
     81      -6.3199      1.00000
     82      -6.2258      1.00000
     83      -6.1182      1.00000
     84      -6.0518      1.00000
     85      -5.9422      1.00000
     86      -5.8107      1.00000
     87      -5.7097      1.00000
     88      -5.6675      1.00000
     89      -5.5878      1.00000
     90      -5.4801      1.00000
     91      -5.4108      1.00000
     92      -5.3150      1.00000
     93      -5.2139      1.00000
     94      -5.1589      1.00000
     95      -5.0995      1.00000
     96      -5.0490      1.00000
     97      -4.9609      1.00000
     98      -4.8983      1.00000
     99      -4.8589      1.00000
    100      -4.8109      1.00000
    101      -4.7022      1.00000
    102      -4.6656      1.00000
    103      -4.6144      1.00000
    104      -4.5808      1.00000
    105      -4.5171      1.00000
    106      -4.4430      1.00000
    107      -4.3669      1.00000
    108      -4.2976      1.00000
    109      -4.2539      1.00000
    110      -4.1339      1.00000
    111      -4.0907      1.00000
    112      -4.0449      1.00000
    113      -3.9985      1.00000
    114      -3.9370      1.00000
    115      -3.8651      1.00000
    116      -3.8188      1.00000
    117      -3.7834      1.00000
    118      -3.7314      1.00000
    119      -3.5943      1.00000
    120      -3.5248      1.00000
    121      -3.3259      1.00000
    122      -3.1862      1.00000
    123      -2.8809      1.00000
    124      -2.6875      1.00000
    125      -2.5443      1.00000
    126      -2.4772      1.00000
    127      -2.4316      1.00000
    128      -2.3032      1.00000
    129      -0.3836     -0.00000
    130      -0.2014     -0.00000
    131      -0.0875     -0.00000
    132       0.6125     -0.00000
    133       1.4084     -0.00000
    134       1.4793     -0.00000
    135       1.5781     -0.00000
    136       1.6431     -0.00000
    137       1.7089     -0.00000
    138       1.7482     -0.00000
    139       1.8103     -0.00000
    140       1.8494     -0.00000
    141       1.9404     -0.00000
    142       1.9613     -0.00000
    143       2.0197     -0.00000
    144       2.0652     -0.00000
    145       2.0908     -0.00000
    146       2.1309     -0.00000
    147       2.1724     -0.00000
    148       2.2247     -0.00000
    149       2.2644     -0.00000
    150       2.3282     -0.00000
    151       2.4237     -0.00000
    152       2.4562     -0.00000
    153       2.4869     -0.00000
    154       2.5329     -0.00000
    155       2.6025     -0.00000
    156       2.7157     -0.00000
    157       2.7334     -0.00000
    158       2.8331     -0.00000
    159       2.9144     -0.00000
    160       2.9876     -0.00000
    161       3.0103     -0.00000
    162       3.0463     -0.00000
    163       3.0855     -0.00000
    164       3.1140     -0.00000
    165       3.1548     -0.00000
    166       3.1783     -0.00000
    167       3.2262     -0.00000
    168       3.2695     -0.00000
    169       3.2955     -0.00000
    170       3.3402     -0.00000
    171       3.3552     -0.00000
    172       3.4039     -0.00000
    173       3.4409     -0.00000
    174       3.4660     -0.00000
    175       3.5301     -0.00000
    176       3.5755     -0.00000
    177       3.6228     -0.00000
    178       3.8430     -0.00000

 k-point     5 :       0.2500    0.2500   -0.0000
  band No.  band energies     occupation 
      1     -52.1601      1.00000
      2     -52.1554      1.00000
      3     -52.1400      1.00000
      4     -52.1354      1.00000
      5     -52.1260      1.00000
      6     -52.1039      1.00000
      7     -51.8384      1.00000
      8     -51.8237      1.00000
      9     -51.8234      1.00000
     10     -48.4022      1.00000
     11     -48.0812      1.00000
     12     -48.0624      1.00000
     13     -48.0488      1.00000
     14     -48.0282      1.00000
     15     -48.0249      1.00000
     16     -47.9891      1.00000
     17     -47.9726      1.00000
     18     -47.9409      1.00000
     19     -47.7591      1.00000
     20     -47.6210      1.00000
     21     -47.1970      1.00000
     22     -47.1852      1.00000
     23     -47.1555      1.00000
     24     -46.8913      1.00000
     25     -46.1147      1.00000
     26     -46.0735      1.00000
     27     -46.0620      1.00000
     28     -46.0594      1.00000
     29     -46.0370      1.00000
     30     -46.0313      1.00000
     31     -46.0132      1.00000
     32     -45.9775      1.00000
     33     -45.9569      1.00000
     34     -45.8273      1.00000
     35     -45.8002      1.00000
     36     -45.7674      1.00000
     37     -21.6009      1.00000
     38     -20.8842      1.00000
     39     -20.4999      1.00000
     40     -20.2694      1.00000
     41     -20.1619      1.00000
     42     -19.9793      1.00000
     43     -19.8930      1.00000
     44     -19.7781      1.00000
     45     -19.6219      1.00000
     46     -19.5445      1.00000
     47     -19.5184      1.00000
     48     -19.4741      1.00000
     49     -19.4034      1.00000
     50     -19.3401      1.00000
     51     -19.2889      1.00000
     52     -19.2282      1.00000
     53     -19.2111      1.00000
     54     -19.0650      1.00000
     55     -18.5932      1.00000
     56     -18.4315      1.00000
     57      -9.6156      1.00000
     58      -8.6704      1.00000
     59      -8.5449      1.00000
     60      -8.3863      1.00000
     61      -8.1490      1.00000
     62      -8.1307      1.00000
     63      -7.9047      1.00000
     64      -7.5790      1.00000
     65      -7.4753      1.00000
     66      -7.3589      1.00000
     67      -7.2960      1.00000
     68      -7.2696      1.00000
     69      -7.1878      1.00000
     70      -7.0635      1.00000
     71      -7.0132      1.00000
     72      -6.9722      1.00000
     73      -6.8969      1.00000
     74      -6.8358      1.00000
     75      -6.7457      1.00000
     76      -6.6810      1.00000
     77      -6.5638      1.00000
     78      -6.5084      1.00000
     79      -6.4368      1.00000
     80      -6.3776      1.00000
     81      -6.2390      1.00000
     82      -6.1859      1.00000
     83      -6.1131      1.00000
     84      -6.0115      1.00000
     85      -5.8144      1.00000
     86      -5.7475      1.00000
     87      -5.7019      1.00000
     88      -5.6386      1.00000
     89      -5.5997      1.00000
     90      -5.5212      1.00000
     91      -5.4963      1.00000
     92      -5.4232      1.00000
     93      -5.3073      1.00000
     94      -5.2408      1.00000
     95      -5.1240      1.00000
     96      -5.0252      1.00000
     97      -4.9925      1.00000
     98      -4.9138      1.00000
     99      -4.8575      1.00000
    100      -4.7775      1.00000
    101      -4.7271      1.00000
    102      -4.6335      1.00000
    103      -4.5766      1.00000
    104      -4.4811      1.00000
    105      -4.4282      1.00000
    106      -4.4008      1.00000
    107      -4.3088      1.00000
    108      -4.2901      1.00000
    109      -4.1989      1.00000
    110      -4.1696      1.00000
    111      -4.0530      1.00000
    112      -4.0222      1.00000
    113      -3.9914      1.00000
    114      -3.9478      1.00000
    115      -3.8956      1.00000
    116      -3.8330      1.00000
    117      -3.7807      1.00000
    118      -3.7363      1.00000
    119      -3.5937      1.00000
    120      -3.5590      1.00000
    121      -3.2414      1.00000
    122      -3.2016      1.00000
    123      -2.9089      1.00000
    124      -2.7343      1.00000
    125      -2.5797      1.00000
    126      -2.4804      1.00000
    127      -2.4016      1.00000
    128      -2.3504      1.00000
    129      -0.4362     -0.00000
    130      -0.2363     -0.00000
    131      -0.1074     -0.00000
    132       0.6216     -0.00000
    133       1.4118     -0.00000
    134       1.4780     -0.00000
    135       1.5874     -0.00000
    136       1.6577     -0.00000
    137       1.7051     -0.00000
    138       1.7698     -0.00000
    139       1.8319     -0.00000
    140       1.8669     -0.00000
    141       1.9131     -0.00000
    142       1.9744     -0.00000
    143       2.0055     -0.00000
    144       2.0742     -0.00000
    145       2.1080     -0.00000
    146       2.1886     -0.00000
    147       2.2011     -0.00000
    148       2.2501     -0.00000
    149       2.2712     -0.00000
    150       2.3408     -0.00000
    151       2.3878     -0.00000
    152       2.4170     -0.00000
    153       2.4974     -0.00000
    154       2.5665     -0.00000
    155       2.6255     -0.00000
    156       2.7385     -0.00000
    157       2.7464     -0.00000
    158       2.7839     -0.00000
    159       2.8768     -0.00000
    160       2.9582     -0.00000
    161       2.9994     -0.00000
    162       3.0536     -0.00000
    163       3.0956     -0.00000
    164       3.1082     -0.00000
    165       3.1571     -0.00000
    166       3.1818     -0.00000
    167       3.2177     -0.00000
    168       3.2523     -0.00000
    169       3.3139     -0.00000
    170       3.3337     -0.00000
    171       3.3537     -0.00000
    172       3.3920     -0.00000
    173       3.4359     -0.00000
    174       3.4724     -0.00000
    175       3.4926     -0.00000
    176       3.5858     -0.00000
    177       3.6750     -0.00000
    178       3.9433     -0.00000

 k-point     6 :       0.5000    0.2500    0.0000
  band No.  band energies     occupation 
      1     -52.1599      1.00000
      2     -52.1553      1.00000
      3     -52.1385      1.00000
      4     -52.1354      1.00000
      5     -52.1274      1.00000
      6     -52.1038      1.00000
      7     -51.8350      1.00000
      8     -51.8274      1.00000
      9     -51.8233      1.00000
     10     -48.4022      1.00000
     11     -48.0812      1.00000
     12     -48.0625      1.00000
     13     -48.0488      1.00000
     14     -48.0282      1.00000
     15     -48.0249      1.00000
     16     -47.9891      1.00000
     17     -47.9726      1.00000
     18     -47.9409      1.00000
     19     -47.7591      1.00000
     20     -47.6210      1.00000
     21     -47.1970      1.00000
     22     -47.1852      1.00000
     23     -47.1555      1.00000
     24     -46.8913      1.00000
     25     -46.1147      1.00000
     26     -46.0735      1.00000
     27     -46.0620      1.00000
     28     -46.0594      1.00000
     29     -46.0370      1.00000
     30     -46.0313      1.00000
     31     -46.0132      1.00000
     32     -45.9775      1.00000
     33     -45.9569      1.00000
     34     -45.8273      1.00000
     35     -45.8002      1.00000
     36     -45.7674      1.00000
     37     -21.5840      1.00000
     38     -20.8880      1.00000
     39     -20.4179      1.00000
     40     -20.1986      1.00000
     41     -20.1449      1.00000
     42     -20.0157      1.00000
     43     -19.9597      1.00000
     44     -19.8369      1.00000
     45     -19.6247      1.00000
     46     -19.5706      1.00000
     47     -19.5253      1.00000
     48     -19.4456      1.00000
     49     -19.4163      1.00000
     50     -19.3586      1.00000
     51     -19.3211      1.00000
     52     -19.2329      1.00000
     53     -19.1967      1.00000
     54     -19.0604      1.00000
     55     -18.5953      1.00000
     56     -18.4334      1.00000
     57      -9.5944      1.00000
     58      -8.6075      1.00000
     59      -8.4989      1.00000
     60      -8.1624      1.00000
     61      -8.1327      1.00000
     62      -8.0394      1.00000
     63      -7.9287      1.00000
     64      -7.6072      1.00000
     65      -7.4592      1.00000
     66      -7.3766      1.00000
     67      -7.3262      1.00000
     68      -7.2267      1.00000
     69      -7.1829      1.00000
     70      -7.0892      1.00000
     71      -7.0398      1.00000
     72      -6.9049      1.00000
     73      -6.8438      1.00000
     74      -6.7361      1.00000
     75      -6.6396      1.00000
     76      -6.5874      1.00000
     77      -6.4792      1.00000
     78      -6.4352      1.00000
     79      -6.3634      1.00000
     80      -6.2873      1.00000
     81      -6.2235      1.00000
     82      -6.1508      1.00000
     83      -6.0722      1.00000
     84      -5.9923      1.00000
     85      -5.9459      1.00000
     86      -5.8928      1.00000
     87      -5.8073      1.00000
     88      -5.7230      1.00000
     89      -5.6571      1.00000
     90      -5.5908      1.00000
     91      -5.4837      1.00000
     92      -5.4398      1.00000
     93      -5.3556      1.00000
     94      -5.2519      1.00000
     95      -5.1540      1.00000
     96      -5.1031      1.00000
     97      -5.0181      1.00000
     98      -4.9059      1.00000
     99      -4.8798      1.00000
    100      -4.7685      1.00000
    101      -4.7568      1.00000
    102      -4.7011      1.00000
    103      -4.6108      1.00000
    104      -4.5326      1.00000
    105      -4.4802      1.00000
    106      -4.4450      1.00000
    107      -4.3258      1.00000
    108      -4.2551      1.00000
    109      -4.1807      1.00000
    110      -4.1455      1.00000
    111      -4.1017      1.00000
    112      -4.0379      1.00000
    113      -3.9993      1.00000
    114      -3.9403      1.00000
    115      -3.8858      1.00000
    116      -3.8714      1.00000
    117      -3.8055      1.00000
    118      -3.7277      1.00000
    119      -3.6576      1.00000
    120      -3.6021      1.00000
    121      -3.4582      1.00000
    122      -3.1771      1.00000
    123      -3.0062      1.00000
    124      -2.7941      1.00000
    125      -2.7428      1.00000
    126      -2.6598      1.00000
    127      -2.5561      1.00000
    128      -2.4686      1.00000
    129      -0.4002     -0.00000
    130      -0.2109     -0.00000
    131      -0.1170     -0.00000
    132       1.0155     -0.00000
    133       1.4494     -0.00000
    134       1.4707     -0.00000
    135       1.5647     -0.00000
    136       1.6757     -0.00000
    137       1.7095     -0.00000
    138       1.7548     -0.00000
    139       1.8373     -0.00000
    140       1.8597     -0.00000
    141       1.9413     -0.00000
    142       1.9714     -0.00000
    143       1.9822     -0.00000
    144       2.0404     -0.00000
    145       2.0763     -0.00000
    146       2.1375     -0.00000
    147       2.1985     -0.00000
    148       2.2298     -0.00000
    149       2.2898     -0.00000
    150       2.3570     -0.00000
    151       2.4044     -0.00000
    152       2.4561     -0.00000
    153       2.4929     -0.00000
    154       2.5218     -0.00000
    155       2.6456     -0.00000
    156       2.6823     -0.00000
    157       2.7311     -0.00000
    158       2.8732     -0.00000
    159       3.0185     -0.00000
    160       3.0727     -0.00000
    161       3.1053     -0.00000
    162       3.1154     -0.00000
    163       3.1488     -0.00000
    164       3.1954     -0.00000
    165       3.2083     -0.00000
    166       3.2714     -0.00000
    167       3.3271     -0.00000
    168       3.3390     -0.00000
    169       3.3509     -0.00000
    170       3.3639     -0.00000
    171       3.4177     -0.00000
    172       3.4596     -0.00000
    173       3.4793     -0.00000
    174       3.5101     -0.00000
    175       3.6116     -0.00000
    176       3.6603     -0.00000
    177       3.7715     -0.00000
    178       3.7833     -0.00000

 k-point     7 :      -0.2500    0.2500   -0.0000
  band No.  band energies     occupation 
      1     -52.1601      1.00000
      2     -52.1554      1.00000
      3     -52.1400      1.00000
      4     -52.1354      1.00000
      5     -52.1260      1.00000
      6     -52.1038      1.00000
      7     -51.8384      1.00000
      8     -51.8237      1.00000
      9     -51.8233      1.00000
     10     -48.4022      1.00000
     11     -48.0813      1.00000
     12     -48.0625      1.00000
     13     -48.0488      1.00000
     14     -48.0282      1.00000
     15     -48.0249      1.00000
     16     -47.9891      1.00000
     17     -47.9726      1.00000
     18     -47.9409      1.00000
     19     -47.7591      1.00000
     20     -47.6210      1.00000
     21     -47.1970      1.00000
     22     -47.1852      1.00000
     23     -47.1555      1.00000
     24     -46.8913      1.00000
     25     -46.1147      1.00000
     26     -46.0735      1.00000
     27     -46.0620      1.00000
     28     -46.0595      1.00000
     29     -46.0369      1.00000
     30     -46.0314      1.00000
     31     -46.0132      1.00000
     32     -45.9775      1.00000
     33     -45.9569      1.00000
     34     -45.8273      1.00000
     35     -45.8002      1.00000
     36     -45.7674      1.00000
     37     -21.5807      1.00000
     38     -20.8925      1.00000
     39     -20.4186      1.00000
     40     -20.2077      1.00000
     41     -20.1421      1.00000
     42     -19.9942      1.00000
     43     -19.9666      1.00000
     44     -19.8379      1.00000
     45     -19.6298      1.00000
     46     -19.5827      1.00000
     47     -19.5289      1.00000
     48     -19.4521      1.00000
     49     -19.4068      1.00000
     50     -19.3700      1.00000
     51     -19.3141      1.00000
     52     -19.2085      1.00000
     53     -19.1902      1.00000
     54     -19.0721      1.00000
     55     -18.5952      1.00000
     56     -18.4364      1.00000
     57      -9.5937      1.00000
     58      -8.5825      1.00000
     59      -8.5032      1.00000
     60      -8.2230      1.00000
     61      -8.1359      1.00000
     62      -8.1137      1.00000
     63      -7.8249      1.00000
     64      -7.6446      1.00000
     65      -7.4535      1.00000
     66      -7.3766      1.00000
     67      -7.3203      1.00000
     68      -7.2320      1.00000
     69      -7.1311      1.00000
     70      -7.1152      1.00000
     71      -7.0563      1.00000
     72      -6.9461      1.00000
     73      -6.8341      1.00000
     74      -6.7342      1.00000
     75      -6.6438      1.00000
     76      -6.5682      1.00000
     77      -6.4556      1.00000
     78      -6.4039      1.00000
     79      -6.3609      1.00000
     80      -6.2922      1.00000
     81      -6.1700      1.00000
     82      -6.1510      1.00000
     83      -6.0529      1.00000
     84      -5.9913      1.00000
     85      -5.9252      1.00000
     86      -5.8571      1.00000
     87      -5.8007      1.00000
     88      -5.7492      1.00000
     89      -5.6410      1.00000
     90      -5.5387      1.00000
     91      -5.4799      1.00000
     92      -5.4221      1.00000
     93      -5.3188      1.00000
     94      -5.2901      1.00000
     95      -5.2013      1.00000
     96      -5.1347      1.00000
     97      -5.0193      1.00000
     98      -4.9826      1.00000
     99      -4.8891      1.00000
    100      -4.7784      1.00000
    101      -4.6911      1.00000
    102      -4.6749      1.00000
    103      -4.6303      1.00000
    104      -4.5887      1.00000
    105      -4.4880      1.00000
    106      -4.4204      1.00000
    107      -4.3530      1.00000
    108      -4.2872      1.00000
    109      -4.2292      1.00000
    110      -4.1797      1.00000
    111      -4.0914      1.00000
    112      -4.0824      1.00000
    113      -4.0315      1.00000
    114      -3.9262      1.00000
    115      -3.9065      1.00000
    116      -3.8506      1.00000
    117      -3.8115      1.00000
    118      -3.7195      1.00000
    119      -3.6712      1.00000
    120      -3.5743      1.00000
    121      -3.4655      1.00000
    122      -3.1930      1.00000
    123      -3.0055      1.00000
    124      -2.7292      1.00000
    125      -2.6570      1.00000
    126      -2.6109      1.00000
    127      -2.5788      1.00000
    128      -2.5061      1.00000
    129      -0.3601     -0.00000
    130      -0.1940     -0.00000
    131      -0.0832     -0.00000
    132       1.0020     -0.00000
    133       1.4342     -0.00000
    134       1.4798     -0.00000
    135       1.5926     -0.00000
    136       1.6738     -0.00000
    137       1.6995     -0.00000
    138       1.7419     -0.00000
    139       1.7873     -0.00000
    140       1.8207     -0.00000
    141       1.9019     -0.00000
    142       1.9573     -0.00000
    143       1.9968     -0.00000
    144       2.0378     -0.00000
    145       2.0661     -0.00000
    146       2.1047     -0.00000
    147       2.1601     -0.00000
    148       2.2144     -0.00000
    149       2.2626     -0.00000
    150       2.3469     -0.00000
    151       2.4328     -0.00000
    152       2.4744     -0.00000
    153       2.5185     -0.00000
    154       2.5823     -0.00000
    155       2.6451     -0.00000
    156       2.7378     -0.00000
    157       2.7870     -0.00000
    158       2.8985     -0.00000
    159       2.9487     -0.00000
    160       3.0674     -0.00000
    161       3.0948     -0.00000
    162       3.1371     -0.00000
    163       3.1695     -0.00000
    164       3.1899     -0.00000
    165       3.2184     -0.00000
    166       3.2508     -0.00000
    167       3.3004     -0.00000
    168       3.3458     -0.00000
    169       3.3634     -0.00000
    170       3.3829     -0.00000
    171       3.4024     -0.00000
    172       3.4369     -0.00000
    173       3.4824     -0.00000
    174       3.5615     -0.00000
    175       3.5905     -0.00000
    176       3.6523     -0.00000
    177       3.7536     -0.00000
    178       3.8282     -0.00000

 k-point     8 :       0.0000    0.5000   -0.0000
  band No.  band energies     occupation 
      1     -52.1600      1.00000
      2     -52.1555      1.00000
      3     -52.1412      1.00000
      4     -52.1354      1.00000
      5     -52.1248      1.00000
      6     -52.1038      1.00000
      7     -51.8406      1.00000
      8     -51.8234      1.00000
      9     -51.8212      1.00000
     10     -48.3997      1.00000
     11     -48.0786      1.00000
     12     -48.0629      1.00000
     13     -48.0488      1.00000
     14     -48.0282      1.00000
     15     -48.0251      1.00000
     16     -47.9891      1.00000
     17     -47.9727      1.00000
     18     -47.9448      1.00000
     19     -47.7591      1.00000
     20     -47.6223      1.00000
     21     -47.1970      1.00000
     22     -47.1852      1.00000
     23     -47.1555      1.00000
     24     -46.8913      1.00000
     25     -46.1147      1.00000
     26     -46.0735      1.00000
     27     -46.0620      1.00000
     28     -46.0595      1.00000
     29     -46.0369      1.00000
     30     -46.0314      1.00000
     31     -46.0131      1.00000
     32     -45.9775      1.00000
     33     -45.9569      1.00000
     34     -45.8273      1.00000
     35     -45.8002      1.00000
     36     -45.7674      1.00000
     37     -21.5769      1.00000
     38     -20.8688      1.00000
     39     -20.3716      1.00000
     40     -20.2045      1.00000
     41     -20.1363      1.00000
     42     -20.0297      1.00000
     43     -19.9068      1.00000
     44     -19.7978      1.00000
     45     -19.6852      1.00000
     46     -19.6063      1.00000
     47     -19.5294      1.00000
     48     -19.4744      1.00000
     49     -19.3877      1.00000
     50     -19.3814      1.00000
     51     -19.3169      1.00000
     52     -19.2196      1.00000
     53     -19.2002      1.00000
     54     -19.1003      1.00000
     55     -18.6190      1.00000
     56     -18.4569      1.00000
     57      -9.5938      1.00000
     58      -8.4542      1.00000
     59      -8.4283      1.00000
     60      -8.2728      1.00000
     61      -8.1826      1.00000
     62      -8.1525      1.00000
     63      -7.6786      1.00000
     64      -7.6409      1.00000
     65      -7.3840      1.00000
     66      -7.2903      1.00000
     67      -7.2189      1.00000
     68      -7.1724      1.00000
     69      -7.0908      1.00000
     70      -7.0300      1.00000
     71      -6.9998      1.00000
     72      -6.8985      1.00000
     73      -6.8239      1.00000
     74      -6.7084      1.00000
     75      -6.6731      1.00000
     76      -6.5522      1.00000
     77      -6.5387      1.00000
     78      -6.4692      1.00000
     79      -6.3589      1.00000
     80      -6.3220      1.00000
     81      -6.2326      1.00000
     82      -6.1511      1.00000
     83      -6.1161      1.00000
     84      -6.0523      1.00000
     85      -5.9607      1.00000
     86      -5.9132      1.00000
     87      -5.7916      1.00000
     88      -5.7413      1.00000
     89      -5.6834      1.00000
     90      -5.5899      1.00000
     91      -5.4875      1.00000
     92      -5.4114      1.00000
     93      -5.3258      1.00000
     94      -5.2026      1.00000
     95      -5.1156      1.00000
     96      -5.0414      1.00000
     97      -5.0207      1.00000
     98      -4.9506      1.00000
     99      -4.9069      1.00000
    100      -4.8659      1.00000
    101      -4.8457      1.00000
    102      -4.7814      1.00000
    103      -4.6950      1.00000
    104      -4.5963      1.00000
    105      -4.5513      1.00000
    106      -4.5014      1.00000
    107      -4.4163      1.00000
    108      -4.3241      1.00000
    109      -4.2679      1.00000
    110      -4.1776      1.00000
    111      -4.1638      1.00000
    112      -4.0593      1.00000
    113      -3.9977      1.00000
    114      -3.9227      1.00000
    115      -3.8830      1.00000
    116      -3.8627      1.00000
    117      -3.8159      1.00000
    118      -3.6943      1.00000
    119      -3.5645      1.00000
    120      -3.5060      1.00000
    121      -3.3494      1.00000
    122      -3.2872      1.00000
    123      -3.1379      1.00000
    124      -2.9036      1.00000
    125      -2.6123      1.00000
    126      -2.5433      1.00000
    127      -2.4817      1.00000
    128      -2.3241      1.00000
    129      -0.5238     -0.00000
    130      -0.4213     -0.00000
    131      -0.1749     -0.00000
    132       1.1160     -0.00000
    133       1.3378     -0.00000
    134       1.4887     -0.00000
    135       1.6676     -0.00000
    136       1.6904     -0.00000
    137       1.7629     -0.00000
    138       1.7710     -0.00000
    139       1.7901     -0.00000
    140       1.8417     -0.00000
    141       1.8840     -0.00000
    142       1.9097     -0.00000
    143       1.9877     -0.00000
    144       2.0255     -0.00000
    145       2.0423     -0.00000
    146       2.0662     -0.00000
    147       2.1169     -0.00000
    148       2.1664     -0.00000
    149       2.2153     -0.00000
    150       2.3503     -0.00000
    151       2.3637     -0.00000
    152       2.4008     -0.00000
    153       2.4620     -0.00000
    154       2.4811     -0.00000
    155       2.5992     -0.00000
    156       2.6716     -0.00000
    157       2.7237     -0.00000
    158       2.9382     -0.00000
    159       3.0468     -0.00000
    160       3.0740     -0.00000
    161       3.1032     -0.00000
    162       3.1458     -0.00000
    163       3.1552     -0.00000
    164       3.2080     -0.00000
    165       3.2330     -0.00000
    166       3.2634     -0.00000
    167       3.2921     -0.00000
    168       3.3558     -0.00000
    169       3.3791     -0.00000
    170       3.4531     -0.00000
    171       3.4788     -0.00000
    172       3.5109     -0.00000
    173       3.5735     -0.00000
    174       3.6648     -0.00000
    175       3.7326     -0.00000
    176       3.7850     -0.00000
    177       3.7990     -0.00000
    178       3.8696     -0.00000

 k-point     9 :       0.2500    0.5000   -0.0000
  band No.  band energies     occupation 
      1     -52.1599      1.00000
      2     -52.1554      1.00000
      3     -52.1399      1.00000
      4     -52.1354      1.00000
      5     -52.1260      1.00000
      6     -52.1038      1.00000
      7     -51.8384      1.00000
      8     -51.8237      1.00000
      9     -51.8234      1.00000
     10     -48.3997      1.00000
     11     -48.0786      1.00000
     12     -48.0628      1.00000
     13     -48.0488      1.00000
     14     -48.0282      1.00000
     15     -48.0251      1.00000
     16     -47.9891      1.00000
     17     -47.9727      1.00000
     18     -47.9448      1.00000
     19     -47.7591      1.00000
     20     -47.6223      1.00000
     21     -47.1970      1.00000
     22     -47.1852      1.00000
     23     -47.1555      1.00000
     24     -46.8913      1.00000
     25     -46.1147      1.00000
     26     -46.0735      1.00000
     27     -46.0620      1.00000
     28     -46.0595      1.00000
     29     -46.0370      1.00000
     30     -46.0313      1.00000
     31     -46.0132      1.00000
     32     -45.9775      1.00000
     33     -45.9569      1.00000
     34     -45.8273      1.00000
     35     -45.8002      1.00000
     36     -45.7674      1.00000
     37     -21.5803      1.00000
     38     -20.8640      1.00000
     39     -20.3723      1.00000
     40     -20.2031      1.00000
     41     -20.1307      1.00000
     42     -20.0377      1.00000
     43     -19.9075      1.00000
     44     -19.7920      1.00000
     45     -19.7040      1.00000
     46     -19.5863      1.00000
     47     -19.5127      1.00000
     48     -19.4849      1.00000
     49     -19.3896      1.00000
     50     -19.3608      1.00000
     51     -19.3278      1.00000
     52     -19.2417      1.00000
     53     -19.2233      1.00000
     54     -19.0782      1.00000
     55     -18.6192      1.00000
     56     -18.4542      1.00000
     57      -9.5946      1.00000
     58      -8.4779      1.00000
     59      -8.4261      1.00000
     60      -8.2533      1.00000
     61      -8.1685      1.00000
     62      -8.0990      1.00000
     63      -7.6979      1.00000
     64      -7.5821      1.00000
     65      -7.3911      1.00000
     66      -7.2852      1.00000
     67      -7.2048      1.00000
     68      -7.1689      1.00000
     69      -7.1149      1.00000
     70      -7.0376      1.00000
     71      -7.0006      1.00000
     72      -6.9009      1.00000
     73      -6.8694      1.00000
     74      -6.8017      1.00000
     75      -6.7388      1.00000
     76      -6.6861      1.00000
     77      -6.5408      1.00000
     78      -6.4926      1.00000
     79      -6.3976      1.00000
     80      -6.3055      1.00000
     81      -6.2236      1.00000
     82      -6.0854      1.00000
     83      -6.0537      1.00000
     84      -5.9752      1.00000
     85      -5.8838      1.00000
     86      -5.8313      1.00000
     87      -5.7495      1.00000
     88      -5.6900      1.00000
     89      -5.6178      1.00000
     90      -5.5640      1.00000
     91      -5.5042      1.00000
     92      -5.4783      1.00000
     93      -5.3868      1.00000
     94      -5.3032      1.00000
     95      -5.2234      1.00000
     96      -5.1575      1.00000
     97      -5.0566      1.00000
     98      -5.0190      1.00000
     99      -4.9431      1.00000
    100      -4.8411      1.00000
    101      -4.7487      1.00000
    102      -4.7119      1.00000
    103      -4.6160      1.00000
    104      -4.5269      1.00000
    105      -4.5049      1.00000
    106      -4.4469      1.00000
    107      -4.3810      1.00000
    108      -4.3361      1.00000
    109      -4.2309      1.00000
    110      -4.1940      1.00000
    111      -4.1580      1.00000
    112      -4.0739      1.00000
    113      -4.0211      1.00000
    114      -3.9616      1.00000
    115      -3.8911      1.00000
    116      -3.8475      1.00000
    117      -3.8166      1.00000
    118      -3.7672      1.00000
    119      -3.5829      1.00000
    120      -3.5368      1.00000
    121      -3.3581      1.00000
    122      -3.2105      1.00000
    123      -3.0725      1.00000
    124      -2.9514      1.00000
    125      -2.5868      1.00000
    126      -2.5040      1.00000
    127      -2.4659      1.00000
    128      -2.3926      1.00000
    129      -0.5761     -0.00000
    130      -0.4743     -0.00000
    131      -0.2113     -0.00000
    132       1.0775     -0.00000
    133       1.3803     -0.00000
    134       1.5338     -0.00000
    135       1.6859     -0.00000
    136       1.7211     -0.00000
    137       1.7527     -0.00000
    138       1.7865     -0.00000
    139       1.8157     -0.00000
    140       1.8629     -0.00000
    141       1.9099     -0.00000
    142       1.9297     -0.00000
    143       1.9668     -0.00000
    144       2.0273     -0.00000
    145       2.0580     -0.00000
    146       2.0987     -0.00000
    147       2.1346     -0.00000
    148       2.1900     -0.00000
    149       2.2521     -0.00000
    150       2.3237     -0.00000
    151       2.3550     -0.00000
    152       2.3639     -0.00000
    153       2.4598     -0.00000
    154       2.4824     -0.00000
    155       2.5609     -0.00000
    156       2.6163     -0.00000
    157       2.7460     -0.00000
    158       2.8718     -0.00000
    159       2.9612     -0.00000
    160       3.0749     -0.00000
    161       3.0943     -0.00000
    162       3.1410     -0.00000
    163       3.1777     -0.00000
    164       3.2135     -0.00000
    165       3.2588     -0.00000
    166       3.2771     -0.00000
    167       3.3091     -0.00000
    168       3.3546     -0.00000
    169       3.3922     -0.00000
    170       3.4164     -0.00000
    171       3.4573     -0.00000
    172       3.4908     -0.00000
    173       3.5234     -0.00000
    174       3.5760     -0.00000
    175       3.6693     -0.00000
    176       3.7405     -0.00000
    177       3.7770     -0.00000
    178       3.9334     -0.00000

 k-point    10 :       0.5000    0.5000   -0.0000
  band No.  band energies     occupation 
      1     -52.1598      1.00000
      2     -52.1553      1.00000
      3     -52.1383      1.00000
      4     -52.1354      1.00000
      5     -52.1274      1.00000
      6     -52.1039      1.00000
      7     -51.8350      1.00000
      8     -51.8275      1.00000
      9     -51.8234      1.00000
     10     -48.3997      1.00000
     11     -48.0786      1.00000
     12     -48.0628      1.00000
     13     -48.0488      1.00000
     14     -48.0283      1.00000
     15     -48.0250      1.00000
     16     -47.9891      1.00000
     17     -47.9727      1.00000
     18     -47.9448      1.00000
     19     -47.7590      1.00000
     20     -47.6224      1.00000
     21     -47.1970      1.00000
     22     -47.1851      1.00000
     23     -47.1555      1.00000
     24     -46.8913      1.00000
     25     -46.1147      1.00000
     26     -46.0735      1.00000
     27     -46.0620      1.00000
     28     -46.0595      1.00000
     29     -46.0371      1.00000
     30     -46.0312      1.00000
     31     -46.0132      1.00000
     32     -45.9775      1.00000
     33     -45.9569      1.00000
     34     -45.8273      1.00000
     35     -45.8002      1.00000
     36     -45.7674      1.00000
     37     -21.5834      1.00000
     38     -20.8592      1.00000
     39     -20.3693      1.00000
     40     -20.2012      1.00000
     41     -20.1116      1.00000
     42     -20.0561      1.00000
     43     -19.9462      1.00000
     44     -19.7942      1.00000
     45     -19.6526      1.00000
     46     -19.5715      1.00000
     47     -19.5174      1.00000
     48     -19.4926      1.00000
     49     -19.3923      1.00000
     50     -19.3653      1.00000
     51     -19.3101      1.00000
     52     -19.2644      1.00000
     53     -19.2424      1.00000
     54     -19.0691      1.00000
     55     -18.6194      1.00000
     56     -18.4512      1.00000
     57      -9.5952      1.00000
     58      -8.4990      1.00000
     59      -8.4213      1.00000
     60      -8.2399      1.00000
     61      -8.1808      1.00000
     62      -7.9120      1.00000
     63      -7.8229      1.00000
     64      -7.5750      1.00000
     65      -7.4244      1.00000
     66      -7.2342      1.00000
     67      -7.2139      1.00000
     68      -7.1861      1.00000
     69      -7.1393      1.00000
     70      -7.0902      1.00000
     71      -7.0120      1.00000
     72      -6.9292      1.00000
     73      -6.9074      1.00000
     74      -6.8268      1.00000
     75      -6.7888      1.00000
     76      -6.6443      1.00000
     77      -6.5147      1.00000
     78      -6.3861      1.00000
     79      -6.3346      1.00000
     80      -6.2730      1.00000
     81      -6.1589      1.00000
     82      -6.1373      1.00000
     83      -6.0218      1.00000
     84      -5.9894      1.00000
     85      -5.9454      1.00000
     86      -5.8317      1.00000
     87      -5.7262      1.00000
     88      -5.6988      1.00000
     89      -5.6469      1.00000
     90      -5.6024      1.00000
     91      -5.5440      1.00000
     92      -5.5012      1.00000
     93      -5.3948      1.00000
     94      -5.3117      1.00000
     95      -5.2454      1.00000
     96      -5.1964      1.00000
     97      -5.1420      1.00000
     98      -5.0234      1.00000
     99      -4.9321      1.00000
    100      -4.8253      1.00000
    101      -4.7972      1.00000
    102      -4.6651      1.00000
    103      -4.6152      1.00000
    104      -4.5158      1.00000
    105      -4.4392      1.00000
    106      -4.3807      1.00000
    107      -4.3637      1.00000
    108      -4.3063      1.00000
    109      -4.2875      1.00000
    110      -4.2041      1.00000
    111      -4.1129      1.00000
    112      -4.0465      1.00000
    113      -4.0423      1.00000
    114      -3.9501      1.00000
    115      -3.8923      1.00000
    116      -3.8335      1.00000
    117      -3.7419      1.00000
    118      -3.7093      1.00000
    119      -3.5675      1.00000
    120      -3.5025      1.00000
    121      -3.2940      1.00000
    122      -3.1545      1.00000
    123      -3.1227      1.00000
    124      -3.0010      1.00000
    125      -2.6657      1.00000
    126      -2.6425      1.00000
    127      -2.4514      1.00000
    128      -2.4017      1.00000
    129      -0.5868     -0.00000
    130      -0.5057     -0.00000
    131      -0.2405     -0.00000
    132       1.1362     -0.00000
    133       1.3122     -0.00000
    134       1.5540     -0.00000
    135       1.6800     -0.00000
    136       1.7539     -0.00000
    137       1.7715     -0.00000
    138       1.7976     -0.00000
    139       1.8081     -0.00000
    140       1.8825     -0.00000
    141       1.8922     -0.00000
    142       1.9426     -0.00000
    143       1.9857     -0.00000
    144       2.0329     -0.00000
    145       2.0556     -0.00000
    146       2.1096     -0.00000
    147       2.1367     -0.00000
    148       2.1850     -0.00000
    149       2.2540     -0.00000
    150       2.2867     -0.00000
    151       2.3449     -0.00000
    152       2.3968     -0.00000
    153       2.5170     -0.00000
    154       2.5235     -0.00000
    155       2.5508     -0.00000
    156       2.6543     -0.00000
    157       2.7005     -0.00000
    158       2.8575     -0.00000
    159       2.9876     -0.00000
    160       3.0662     -0.00000
    161       3.1090     -0.00000
    162       3.1512     -0.00000
    163       3.1681     -0.00000
    164       3.2094     -0.00000
    165       3.2286     -0.00000
    166       3.2832     -0.00000
    167       3.3003     -0.00000
    168       3.3594     -0.00000
    169       3.3775     -0.00000
    170       3.4177     -0.00000
    171       3.4364     -0.00000
    172       3.4988     -0.00000
    173       3.5482     -0.00000
    174       3.5705     -0.00000
    175       3.7018     -0.00000
    176       3.8069     -0.00000
    177       3.8501     -0.00000
    178       3.9122     -0.00000


--------------------------------------------------------------------------------------------------------


 soft charge-density along one line, spin component           1
         0         1         2         3         4         5         6         7         8         9
 total charge-density along one line
 
 soft charge-density along one line, spin component           2
         0         1         2         3         4         5         6         7         8         9
 total charge-density along one line
 
 pseudopotential strength for first ion, spin component:           1
-49.538  -0.027  -0.006  11.157   0.012   0.002   0.001  -0.028
 -0.027 -49.347  -0.001   0.012  11.072   0.001   0.000  -0.028
 -0.006  -0.001 -49.589   0.002   0.001  11.175  -0.027   0.000
 11.157   0.012   0.002   4.231  -0.004  -0.001  -0.000   0.007
  0.012  11.072   0.001  -0.004   4.261  -0.000  -0.000   0.008
  0.002   0.001  11.175  -0.001  -0.000   4.226   0.009  -0.000
  0.001   0.000  -0.027  -0.000  -0.000   0.009  -9.244   0.003
 -0.028  -0.028   0.000   0.007   0.008  -0.000   0.003 -10.642
  0.016  -0.034  -0.000  -0.005   0.010   0.000  -0.011  -0.021
  0.000   0.001  -0.032  -0.000  -0.000   0.007   0.146  -0.005
  0.028  -0.002   0.001  -0.008   0.000  -0.000  -0.002   0.017
  0.001   0.000  -0.026  -0.000  -0.000   0.009  -9.646   0.003
 -0.028  -0.027   0.000   0.007   0.008  -0.000   0.003 -11.086
  0.015  -0.034  -0.000  -0.005   0.010   0.000  -0.011  -0.021
  0.000   0.001  -0.032  -0.000  -0.000   0.007   0.150  -0.005
  0.028  -0.002   0.001  -0.008   0.000  -0.000  -0.002   0.016
  0.011   0.011  -0.000   0.001   0.002  -0.000   0.001   0.007
  0.022   0.022  -0.001   0.002   0.004  -0.000   0.002   0.013
 pseudopotential strength for first ion, spin component:           2
-46.720  -0.054  -0.009   9.860   0.024   0.004   0.000  -0.040
 -0.054 -46.206  -0.001   0.024   9.630   0.000   0.000  -0.038
 -0.009  -0.001 -46.783   0.004   0.000   9.885  -0.030   0.000
  9.860   0.024   0.004   4.669  -0.007  -0.001  -0.000   0.013
  0.024   9.630   0.000  -0.007   4.731  -0.000  -0.000   0.012
  0.004   0.000   9.885  -0.001  -0.000   4.660   0.010  -0.000
  0.000   0.000  -0.030  -0.000  -0.000   0.010  -5.979   0.001
 -0.040  -0.038   0.000   0.013   0.012  -0.000   0.001  -4.746
  0.018  -0.041   0.000  -0.006   0.013  -0.000   0.005  -0.005
  0.000   0.002  -0.048  -0.000  -0.001   0.015  -0.097  -0.004
  0.039  -0.004   0.001  -0.013   0.001  -0.000  -0.000  -0.010
  0.000   0.000  -0.030  -0.000  -0.000   0.010  -6.379   0.001
 -0.039  -0.037   0.000   0.013   0.012  -0.000   0.001  -5.136
  0.018  -0.040   0.000  -0.006   0.013  -0.000   0.005  -0.004
  0.000   0.002  -0.047  -0.000  -0.001   0.015  -0.097  -0.004
  0.039  -0.004   0.001  -0.013   0.001  -0.000  -0.000  -0.011
  0.014   0.016  -0.000   0.000   0.001  -0.000   0.002   0.013
  0.029   0.033  -0.001   0.001   0.002  -0.000   0.004   0.026
 total augmentation occupancy for first ion, spin component:           1
  1.989  -0.000  -0.000  -0.045  -0.001  -0.000   0.000   0.002   0.001   0.000   0.003  -0.000   0.000  -0.002  -0.000  -0.005
 -0.000   1.991   0.000  -0.001  -0.039   0.000  -0.000  -0.003  -0.002   0.000  -0.002  -0.000   0.004   0.003  -0.000   0.002
 -0.000   0.000   1.989  -0.000   0.000  -0.045   0.001  -0.000  -0.000  -0.001   0.000   0.000   0.000   0.000   0.004  -0.000
 -0.045  -0.001  -0.000   0.234   0.012   0.000   0.005   0.021   0.030  -0.001  -0.016  -0.004  -0.019  -0.034   0.000   0.014
 -0.001  -0.039   0.000   0.012   0.102   0.000  -0.003  -0.013  -0.026  -0.002   0.021   0.002   0.017   0.031   0.001  -0.018
 -0.000   0.000  -0.045   0.000   0.000   0.204   0.014  -0.002  -0.004   0.046  -0.002   0.013   0.002   0.004  -0.037   0.001
  0.000  -0.000   0.001   0.005  -0.003   0.014   5.945  -0.003   0.111  -0.387   0.018  -6.399  -0.000  -0.086   0.142  -0.015
  0.002  -0.003  -0.000   0.021  -0.013  -0.002  -0.003   5.840   0.100  -0.000   0.155  -0.000  -3.814  -0.072  -0.000  -0.139
  0.001  -0.002  -0.000   0.030  -0.026  -0.004   0.111   0.100  11.037   0.081   0.853  -0.085  -0.073  -8.923  -0.067  -0.847
  0.000   0.000  -0.001  -0.001  -0.002   0.046  -0.387  -0.000   0.081   5.476   0.018   0.144  -0.000  -0.067  -3.482  -0.016
  0.003  -0.002   0.000  -0.016   0.021  -0.002   0.018   0.155   0.853   0.018   7.047  -0.015  -0.136  -0.846  -0.016  -4.980
 -0.000  -0.000   0.000  -0.004   0.002   0.013  -6.399  -0.000  -0.085   0.144  -0.015   7.606   0.001   0.067   0.053   0.013
  0.000   0.004   0.000  -0.019   0.017   0.002  -0.000  -3.814  -0.073  -0.000  -0.136   0.001   2.951   0.047   0.000   0.131
 -0.002   0.003   0.000  -0.034   0.031   0.004  -0.086  -0.072  -8.923  -0.067  -0.846   0.067   0.047   8.038   0.054   0.847
 -0.000  -0.000   0.004   0.000   0.001  -0.037   0.142  -0.000  -0.067  -3.482  -0.016   0.053   0.000   0.054   2.645   0.014
 -0.005   0.002  -0.000   0.014  -0.018   0.001  -0.015  -0.139  -0.847  -0.016  -4.980   0.013   0.131   0.847   0.014   4.096
 -0.037  -0.049   0.002   0.027   0.007  -0.001   0.004  -0.328   1.713  -0.005   0.333  -0.006   0.321  -1.665   0.001  -0.379
  0.019   0.026  -0.001  -0.000  -0.003   0.000  -0.000   0.021  -0.161   0.002   0.024   0.002  -0.025   0.163  -0.000   0.010
 total augmentation occupancy for first ion, spin component:           2
 -0.003  -0.000   0.000  -0.010   0.000   0.000  -0.000  -0.004   0.002  -0.000   0.005   0.000   0.003  -0.001   0.000  -0.004
 -0.000  -0.002   0.000  -0.000  -0.010   0.000  -0.000  -0.005  -0.004  -0.000  -0.001   0.000   0.004   0.003   0.000   0.001
  0.000   0.000  -0.003   0.000   0.000  -0.009  -0.000  -0.000  -0.000  -0.006   0.000   0.000   0.000  -0.000   0.005  -0.000
 -0.010  -0.000   0.000   0.021   0.001  -0.000   0.004   0.021   0.015  -0.002  -0.021  -0.003  -0.012  -0.008   0.002   0.008
  0.000  -0.010   0.000   0.001   0.014   0.000  -0.004   0.006  -0.007  -0.006   0.015   0.003  -0.002   0.006   0.006  -0.010
  0.000   0.000  -0.009  -0.000   0.000   0.020   0.033  -0.004  -0.004   0.041  -0.003  -0.029   0.004   0.003  -0.023   0.002
 -0.000  -0.000  -0.000   0.004  -0.004   0.033   0.079  -0.003   0.119  -0.645   0.018   0.696  -0.000  -0.094   0.471  -0.014
 -0.004  -0.005  -0.000   0.021   0.006  -0.004  -0.003   4.934   0.133   0.000   0.185  -0.002  -2.679  -0.108  -0.002  -0.145
  0.002  -0.004  -0.000   0.015  -0.007  -0.004   0.119   0.133   7.810   0.083   0.466  -0.091  -0.109  -5.048  -0.072  -0.394
 -0.000  -0.000  -0.006  -0.002  -0.006   0.041  -0.645   0.000   0.083   4.687   0.016   0.468  -0.002  -0.072  -2.476  -0.014
  0.005  -0.001   0.000  -0.021   0.015  -0.003   0.018   0.185   0.466   0.016   5.690  -0.015  -0.145  -0.396  -0.014  -3.288
  0.000   0.000   0.000  -0.003   0.003  -0.029   0.696  -0.002  -0.091   0.468  -0.015  -1.068   0.005   0.072  -0.359   0.012
  0.003   0.004   0.000  -0.012  -0.002   0.004  -0.000  -2.679  -0.109  -0.002  -0.145   0.005   1.522   0.087   0.004   0.103
 -0.001   0.003  -0.000  -0.008   0.006   0.003  -0.094  -0.108  -5.048  -0.072  -0.396   0.072   0.087   3.349   0.063   0.321
  0.000   0.000   0.005   0.002   0.006  -0.023   0.471  -0.002  -0.072  -2.476  -0.014  -0.359   0.004   0.063   1.356   0.012
 -0.004   0.001  -0.000   0.008  -0.010   0.002  -0.014  -0.145  -0.394  -0.014  -3.288   0.012   0.103   0.321   0.012   1.978
  0.003   0.003  -0.000  -0.002  -0.000  -0.000   0.001  -0.085   0.524  -0.012   0.029  -0.003   0.041  -0.334   0.012  -0.027
 -0.001  -0.002   0.000   0.001  -0.000  -0.000   0.003  -0.016   0.009   0.002   0.078  -0.002   0.016  -0.016  -0.002  -0.052


------------------------ aborting loop because EDIFF is reached ----------------------------------------


 


 total charge     
 
# of ion       s       p       d       tot
------------------------------------------
    1        0.281   6.312   4.832  11.425
    2        0.285   6.311   4.828  11.424
    3        0.293   6.328   4.850  11.471
    4        0.285   6.316   4.806  11.407
    5        0.292   6.326   4.849  11.468
    6        0.287   6.324   4.844  11.456
    7        0.293   6.329   4.851  11.473
    8        0.306   6.374   4.763  11.443
    9        0.245   6.243   4.950  11.437
   10        0.221   6.198   4.912  11.332
   11        0.230   6.214   4.923  11.367
   12        0.248   6.244   4.958  11.449
   13        1.578   3.411   0.000   4.988
   14        1.561   3.446   0.000   5.007
   15        1.559   3.474   0.000   5.033
   16        1.560   3.491   0.000   5.051
   17        1.561   3.454   0.000   5.015
   18        1.560   3.493   0.000   5.053
   19        1.559   3.472   0.000   5.031
   20        1.552   3.589   0.000   5.141
   21        1.568   3.437   0.000   5.005
   22        1.559   3.464   0.000   5.023
   23        1.560   3.493   0.000   5.053
   24        1.558   3.481   0.000   5.039
   25        1.559   3.474   0.000   5.032
   26        1.564   3.515   0.000   5.078
   27        1.552   3.496   0.000   5.047
   28        1.559   3.542   0.000   5.101
   29        1.559   3.475   0.000   5.034
   30        1.552   3.496   0.000   5.047
   31        1.560   3.445   0.000   5.005
   32        1.561   3.489   0.000   5.050
   33        0.495   0.055   0.000   0.550
   34        0.500   0.058   0.000   0.559
   35        0.493   0.055   0.000   0.548
   36        0.506   0.055   0.000   0.561
   37        0.606   0.118   0.000   0.723
   38        0.619   0.122   0.000   0.742
   39        0.597   0.118   0.000   0.715
--------------------------------------------------
tot         38.279 145.738  58.366 242.383
 


 magnetization (x)
 
# of ion       s       p       d       tot
------------------------------------------
    1        0.033   0.032   3.910   3.975
    2        0.032   0.032   3.876   3.940
    3       -0.025  -0.024  -3.718  -3.768
    4       -0.025  -0.026  -3.794  -3.846
    5        0.032   0.033   3.862   3.928
    6        0.033   0.033   3.833   3.899
    7       -0.026  -0.024  -3.719  -3.769
    8        0.021   0.031   3.487   3.539
    9        0.028   0.053   4.390   4.471
   10        0.031   0.046   4.483   4.560
   11        0.029   0.047   4.454   4.530
   12        0.028   0.053   4.424   4.506
   13        0.001  -0.076   0.000  -0.075
   14        0.009  -0.013   0.000  -0.003
   15        0.008   0.033   0.000   0.041
   16       -0.002  -0.025   0.000  -0.027
   17       -0.002  -0.095   0.000  -0.097
   18        0.008   0.034   0.000   0.042
   19        0.007   0.023   0.000   0.030
   20       -0.004  -0.050   0.000  -0.054
   21        0.001  -0.122   0.000  -0.122
   22       -0.002  -0.026   0.000  -0.028
   23        0.008   0.027   0.000   0.034
   24        0.007   0.014   0.000   0.021
   25        0.008   0.036   0.000   0.044
   26        0.002  -0.025   0.000  -0.023
   27        0.004  -0.013   0.000  -0.009
   28        0.006   0.070   0.000   0.076
   29       -0.002  -0.027   0.000  -0.029
   30        0.004  -0.021   0.000  -0.017
   31        0.005  -0.044   0.000  -0.039
   32       -0.001  -0.037   0.000  -0.038
   33        0.009   0.000   0.000   0.009
   34        0.011  -0.000   0.000   0.010
   35        0.009   0.000   0.000   0.009
   36        0.009   0.000   0.000   0.010
   37        0.004  -0.001   0.000   0.003
   38       -0.001  -0.000   0.000  -0.001
   39       -0.003   0.001   0.000  -0.002
--------------------------------------------------
tot          0.294  -0.050  25.488  25.731
 
    CHARGE:  cpu time    3.0080: real time    3.0107
    FORLOC:  cpu time    0.0761: real time    0.0763
    FORNL :  cpu time   10.5670: real time   10.5860
    FORCOR:  cpu time    0.5481: real time    0.5496
    FORHAR:  cpu time    0.0991: real time    0.1002
    MIXING:  cpu time    0.0312: real time    0.0312
    OFIELD:  cpu time    0.0001: real time    0.0001

 VOLUME and BASIS-vectors are now :
 -----------------------------------------------------------------------------
  energy-cutoff  :      520.00
  volume of cell :     1228.02
      direct lattice vectors                 reciprocal lattice vectors
     2.873573495 -2.873573495  4.708335110     0.000000000 -0.094445153  0.154747888
     5.747146990  0.000000000  0.000000000     0.173999378  0.047222576 -0.077373944
     0.000000000 33.065691007 20.180529009     0.000000000  0.022035073  0.013448363

  length of vectors
     6.219587508  5.747146990 38.737496987     0.181292017  0.196195011  0.025814781


 FORCES acting on ions
    electron-ion (+dipol)            ewald-force                    non-local-force                 convergence-correction
 -----------------------------------------------------------------------------------------------
   -.350E+01 0.425E+04 0.261E+04   0.370E+01 -.426E+04 -.262E+04   0.124E-01 0.762E+00 0.200E+01   -.830E-01 0.606E+01 0.412E+01
   -.781E+01 -.143E+04 -.868E+03   0.923E+01 0.142E+04 0.863E+03   -.586E+00 -.203E+00 -.685E+00   -.808E+00 0.100E+02 0.607E+01
   0.182E+01 0.139E+04 0.849E+03   -.173E+01 -.140E+04 -.855E+03   -.312E-01 -.307E+00 -.239E+00   -.801E-02 0.101E+02 0.606E+01
   -.242E+02 -.424E+04 -.254E+04   0.236E+02 0.423E+04 0.254E+04   0.469E+00 -.975E+00 0.518E+00   0.104E+00 0.377E+01 0.185E+01
   -.389E+01 0.138E+04 0.852E+03   0.408E+01 -.139E+04 -.857E+03   0.410E-01 -.305E-01 -.511E+00   -.232E+00 0.999E+01 0.601E+01
   0.283E+02 -.428E+04 -.261E+04   -.257E+02 0.428E+04 0.261E+04   -.301E+01 -.439E+00 -.108E+01   0.582E+00 0.307E+01 0.209E+01
   0.424E+01 0.138E+04 0.848E+03   -.433E+01 -.139E+04 -.853E+03   -.141E+00 -.355E+00 -.364E+00   0.240E+00 0.100E+02 0.606E+01
   -.233E+02 -.421E+04 -.257E+04   0.204E+02 0.421E+04 0.257E+04   0.313E+01 -.710E+00 -.105E+01   -.371E+00 0.313E+01 0.242E+01
   0.524E+01 0.353E+04 0.216E+04   -.431E+01 -.355E+04 -.217E+04   -.833E+00 0.266E+01 0.148E+01   -.118E+00 0.907E+01 0.602E+01
   -.130E+02 -.214E+04 -.130E+04   0.110E+02 0.213E+04 0.130E+04   0.161E+01 -.107E+01 -.673E+00   0.329E+00 0.849E+01 0.542E+01
   0.637E+01 -.765E+03 -.474E+03   -.650E+01 0.754E+03 0.467E+03   -.102E+00 0.591E+00 0.537E+00   0.227E+00 0.106E+02 0.652E+01
   -.392E+01 0.474E+04 0.285E+04   0.349E+01 -.475E+04 -.285E+04   0.253E+00 0.212E+01 -.122E+00   0.169E+00 0.501E+01 0.220E+01
   0.270E+02 -.270E+04 -.140E+04   -.297E+02 0.273E+04 0.140E+04   0.954E+00 -.233E+02 0.441E+00   0.147E+01 -.106E+01 0.304E+00
   -.109E+02 0.249E+04 0.148E+04   0.128E+02 -.247E+04 -.146E+04   -.214E+01 -.190E+02 -.180E+02   -.221E-01 0.931E+00 0.712E+00
   0.415E+00 -.142E+03 0.474E+02   0.513E-01 0.146E+03 -.468E+02   -.537E+00 -.919E+01 -.345E+01   -.442E-01 0.478E+01 0.288E+01
   0.100E+00 0.137E+04 0.762E+03   -.353E-01 -.138E+04 -.761E+03   -.137E+00 0.952E+01 -.288E+01   -.109E-01 0.428E+01 0.252E+01
   0.846E+01 -.120E+04 -.807E+03   -.991E+01 0.119E+04 0.807E+03   0.127E+00 0.930E+01 -.210E+01   0.135E+01 0.420E+01 0.192E+01
   0.163E+03 0.127E+04 0.812E+03   -.173E+03 -.128E+04 -.812E+03   0.976E+01 0.764E+00 -.206E+01   0.379E+00 0.408E+01 0.291E+01
   -.172E+03 -.132E+04 -.771E+03   0.182E+03 0.132E+04 0.773E+03   -.955E+01 0.151E+00 -.407E+01   -.289E+00 0.349E+01 0.198E+01
   -.127E+02 -.261E+04 -.153E+04   0.141E+02 0.259E+04 0.152E+04   0.127E+00 0.165E+02 0.170E+02   -.132E+01 -.780E+00 0.182E+00
   0.291E+02 0.251E+04 0.156E+04   -.508E+02 -.251E+04 -.157E+04   0.246E+02 -.117E+02 0.795E+01   -.234E-01 0.798E+00 0.336E+00
   0.259E+01 -.108E+03 -.518E+01   -.300E+01 0.113E+03 0.356E+00   0.441E+00 -.101E+02 0.198E+01   0.388E-01 0.473E+01 0.287E+01
   -.333E+00 0.142E+04 0.734E+03   0.184E-01 -.143E+04 -.739E+03   0.414E+00 0.990E+01 0.263E+01   0.124E-01 0.462E+01 0.211E+01
   -.124E+02 -.120E+04 -.885E+03   0.139E+02 0.119E+04 0.881E+03   -.687E-01 0.714E+01 0.256E+01   -.123E+01 0.409E+01 0.189E+01
   -.165E+03 0.173E+02 -.230E+02   0.174E+03 -.218E+02 0.167E+02   -.896E+01 -.229E+00 0.343E+01   -.577E-02 0.473E+01 0.293E+01
   -.173E+03 -.244E+04 -.161E+04   0.199E+03 0.241E+04 0.161E+04   -.254E+02 0.223E+02 0.132E+01   -.375E+00 0.370E+00 -.148E+01
   0.199E+02 0.251E+04 0.153E+04   -.209E+02 -.250E+04 -.152E+04   0.442E-01 -.171E+02 -.120E+02   0.568E-01 0.100E+01 0.585E+00
   0.134E+03 -.254E+04 -.159E+04   -.114E+03 0.256E+04 0.158E+04   -.199E+02 -.214E+02 0.991E+01   0.340E+00 -.806E-01 0.345E-01
   0.163E+03 0.221E+01 -.280E+02   -.172E+03 -.665E+01 0.215E+02   0.871E+01 -.468E+00 0.345E+01   -.250E-01 0.487E+01 0.297E+01
   -.201E+02 0.251E+04 0.154E+04   0.208E+02 -.249E+04 -.153E+04   0.445E+00 -.177E+02 -.108E+02   -.772E-01 0.103E+01 0.564E+00
   0.173E+03 -.136E+04 -.764E+03   -.183E+03 0.135E+04 0.762E+03   0.922E+01 0.180E+00 -.154E+01   0.563E-01 0.326E+01 0.339E+01
   -.163E+03 0.128E+04 0.813E+03   0.173E+03 -.128E+04 -.813E+03   -.955E+01 0.474E+00 -.232E+01   -.414E+00 0.407E+01 0.291E+01
   0.866E+00 0.493E+03 0.303E+03   -.415E+00 -.494E+03 -.303E+03   0.105E+00 0.420E+01 0.266E+01   0.584E-02 -.851E-01 -.482E-01
   -.321E+02 0.471E+03 0.269E+03   0.324E+02 -.471E+03 -.269E+03   -.369E+01 0.323E+01 0.136E+00   0.330E+00 -.321E+00 0.292E-02
   -.204E+01 0.493E+03 0.303E+03   0.162E+01 -.493E+03 -.304E+03   -.230E+00 0.422E+01 0.263E+01   -.788E-02 -.105E+00 -.567E-01
   -.103E+01 0.493E+03 0.297E+03   0.140E+01 -.494E+03 -.297E+03   0.509E-02 0.430E+01 0.234E+01   -.718E-02 -.192E+00 -.969E-01
   -.172E+01 -.517E+03 -.314E+03   0.177E+01 0.524E+03 0.318E+03   -.521E-01 -.692E+01 -.437E+01   -.687E-01 -.227E+00 -.105E+00
   0.197E+02 -.509E+03 -.303E+03   -.237E+02 0.516E+03 0.306E+03   0.366E+01 -.707E+01 -.241E+01   0.874E-01 -.271E+00 -.222E+00
   0.726E+02 -.394E+03 -.290E+03   -.795E+02 0.393E+03 0.294E+03   0.687E+01 0.178E+01 -.376E+01   0.200E-02 0.536E-02 -.167E-02
 -----------------------------------------------------------------------------------------------
   0.137E+02 -.936E+02 -.753E+02   0.298E-12 0.568E-12 -.307E-11   -.139E+02 -.481E+02 -.115E+02   0.230E+00 0.142E+03 0.868E+02
 
 
 POSITION                                       TOTAL-FORCE (eV/Angst)
 -----------------------------------------------------------------------------------
      5.76288      2.30925      2.83538         0.125477     -1.577702     -1.544113
      2.91343      5.25722      7.60672         0.029486     -0.092225      0.018844
      2.88931      2.30925      7.54371         0.049004      0.555999      0.115372
      2.91963      8.20198      7.57564        -0.048361      0.238770     -0.100892
      4.32610      3.74603      5.18954        -0.004672      0.578357      0.238624
      4.40913      6.81578     10.00621         0.161739      0.148527      0.058036
      1.45252      3.74603      5.18954         0.006681      0.476461      0.212147
      7.19203      6.80191      9.93697        -0.068264     -0.101716      0.222784
      5.76288      0.87246      6.36663        -0.019065     -1.239017     -0.775161
      5.80422      6.74413      6.39738         0.013619      0.071046     -0.025567
      5.77642      3.82726      8.76766        -0.012108      0.039965      0.050065
      2.88931      0.87246      4.01246        -0.010072     -0.424342      0.317448
      5.84275      8.01140      9.93866        -0.358583      0.336442     -0.058902
      2.88931     -0.69884      5.25540        -0.316677     -3.724460     -2.017730
      2.88245      5.06629      5.29869        -0.116672     -0.014371      0.000797
      2.88931      2.44376      5.25540        -0.084203      0.189923      0.317265
      2.92955      8.30801      5.33202         0.021096     -0.327909     -0.149416
      4.46061      3.74603      2.90123         0.315922      0.222559      0.490450
      4.19153      6.73145      7.65214        -0.047311     -0.016537     -0.036890
      2.92930      8.15474      9.81141         0.126033      0.365523      0.112543
      5.76288     -0.69884      5.12368         2.923927     -2.775021     -0.228586
      5.76811      5.07728      5.12843         0.069400     -0.010149      0.023467
      5.76288      2.44376      5.12368         0.111246      0.258208     -0.398272
      0.04936      8.39452      5.15454         0.202152     -0.301899      0.058202
      4.19240      3.76475      7.47084        -0.010122     -0.007115      0.024406
      4.32956      9.61141      7.31821         0.178055     -0.404083     -0.216039
      4.46061      0.87246      2.76952        -0.947862     -3.634549     -2.194900
      1.59201      9.60567      7.50630         0.074699     -0.155343      0.031942
      7.36111      3.78582      7.48357        -0.042783     -0.033672     -0.000370
      1.31801      0.87246      2.76952         1.049381     -3.704714     -1.968573
      7.35705      6.72583      7.79671        -0.147693     -0.019741      0.027489
      1.31801      3.74603      2.90123        -0.169530      0.152852      0.391853
      4.44914     -0.05819      2.16465         0.560007      3.819908      2.327162
      6.59433     -1.43378      5.09818        -3.060596      3.269654      0.457812
      1.35527     -0.06710      2.17965        -0.655700      3.971599      2.113801
      2.87242     -1.67143      4.72073         0.365142      3.741429      2.208117
      2.93318      8.97751     10.33758        -0.078302     -0.208728     -0.106503
      3.89642     10.43637      7.59753        -0.196441      0.310711      0.019989
      6.50188      9.36819      7.96394         0.011950      0.025360     -0.016703
 -----------------------------------------------------------------------------------
    total drift:                                0.057220     -0.058613      0.014465


--------------------------------------------------------------------------------------------------------



  FREE ENERGIE OF THE ION-ELECTRON SYSTEM (eV)
  ---------------------------------------------------
  free  energy   TOTEN  =      -262.19464152 eV

  energy  without entropy=     -262.18808866  energy(sigma->0) =     -262.19245723
 
 d Force = 0.2032260E-01[-0.370E-01, 0.776E-01]  d Energy = 0.1140080E+01-0.112E+01
 d Force =-0.1116615E+03[-0.112E+03,-0.111E+03]  d Ewald  =-0.1116581E+03-0.342E-02


--------------------------------------------------------------------------------------------------------


    POTLOK:  cpu time    0.5134: real time    0.5144


--------------------------------------------------------------------------------------------------------


 stress matrix after NEB project (eV)
      0.00000      0.00000      0.00000
      0.00000      0.00000      0.00000
      0.00000      0.00000      0.00000
  FORCES: max atom, RMS     0.495222    0.189370
  FORCE total and by dimension    1.182615    0.404083
  Stress total and by dimension    0.000000    0.000000
 Steepest descent step on ions:
 trial-energy change:   -1.140080  1 .order   -0.020323   -0.077632    0.036987
  (g-gl).g = 0.776E-01      g.g   = 0.776E-01  gl.gl    = 0.000E+00
 g(Force)  = 0.776E-01   g(Stress)= 0.000E+00 ortho     = 0.000E+00
 gamma     =   0.00000
 trial     =   1.00000
 opt step  =   0.99456  (harmonic =   0.67731) maximal distance =0.02218122
 next E    =  -262.194742   (d E  =  -1.14018)


--------------------------------------------------------------------------------------------------------


    WAVPRE:  cpu time    0.0831: real time    0.1238
    FEWALD:  cpu time    0.0020: real time    0.0020

 real space projection operators:
  total allocation   :      16344.45 KBytes
  max/ min on nodes  :        750.05        255.13

    ORTHCH:  cpu time    3.8785: real time    3.8821
     LOOP+:  cpu time 2073.0031: real time 2092.1215


--------------------------------------- Iteration      3(   1)  ---------------------------------------


    POTLOK:  cpu time    0.4811: real time    0.4939
    SETDIJ:  cpu time    0.0410: real time    0.0409
     EDDAV:  cpu time   43.5397: real time   43.9463
       DOS:  cpu time    0.0262: real time    0.0262
    CHARGE:  cpu time    3.0026: real time    3.0052
    MIXING:  cpu time    0.0096: real time    0.0096
    --------------------------------------------
      LOOP:  cpu time   47.1005: real time   47.5224

 eigenvalue-minimisations  :  9140
 total energy-change (2. order) :-0.5010437E-01  (-0.1203477E-03)
 number of electron     282.9999987 magnetization      26.8551534
 augmentation part      100.3815837 magnetization      18.0262529

  free energy =  -0.262217626603E+03  energy without entropy=  -0.262211200671E+03


--------------------------------------------------------------------------------------------------------




--------------------------------------- Iteration      3(   2)  ---------------------------------------


    POTLOK:  cpu time    0.4634: real time    0.4642
    SETDIJ:  cpu time    0.0416: real time    0.0416
    EDDIAG:  cpu time    7.5252: real time    7.5385
  RMM-DIIS:  cpu time   23.6111: real time   24.1294
    ORTHCH:  cpu time    0.3918: real time    0.3917
       DOS:  cpu time    0.0258: real time    0.0259
    CHARGE:  cpu time    2.9715: real time    2.9748
    MIXING:  cpu time    0.0091: real time    0.0091
    --------------------------------------------
      LOOP:  cpu time   35.0394: real time   35.5753

 eigenvalue-minimisations  :  7762
 total energy-change (2. order) :-0.2971789E+00  (-0.2646227E-01)
 number of electron     282.9999987 magnetization      26.8563313
 augmentation part      100.5487612 magnetization      18.1555911

 eigenvalues of (default mixing * dielectric matrix)
  average eigenvalue GAMMA=   0.1826
  0.1826

  free energy =  -0.262514805498E+03  energy without entropy=  -0.262503256034E+03


--------------------------------------------------------------------------------------------------------




--------------------------------------- Iteration      3(   3)  ---------------------------------------


    POTLOK:  cpu time    0.4640: real time    0.4640
    SETDIJ:  cpu time    0.0411: real time    0.0411
    EDDIAG:  cpu time    7.4991: real time    7.5087
  RMM-DIIS:  cpu time   23.5436: real time   23.5780
    ORTHCH:  cpu time    0.3911: real time    0.3911
       DOS:  cpu time    0.0254: real time    0.0254
    CHARGE:  cpu time    2.9998: real time    3.0033
    MIXING:  cpu time    0.0095: real time    0.0095
    --------------------------------------------
      LOOP:  cpu time   34.9737: real time   35.0211

 eigenvalue-minimisations  :  7909
 total energy-change (2. order) : 0.2036880E+00  (-0.1433330E-01)
 number of electron     282.9999987 magnetization      26.8569083
 augmentation part      100.4886329 magnetization      18.1292547

 eigenvalues of (default mixing * dielectric matrix)
  average eigenvalue GAMMA=   0.2145
  0.2145  0.2145

  free energy =  -0.262311117449E+03  energy without entropy=  -0.262306726344E+03


--------------------------------------------------------------------------------------------------------




--------------------------------------- Iteration      3(   4)  ---------------------------------------


    POTLOK:  cpu time    0.4642: real time    0.4642
    SETDIJ:  cpu time    0.0411: real time    0.0411
    EDDIAG:  cpu time    7.5624: real time    7.6249
  RMM-DIIS:  cpu time   25.1706: real time   25.5971
    ORTHCH:  cpu time    0.3901: real time    0.3912
       DOS:  cpu time    0.0263: real time    0.0263
    CHARGE:  cpu time    2.9723: real time    2.9750
    MIXING:  cpu time    0.0095: real time    0.0096
    --------------------------------------------
      LOOP:  cpu time   36.6367: real time   37.1293

 eigenvalue-minimisations  :  8109
 total energy-change (2. order) : 0.7982011E-01  (-0.1896828E-02)
 number of electron     282.9999987 magnetization      26.8579850
 augmentation part      100.4730544 magnetization      18.1172371

 eigenvalues of (default mixing * dielectric matrix)
  average eigenvalue GAMMA=   0.2933
  0.3110  0.3110  0.2581

  free energy =  -0.262231297342E+03  energy without entropy=  -0.262221042551E+03


--------------------------------------------------------------------------------------------------------




--------------------------------------- Iteration      3(   5)  ---------------------------------------


    POTLOK:  cpu time    0.4643: real time    0.4650
    SETDIJ:  cpu time    0.0410: real time    0.0410
    EDDIAG:  cpu time    7.4907: real time    7.5086
  RMM-DIIS:  cpu time   24.3469: real time   24.4006
    ORTHCH:  cpu time    0.3879: real time    0.3889
       DOS:  cpu time    0.0266: real time    0.0266
    CHARGE:  cpu time    3.0476: real time    3.1257
    MIXING:  cpu time    0.0204: real time    0.0205
    --------------------------------------------
      LOOP:  cpu time   35.8254: real time   35.9769

 eigenvalue-minimisations  :  8227
 total energy-change (2. order) : 0.2293845E-01  (-0.5734951E-03)
 number of electron     282.9999987 magnetization      26.8601975
 augmentation part      100.4497306 magnetization      18.0979723

 eigenvalues of (default mixing * dielectric matrix)
  average eigenvalue GAMMA=   0.3627
  0.3912  0.3912  0.3342  0.3342

  free energy =  -0.262208358895E+03  energy without entropy=  -0.262194051664E+03


--------------------------------------------------------------------------------------------------------




--------------------------------------- Iteration      3(   6)  ---------------------------------------


    POTLOK:  cpu time    0.5176: real time    0.5690
    SETDIJ:  cpu time    0.0684: real time    0.0757
    EDDIAG:  cpu time    8.3951: real time    8.5762
  RMM-DIIS:  cpu time   21.9986: real time   22.0354
    ORTHCH:  cpu time    0.3883: real time    0.3893
       DOS:  cpu time    0.0257: real time    0.0257
    CHARGE:  cpu time    2.9791: real time    2.9815
    MIXING:  cpu time    0.0099: real time    0.0099
    --------------------------------------------
      LOOP:  cpu time   34.3828: real time   34.6627

 eigenvalue-minimisations  :  7331
 total energy-change (2. order) :-0.9226575E-02  (-0.2523999E-03)
 number of electron     282.9999987 magnetization      26.8636530
 augmentation part      100.4321556 magnetization      18.0869819

 eigenvalues of (default mixing * dielectric matrix)
  average eigenvalue GAMMA=   0.4299
  0.4506  0.4506  0.4574  0.4574  0.3334

  free energy =  -0.262217585471E+03  energy without entropy=  -0.262203346432E+03


--------------------------------------------------------------------------------------------------------




--------------------------------------- Iteration      3(   7)  ---------------------------------------


    POTLOK:  cpu time    0.4635: real time    0.4644
    SETDIJ:  cpu time    0.0410: real time    0.0410
    EDDIAG:  cpu time    7.5087: real time    7.5221
  RMM-DIIS:  cpu time   20.8824: real time   21.3689
    ORTHCH:  cpu time    0.4042: real time    0.4078
       DOS:  cpu time    0.0256: real time    0.0256
    CHARGE:  cpu time    3.0577: real time    3.0671
    MIXING:  cpu time    0.0100: real time    0.0100
    --------------------------------------------
      LOOP:  cpu time   32.3930: real time   32.9068

 eigenvalue-minimisations  :  6859
 total energy-change (2. order) :-0.5479200E-02  (-0.1430090E-03)
 number of electron     282.9999987 magnetization      26.8701438
 augmentation part      100.4232370 magnetization      18.0842807

 eigenvalues of (default mixing * dielectric matrix)
  average eigenvalue GAMMA=   0.5248
  0.7093  0.7093  0.4214  0.4214  0.4786  0.4087

  free energy =  -0.262223064671E+03  energy without entropy=  -0.262209077838E+03


--------------------------------------------------------------------------------------------------------




--------------------------------------- Iteration      3(   8)  ---------------------------------------


    POTLOK:  cpu time    0.4643: real time    0.4643
    SETDIJ:  cpu time    0.0409: real time    0.0409
    EDDIAG:  cpu time    7.5482: real time    7.5621
  RMM-DIIS:  cpu time   20.2305: real time   20.2591
    ORTHCH:  cpu time    0.3901: real time    0.3909
       DOS:  cpu time    0.0262: real time    0.0262
    CHARGE:  cpu time    3.0043: real time    3.0070
    MIXING:  cpu time    0.0104: real time    0.0104
    --------------------------------------------
      LOOP:  cpu time   31.7149: real time   31.7608

 eigenvalue-minimisations  :  6731
 total energy-change (2. order) :-0.3706983E-02  (-0.5010443E-04)
 number of electron     282.9999987 magnetization      26.8779581
 augmentation part      100.4159451 magnetization      18.0852895

 eigenvalues of (default mixing * dielectric matrix)
  average eigenvalue GAMMA=   0.6245
  1.3970  0.4228  0.4228  0.6266  0.6266  0.3962  0.4796

  free energy =  -0.262226771654E+03  energy without entropy=  -0.262213292893E+03


--------------------------------------------------------------------------------------------------------




--------------------------------------- Iteration      3(   9)  ---------------------------------------


    POTLOK:  cpu time    0.4637: real time    0.4644
    SETDIJ:  cpu time    0.0410: real time    0.0410
    EDDIAG:  cpu time    7.4927: real time    7.4992
  RMM-DIIS:  cpu time   20.9214: real time   21.3709
    ORTHCH:  cpu time    0.3918: real time    0.3919
       DOS:  cpu time    0.0242: real time    0.0242
    CHARGE:  cpu time    3.0073: real time    3.0105
    MIXING:  cpu time    0.0105: real time    0.0105
    --------------------------------------------
      LOOP:  cpu time   32.3525: real time   32.8125

 eigenvalue-minimisations  :  6801
 total energy-change (2. order) :-0.3667981E-02  (-0.3528924E-04)
 number of electron     282.9999987 magnetization      26.8794204
 augmentation part      100.4057446 magnetization      18.0770361

 eigenvalues of (default mixing * dielectric matrix)
  average eigenvalue GAMMA=   0.6135
  1.2972  0.7587  0.7587  0.4219  0.4219  0.4447  0.4447  0.3599

  free energy =  -0.262230439635E+03  energy without entropy=  -0.262218509653E+03


--------------------------------------------------------------------------------------------------------




--------------------------------------- Iteration      3(  10)  ---------------------------------------


    POTLOK:  cpu time    0.4632: real time    0.4632
    SETDIJ:  cpu time    0.0409: real time    0.0409
    EDDIAG:  cpu time    7.5769: real time    7.5920
  RMM-DIIS:  cpu time   17.6919: real time   17.7169
    ORTHCH:  cpu time    0.3921: real time    0.3920
       DOS:  cpu time    0.0259: real time    0.0259
    CHARGE:  cpu time    2.9896: real time    2.9921
    MIXING:  cpu time    0.0107: real time    0.0107
    --------------------------------------------
      LOOP:  cpu time   29.1911: real time   29.2337

 eigenvalue-minimisations  :  5782
 total energy-change (2. order) :-0.1844756E-02  (-0.2367505E-04)
 number of electron     282.9999987 magnetization      26.8796270
 augmentation part      100.3993474 magnetization      18.0706901

 eigenvalues of (default mixing * dielectric matrix)
  average eigenvalue GAMMA=   0.5996
  1.4148  0.7526  0.7526  0.4221  0.4221  0.4935  0.4935  0.3738  0.2710

  free energy =  -0.262232284392E+03  energy without entropy=  -0.262221404815E+03


--------------------------------------------------------------------------------------------------------




--------------------------------------- Iteration      3(  11)  ---------------------------------------


    POTLOK:  cpu time    0.4638: real time    0.4645
    SETDIJ:  cpu time    0.0410: real time    0.0410
    EDDIAG:  cpu time    7.4947: real time    7.5013
  RMM-DIIS:  cpu time   18.0722: real time   18.5149
    ORTHCH:  cpu time    0.3917: real time    0.3916
       DOS:  cpu time    0.0253: real time    0.0253
    CHARGE:  cpu time    3.0146: real time    3.0243
    MIXING:  cpu time    0.0110: real time    0.0110
    --------------------------------------------
      LOOP:  cpu time   29.5144: real time   29.9741

 eigenvalue-minimisations  :  5632
 total energy-change (2. order) :-0.2634221E-02  (-0.1511537E-04)
 number of electron     282.9999987 magnetization      26.8829700
 augmentation part      100.3938228 magnetization      18.0687431

 eigenvalues of (default mixing * dielectric matrix)
  average eigenvalue GAMMA=   0.6802
  1.8699  0.8347  0.8347  0.4197  0.4197  0.5355  0.5355  0.3923  0.4801  0.4801

  free energy =  -0.262234918613E+03  energy without entropy=  -0.262225058085E+03


--------------------------------------------------------------------------------------------------------




--------------------------------------- Iteration      3(  12)  ---------------------------------------


    POTLOK:  cpu time    0.4642: real time    0.4642
    SETDIJ:  cpu time    0.0410: real time    0.0410
    EDDIAG:  cpu time    7.5556: real time    7.5632
  RMM-DIIS:  cpu time   19.0969: real time   19.1345
    ORTHCH:  cpu time    0.3916: real time    0.3924
       DOS:  cpu time    0.0259: real time    0.0259
    CHARGE:  cpu time    2.9982: real time    3.0069
    MIXING:  cpu time    0.0110: real time    0.0110
    --------------------------------------------
      LOOP:  cpu time   30.5843: real time   30.6391

 eigenvalue-minimisations  :  6212
 total energy-change (2. order) :-0.1517183E-02  (-0.1616756E-04)
 number of electron     282.9999987 magnetization      26.8877329
 augmentation part      100.3930163 magnetization      18.0722017

 eigenvalues of (default mixing * dielectric matrix)
  average eigenvalue GAMMA=   0.7415
  2.1132  1.0693  1.0693  0.4206  0.4206  0.5739  0.5739  0.6333  0.6333  0.3734
  0.2752

  free energy =  -0.262236435796E+03  energy without entropy=  -0.262226341584E+03


--------------------------------------------------------------------------------------------------------




--------------------------------------- Iteration      3(  13)  ---------------------------------------


    POTLOK:  cpu time    0.4634: real time    0.4634
    SETDIJ:  cpu time    0.0412: real time    0.0412
    EDDIAG:  cpu time    7.5190: real time    7.5266
  RMM-DIIS:  cpu time   20.5188: real time   21.2180
    ORTHCH:  cpu time    0.3916: real time    0.3949
       DOS:  cpu time    0.0257: real time    0.0257
    CHARGE:  cpu time    3.0025: real time    3.0052
    MIXING:  cpu time    0.0113: real time    0.0113
    --------------------------------------------
      LOOP:  cpu time   31.9735: real time   32.6863

 eigenvalue-minimisations  :  6647
 total energy-change (2. order) :-0.8292056E-03  (-0.1398929E-04)
 number of electron     282.9999987 magnetization      26.8924960
 augmentation part      100.3967287 magnetization      18.0796043

 eigenvalues of (default mixing * dielectric matrix)
  average eigenvalue GAMMA=   0.7524
  2.1340  1.2191  1.2191  0.4206  0.4206  0.7017  0.7017  0.5155  0.5155  0.4287
  0.3759  0.3759

  free energy =  -0.262237265001E+03  energy without entropy=  -0.262225876703E+03


--------------------------------------------------------------------------------------------------------




--------------------------------------- Iteration      3(  14)  ---------------------------------------


    POTLOK:  cpu time    0.4625: real time    0.4643
    SETDIJ:  cpu time    0.0408: real time    0.0408
