unknown system                          
           1
     2.873573   -2.873573    4.708335
     5.747147    0.000000    0.000000
     0.000000   33.065691   20.180529
   Mn   O    H 
  12  20   7
Direct configuration=     1
   0.22067121  0.89240241  0.08901558
   0.68084567  0.16709578  0.21822675
   0.94927612  0.02809995  0.15233499
   0.39701685  0.30953256  0.28300322
   0.44927612  0.52809995  0.15233499
   0.90498423  0.31577516  0.28472907
   0.44927612  0.02809995  0.15233499
   0.89687866  0.80145287  0.28357832
   0.90282244  0.55132680  0.10484543
   0.35269476  0.83370934  0.23472002
   0.99518744  0.50737576  0.20227089
   0.53851998  0.23347802  0.07318573
   0.77910121  0.62320278  0.31057468
   0.87926422  0.06310591  0.05527763
   0.34073422  0.33193734  0.18299267
   0.58246139  0.21150732  0.12452493
   0.04177769  0.48697548  0.25449024
   0.09516526  0.72856013  0.12156099
   0.54765157  0.45615752  0.25113794
   0.74631661  0.13836781  0.31182868
   0.85888103  0.57329750  0.05350623
   0.31405133  0.84635226  0.18099651
   0.56207820  0.72169891  0.12275353
   0.00617588  0.00728586  0.25391479
   0.80035612  0.33006574  0.18355505
   0.22952949  0.63843580  0.31022109
   0.34617716  0.60305419  0.05647018
   0.25524634  0.14989306  0.31252239
   0.80036335  0.87992335  0.18410493
   0.34617716  0.05624469  0.05647018
   0.56758299  0.99650981  0.25284070
   0.09516526  0.18175063  0.12156099
   0.34047062  0.60391201  0.02782883
   0.92434681  0.68523651  0.03696881
   0.34363348  0.06399961  0.02783421
   0.88838126  0.05560908  0.02665597
   0.75125388  0.13526947  0.33688272
   0.18989475  0.58293944  0.33213220
   0.34779317  0.95770944  0.31351407
Direct configuration=     2
   0.22067121  0.89240241  0.08901558
   0.68060450  0.16663277  0.21814107
   0.94927612  0.02809995  0.15233499
   0.39767762  0.30917568  0.28261112
   0.44927612  0.52809995  0.15233499
   0.90472196  0.31482526  0.28475342
   0.44927612  0.02809995  0.15233499
   0.89531768  0.80374966  0.28351664
   0.90282244  0.55132680  0.10484543
   0.35303098  0.83341585  0.23464167
   0.99531124  0.50743750  0.20224466
   0.53851998  0.23347802  0.07318573
   0.78134937  0.62595934  0.31019049
   0.87926422  0.06310591  0.05527763
   0.34147380  0.33080793  0.18289477
   0.58246139  0.21150732  0.12452493
   0.04046740  0.48950568  0.25477459
   0.09516526  0.72856013  0.12156099
   0.54840024  0.45512427  0.25123667
   0.74811903  0.13563718  0.31163769
   0.85888103  0.57329750  0.05350623
   0.31409001  0.84660273  0.18084718
   0.56207820  0.72169891  0.12275353
   0.00483170  0.00617334  0.25429397
   0.80053449  0.32920714  0.18342706
   0.22472691  0.64097652  0.31020598
   0.34617716  0.60305419  0.05647018
   0.25437571  0.14982061  0.31260910
   0.80051524  0.88057165  0.18406256
   0.34617716  0.05624469  0.05647018
   0.57130181  0.99447082  0.25305707
   0.09516526  0.18175063  0.12156099
   0.34047062  0.60391201  0.02782883
   0.92434681  0.68523651  0.03696881
   0.34363348  0.06399961  0.02783421
   0.88838126  0.05560908  0.02665597
   0.75183567  0.13445339  0.33684368
   0.19003656  0.58295684  0.33214041
   0.34762231  0.95751195  0.31353079
