Mn  O  H                                
   1.00000000000000     
     5.7471469900000001    0.0000000000000000    0.0000000000000000
     0.0000000000000000    5.7471469900000001    0.0000000000000000
     0.0000000000000000    0.0000000000000000   38.3054457869999965
   Mn   O    H 
    15    22     4
Selective dynamics
Direct
  0.0005898578905175  0.2476707142651335  0.2914703058693817   F   F   F
  0.4930568167006300  0.7461824114576885  0.4168148855069234   F   F   F
  0.4928775973415611  0.2468076773515762  0.4165700117087638   F   F   F
  0.0005898578905175  0.7476701061373063  0.2914703058693817   F   F   F
  0.7505898156956690  0.4976695402043276  0.3529281469578436   F   F   F
  0.7401444968898404  0.9985154485611432  0.4819493542987843   T   T   T
  0.2505904238234891  0.4976695402043276  0.3529281469578436   F   F   F
  0.2398931720473669  0.9972568037623616  0.4829113794451061   T   T   T
  0.9961829773906672  0.9974009730347930  0.3853666155481648   F   F   F
  0.5148055183249909  0.4991232598883428  0.5134491859006189   T   T   T
  0.9955786902242564  0.4925766757112555  0.4495025810773826   T   T   T
  0.5005892497626903  0.9976706720702850  0.3221990958838745   F   F   F
  0.9840832415985048  0.2248401370521904  0.5526821543470107   T   T   T
  0.9810229360669495  0.7348935713449621  0.5437235260274136   T   T   T
  0.4759223146246399  0.0470709099560480  0.5816668993818085   T   T   T
  0.9903889194885522  0.2236709684429528  0.4848965028352267   T   T   T
  0.5005892497626903  0.7242654498384411  0.3546474847346772   F   F   F
  0.5005892497626903  0.2710753705639917  0.3546474847346772   F   F   F
  0.9885691063935768  0.7639962181434612  0.4853654166681665   T   T   T
  0.7739944719945271  0.4976695402043276  0.2931896436462154   F   F   F
  0.7231936136716044  0.9978377114729042  0.4203219586459994   F   F   F
  0.4890606230094860  0.2268715458216093  0.4790881773399250   T   T   T
  0.0005898578905175  0.7242654498384411  0.3512088091810099   F   F   F
  0.0005898578905175  0.2710753705639917  0.3512088091810099   F   F   F
  0.4899335748410251  0.7690384131158653  0.4787471697568009   T   T   T
  0.7215649794960228  0.4960826658794062  0.4147144008800794   F   F   F
  0.7739944719945271  0.9976706720702850  0.2897509680925552   F   F   F
  0.2648775127291429  0.4961540056242768  0.4137443038289561   F   F   F
  0.2271857675246238  0.9976706720702850  0.2897509680925552   F   F   F
  0.2679486017461343  0.9971782538313008  0.4196901946891316   F   F   F
  0.2271857675246238  0.4976695402043276  0.2931896436462154   F   F   F
  0.7685485061807071  0.4812070004477675  0.5504782354517986   T   T   T
  0.2123849194779694  0.9808847097461993  0.5435087469094526   T   T   T
  0.2341639319551590  0.5021457601474353  0.5491444920003019   T   T   T
  0.7506868398153302  0.9822769940986190  0.5436435522284597   T   T   T
  0.7255856653258801  0.0810394410953776  0.6166343730945840   T   T   T
  0.1879685676182206  0.2430358702375841  0.6005635476369093   T   T   T
  0.3544680523300840  0.4873861769803085  0.2714496538643303   F   F   F
  0.2581652798111449  0.4650840526985220  0.5746888199641446   T   T   T
  0.6721003644138791  0.1516904596212925  0.6382786976020682   T   T   T
  0.0652712617418984  0.1961655487353440  0.6171038450570165   T   T   T
 
  0.00000000E+00  0.00000000E+00  0.00000000E+00
  0.00000000E+00  0.00000000E+00  0.00000000E+00
  0.00000000E+00  0.00000000E+00  0.00000000E+00
  0.00000000E+00  0.00000000E+00  0.00000000E+00
  0.00000000E+00  0.00000000E+00  0.00000000E+00
  0.00000000E+00  0.00000000E+00  0.00000000E+00
  0.00000000E+00  0.00000000E+00  0.00000000E+00
  0.00000000E+00  0.00000000E+00  0.00000000E+00
  0.00000000E+00  0.00000000E+00  0.00000000E+00
  0.00000000E+00  0.00000000E+00  0.00000000E+00
  0.00000000E+00  0.00000000E+00  0.00000000E+00
  0.00000000E+00  0.00000000E+00  0.00000000E+00
  0.00000000E+00  0.00000000E+00  0.00000000E+00
  0.00000000E+00  0.00000000E+00  0.00000000E+00
  0.00000000E+00  0.00000000E+00  0.00000000E+00
  0.00000000E+00  0.00000000E+00  0.00000000E+00
  0.00000000E+00  0.00000000E+00  0.00000000E+00
  0.00000000E+00  0.00000000E+00  0.00000000E+00
  0.00000000E+00  0.00000000E+00  0.00000000E+00
  0.00000000E+00  0.00000000E+00  0.00000000E+00
  0.00000000E+00  0.00000000E+00  0.00000000E+00
  0.00000000E+00  0.00000000E+00  0.00000000E+00
  0.00000000E+00  0.00000000E+00  0.00000000E+00
  0.00000000E+00  0.00000000E+00  0.00000000E+00
  0.00000000E+00  0.00000000E+00  0.00000000E+00
  0.00000000E+00  0.00000000E+00  0.00000000E+00
  0.00000000E+00  0.00000000E+00  0.00000000E+00
  0.00000000E+00  0.00000000E+00  0.00000000E+00
  0.00000000E+00  0.00000000E+00  0.00000000E+00
  0.00000000E+00  0.00000000E+00  0.00000000E+00
  0.00000000E+00  0.00000000E+00  0.00000000E+00
  0.00000000E+00  0.00000000E+00  0.00000000E+00
  0.00000000E+00  0.00000000E+00  0.00000000E+00
  0.00000000E+00  0.00000000E+00  0.00000000E+00
  0.00000000E+00  0.00000000E+00  0.00000000E+00
  0.00000000E+00  0.00000000E+00  0.00000000E+00
  0.00000000E+00  0.00000000E+00  0.00000000E+00
  0.00000000E+00  0.00000000E+00  0.00000000E+00
  0.00000000E+00  0.00000000E+00  0.00000000E+00
  0.00000000E+00  0.00000000E+00  0.00000000E+00
  0.00000000E+00  0.00000000E+00  0.00000000E+00
