unknown system                          
           1
     5.747147    0.000000    0.000000
     0.000000    5.747147    0.000000
     0.000000    0.000000   38.305446
   Mn   O    H 
  15  22   4
Direct configuration=     1
   0.00058986  0.24767071  0.29147031
   0.49305682  0.74618241  0.41681489
   0.49287760  0.24680768  0.41657001
   0.00058986  0.74767011  0.29147031
   0.75058982  0.49766954  0.35292815
   0.74014450  0.99851545  0.48194935
   0.25059042  0.49766954  0.35292815
   0.23989317  0.99725680  0.48291138
   0.99618298  0.99740097  0.38536662
   0.51480552  0.49912326  0.51344919
   0.99557869  0.49257668  0.44950258
   0.50058925  0.99767067  0.32219910
   0.98408324  0.22484014  0.55268215
   0.98102294  0.73489357  0.54372353
   0.47592231  0.04707091  0.58166690
   0.99038892  0.22367097  0.48489650
   0.50058925  0.72426545  0.35464748
   0.50058925  0.27107537  0.35464748
   0.98856911  0.76399622  0.48536542
   0.77399447  0.49766954  0.29318964
   0.72319361  0.99783771  0.42032196
   0.48906062  0.22687155  0.47908818
   0.00058986  0.72426545  0.35120881
   0.00058986  0.27107537  0.35120881
   0.48993357  0.76903841  0.47874717
   0.72156498  0.49608267  0.41471440
   0.77399447  0.99767067  0.28975097
   0.26487751  0.49615401  0.41374430
   0.22718577  0.99767067  0.28975097
   0.26794860  0.99717825  0.41969019
   0.22718577  0.49766954  0.29318964
   0.76854851  0.48120700  0.55047824
   0.21238492  0.98088471  0.54350875
   0.23416393  0.50214576  0.54914449
   0.75068684  0.98227699  0.54364355
   0.72558567  0.08103944  0.61663437
   0.18796857  0.24303587  0.60056355
   0.35446805  0.48738618  0.27144965
   0.25816528  0.46508405  0.57468882
   0.67210036  0.15169046  0.63827870
   0.06527126  0.19616555  0.61710385
Direct configuration=     2
   0.00058986  0.24767071  0.29147031
   0.49305682  0.74618241  0.41681489
   0.49287760  0.24680768  0.41657001
   0.00058986  0.74767011  0.29147031
   0.75058982  0.49766954  0.35292815
   0.73939458  0.99817818  0.48222437
   0.25059042  0.49766954  0.35292815
   0.24060730  0.99730476  0.48320173
   0.99618298  0.99740097  0.38536662
   0.51540742  0.49901146  0.51382208
   0.99546922  0.49277803  0.44989749
   0.50058925  0.99767067  0.32219910
   0.98319200  0.22716761  0.55235033
   0.98036529  0.73120613  0.54361135
   0.48016517  0.05246689  0.58159453
   0.98933332  0.22300439  0.48473768
   0.50058925  0.72426545  0.35464748
   0.50058925  0.27107537  0.35464748
   0.98711228  0.76591669  0.48518838
   0.77399447  0.49766954  0.29318964
   0.72319361  0.99783771  0.42032196
   0.48992903  0.22454711  0.47865274
   0.00058986  0.72426545  0.35120881
   0.00058986  0.27107537  0.35120881
   0.49066671  0.77090326  0.47830221
   0.72156498  0.49608267  0.41471440
   0.77399447  0.99767067  0.28975097
   0.26487751  0.49615401  0.41374430
   0.22718577  0.99767067  0.28975097
   0.26794860  0.99717825  0.41969019
   0.22718577  0.49766954  0.29318964
   0.77087766  0.47938270  0.55056811
   0.21751416  0.98435082  0.54393210
   0.23226741  0.50111066  0.54924434
   0.74404224  0.98501065  0.54435267
   0.71974829  0.07768732  0.61475635
   0.19523481  0.23754021  0.60048593
   0.35446805  0.48738618  0.27144965
   0.25861313  0.46628837  0.57435294
   0.66971170  0.15365851  0.63866005
   0.06572908  0.19486809  0.61705507
Direct configuration=     3
   0.00058986  0.24767071  0.29147031
   0.49305682  0.74618241  0.41681489
   0.49287760  0.24680768  0.41657001
   0.00058986  0.74767011  0.29147031
   0.75058982  0.49766954  0.35292815
   0.73984905  0.99838257  0.48205770
   0.25059042  0.49766954  0.35292815
   0.24017452  0.99727570  0.48302577
   0.99618298  0.99740097  0.38536662
   0.51504265  0.49907922  0.51359610
   0.99553556  0.49265600  0.44965816
   0.50058925  0.99767067  0.32219910
   0.98373211  0.22575710  0.55255142
   0.98076384  0.73344081  0.54367933
   0.47759389  0.04919679  0.58163839
   0.98997304  0.22340835  0.48483393
   0.50058925  0.72426545  0.35464748
   0.50058925  0.27107537  0.35464748
   0.98799515  0.76475284  0.48529567
   0.77399447  0.49766954  0.29318964
   0.72319361  0.99783771  0.42032196
   0.48940275  0.22595578  0.47891663
   0.00058986  0.72426545  0.35120881
   0.00058986  0.27107537  0.35120881
   0.49022241  0.76977312  0.47857187
   0.72156498  0.49608267  0.41471440
   0.77399447  0.99767067  0.28975097
   0.26487751  0.49615401  0.41374430
   0.22718577  0.99767067  0.28975097
   0.26794860  0.99717825  0.41969019
   0.22718577  0.49766954  0.29318964
   0.76946613  0.48048827  0.55051364
   0.21440571  0.98225027  0.54367554
   0.23341675  0.50173796  0.54918383
   0.74806903  0.98335399  0.54392293
   0.72328589  0.07971879  0.61589448
   0.19083128  0.24087072  0.60053297
   0.35446805  0.48738618  0.27144965
   0.25834172  0.46555852  0.57455649
   0.67115929  0.15246582  0.63842894
   0.06545163  0.19565438  0.61708463
Direct configuration=     4
   0.00058986  0.24767071  0.29147031
   0.49305682  0.74618241  0.41681489
   0.49287760  0.24680768  0.41657001
   0.00058986  0.74767011  0.29147031
   0.75058982  0.49766954  0.35292815
   0.73997189  0.99843782  0.48201265
   0.25059042  0.49766954  0.35292815
   0.24005754  0.99726784  0.48297821
   0.99618298  0.99740097  0.38536662
   0.51494405  0.49909753  0.51353501
   0.99555349  0.49262302  0.44959347
   0.50058925  0.99767067  0.32219910
   0.98387811  0.22537583  0.55260578
   0.98087157  0.73404486  0.54369771
   0.47689886  0.04831286  0.58165024
   0.99014596  0.22351755  0.48485995
   0.50058925  0.72426545  0.35464748
   0.50058925  0.27107537  0.35464748
   0.98823380  0.76443824  0.48532467
   0.77399447  0.49766954  0.29318964
   0.72319361  0.99783771  0.42032196
   0.48926050  0.22633655  0.47898796
   0.00058986  0.72426545  0.35120881
   0.00058986  0.27107537  0.35120881
   0.49010231  0.76946763  0.47864476
   0.72156498  0.49608267  0.41471440
   0.77399447  0.99767067  0.28975097
   0.26487751  0.49615401  0.41374430
   0.22718577  0.99767067  0.28975097
   0.26794860  0.99717825  0.41969019
   0.22718577  0.49766954  0.29318964
   0.76908459  0.48078711  0.55049892
   0.21356548  0.98168248  0.54360619
   0.23372742  0.50190752  0.54916747
   0.74915750  0.98290618  0.54380676
   0.72424212  0.08026791  0.61620212
   0.18964098  0.24177097  0.60054568
   0.35446805  0.48738618  0.27144965
   0.25826836  0.46536124  0.57461151
   0.67155058  0.15214343  0.63836647
   0.06537663  0.19586692  0.61709262
Direct configuration=     5
   0.00058986  0.24767071  0.29147031
   0.49305682  0.74618241  0.41681489
   0.49287760  0.24680768  0.41657001
   0.00058986  0.74767011  0.29147031
   0.75058982  0.49766954  0.35292815
   0.74005820  0.99847664  0.48198100
   0.25059042  0.49766954  0.35292815
   0.23997535  0.99726232  0.48294479
   0.99618298  0.99740097  0.38536662
   0.51487479  0.49911039  0.51349210
   0.99556609  0.49259985  0.44954803
   0.50058925  0.99767067  0.32219910
   0.98398068  0.22510799  0.55264397
   0.98094725  0.73446922  0.54371062
   0.47641059  0.04769189  0.58165857
   0.99026744  0.22359426  0.48487823
   0.50058925  0.72426545  0.35464748
   0.50058925  0.27107537  0.35464748
   0.98840145  0.76421723  0.48534504
   0.77399447  0.49766954  0.29318964
   0.72319361  0.99783771  0.42032196
   0.48916056  0.22660405  0.47903807
   0.00058986  0.72426545  0.35120881
   0.00058986  0.27107537  0.35120881
   0.49001794  0.76925302  0.47869596
   0.72156498  0.49608267  0.41471440
   0.77399447  0.99767067  0.28975097
   0.26487751  0.49615401  0.41374430
   0.22718577  0.99767067  0.28975097
   0.26794860  0.99717825  0.41969019
   0.22718577  0.49766954  0.29318964
   0.76881655  0.48099706  0.55048858
   0.21297520  0.98128359  0.54355747
   0.23394568  0.50202664  0.54915598
   0.74992217  0.98259159  0.54372516
   0.72491389  0.08065367  0.61641825
   0.18880478  0.24240342  0.60055462
   0.35446805  0.48738618  0.27144965
   0.25821682  0.46522265  0.57465017
   0.67182547  0.15191694  0.63832258
   0.06532395  0.19601624  0.61709823
Direct configuration=     6
   0.00058986  0.24767071  0.29147031
   0.49305682  0.74618241  0.41681489
   0.49287760  0.24680768  0.41657001
   0.00058986  0.74767011  0.29147031
   0.75058982  0.49766954  0.35292815
   0.74010135  0.99849604  0.48196518
   0.25059042  0.49766954  0.35292815
   0.23993426  0.99725956  0.48292809
   0.99618298  0.99740097  0.38536662
   0.51484015  0.49911683  0.51347064
   0.99557239  0.49258826  0.44952530
   0.50058925  0.99767067  0.32219910
   0.98403196  0.22497406  0.55266306
   0.98098509  0.73468139  0.54371707
   0.47616645  0.04738140  0.58166274
   0.99032818  0.22363261  0.48488736
   0.50058925  0.72426545  0.35464748
   0.50058925  0.27107537  0.35464748
   0.98848528  0.76410672  0.48535523
   0.77399447  0.49766954  0.29318964
   0.72319361  0.99783771  0.42032196
   0.48911059  0.22673780  0.47906312
   0.00058986  0.72426545  0.35120881
   0.00058986  0.27107537  0.35120881
   0.48997576  0.76914572  0.47872157
   0.72156498  0.49608267  0.41471440
   0.77399447  0.99767067  0.28975097
   0.26487751  0.49615401  0.41374430
   0.22718577  0.99767067  0.28975097
   0.26794860  0.99717825  0.41969019
   0.22718577  0.49766954  0.29318964
   0.76868253  0.48110203  0.55048341
   0.21268006  0.98108415  0.54353311
   0.23405481  0.50208620  0.54915024
   0.75030451  0.98243429  0.54368436
   0.72524978  0.08084656  0.61652631
   0.18838667  0.24271965  0.60055908
   0.35446805  0.48738618  0.27144965
   0.25819105  0.46515335  0.57466949
   0.67196292  0.15180370  0.63830064
   0.06529760  0.19609089  0.61710104
Direct configuration=     7
   0.00058986  0.24767071  0.29147031
   0.49305682  0.74618241  0.41681489
   0.49287760  0.24680768  0.41657001
   0.00058986  0.74767011  0.29147031
   0.75058982  0.49766954  0.35292815
   0.74012292  0.99850575  0.48195727
   0.25059042  0.49766954  0.35292815
   0.23991372  0.99725818  0.48291973
   0.99618298  0.99740097  0.38536662
   0.51482284  0.49912004  0.51345991
   0.99557554  0.49258247  0.44951394
   0.50058925  0.99767067  0.32219910
   0.98405760  0.22490710  0.55267261
   0.98100402  0.73478748  0.54372030
   0.47604438  0.04722615  0.58166482
   0.99035855  0.22365179  0.48489193
   0.50058925  0.72426545  0.35464748
   0.50058925  0.27107537  0.35464748
   0.98852719  0.76405147  0.48536032
   0.77399447  0.49766954  0.29318964
   0.72319361  0.99783771  0.42032196
   0.48908561  0.22680467  0.47907565
   0.00058986  0.72426545  0.35120881
   0.00058986  0.27107537  0.35120881
   0.48995467  0.76909207  0.47873437
   0.72156498  0.49608267  0.41471440
   0.77399447  0.99767067  0.28975097
   0.26487751  0.49615401  0.41374430
   0.22718577  0.99767067  0.28975097
   0.26794860  0.99717825  0.41969019
   0.22718577  0.49766954  0.29318964
   0.76861552  0.48115451  0.55048082
   0.21253249  0.98098443  0.54352093
   0.23410937  0.50211598  0.54914736
   0.75049567  0.98235564  0.54366395
   0.72541772  0.08094300  0.61658034
   0.18817762  0.24287776  0.60056131
   0.35446805  0.48738618  0.27144965
   0.25817816  0.46511870  0.57467916
   0.67203164  0.15174708  0.63828967
   0.06528443  0.19612822  0.61710244
Direct configuration=     8
   0.00058986  0.24767071  0.29147031
   0.49305682  0.74618241  0.41681489
   0.49287760  0.24680768  0.41657001
   0.00058986  0.74767011  0.29147031
   0.75058982  0.49766954  0.35292815
   0.74013371  0.99851060  0.48195331
   0.25059042  0.49766954  0.35292815
   0.23990344  0.99725749  0.48291556
   0.99618298  0.99740097  0.38536662
   0.51481418  0.49912165  0.51345455
   0.99557712  0.49257957  0.44950826
   0.50058925  0.99767067  0.32219910
   0.98407042  0.22487362  0.55267738
   0.98101348  0.73484053  0.54372191
   0.47598335  0.04714853  0.58166586
   0.99037373  0.22366138  0.48489422
   0.50058925  0.72426545  0.35464748
   0.50058925  0.27107537  0.35464748
   0.98854815  0.76402384  0.48536287
   0.77399447  0.49766954  0.29318964
   0.72319361  0.99783771  0.42032196
   0.48907312  0.22683811  0.47908191
   0.00058986  0.72426545  0.35120881
   0.00058986  0.27107537  0.35120881
   0.48994412  0.76906524  0.47874077
   0.72156498  0.49608267  0.41471440
   0.77399447  0.99767067  0.28975097
   0.26487751  0.49615401  0.41374430
   0.22718577  0.99767067  0.28975097
   0.26794860  0.99717825  0.41969019
   0.22718577  0.49766954  0.29318964
   0.76858201  0.48118076  0.55047953
   0.21245870  0.98093457  0.54351484
   0.23413665  0.50213087  0.54914593
   0.75059126  0.98231632  0.54365375
   0.72550169  0.08099122  0.61660736
   0.18807309  0.24295681  0.60056243
   0.35446805  0.48738618  0.27144965
   0.25817172  0.46510138  0.57468399
   0.67206600  0.15171877  0.63828418
   0.06527785  0.19614688  0.61710314
Direct configuration=     9
   0.00058986  0.24767071  0.29147031
   0.49305682  0.74618241  0.41681489
   0.49287760  0.24680768  0.41657001
   0.00058986  0.74767011  0.29147031
   0.75058982  0.49766954  0.35292815
   0.74013910  0.99851302  0.48195133
   0.25059042  0.49766954  0.35292815
   0.23989831  0.99725715  0.48291347
   0.99618298  0.99740097  0.38536662
   0.51480985  0.49912246  0.51345187
   0.99557790  0.49257812  0.44950542
   0.50058925  0.99767067  0.32219910
   0.98407683  0.22485688  0.55267977
   0.98101821  0.73486705  0.54372272
   0.47595283  0.04710972  0.58166638
   0.99038133  0.22366617  0.48489536
   0.50058925  0.72426545  0.35464748
   0.50058925  0.27107537  0.35464748
   0.98855863  0.76401003  0.48536414
   0.77399447  0.49766954  0.29318964
   0.72319361  0.99783771  0.42032196
   0.48906687  0.22685483  0.47908505
   0.00058986  0.72426545  0.35120881
   0.00058986  0.27107537  0.35120881
   0.48993885  0.76905183  0.47874397
   0.72156498  0.49608267  0.41471440
   0.77399447  0.99767067  0.28975097
   0.26487751  0.49615401  0.41374430
   0.22718577  0.99767067  0.28975097
   0.26794860  0.99717825  0.41969019
   0.22718577  0.49766954  0.29318964
   0.76856526  0.48119388  0.55047888
   0.21242181  0.98090964  0.54351179
   0.23415029  0.50213832  0.54914521
   0.75063905  0.98229666  0.54364865
   0.72554368  0.08101533  0.61662087
   0.18802083  0.24299634  0.60056299
   0.35446805  0.48738618  0.27144965
   0.25816850  0.46509271  0.57468640
   0.67208318  0.15170461  0.63828144
   0.06527455  0.19615622  0.61710349
Direct configuration=    10
   0.00058986  0.24767071  0.29147031
   0.49305682  0.74618241  0.41681489
   0.49287760  0.24680768  0.41657001
   0.00058986  0.74767011  0.29147031
   0.75058982  0.49766954  0.35292815
   0.74014180  0.99851424  0.48195034
   0.25059042  0.49766954  0.35292815
   0.23989574  0.99725698  0.48291242
   0.99618298  0.99740097  0.38536662
   0.51480768  0.49912286  0.51345053
   0.99557830  0.49257740  0.44950400
   0.50058925  0.99767067  0.32219910
   0.98408004  0.22484851  0.55268096
   0.98102057  0.73488031  0.54372312
   0.47593757  0.04709032  0.58166664
   0.99038512  0.22366857  0.48489593
   0.50058925  0.72426545  0.35464748
   0.50058925  0.27107537  0.35464748
   0.98856387  0.76400312  0.48536478
   0.77399447  0.49766954  0.29318964
   0.72319361  0.99783771  0.42032196
   0.48906375  0.22686319  0.47908661
   0.00058986  0.72426545  0.35120881
   0.00058986  0.27107537  0.35120881
   0.48993621  0.76904512  0.47874557
   0.72156498  0.49608267  0.41471440
   0.77399447  0.99767067  0.28975097
   0.26487751  0.49615401  0.41374430
   0.22718577  0.99767067  0.28975097
   0.26794860  0.99717825  0.41969019
   0.22718577  0.49766954  0.29318964
   0.76855688  0.48120044  0.55047856
   0.21240337  0.98089717  0.54351027
   0.23415711  0.50214204  0.54914485
   0.75066294  0.98228683  0.54364610
   0.72556467  0.08102739  0.61662762
   0.18799470  0.24301611  0.60056327
   0.35446805  0.48738618  0.27144965
   0.25816689  0.46508838  0.57468761
   0.67209177  0.15169754  0.63828007
   0.06527291  0.19616088  0.61710367
Direct configuration=    11
   0.00058986  0.24767071  0.29147031
   0.49305682  0.74618241  0.41681489
   0.49287760  0.24680768  0.41657001
   0.00058986  0.74767011  0.29147031
   0.75058982  0.49766954  0.35292815
   0.74014315  0.99851484  0.48194985
   0.25059042  0.49766954  0.35292815
   0.23989446  0.99725689  0.48291190
   0.99618298  0.99740097  0.38536662
   0.51480660  0.49912306  0.51344986
   0.99557849  0.49257704  0.44950329
   0.50058925  0.99767067  0.32219910
   0.98408164  0.22484432  0.55268156
   0.98102175  0.73488694  0.54372332
   0.47592994  0.04708061  0.58166677
   0.99038702  0.22366977  0.48489622
   0.50058925  0.72426545  0.35464748
   0.50058925  0.27107537  0.35464748
   0.98856649  0.76399967  0.48536510
   0.77399447  0.49766954  0.29318964
   0.72319361  0.99783771  0.42032196
   0.48906218  0.22686737  0.47908739
   0.00058986  0.72426545  0.35120881
   0.00058986  0.27107537  0.35120881
   0.48993489  0.76904177  0.47874637
   0.72156498  0.49608267  0.41471440
   0.77399447  0.99767067  0.28975097
   0.26487751  0.49615401  0.41374430
   0.22718577  0.99767067  0.28975097
   0.26794860  0.99717825  0.41969019
   0.22718577  0.49766954  0.29318964
   0.76855269  0.48120372  0.55047840
   0.21239414  0.98089094  0.54350951
   0.23416052  0.50214390  0.54914467
   0.75067489  0.98228191  0.54364483
   0.72557517  0.08103341  0.61663100
   0.18798163  0.24302599  0.60056341
   0.35446805  0.48738618  0.27144965
   0.25816609  0.46508622  0.57468822
   0.67209607  0.15169400  0.63827938
   0.06527208  0.19616322  0.61710376
Direct configuration=    12
   0.00058986  0.24767071  0.29147031
   0.49305682  0.74618241  0.41681489
   0.49287760  0.24680768  0.41657001
   0.00058986  0.74767011  0.29147031
   0.75058982  0.49766954  0.35292815
   0.74014382  0.99851515  0.48194960
   0.25059042  0.49766954  0.35292815
   0.23989381  0.99725685  0.48291164
   0.99618298  0.99740097  0.38536662
   0.51480606  0.49912316  0.51344952
   0.99557859  0.49257686  0.44950294
   0.50058925  0.99767067  0.32219910
   0.98408244  0.22484223  0.55268186
   0.98102234  0.73489026  0.54372343
   0.47592613  0.04707576  0.58166683
   0.99038797  0.22367037  0.48489636
   0.50058925  0.72426545  0.35464748
   0.50058925  0.27107537  0.35464748
   0.98856780  0.76399794  0.48536526
   0.77399447  0.49766954  0.29318964
   0.72319361  0.99783771  0.42032196
   0.48906140  0.22686946  0.47908779
   0.00058986  0.72426545  0.35120881
   0.00058986  0.27107537  0.35120881
   0.48993423  0.76904009  0.47874677
   0.72156498  0.49608267  0.41471440
   0.77399447  0.99767067  0.28975097
   0.26487751  0.49615401  0.41374430
   0.22718577  0.99767067  0.28975097
   0.26794860  0.99717825  0.41969019
   0.22718577  0.49766954  0.29318964
   0.76855060  0.48120536  0.55047832
   0.21238953  0.98088783  0.54350913
   0.23416223  0.50214483  0.54914458
   0.75068087  0.98227945  0.54364419
   0.72558042  0.08103643  0.61663268
   0.18797510  0.24303093  0.60056348
   0.35446805  0.48738618  0.27144965
   0.25816568  0.46508514  0.57468852
   0.67209822  0.15169223  0.63827904
   0.06527167  0.19616438  0.61710380
Direct configuration=    13
   0.00058986  0.24767071  0.29147031
   0.49305682  0.74618241  0.41681489
   0.49287760  0.24680768  0.41657001
   0.00058986  0.74767011  0.29147031
   0.75058982  0.49766954  0.35292815
   0.74014416  0.99851530  0.48194948
   0.25059042  0.49766954  0.35292815
   0.23989349  0.99725683  0.48291151
   0.99618298  0.99740097  0.38536662
   0.51480579  0.49912321  0.51344935
   0.99557864  0.49257677  0.44950276
   0.50058925  0.99767067  0.32219910
   0.98408284  0.22484118  0.55268201
   0.98102264  0.73489191  0.54372348
   0.47592422  0.04707334  0.58166687
   0.99038844  0.22367067  0.48489643
   0.50058925  0.72426545  0.35464748
   0.50058925  0.27107537  0.35464748
   0.98856845  0.76399708  0.48536534
   0.77399447  0.49766954  0.29318964
   0.72319361  0.99783771  0.42032196
   0.48906101  0.22687050  0.47908798
   0.00058986  0.72426545  0.35120881
   0.00058986  0.27107537  0.35120881
   0.48993390  0.76903925  0.47874697
   0.72156498  0.49608267  0.41471440
   0.77399447  0.99767067  0.28975097
   0.26487751  0.49615401  0.41374430
   0.22718577  0.99767067  0.28975097
   0.26794860  0.99717825  0.41969019
   0.22718577  0.49766954  0.29318964
   0.76854955  0.48120618  0.55047828
   0.21238723  0.98088627  0.54350894
   0.23416308  0.50214529  0.54914454
   0.75068385  0.98227822  0.54364387
   0.72558304  0.08103793  0.61663353
   0.18797183  0.24303340  0.60056351
   0.35446805  0.48738618  0.27144965
   0.25816548  0.46508459  0.57468867
   0.67209929  0.15169134  0.63827887
   0.06527147  0.19616497  0.61710382
Direct configuration=    14
   0.00058986  0.24767071  0.29147031
   0.49305682  0.74618241  0.41681489
   0.49287760  0.24680768  0.41657001
   0.00058986  0.74767011  0.29147031
   0.75058982  0.49766954  0.35292815
   0.74014433  0.99851537  0.48194942
   0.25059042  0.49766954  0.35292815
   0.23989333  0.99725681  0.48291144
   0.99618298  0.99740097  0.38536662
   0.51480565  0.49912323  0.51344927
   0.99557867  0.49257672  0.44950267
   0.50058925  0.99767067  0.32219910
   0.98408304  0.22484066  0.55268208
   0.98102279  0.73489274  0.54372350
   0.47592327  0.04707212  0.58166688
   0.99038868  0.22367082  0.48489647
   0.50058925  0.72426545  0.35464748
   0.50058925  0.27107537  0.35464748
   0.98856878  0.76399665  0.48536538
   0.77399447  0.49766954  0.29318964
   0.72319361  0.99783771  0.42032196
   0.48906082  0.22687102  0.47908808
   0.00058986  0.72426545  0.35120881
   0.00058986  0.27107537  0.35120881
   0.48993374  0.76903883  0.47874707
   0.72156498  0.49608267  0.41471440
   0.77399447  0.99767067  0.28975097
   0.26487751  0.49615401  0.41374430
   0.22718577  0.99767067  0.28975097
   0.26794860  0.99717825  0.41969019
   0.22718577  0.49766954  0.29318964
   0.76854903  0.48120659  0.55047826
   0.21238607  0.98088549  0.54350884
   0.23416351  0.50214553  0.54914451
   0.75068535  0.98227761  0.54364371
   0.72558435  0.08103869  0.61663395
   0.18797020  0.24303463  0.60056353
   0.35446805  0.48738618  0.27144965
   0.25816538  0.46508432  0.57468874
   0.67209983  0.15169090  0.63827878
   0.06527136  0.19616526  0.61710383
Direct configuration=    15
   0.00058986  0.24767071  0.29147031
   0.49305682  0.74618241  0.41681489
   0.49287760  0.24680768  0.41657001
   0.00058986  0.74767011  0.29147031
   0.75058982  0.49766954  0.35292815
   0.74014441  0.99851541  0.48194939
   0.25059042  0.49766954  0.35292815
   0.23989325  0.99725681  0.48291141
   0.99618298  0.99740097  0.38536662
   0.51480559  0.49912325  0.51344923
   0.99557868  0.49257670  0.44950263
   0.50058925  0.99767067  0.32219910
   0.98408314  0.22484040  0.55268212
   0.98102286  0.73489316  0.54372351
   0.47592279  0.04707152  0.58166689
   0.99038880  0.22367089  0.48489648
   0.50058925  0.72426545  0.35464748
   0.50058925  0.27107537  0.35464748
   0.98856894  0.76399643  0.48536540
   0.77399447  0.49766954  0.29318964
   0.72319361  0.99783771  0.42032196
   0.48906072  0.22687128  0.47908813
   0.00058986  0.72426545  0.35120881
   0.00058986  0.27107537  0.35120881
   0.48993366  0.76903862  0.47874712
   0.72156498  0.49608267  0.41471440
   0.77399447  0.99767067  0.28975097
   0.26487751  0.49615401  0.41374430
   0.22718577  0.99767067  0.28975097
   0.26794860  0.99717825  0.41969019
   0.22718577  0.49766954  0.29318964
   0.76854877  0.48120680  0.55047825
   0.21238550  0.98088510  0.54350879
   0.23416372  0.50214564  0.54914450
   0.75068609  0.98227730  0.54364363
   0.72558501  0.08103906  0.61663416
   0.18796938  0.24303525  0.60056354
   0.35446805  0.48738618  0.27144965
   0.25816533  0.46508419  0.57468878
   0.67210010  0.15169068  0.63827874
   0.06527131  0.19616540  0.61710384
Direct configuration=    16
   0.00058986  0.24767071  0.29147031
   0.49305682  0.74618241  0.41681489
   0.49287760  0.24680768  0.41657001
   0.00058986  0.74767011  0.29147031
   0.75058982  0.49766954  0.35292815
   0.74014445  0.99851543  0.48194937
   0.25059042  0.49766954  0.35292815
   0.23989321  0.99725681  0.48291140
   0.99618298  0.99740097  0.38536662
   0.51480555  0.49912325  0.51344921
   0.99557868  0.49257669  0.44950260
   0.50058925  0.99767067  0.32219910
   0.98408319  0.22484027  0.55268214
   0.98102290  0.73489336  0.54372352
   0.47592255  0.04707121  0.58166690
   0.99038886  0.22367093  0.48489649
   0.50058925  0.72426545  0.35464748
   0.50058925  0.27107537  0.35464748
   0.98856902  0.76399633  0.48536541
   0.77399447  0.49766954  0.29318964
   0.72319361  0.99783771  0.42032196
   0.48906067  0.22687142  0.47908815
   0.00058986  0.72426545  0.35120881
   0.00058986  0.27107537  0.35120881
   0.48993362  0.76903852  0.47874714
   0.72156498  0.49608267  0.41471440
   0.77399447  0.99767067  0.28975097
   0.26487751  0.49615401  0.41374430
   0.22718577  0.99767067  0.28975097
   0.26794860  0.99717825  0.41969019
   0.22718577  0.49766954  0.29318964
   0.76854864  0.48120690  0.55047824
   0.21238521  0.98088490  0.54350877
   0.23416383  0.50214570  0.54914450
   0.75068647  0.98227715  0.54364359
   0.72558534  0.08103925  0.61663427
   0.18796898  0.24303556  0.60056354
   0.35446805  0.48738618  0.27144965
   0.25816530  0.46508412  0.57468880
   0.67210023  0.15169057  0.63827872
   0.06527129  0.19616548  0.61710384
Direct configuration=    17
   0.00058986  0.24767071  0.29147031
   0.49305682  0.74618241  0.41681489
   0.49287760  0.24680768  0.41657001
   0.00058986  0.74767011  0.29147031
   0.75058982  0.49766954  0.35292815
   0.74014448  0.99851544  0.48194936
   0.25059042  0.49766954  0.35292815
   0.23989319  0.99725681  0.48291139
   0.99618298  0.99740097  0.38536662
   0.51480554  0.49912326  0.51344920
   0.99557869  0.49257668  0.44950259
   0.50058925  0.99767067  0.32219910
   0.98408322  0.22484020  0.55268215
   0.98102292  0.73489347  0.54372352
   0.47592243  0.04707106  0.58166690
   0.99038889  0.22367095  0.48489650
   0.50058925  0.72426545  0.35464748
   0.50058925  0.27107537  0.35464748
   0.98856907  0.76399627  0.48536541
   0.77399447  0.49766954  0.29318964
   0.72319361  0.99783771  0.42032196
   0.48906065  0.22687148  0.47908817
   0.00058986  0.72426545  0.35120881
   0.00058986  0.27107537  0.35120881
   0.48993360  0.76903847  0.47874716
   0.72156498  0.49608267  0.41471440
   0.77399447  0.99767067  0.28975097
   0.26487751  0.49615401  0.41374430
   0.22718577  0.99767067  0.28975097
   0.26794860  0.99717825  0.41969019
   0.22718577  0.49766954  0.29318964
   0.76854857  0.48120695  0.55047824
   0.21238506  0.98088481  0.54350876
   0.23416388  0.50214573  0.54914449
   0.75068665  0.98227707  0.54364357
   0.72558550  0.08103935  0.61663432
   0.18796877  0.24303572  0.60056355
   0.35446805  0.48738618  0.27144965
   0.25816529  0.46508409  0.57468881
   0.67210030  0.15169051  0.63827871
   0.06527127  0.19616551  0.61710384
Direct configuration=    18
   0.00058986  0.24767071  0.29147031
   0.49305682  0.74618241  0.41681489
   0.49287760  0.24680768  0.41657001
   0.00058986  0.74767011  0.29147031
   0.75058982  0.49766954  0.35292815
   0.74014449  0.99851544  0.48194936
   0.25059042  0.49766954  0.35292815
   0.23989318  0.99725680  0.48291138
   0.99618298  0.99740097  0.38536662
   0.51480553  0.49912326  0.51344919
   0.99557869  0.49257668  0.44950259
   0.50058925  0.99767067  0.32219910
   0.98408323  0.22484017  0.55268215
   0.98102293  0.73489352  0.54372352
   0.47592237  0.04707099  0.58166690
   0.99038890  0.22367096  0.48489650
   0.50058925  0.72426545  0.35464748
   0.50058925  0.27107537  0.35464748
   0.98856909  0.76399625  0.48536541
   0.77399447  0.49766954  0.29318964
   0.72319361  0.99783771  0.42032196
   0.48906064  0.22687151  0.47908817
   0.00058986  0.72426545  0.35120881
   0.00058986  0.27107537  0.35120881
   0.48993359  0.76903844  0.47874716
   0.72156498  0.49608267  0.41471440
   0.77399447  0.99767067  0.28975097
   0.26487751  0.49615401  0.41374430
   0.22718577  0.99767067  0.28975097
   0.26794860  0.99717825  0.41969019
   0.22718577  0.49766954  0.29318964
   0.76854854  0.48120697  0.55047824
   0.21238499  0.98088476  0.54350875
   0.23416391  0.50214575  0.54914449
   0.75068675  0.98227703  0.54364356
   0.72558558  0.08103939  0.61663435
   0.18796867  0.24303579  0.60056355
   0.35446805  0.48738618  0.27144965
   0.25816529  0.46508407  0.57468882
   0.67210033  0.15169049  0.63827870
   0.06527127  0.19616553  0.61710384
Direct configuration=    19
   0.00058986  0.24767071  0.29147031
   0.49305682  0.74618241  0.41681489
   0.49287760  0.24680768  0.41657001
   0.00058986  0.74767011  0.29147031
   0.75058982  0.49766954  0.35292815
   0.74014449  0.99851545  0.48194936
   0.25059042  0.49766954  0.35292815
   0.23989318  0.99725680  0.48291138
   0.99618298  0.99740097  0.38536662
   0.51480552  0.49912326  0.51344919
   0.99557869  0.49257668  0.44950258
   0.50058925  0.99767067  0.32219910
   0.98408324  0.22484015  0.55268215
   0.98102293  0.73489355  0.54372353
   0.47592234  0.04707095  0.58166690
   0.99038891  0.22367096  0.48489650
   0.50058925  0.72426545  0.35464748
   0.50058925  0.27107537  0.35464748
   0.98856910  0.76399623  0.48536542
   0.77399447  0.49766954  0.29318964
   0.72319361  0.99783771  0.42032196
   0.48906063  0.22687153  0.47908817
   0.00058986  0.72426545  0.35120881
   0.00058986  0.27107537  0.35120881
   0.48993358  0.76903843  0.47874717
   0.72156498  0.49608267  0.41471440
   0.77399447  0.99767067  0.28975097
   0.26487751  0.49615401  0.41374430
   0.22718577  0.99767067  0.28975097
   0.26794860  0.99717825  0.41969019
   0.22718577  0.49766954  0.29318964
   0.76854852  0.48120699  0.55047824
   0.21238496  0.98088473  0.54350875
   0.23416392  0.50214575  0.54914449
   0.75068679  0.98227701  0.54364356
   0.72558562  0.08103942  0.61663436
   0.18796862  0.24303583  0.60056355
   0.35446805  0.48738618  0.27144965
   0.25816528  0.46508406  0.57468882
   0.67210035  0.15169047  0.63827870
   0.06527126  0.19616554  0.61710384
Direct configuration=    20
   0.00058986  0.24767071  0.29147031
   0.49305682  0.74618241  0.41681489
   0.49287760  0.24680768  0.41657001
   0.00058986  0.74767011  0.29147031
   0.75058982  0.49766954  0.35292815
   0.74014450  0.99851545  0.48194935
   0.25059042  0.49766954  0.35292815
   0.23989317  0.99725680  0.48291138
   0.99618298  0.99740097  0.38536662
   0.51480552  0.49912326  0.51344919
   0.99557869  0.49257668  0.44950258
   0.50058925  0.99767067  0.32219910
   0.98408324  0.22484014  0.55268215
   0.98102294  0.73489357  0.54372353
   0.47592231  0.04707091  0.58166690
   0.99038892  0.22367097  0.48489650
   0.50058925  0.72426545  0.35464748
   0.50058925  0.27107537  0.35464748
   0.98856911  0.76399622  0.48536542
   0.77399447  0.49766954  0.29318964
   0.72319361  0.99783771  0.42032196
   0.48906062  0.22687155  0.47908818
   0.00058986  0.72426545  0.35120881
   0.00058986  0.27107537  0.35120881
   0.48993357  0.76903841  0.47874717
   0.72156498  0.49608267  0.41471440
   0.77399447  0.99767067  0.28975097
   0.26487751  0.49615401  0.41374430
   0.22718577  0.99767067  0.28975097
   0.26794860  0.99717825  0.41969019
   0.22718577  0.49766954  0.29318964
   0.76854851  0.48120700  0.55047824
   0.21238492  0.98088471  0.54350875
   0.23416393  0.50214576  0.54914449
   0.75068684  0.98227699  0.54364355
   0.72558567  0.08103944  0.61663437
   0.18796857  0.24303587  0.60056355
   0.35446805  0.48738618  0.27144965
   0.25816528  0.46508405  0.57468882
   0.67210036  0.15169046  0.63827870
   0.06527126  0.19616555  0.61710385
Direct configuration=    21
   0.00058986  0.24767071  0.29147031
   0.49305682  0.74618241  0.41681489
   0.49287760  0.24680768  0.41657001
   0.00058986  0.74767011  0.29147031
   0.75058982  0.49766954  0.35292815
   0.74014450  0.99851545  0.48194935
   0.25059042  0.49766954  0.35292815
   0.23989317  0.99725680  0.48291138
   0.99618298  0.99740097  0.38536662
   0.51480552  0.49912326  0.51344919
   0.99557869  0.49257668  0.44950258
   0.50058925  0.99767067  0.32219910
   0.98408324  0.22484014  0.55268215
   0.98102294  0.73489357  0.54372353
   0.47592231  0.04707091  0.58166690
   0.99038892  0.22367097  0.48489650
   0.50058925  0.72426545  0.35464748
   0.50058925  0.27107537  0.35464748
   0.98856911  0.76399622  0.48536542
   0.77399447  0.49766954  0.29318964
   0.72319361  0.99783771  0.42032196
   0.48906062  0.22687155  0.47908818
   0.00058986  0.72426545  0.35120881
   0.00058986  0.27107537  0.35120881
   0.48993357  0.76903841  0.47874717
   0.72156498  0.49608267  0.41471440
   0.77399447  0.99767067  0.28975097
   0.26487751  0.49615401  0.41374430
   0.22718577  0.99767067  0.28975097
   0.26794860  0.99717825  0.41969019
   0.22718577  0.49766954  0.29318964
   0.76854851  0.48120700  0.55047824
   0.21238492  0.98088471  0.54350875
   0.23416393  0.50214576  0.54914449
   0.75068684  0.98227699  0.54364355
   0.72558567  0.08103944  0.61663437
   0.18796857  0.24303587  0.60056355
   0.35446805  0.48738618  0.27144965
   0.25816528  0.46508405  0.57468882
   0.67210036  0.15169046  0.63827870
   0.06527126  0.19616555  0.61710385
Direct configuration=    22
   0.00058986  0.24767071  0.29147031
   0.49305682  0.74618241  0.41681489
   0.49287760  0.24680768  0.41657001
   0.00058986  0.74767011  0.29147031
   0.75058982  0.49766954  0.35292815
   0.74014450  0.99851545  0.48194935
   0.25059042  0.49766954  0.35292815
   0.23989317  0.99725680  0.48291138
   0.99618298  0.99740097  0.38536662
   0.51480552  0.49912326  0.51344919
   0.99557869  0.49257668  0.44950258
   0.50058925  0.99767067  0.32219910
   0.98408324  0.22484014  0.55268215
   0.98102294  0.73489357  0.54372353
   0.47592231  0.04707091  0.58166690
   0.99038892  0.22367097  0.48489650
   0.50058925  0.72426545  0.35464748
   0.50058925  0.27107537  0.35464748
   0.98856911  0.76399622  0.48536542
   0.77399447  0.49766954  0.29318964
   0.72319361  0.99783771  0.42032196
   0.48906062  0.22687155  0.47908818
   0.00058986  0.72426545  0.35120881
   0.00058986  0.27107537  0.35120881
   0.48993357  0.76903841  0.47874717
   0.72156498  0.49608267  0.41471440
   0.77399447  0.99767067  0.28975097
   0.26487751  0.49615401  0.41374430
   0.22718577  0.99767067  0.28975097
   0.26794860  0.99717825  0.41969019
   0.22718577  0.49766954  0.29318964
   0.76854851  0.48120700  0.55047824
   0.21238492  0.98088471  0.54350875
   0.23416393  0.50214576  0.54914449
   0.75068684  0.98227699  0.54364355
   0.72558567  0.08103944  0.61663437
   0.18796857  0.24303587  0.60056355
   0.35446805  0.48738618  0.27144965
   0.25816528  0.46508405  0.57468882
   0.67210036  0.15169046  0.63827870
   0.06527126  0.19616555  0.61710385
Direct configuration=    23
   0.00058986  0.24767071  0.29147031
   0.49305682  0.74618241  0.41681489
   0.49287760  0.24680768  0.41657001
   0.00058986  0.74767011  0.29147031
   0.75058982  0.49766954  0.35292815
   0.74014450  0.99851545  0.48194935
   0.25059042  0.49766954  0.35292815
   0.23989317  0.99725680  0.48291138
   0.99618298  0.99740097  0.38536662
   0.51480552  0.49912326  0.51344919
   0.99557869  0.49257668  0.44950258
   0.50058925  0.99767067  0.32219910
   0.98408324  0.22484014  0.55268215
   0.98102294  0.73489357  0.54372353
   0.47592231  0.04707091  0.58166690
   0.99038892  0.22367097  0.48489650
   0.50058925  0.72426545  0.35464748
   0.50058925  0.27107537  0.35464748
   0.98856911  0.76399622  0.48536542
   0.77399447  0.49766954  0.29318964
   0.72319361  0.99783771  0.42032196
   0.48906062  0.22687155  0.47908818
   0.00058986  0.72426545  0.35120881
   0.00058986  0.27107537  0.35120881
   0.48993357  0.76903841  0.47874717
   0.72156498  0.49608267  0.41471440
   0.77399447  0.99767067  0.28975097
   0.26487751  0.49615401  0.41374430
   0.22718577  0.99767067  0.28975097
   0.26794860  0.99717825  0.41969019
   0.22718577  0.49766954  0.29318964
   0.76854851  0.48120700  0.55047824
   0.21238492  0.98088471  0.54350875
   0.23416393  0.50214576  0.54914449
   0.75068684  0.98227699  0.54364355
   0.72558567  0.08103944  0.61663437
   0.18796857  0.24303587  0.60056355
   0.35446805  0.48738618  0.27144965
   0.25816528  0.46508405  0.57468882
   0.67210036  0.15169046  0.63827870
   0.06527126  0.19616555  0.61710385
Direct configuration=    24
   0.00058986  0.24767071  0.29147031
   0.49305682  0.74618241  0.41681489
   0.49287760  0.24680768  0.41657001
   0.00058986  0.74767011  0.29147031
   0.75058982  0.49766954  0.35292815
   0.74014450  0.99851545  0.48194935
   0.25059042  0.49766954  0.35292815
   0.23989317  0.99725680  0.48291138
   0.99618298  0.99740097  0.38536662
   0.51480552  0.49912326  0.51344919
   0.99557869  0.49257668  0.44950258
   0.50058925  0.99767067  0.32219910
   0.98408324  0.22484014  0.55268215
   0.98102294  0.73489357  0.54372353
   0.47592231  0.04707091  0.58166690
   0.99038892  0.22367097  0.48489650
   0.50058925  0.72426545  0.35464748
   0.50058925  0.27107537  0.35464748
   0.98856911  0.76399622  0.48536542
   0.77399447  0.49766954  0.29318964
   0.72319361  0.99783771  0.42032196
   0.48906062  0.22687155  0.47908818
   0.00058986  0.72426545  0.35120881
   0.00058986  0.27107537  0.35120881
   0.48993357  0.76903841  0.47874717
   0.72156498  0.49608267  0.41471440
   0.77399447  0.99767067  0.28975097
   0.26487751  0.49615401  0.41374430
   0.22718577  0.99767067  0.28975097
   0.26794860  0.99717825  0.41969019
   0.22718577  0.49766954  0.29318964
   0.76854851  0.48120700  0.55047824
   0.21238492  0.98088471  0.54350875
   0.23416393  0.50214576  0.54914449
   0.75068684  0.98227699  0.54364355
   0.72558567  0.08103944  0.61663437
   0.18796857  0.24303587  0.60056355
   0.35446805  0.48738618  0.27144965
   0.25816528  0.46508405  0.57468882
   0.67210036  0.15169046  0.63827870
   0.06527126  0.19616555  0.61710385
Direct configuration=    25
   0.00058986  0.24767071  0.29147031
   0.49305682  0.74618241  0.41681489
   0.49287760  0.24680768  0.41657001
   0.00058986  0.74767011  0.29147031
   0.75058982  0.49766954  0.35292815
   0.74014450  0.99851545  0.48194935
   0.25059042  0.49766954  0.35292815
   0.23989317  0.99725680  0.48291138
   0.99618298  0.99740097  0.38536662
   0.51480552  0.49912326  0.51344919
   0.99557869  0.49257668  0.44950258
   0.50058925  0.99767067  0.32219910
   0.98408324  0.22484014  0.55268215
   0.98102294  0.73489357  0.54372353
   0.47592231  0.04707091  0.58166690
   0.99038892  0.22367097  0.48489650
   0.50058925  0.72426545  0.35464748
   0.50058925  0.27107537  0.35464748
   0.98856911  0.76399622  0.48536542
   0.77399447  0.49766954  0.29318964
   0.72319361  0.99783771  0.42032196
   0.48906062  0.22687155  0.47908818
   0.00058986  0.72426545  0.35120881
   0.00058986  0.27107537  0.35120881
   0.48993357  0.76903841  0.47874717
   0.72156498  0.49608267  0.41471440
   0.77399447  0.99767067  0.28975097
   0.26487751  0.49615401  0.41374430
   0.22718577  0.99767067  0.28975097
   0.26794860  0.99717825  0.41969019
   0.22718577  0.49766954  0.29318964
   0.76854851  0.48120700  0.55047824
   0.21238492  0.98088471  0.54350875
   0.23416393  0.50214576  0.54914449
   0.75068684  0.98227699  0.54364355
   0.72558567  0.08103944  0.61663437
   0.18796857  0.24303587  0.60056355
   0.35446805  0.48738618  0.27144965
   0.25816528  0.46508405  0.57468882
   0.67210036  0.15169046  0.63827870
   0.06527126  0.19616555  0.61710385
Direct configuration=    26
   0.00058986  0.24767071  0.29147031
   0.49305682  0.74618241  0.41681489
   0.49287760  0.24680768  0.41657001
   0.00058986  0.74767011  0.29147031
   0.75058982  0.49766954  0.35292815
   0.74014450  0.99851545  0.48194935
   0.25059042  0.49766954  0.35292815
   0.23989317  0.99725680  0.48291138
   0.99618298  0.99740097  0.38536662
   0.51480552  0.49912326  0.51344919
   0.99557869  0.49257668  0.44950258
   0.50058925  0.99767067  0.32219910
   0.98408324  0.22484014  0.55268215
   0.98102294  0.73489357  0.54372353
   0.47592231  0.04707091  0.58166690
   0.99038892  0.22367097  0.48489650
   0.50058925  0.72426545  0.35464748
   0.50058925  0.27107537  0.35464748
   0.98856911  0.76399622  0.48536542
   0.77399447  0.49766954  0.29318964
   0.72319361  0.99783771  0.42032196
   0.48906062  0.22687155  0.47908818
   0.00058986  0.72426545  0.35120881
   0.00058986  0.27107537  0.35120881
   0.48993357  0.76903841  0.47874717
   0.72156498  0.49608267  0.41471440
   0.77399447  0.99767067  0.28975097
   0.26487751  0.49615401  0.41374430
   0.22718577  0.99767067  0.28975097
   0.26794860  0.99717825  0.41969019
   0.22718577  0.49766954  0.29318964
   0.76854851  0.48120700  0.55047824
   0.21238492  0.98088471  0.54350875
   0.23416393  0.50214576  0.54914449
   0.75068684  0.98227699  0.54364355
   0.72558567  0.08103944  0.61663437
   0.18796857  0.24303587  0.60056355
   0.35446805  0.48738618  0.27144965
   0.25816528  0.46508405  0.57468882
   0.67210036  0.15169046  0.63827870
   0.06527126  0.19616555  0.61710385
Direct configuration=    27
   0.00058986  0.24767071  0.29147031
   0.49305682  0.74618241  0.41681489
   0.49287760  0.24680768  0.41657001
   0.00058986  0.74767011  0.29147031
   0.75058982  0.49766954  0.35292815
   0.74014450  0.99851545  0.48194935
   0.25059042  0.49766954  0.35292815
   0.23989317  0.99725680  0.48291138
   0.99618298  0.99740097  0.38536662
   0.51480552  0.49912326  0.51344919
   0.99557869  0.49257668  0.44950258
   0.50058925  0.99767067  0.32219910
   0.98408324  0.22484014  0.55268215
   0.98102294  0.73489357  0.54372353
   0.47592231  0.04707091  0.58166690
   0.99038892  0.22367097  0.48489650
   0.50058925  0.72426545  0.35464748
   0.50058925  0.27107537  0.35464748
   0.98856911  0.76399622  0.48536542
   0.77399447  0.49766954  0.29318964
   0.72319361  0.99783771  0.42032196
   0.48906062  0.22687155  0.47908818
   0.00058986  0.72426545  0.35120881
   0.00058986  0.27107537  0.35120881
   0.48993357  0.76903841  0.47874717
   0.72156498  0.49608267  0.41471440
   0.77399447  0.99767067  0.28975097
   0.26487751  0.49615401  0.41374430
   0.22718577  0.99767067  0.28975097
   0.26794860  0.99717825  0.41969019
   0.22718577  0.49766954  0.29318964
   0.76854851  0.48120700  0.55047824
   0.21238492  0.98088471  0.54350875
   0.23416393  0.50214576  0.54914449
   0.75068684  0.98227699  0.54364355
   0.72558567  0.08103944  0.61663437
   0.18796857  0.24303587  0.60056355
   0.35446805  0.48738618  0.27144965
   0.25816528  0.46508405  0.57468882
   0.67210036  0.15169046  0.63827870
   0.06527126  0.19616555  0.61710385
Direct configuration=    28
   0.00058986  0.24767071  0.29147031
   0.49305682  0.74618241  0.41681489
   0.49287760  0.24680768  0.41657001
   0.00058986  0.74767011  0.29147031
   0.75058982  0.49766954  0.35292815
   0.74014450  0.99851545  0.48194935
   0.25059042  0.49766954  0.35292815
   0.23989317  0.99725680  0.48291138
   0.99618298  0.99740097  0.38536662
   0.51480552  0.49912326  0.51344919
   0.99557869  0.49257668  0.44950258
   0.50058925  0.99767067  0.32219910
   0.98408324  0.22484014  0.55268215
   0.98102294  0.73489357  0.54372353
   0.47592231  0.04707091  0.58166690
   0.99038892  0.22367097  0.48489650
   0.50058925  0.72426545  0.35464748
   0.50058925  0.27107537  0.35464748
   0.98856911  0.76399622  0.48536542
   0.77399447  0.49766954  0.29318964
   0.72319361  0.99783771  0.42032196
   0.48906062  0.22687155  0.47908818
   0.00058986  0.72426545  0.35120881
   0.00058986  0.27107537  0.35120881
   0.48993357  0.76903841  0.47874717
   0.72156498  0.49608267  0.41471440
   0.77399447  0.99767067  0.28975097
   0.26487751  0.49615401  0.41374430
   0.22718577  0.99767067  0.28975097
   0.26794860  0.99717825  0.41969019
   0.22718577  0.49766954  0.29318964
   0.76854851  0.48120700  0.55047824
   0.21238492  0.98088471  0.54350875
   0.23416393  0.50214576  0.54914449
   0.75068684  0.98227699  0.54364355
   0.72558567  0.08103944  0.61663437
   0.18796857  0.24303587  0.60056355
   0.35446805  0.48738618  0.27144965
   0.25816528  0.46508405  0.57468882
   0.67210036  0.15169046  0.63827870
   0.06527126  0.19616555  0.61710385
Direct configuration=    29
   0.00058986  0.24767071  0.29147031
   0.49305682  0.74618241  0.41681489
   0.49287760  0.24680768  0.41657001
   0.00058986  0.74767011  0.29147031
   0.75058982  0.49766954  0.35292815
   0.74014450  0.99851545  0.48194935
   0.25059042  0.49766954  0.35292815
   0.23989317  0.99725680  0.48291138
   0.99618298  0.99740097  0.38536662
   0.51480552  0.49912326  0.51344919
   0.99557869  0.49257668  0.44950258
   0.50058925  0.99767067  0.32219910
   0.98408324  0.22484014  0.55268215
   0.98102294  0.73489357  0.54372353
   0.47592231  0.04707091  0.58166690
   0.99038892  0.22367097  0.48489650
   0.50058925  0.72426545  0.35464748
   0.50058925  0.27107537  0.35464748
   0.98856911  0.76399622  0.48536542
   0.77399447  0.49766954  0.29318964
   0.72319361  0.99783771  0.42032196
   0.48906062  0.22687155  0.47908818
   0.00058986  0.72426545  0.35120881
   0.00058986  0.27107537  0.35120881
   0.48993357  0.76903841  0.47874717
   0.72156498  0.49608267  0.41471440
   0.77399447  0.99767067  0.28975097
   0.26487751  0.49615401  0.41374430
   0.22718577  0.99767067  0.28975097
   0.26794860  0.99717825  0.41969019
   0.22718577  0.49766954  0.29318964
   0.76854851  0.48120700  0.55047824
   0.21238492  0.98088471  0.54350875
   0.23416393  0.50214576  0.54914449
   0.75068684  0.98227699  0.54364355
   0.72558567  0.08103944  0.61663437
   0.18796857  0.24303587  0.60056355
   0.35446805  0.48738618  0.27144965
   0.25816528  0.46508405  0.57468882
   0.67210036  0.15169046  0.63827870
   0.06527126  0.19616555  0.61710385
Direct configuration=    30
   0.00058986  0.24767071  0.29147031
   0.49305682  0.74618241  0.41681489
   0.49287760  0.24680768  0.41657001
   0.00058986  0.74767011  0.29147031
   0.75058982  0.49766954  0.35292815
   0.74014450  0.99851545  0.48194935
   0.25059042  0.49766954  0.35292815
   0.23989317  0.99725680  0.48291138
   0.99618298  0.99740097  0.38536662
   0.51480552  0.49912326  0.51344919
   0.99557869  0.49257668  0.44950258
   0.50058925  0.99767067  0.32219910
   0.98408324  0.22484014  0.55268215
   0.98102294  0.73489357  0.54372353
   0.47592231  0.04707091  0.58166690
   0.99038892  0.22367097  0.48489650
   0.50058925  0.72426545  0.35464748
   0.50058925  0.27107537  0.35464748
   0.98856911  0.76399622  0.48536542
   0.77399447  0.49766954  0.29318964
   0.72319361  0.99783771  0.42032196
   0.48906062  0.22687155  0.47908818
   0.00058986  0.72426545  0.35120881
   0.00058986  0.27107537  0.35120881
   0.48993357  0.76903841  0.47874717
   0.72156498  0.49608267  0.41471440
   0.77399447  0.99767067  0.28975097
   0.26487751  0.49615401  0.41374430
   0.22718577  0.99767067  0.28975097
   0.26794860  0.99717825  0.41969019
   0.22718577  0.49766954  0.29318964
   0.76854851  0.48120700  0.55047824
   0.21238492  0.98088471  0.54350875
   0.23416393  0.50214576  0.54914449
   0.75068684  0.98227699  0.54364355
   0.72558567  0.08103944  0.61663437
   0.18796857  0.24303587  0.60056355
   0.35446805  0.48738618  0.27144965
   0.25816528  0.46508405  0.57468882
   0.67210036  0.15169046  0.63827870
   0.06527126  0.19616555  0.61710385
Direct configuration=    31
   0.00058986  0.24767071  0.29147031
   0.49305682  0.74618241  0.41681489
   0.49287760  0.24680768  0.41657001
   0.00058986  0.74767011  0.29147031
   0.75058982  0.49766954  0.35292815
   0.74014450  0.99851545  0.48194935
   0.25059042  0.49766954  0.35292815
   0.23989317  0.99725680  0.48291138
   0.99618298  0.99740097  0.38536662
   0.51480552  0.49912326  0.51344919
   0.99557869  0.49257668  0.44950258
   0.50058925  0.99767067  0.32219910
   0.98408324  0.22484014  0.55268215
   0.98102294  0.73489357  0.54372353
   0.47592231  0.04707091  0.58166690
   0.99038892  0.22367097  0.48489650
   0.50058925  0.72426545  0.35464748
   0.50058925  0.27107537  0.35464748
   0.98856911  0.76399622  0.48536542
   0.77399447  0.49766954  0.29318964
   0.72319361  0.99783771  0.42032196
   0.48906062  0.22687155  0.47908818
   0.00058986  0.72426545  0.35120881
   0.00058986  0.27107537  0.35120881
   0.48993357  0.76903841  0.47874717
   0.72156498  0.49608267  0.41471440
   0.77399447  0.99767067  0.28975097
   0.26487751  0.49615401  0.41374430
   0.22718577  0.99767067  0.28975097
   0.26794860  0.99717825  0.41969019
   0.22718577  0.49766954  0.29318964
   0.76854851  0.48120700  0.55047824
   0.21238492  0.98088471  0.54350875
   0.23416393  0.50214576  0.54914449
   0.75068684  0.98227699  0.54364355
   0.72558567  0.08103944  0.61663437
   0.18796857  0.24303587  0.60056355
   0.35446805  0.48738618  0.27144965
   0.25816528  0.46508405  0.57468882
   0.67210036  0.15169046  0.63827870
   0.06527126  0.19616555  0.61710385
Direct configuration=    32
   0.00058986  0.24767071  0.29147031
   0.49305682  0.74618241  0.41681489
   0.49287760  0.24680768  0.41657001
   0.00058986  0.74767011  0.29147031
   0.75058982  0.49766954  0.35292815
   0.74014450  0.99851545  0.48194935
   0.25059042  0.49766954  0.35292815
   0.23989317  0.99725680  0.48291138
   0.99618298  0.99740097  0.38536662
   0.51480552  0.49912326  0.51344919
   0.99557869  0.49257668  0.44950258
   0.50058925  0.99767067  0.32219910
   0.98408324  0.22484014  0.55268215
   0.98102294  0.73489357  0.54372353
   0.47592231  0.04707091  0.58166690
   0.99038892  0.22367097  0.48489650
   0.50058925  0.72426545  0.35464748
   0.50058925  0.27107537  0.35464748
   0.98856911  0.76399622  0.48536542
   0.77399447  0.49766954  0.29318964
   0.72319361  0.99783771  0.42032196
   0.48906062  0.22687155  0.47908818
   0.00058986  0.72426545  0.35120881
   0.00058986  0.27107537  0.35120881
   0.48993357  0.76903841  0.47874717
   0.72156498  0.49608267  0.41471440
   0.77399447  0.99767067  0.28975097
   0.26487751  0.49615401  0.41374430
   0.22718577  0.99767067  0.28975097
   0.26794860  0.99717825  0.41969019
   0.22718577  0.49766954  0.29318964
   0.76854851  0.48120700  0.55047824
   0.21238492  0.98088471  0.54350875
   0.23416393  0.50214576  0.54914449
   0.75068684  0.98227699  0.54364355
   0.72558567  0.08103944  0.61663437
   0.18796857  0.24303587  0.60056355
   0.35446805  0.48738618  0.27144965
   0.25816528  0.46508405  0.57468882
   0.67210036  0.15169046  0.63827870
   0.06527126  0.19616555  0.61710385
Direct configuration=    33
   0.00058986  0.24767071  0.29147031
   0.49305682  0.74618241  0.41681489
   0.49287760  0.24680768  0.41657001
   0.00058986  0.74767011  0.29147031
   0.75058982  0.49766954  0.35292815
   0.74014450  0.99851545  0.48194935
   0.25059042  0.49766954  0.35292815
   0.23989317  0.99725680  0.48291138
   0.99618298  0.99740097  0.38536662
   0.51480552  0.49912326  0.51344919
   0.99557869  0.49257668  0.44950258
   0.50058925  0.99767067  0.32219910
   0.98408324  0.22484014  0.55268215
   0.98102294  0.73489357  0.54372353
   0.47592231  0.04707091  0.58166690
   0.99038892  0.22367097  0.48489650
   0.50058925  0.72426545  0.35464748
   0.50058925  0.27107537  0.35464748
   0.98856911  0.76399622  0.48536542
   0.77399447  0.49766954  0.29318964
   0.72319361  0.99783771  0.42032196
   0.48906062  0.22687155  0.47908818
   0.00058986  0.72426545  0.35120881
   0.00058986  0.27107537  0.35120881
   0.48993357  0.76903841  0.47874717
   0.72156498  0.49608267  0.41471440
   0.77399447  0.99767067  0.28975097
   0.26487751  0.49615401  0.41374430
   0.22718577  0.99767067  0.28975097
   0.26794860  0.99717825  0.41969019
   0.22718577  0.49766954  0.29318964
   0.76854851  0.48120700  0.55047824
   0.21238492  0.98088471  0.54350875
   0.23416393  0.50214576  0.54914449
   0.75068684  0.98227699  0.54364355
   0.72558567  0.08103944  0.61663437
   0.18796857  0.24303587  0.60056355
   0.35446805  0.48738618  0.27144965
   0.25816528  0.46508405  0.57468882
   0.67210036  0.15169046  0.63827870
   0.06527126  0.19616555  0.61710385
Direct configuration=    34
   0.00058986  0.24767071  0.29147031
   0.49305682  0.74618241  0.41681489
   0.49287760  0.24680768  0.41657001
   0.00058986  0.74767011  0.29147031
   0.75058982  0.49766954  0.35292815
   0.74014450  0.99851545  0.48194935
   0.25059042  0.49766954  0.35292815
   0.23989317  0.99725680  0.48291138
   0.99618298  0.99740097  0.38536662
   0.51480552  0.49912326  0.51344919
   0.99557869  0.49257668  0.44950258
   0.50058925  0.99767067  0.32219910
   0.98408324  0.22484014  0.55268215
   0.98102294  0.73489357  0.54372353
   0.47592231  0.04707091  0.58166690
   0.99038892  0.22367097  0.48489650
   0.50058925  0.72426545  0.35464748
   0.50058925  0.27107537  0.35464748
   0.98856911  0.76399622  0.48536542
   0.77399447  0.49766954  0.29318964
   0.72319361  0.99783771  0.42032196
   0.48906062  0.22687155  0.47908818
   0.00058986  0.72426545  0.35120881
   0.00058986  0.27107537  0.35120881
   0.48993357  0.76903841  0.47874717
   0.72156498  0.49608267  0.41471440
   0.77399447  0.99767067  0.28975097
   0.26487751  0.49615401  0.41374430
   0.22718577  0.99767067  0.28975097
   0.26794860  0.99717825  0.41969019
   0.22718577  0.49766954  0.29318964
   0.76854851  0.48120700  0.55047824
   0.21238492  0.98088471  0.54350875
   0.23416393  0.50214576  0.54914449
   0.75068684  0.98227699  0.54364355
   0.72558567  0.08103944  0.61663437
   0.18796857  0.24303587  0.60056355
   0.35446805  0.48738618  0.27144965
   0.25816528  0.46508405  0.57468882
   0.67210036  0.15169046  0.63827870
   0.06527126  0.19616555  0.61710385
Direct configuration=    35
   0.00058986  0.24767071  0.29147031
   0.49305682  0.74618241  0.41681489
   0.49287760  0.24680768  0.41657001
   0.00058986  0.74767011  0.29147031
   0.75058982  0.49766954  0.35292815
   0.74014450  0.99851545  0.48194935
   0.25059042  0.49766954  0.35292815
   0.23989317  0.99725680  0.48291138
   0.99618298  0.99740097  0.38536662
   0.51480552  0.49912326  0.51344919
   0.99557869  0.49257668  0.44950258
   0.50058925  0.99767067  0.32219910
   0.98408324  0.22484014  0.55268215
   0.98102294  0.73489357  0.54372353
   0.47592231  0.04707091  0.58166690
   0.99038892  0.22367097  0.48489650
   0.50058925  0.72426545  0.35464748
   0.50058925  0.27107537  0.35464748
   0.98856911  0.76399622  0.48536542
   0.77399447  0.49766954  0.29318964
   0.72319361  0.99783771  0.42032196
   0.48906062  0.22687155  0.47908818
   0.00058986  0.72426545  0.35120881
   0.00058986  0.27107537  0.35120881
   0.48993357  0.76903841  0.47874717
   0.72156498  0.49608267  0.41471440
   0.77399447  0.99767067  0.28975097
   0.26487751  0.49615401  0.41374430
   0.22718577  0.99767067  0.28975097
   0.26794860  0.99717825  0.41969019
   0.22718577  0.49766954  0.29318964
   0.76854851  0.48120700  0.55047824
   0.21238492  0.98088471  0.54350875
   0.23416393  0.50214576  0.54914449
   0.75068684  0.98227699  0.54364355
   0.72558567  0.08103944  0.61663437
   0.18796857  0.24303587  0.60056355
   0.35446805  0.48738618  0.27144965
   0.25816528  0.46508405  0.57468882
   0.67210036  0.15169046  0.63827870
   0.06527126  0.19616555  0.61710385
Direct configuration=    36
   0.00058986  0.24767071  0.29147031
   0.49305682  0.74618241  0.41681489
   0.49287760  0.24680768  0.41657001
   0.00058986  0.74767011  0.29147031
   0.75058982  0.49766954  0.35292815
   0.74014450  0.99851545  0.48194935
   0.25059042  0.49766954  0.35292815
   0.23989317  0.99725680  0.48291138
   0.99618298  0.99740097  0.38536662
   0.51480552  0.49912326  0.51344919
   0.99557869  0.49257668  0.44950258
   0.50058925  0.99767067  0.32219910
   0.98408324  0.22484014  0.55268215
   0.98102294  0.73489357  0.54372353
   0.47592231  0.04707091  0.58166690
   0.99038892  0.22367097  0.48489650
   0.50058925  0.72426545  0.35464748
   0.50058925  0.27107537  0.35464748
   0.98856911  0.76399622  0.48536542
   0.77399447  0.49766954  0.29318964
   0.72319361  0.99783771  0.42032196
   0.48906062  0.22687155  0.47908818
   0.00058986  0.72426545  0.35120881
   0.00058986  0.27107537  0.35120881
   0.48993357  0.76903841  0.47874717
   0.72156498  0.49608267  0.41471440
   0.77399447  0.99767067  0.28975097
   0.26487751  0.49615401  0.41374430
   0.22718577  0.99767067  0.28975097
   0.26794860  0.99717825  0.41969019
   0.22718577  0.49766954  0.29318964
   0.76854851  0.48120700  0.55047824
   0.21238492  0.98088471  0.54350875
   0.23416393  0.50214576  0.54914449
   0.75068684  0.98227699  0.54364355
   0.72558567  0.08103944  0.61663437
   0.18796857  0.24303587  0.60056355
   0.35446805  0.48738618  0.27144965
   0.25816528  0.46508405  0.57468882
   0.67210036  0.15169046  0.63827870
   0.06527126  0.19616555  0.61710385
Direct configuration=    37
   0.00058986  0.24767071  0.29147031
   0.49305682  0.74618241  0.41681489
   0.49287760  0.24680768  0.41657001
   0.00058986  0.74767011  0.29147031
   0.75058982  0.49766954  0.35292815
   0.74014450  0.99851545  0.48194935
   0.25059042  0.49766954  0.35292815
   0.23989317  0.99725680  0.48291138
   0.99618298  0.99740097  0.38536662
   0.51480552  0.49912326  0.51344919
   0.99557869  0.49257668  0.44950258
   0.50058925  0.99767067  0.32219910
   0.98408324  0.22484014  0.55268215
   0.98102294  0.73489357  0.54372353
   0.47592231  0.04707091  0.58166690
   0.99038892  0.22367097  0.48489650
   0.50058925  0.72426545  0.35464748
   0.50058925  0.27107537  0.35464748
   0.98856911  0.76399622  0.48536542
   0.77399447  0.49766954  0.29318964
   0.72319361  0.99783771  0.42032196
   0.48906062  0.22687155  0.47908818
   0.00058986  0.72426545  0.35120881
   0.00058986  0.27107537  0.35120881
   0.48993357  0.76903841  0.47874717
   0.72156498  0.49608267  0.41471440
   0.77399447  0.99767067  0.28975097
   0.26487751  0.49615401  0.41374430
   0.22718577  0.99767067  0.28975097
   0.26794860  0.99717825  0.41969019
   0.22718577  0.49766954  0.29318964
   0.76854851  0.48120700  0.55047824
   0.21238492  0.98088471  0.54350875
   0.23416393  0.50214576  0.54914449
   0.75068684  0.98227699  0.54364355
   0.72558567  0.08103944  0.61663437
   0.18796857  0.24303587  0.60056355
   0.35446805  0.48738618  0.27144965
   0.25816528  0.46508405  0.57468882
   0.67210036  0.15169046  0.63827870
   0.06527126  0.19616555  0.61710385
Direct configuration=    38
   0.00058986  0.24767071  0.29147031
   0.49305682  0.74618241  0.41681489
   0.49287760  0.24680768  0.41657001
   0.00058986  0.74767011  0.29147031
   0.75058982  0.49766954  0.35292815
   0.74014450  0.99851545  0.48194935
   0.25059042  0.49766954  0.35292815
   0.23989317  0.99725680  0.48291138
   0.99618298  0.99740097  0.38536662
   0.51480552  0.49912326  0.51344919
   0.99557869  0.49257668  0.44950258
   0.50058925  0.99767067  0.32219910
   0.98408324  0.22484014  0.55268215
   0.98102294  0.73489357  0.54372353
   0.47592231  0.04707091  0.58166690
   0.99038892  0.22367097  0.48489650
   0.50058925  0.72426545  0.35464748
   0.50058925  0.27107537  0.35464748
   0.98856911  0.76399622  0.48536542
   0.77399447  0.49766954  0.29318964
   0.72319361  0.99783771  0.42032196
   0.48906062  0.22687155  0.47908818
   0.00058986  0.72426545  0.35120881
   0.00058986  0.27107537  0.35120881
   0.48993357  0.76903841  0.47874717
   0.72156498  0.49608267  0.41471440
   0.77399447  0.99767067  0.28975097
   0.26487751  0.49615401  0.41374430
   0.22718577  0.99767067  0.28975097
   0.26794860  0.99717825  0.41969019
   0.22718577  0.49766954  0.29318964
   0.76854851  0.48120700  0.55047824
   0.21238492  0.98088471  0.54350875
   0.23416393  0.50214576  0.54914449
   0.75068684  0.98227699  0.54364355
   0.72558567  0.08103944  0.61663437
   0.18796857  0.24303587  0.60056355
   0.35446805  0.48738618  0.27144965
   0.25816528  0.46508405  0.57468882
   0.67210036  0.15169046  0.63827870
   0.06527126  0.19616555  0.61710385
Direct configuration=    39
   0.00058986  0.24767071  0.29147031
   0.49305682  0.74618241  0.41681489
   0.49287760  0.24680768  0.41657001
   0.00058986  0.74767011  0.29147031
   0.75058982  0.49766954  0.35292815
   0.74014450  0.99851545  0.48194935
   0.25059042  0.49766954  0.35292815
   0.23989317  0.99725680  0.48291138
   0.99618298  0.99740097  0.38536662
   0.51480552  0.49912326  0.51344919
   0.99557869  0.49257668  0.44950258
   0.50058925  0.99767067  0.32219910
   0.98408324  0.22484014  0.55268215
   0.98102294  0.73489357  0.54372353
   0.47592231  0.04707091  0.58166690
   0.99038892  0.22367097  0.48489650
   0.50058925  0.72426545  0.35464748
   0.50058925  0.27107537  0.35464748
   0.98856911  0.76399622  0.48536542
   0.77399447  0.49766954  0.29318964
   0.72319361  0.99783771  0.42032196
   0.48906062  0.22687155  0.47908818
   0.00058986  0.72426545  0.35120881
   0.00058986  0.27107537  0.35120881
   0.48993357  0.76903841  0.47874717
   0.72156498  0.49608267  0.41471440
   0.77399447  0.99767067  0.28975097
   0.26487751  0.49615401  0.41374430
   0.22718577  0.99767067  0.28975097
   0.26794860  0.99717825  0.41969019
   0.22718577  0.49766954  0.29318964
   0.76854851  0.48120700  0.55047824
   0.21238492  0.98088471  0.54350875
   0.23416393  0.50214576  0.54914449
   0.75068684  0.98227699  0.54364355
   0.72558567  0.08103944  0.61663437
   0.18796857  0.24303587  0.60056355
   0.35446805  0.48738618  0.27144965
   0.25816528  0.46508405  0.57468882
   0.67210036  0.15169046  0.63827870
   0.06527126  0.19616555  0.61710385
Direct configuration=    40
   0.00058986  0.24767071  0.29147031
   0.49305682  0.74618241  0.41681489
   0.49287760  0.24680768  0.41657001
   0.00058986  0.74767011  0.29147031
   0.75058982  0.49766954  0.35292815
   0.74014450  0.99851545  0.48194935
   0.25059042  0.49766954  0.35292815
   0.23989317  0.99725680  0.48291138
   0.99618298  0.99740097  0.38536662
   0.51480552  0.49912326  0.51344919
   0.99557869  0.49257668  0.44950258
   0.50058925  0.99767067  0.32219910
   0.98408324  0.22484014  0.55268215
   0.98102294  0.73489357  0.54372353
   0.47592231  0.04707091  0.58166690
   0.99038892  0.22367097  0.48489650
   0.50058925  0.72426545  0.35464748
   0.50058925  0.27107537  0.35464748
   0.98856911  0.76399622  0.48536542
   0.77399447  0.49766954  0.29318964
   0.72319361  0.99783771  0.42032196
   0.48906062  0.22687155  0.47908818
   0.00058986  0.72426545  0.35120881
   0.00058986  0.27107537  0.35120881
   0.48993357  0.76903841  0.47874717
   0.72156498  0.49608267  0.41471440
   0.77399447  0.99767067  0.28975097
   0.26487751  0.49615401  0.41374430
   0.22718577  0.99767067  0.28975097
   0.26794860  0.99717825  0.41969019
   0.22718577  0.49766954  0.29318964
   0.76854851  0.48120700  0.55047824
   0.21238492  0.98088471  0.54350875
   0.23416393  0.50214576  0.54914449
   0.75068684  0.98227699  0.54364355
   0.72558567  0.08103944  0.61663437
   0.18796857  0.24303587  0.60056355
   0.35446805  0.48738618  0.27144965
   0.25816528  0.46508405  0.57468882
   0.67210036  0.15169046  0.63827870
   0.06527126  0.19616555  0.61710385
Direct configuration=    41
   0.00058986  0.24767071  0.29147031
   0.49305682  0.74618241  0.41681489
   0.49287760  0.24680768  0.41657001
   0.00058986  0.74767011  0.29147031
   0.75058982  0.49766954  0.35292815
   0.74014450  0.99851545  0.48194935
   0.25059042  0.49766954  0.35292815
   0.23989317  0.99725680  0.48291138
   0.99618298  0.99740097  0.38536662
   0.51480552  0.49912326  0.51344919
   0.99557869  0.49257668  0.44950258
   0.50058925  0.99767067  0.32219910
   0.98408324  0.22484014  0.55268215
   0.98102294  0.73489357  0.54372353
   0.47592231  0.04707091  0.58166690
   0.99038892  0.22367097  0.48489650
   0.50058925  0.72426545  0.35464748
   0.50058925  0.27107537  0.35464748
   0.98856911  0.76399622  0.48536542
   0.77399447  0.49766954  0.29318964
   0.72319361  0.99783771  0.42032196
   0.48906062  0.22687155  0.47908818
   0.00058986  0.72426545  0.35120881
   0.00058986  0.27107537  0.35120881
   0.48993357  0.76903841  0.47874717
   0.72156498  0.49608267  0.41471440
   0.77399447  0.99767067  0.28975097
   0.26487751  0.49615401  0.41374430
   0.22718577  0.99767067  0.28975097
   0.26794860  0.99717825  0.41969019
   0.22718577  0.49766954  0.29318964
   0.76854851  0.48120700  0.55047824
   0.21238492  0.98088471  0.54350875
   0.23416393  0.50214576  0.54914449
   0.75068684  0.98227699  0.54364355
   0.72558567  0.08103944  0.61663437
   0.18796857  0.24303587  0.60056355
   0.35446805  0.48738618  0.27144965
   0.25816528  0.46508405  0.57468882
   0.67210036  0.15169046  0.63827870
   0.06527126  0.19616555  0.61710385
Direct configuration=    42
   0.00058986  0.24767071  0.29147031
   0.49305682  0.74618241  0.41681489
   0.49287760  0.24680768  0.41657001
   0.00058986  0.74767011  0.29147031
   0.75058982  0.49766954  0.35292815
   0.74014450  0.99851545  0.48194935
   0.25059042  0.49766954  0.35292815
   0.23989317  0.99725680  0.48291138
   0.99618298  0.99740097  0.38536662
   0.51480552  0.49912326  0.51344919
   0.99557869  0.49257668  0.44950258
   0.50058925  0.99767067  0.32219910
   0.98408324  0.22484014  0.55268215
   0.98102294  0.73489357  0.54372353
   0.47592231  0.04707091  0.58166690
   0.99038892  0.22367097  0.48489650
   0.50058925  0.72426545  0.35464748
   0.50058925  0.27107537  0.35464748
   0.98856911  0.76399622  0.48536542
   0.77399447  0.49766954  0.29318964
   0.72319361  0.99783771  0.42032196
   0.48906062  0.22687155  0.47908818
   0.00058986  0.72426545  0.35120881
   0.00058986  0.27107537  0.35120881
   0.48993357  0.76903841  0.47874717
   0.72156498  0.49608267  0.41471440
   0.77399447  0.99767067  0.28975097
   0.26487751  0.49615401  0.41374430
   0.22718577  0.99767067  0.28975097
   0.26794860  0.99717825  0.41969019
   0.22718577  0.49766954  0.29318964
   0.76854851  0.48120700  0.55047824
   0.21238492  0.98088471  0.54350875
   0.23416393  0.50214576  0.54914449
   0.75068684  0.98227699  0.54364355
   0.72558567  0.08103944  0.61663437
   0.18796857  0.24303587  0.60056355
   0.35446805  0.48738618  0.27144965
   0.25816528  0.46508405  0.57468882
   0.67210036  0.15169046  0.63827870
   0.06527126  0.19616555  0.61710385
Direct configuration=    43
   0.00058986  0.24767071  0.29147031
   0.49305682  0.74618241  0.41681489
   0.49287760  0.24680768  0.41657001
   0.00058986  0.74767011  0.29147031
   0.75058982  0.49766954  0.35292815
   0.74014450  0.99851545  0.48194935
   0.25059042  0.49766954  0.35292815
   0.23989317  0.99725680  0.48291138
   0.99618298  0.99740097  0.38536662
   0.51480552  0.49912326  0.51344919
   0.99557869  0.49257668  0.44950258
   0.50058925  0.99767067  0.32219910
   0.98408324  0.22484014  0.55268215
   0.98102294  0.73489357  0.54372353
   0.47592231  0.04707091  0.58166690
   0.99038892  0.22367097  0.48489650
   0.50058925  0.72426545  0.35464748
   0.50058925  0.27107537  0.35464748
   0.98856911  0.76399622  0.48536542
   0.77399447  0.49766954  0.29318964
   0.72319361  0.99783771  0.42032196
   0.48906062  0.22687155  0.47908818
   0.00058986  0.72426545  0.35120881
   0.00058986  0.27107537  0.35120881
   0.48993357  0.76903841  0.47874717
   0.72156498  0.49608267  0.41471440
   0.77399447  0.99767067  0.28975097
   0.26487751  0.49615401  0.41374430
   0.22718577  0.99767067  0.28975097
   0.26794860  0.99717825  0.41969019
   0.22718577  0.49766954  0.29318964
   0.76854851  0.48120700  0.55047824
   0.21238492  0.98088471  0.54350875
   0.23416393  0.50214576  0.54914449
   0.75068684  0.98227699  0.54364355
   0.72558567  0.08103944  0.61663437
   0.18796857  0.24303587  0.60056355
   0.35446805  0.48738618  0.27144965
   0.25816528  0.46508405  0.57468882
   0.67210036  0.15169046  0.63827870
   0.06527126  0.19616555  0.61710385
Direct configuration=    44
   0.00058986  0.24767071  0.29147031
   0.49305682  0.74618241  0.41681489
   0.49287760  0.24680768  0.41657001
   0.00058986  0.74767011  0.29147031
   0.75058982  0.49766954  0.35292815
   0.74014450  0.99851545  0.48194935
   0.25059042  0.49766954  0.35292815
   0.23989317  0.99725680  0.48291138
   0.99618298  0.99740097  0.38536662
   0.51480552  0.49912326  0.51344919
   0.99557869  0.49257668  0.44950258
   0.50058925  0.99767067  0.32219910
   0.98408324  0.22484014  0.55268215
   0.98102294  0.73489357  0.54372353
   0.47592231  0.04707091  0.58166690
   0.99038892  0.22367097  0.48489650
   0.50058925  0.72426545  0.35464748
   0.50058925  0.27107537  0.35464748
   0.98856911  0.76399622  0.48536542
   0.77399447  0.49766954  0.29318964
   0.72319361  0.99783771  0.42032196
   0.48906062  0.22687155  0.47908818
   0.00058986  0.72426545  0.35120881
   0.00058986  0.27107537  0.35120881
   0.48993357  0.76903841  0.47874717
   0.72156498  0.49608267  0.41471440
   0.77399447  0.99767067  0.28975097
   0.26487751  0.49615401  0.41374430
   0.22718577  0.99767067  0.28975097
   0.26794860  0.99717825  0.41969019
   0.22718577  0.49766954  0.29318964
   0.76854851  0.48120700  0.55047824
   0.21238492  0.98088471  0.54350875
   0.23416393  0.50214576  0.54914449
   0.75068684  0.98227699  0.54364355
   0.72558567  0.08103944  0.61663437
   0.18796857  0.24303587  0.60056355
   0.35446805  0.48738618  0.27144965
   0.25816528  0.46508405  0.57468882
   0.67210036  0.15169046  0.63827870
   0.06527126  0.19616555  0.61710385
Direct configuration=    45
   0.00058986  0.24767071  0.29147031
   0.49305682  0.74618241  0.41681489
   0.49287760  0.24680768  0.41657001
   0.00058986  0.74767011  0.29147031
   0.75058982  0.49766954  0.35292815
   0.74014450  0.99851545  0.48194935
   0.25059042  0.49766954  0.35292815
   0.23989317  0.99725680  0.48291138
   0.99618298  0.99740097  0.38536662
   0.51480552  0.49912326  0.51344919
   0.99557869  0.49257668  0.44950258
   0.50058925  0.99767067  0.32219910
   0.98408324  0.22484014  0.55268215
   0.98102294  0.73489357  0.54372353
   0.47592231  0.04707091  0.58166690
   0.99038892  0.22367097  0.48489650
   0.50058925  0.72426545  0.35464748
   0.50058925  0.27107537  0.35464748
   0.98856911  0.76399622  0.48536542
   0.77399447  0.49766954  0.29318964
   0.72319361  0.99783771  0.42032196
   0.48906062  0.22687155  0.47908818
   0.00058986  0.72426545  0.35120881
   0.00058986  0.27107537  0.35120881
   0.48993357  0.76903841  0.47874717
   0.72156498  0.49608267  0.41471440
   0.77399447  0.99767067  0.28975097
   0.26487751  0.49615401  0.41374430
   0.22718577  0.99767067  0.28975097
   0.26794860  0.99717825  0.41969019
   0.22718577  0.49766954  0.29318964
   0.76854851  0.48120700  0.55047824
   0.21238492  0.98088471  0.54350875
   0.23416393  0.50214576  0.54914449
   0.75068684  0.98227699  0.54364355
   0.72558567  0.08103944  0.61663437
   0.18796857  0.24303587  0.60056355
   0.35446805  0.48738618  0.27144965
   0.25816528  0.46508405  0.57468882
   0.67210036  0.15169046  0.63827870
   0.06527126  0.19616555  0.61710385
Direct configuration=    46
   0.00058986  0.24767071  0.29147031
   0.49305682  0.74618241  0.41681489
   0.49287760  0.24680768  0.41657001
   0.00058986  0.74767011  0.29147031
   0.75058982  0.49766954  0.35292815
   0.74014450  0.99851545  0.48194935
   0.25059042  0.49766954  0.35292815
   0.23989317  0.99725680  0.48291138
   0.99618298  0.99740097  0.38536662
   0.51480552  0.49912326  0.51344919
   0.99557869  0.49257668  0.44950258
   0.50058925  0.99767067  0.32219910
   0.98408324  0.22484014  0.55268215
   0.98102294  0.73489357  0.54372353
   0.47592231  0.04707091  0.58166690
   0.99038892  0.22367097  0.48489650
   0.50058925  0.72426545  0.35464748
   0.50058925  0.27107537  0.35464748
   0.98856911  0.76399622  0.48536542
   0.77399447  0.49766954  0.29318964
   0.72319361  0.99783771  0.42032196
   0.48906062  0.22687155  0.47908818
   0.00058986  0.72426545  0.35120881
   0.00058986  0.27107537  0.35120881
   0.48993357  0.76903841  0.47874717
   0.72156498  0.49608267  0.41471440
   0.77399447  0.99767067  0.28975097
   0.26487751  0.49615401  0.41374430
   0.22718577  0.99767067  0.28975097
   0.26794860  0.99717825  0.41969019
   0.22718577  0.49766954  0.29318964
   0.76854851  0.48120700  0.55047824
   0.21238492  0.98088471  0.54350875
   0.23416393  0.50214576  0.54914449
   0.75068684  0.98227699  0.54364355
   0.72558567  0.08103944  0.61663437
   0.18796857  0.24303587  0.60056355
   0.35446805  0.48738618  0.27144965
   0.25816528  0.46508405  0.57468882
   0.67210036  0.15169046  0.63827870
   0.06527126  0.19616555  0.61710385
Direct configuration=    47
   0.00058986  0.24767071  0.29147031
   0.49305682  0.74618241  0.41681489
   0.49287760  0.24680768  0.41657001
   0.00058986  0.74767011  0.29147031
   0.75058982  0.49766954  0.35292815
   0.74014450  0.99851545  0.48194935
   0.25059042  0.49766954  0.35292815
   0.23989317  0.99725680  0.48291138
   0.99618298  0.99740097  0.38536662
   0.51480552  0.49912326  0.51344919
   0.99557869  0.49257668  0.44950258
   0.50058925  0.99767067  0.32219910
   0.98408324  0.22484014  0.55268215
   0.98102294  0.73489357  0.54372353
   0.47592231  0.04707091  0.58166690
   0.99038892  0.22367097  0.48489650
   0.50058925  0.72426545  0.35464748
   0.50058925  0.27107537  0.35464748
   0.98856911  0.76399622  0.48536542
   0.77399447  0.49766954  0.29318964
   0.72319361  0.99783771  0.42032196
   0.48906062  0.22687155  0.47908818
   0.00058986  0.72426545  0.35120881
   0.00058986  0.27107537  0.35120881
   0.48993357  0.76903841  0.47874717
   0.72156498  0.49608267  0.41471440
   0.77399447  0.99767067  0.28975097
   0.26487751  0.49615401  0.41374430
   0.22718577  0.99767067  0.28975097
   0.26794860  0.99717825  0.41969019
   0.22718577  0.49766954  0.29318964
   0.76854851  0.48120700  0.55047824
   0.21238492  0.98088471  0.54350875
   0.23416393  0.50214576  0.54914449
   0.75068684  0.98227699  0.54364355
   0.72558567  0.08103944  0.61663437
   0.18796857  0.24303587  0.60056355
   0.35446805  0.48738618  0.27144965
   0.25816528  0.46508405  0.57468882
   0.67210036  0.15169046  0.63827870
   0.06527126  0.19616555  0.61710385
Direct configuration=    48
   0.00058986  0.24767071  0.29147031
   0.49305682  0.74618241  0.41681489
   0.49287760  0.24680768  0.41657001
   0.00058986  0.74767011  0.29147031
   0.75058982  0.49766954  0.35292815
   0.74014450  0.99851545  0.48194935
   0.25059042  0.49766954  0.35292815
   0.23989317  0.99725680  0.48291138
   0.99618298  0.99740097  0.38536662
   0.51480552  0.49912326  0.51344919
   0.99557869  0.49257668  0.44950258
   0.50058925  0.99767067  0.32219910
   0.98408324  0.22484014  0.55268215
   0.98102294  0.73489357  0.54372353
   0.47592231  0.04707091  0.58166690
   0.99038892  0.22367097  0.48489650
   0.50058925  0.72426545  0.35464748
   0.50058925  0.27107537  0.35464748
   0.98856911  0.76399622  0.48536542
   0.77399447  0.49766954  0.29318964
   0.72319361  0.99783771  0.42032196
   0.48906062  0.22687155  0.47908818
   0.00058986  0.72426545  0.35120881
   0.00058986  0.27107537  0.35120881
   0.48993357  0.76903841  0.47874717
   0.72156498  0.49608267  0.41471440
   0.77399447  0.99767067  0.28975097
   0.26487751  0.49615401  0.41374430
   0.22718577  0.99767067  0.28975097
   0.26794860  0.99717825  0.41969019
   0.22718577  0.49766954  0.29318964
   0.76854851  0.48120700  0.55047824
   0.21238492  0.98088471  0.54350875
   0.23416393  0.50214576  0.54914449
   0.75068684  0.98227699  0.54364355
   0.72558567  0.08103944  0.61663437
   0.18796857  0.24303587  0.60056355
   0.35446805  0.48738618  0.27144965
   0.25816528  0.46508405  0.57468882
   0.67210036  0.15169046  0.63827870
   0.06527126  0.19616555  0.61710385
Direct configuration=    49
   0.00058986  0.24767071  0.29147031
   0.49305682  0.74618241  0.41681489
   0.49287760  0.24680768  0.41657001
   0.00058986  0.74767011  0.29147031
   0.75058982  0.49766954  0.35292815
   0.74014450  0.99851545  0.48194935
   0.25059042  0.49766954  0.35292815
   0.23989317  0.99725680  0.48291138
   0.99618298  0.99740097  0.38536662
   0.51480552  0.49912326  0.51344919
   0.99557869  0.49257668  0.44950258
   0.50058925  0.99767067  0.32219910
   0.98408324  0.22484014  0.55268215
   0.98102294  0.73489357  0.54372353
   0.47592231  0.04707091  0.58166690
   0.99038892  0.22367097  0.48489650
   0.50058925  0.72426545  0.35464748
   0.50058925  0.27107537  0.35464748
   0.98856911  0.76399622  0.48536542
   0.77399447  0.49766954  0.29318964
   0.72319361  0.99783771  0.42032196
   0.48906062  0.22687155  0.47908818
   0.00058986  0.72426545  0.35120881
   0.00058986  0.27107537  0.35120881
   0.48993357  0.76903841  0.47874717
   0.72156498  0.49608267  0.41471440
   0.77399447  0.99767067  0.28975097
   0.26487751  0.49615401  0.41374430
   0.22718577  0.99767067  0.28975097
   0.26794860  0.99717825  0.41969019
   0.22718577  0.49766954  0.29318964
   0.76854851  0.48120700  0.55047824
   0.21238492  0.98088471  0.54350875
   0.23416393  0.50214576  0.54914449
   0.75068684  0.98227699  0.54364355
   0.72558567  0.08103944  0.61663437
   0.18796857  0.24303587  0.60056355
   0.35446805  0.48738618  0.27144965
   0.25816528  0.46508405  0.57468882
   0.67210036  0.15169046  0.63827870
   0.06527126  0.19616555  0.61710385
Direct configuration=    50
   0.00058986  0.24767071  0.29147031
   0.49305682  0.74618241  0.41681489
   0.49287760  0.24680768  0.41657001
   0.00058986  0.74767011  0.29147031
   0.75058982  0.49766954  0.35292815
   0.74014450  0.99851545  0.48194935
   0.25059042  0.49766954  0.35292815
   0.23989317  0.99725680  0.48291138
   0.99618298  0.99740097  0.38536662
   0.51480552  0.49912326  0.51344919
   0.99557869  0.49257668  0.44950258
   0.50058925  0.99767067  0.32219910
   0.98408324  0.22484014  0.55268215
   0.98102294  0.73489357  0.54372353
   0.47592231  0.04707091  0.58166690
   0.99038892  0.22367097  0.48489650
   0.50058925  0.72426545  0.35464748
   0.50058925  0.27107537  0.35464748
   0.98856911  0.76399622  0.48536542
   0.77399447  0.49766954  0.29318964
   0.72319361  0.99783771  0.42032196
   0.48906062  0.22687155  0.47908818
   0.00058986  0.72426545  0.35120881
   0.00058986  0.27107537  0.35120881
   0.48993357  0.76903841  0.47874717
   0.72156498  0.49608267  0.41471440
   0.77399447  0.99767067  0.28975097
   0.26487751  0.49615401  0.41374430
   0.22718577  0.99767067  0.28975097
   0.26794860  0.99717825  0.41969019
   0.22718577  0.49766954  0.29318964
   0.76854851  0.48120700  0.55047824
   0.21238492  0.98088471  0.54350875
   0.23416393  0.50214576  0.54914449
   0.75068684  0.98227699  0.54364355
   0.72558567  0.08103944  0.61663437
   0.18796857  0.24303587  0.60056355
   0.35446805  0.48738618  0.27144965
   0.25816528  0.46508405  0.57468882
   0.67210036  0.15169046  0.63827870
   0.06527126  0.19616555  0.61710385
Direct configuration=    51
   0.00058986  0.24767071  0.29147031
   0.49305682  0.74618241  0.41681489
   0.49287760  0.24680768  0.41657001
   0.00058986  0.74767011  0.29147031
   0.75058982  0.49766954  0.35292815
   0.74014450  0.99851545  0.48194935
   0.25059042  0.49766954  0.35292815
   0.23989317  0.99725680  0.48291138
   0.99618298  0.99740097  0.38536662
   0.51480552  0.49912326  0.51344919
   0.99557869  0.49257668  0.44950258
   0.50058925  0.99767067  0.32219910
   0.98408324  0.22484014  0.55268215
   0.98102294  0.73489357  0.54372353
   0.47592231  0.04707091  0.58166690
   0.99038892  0.22367097  0.48489650
   0.50058925  0.72426545  0.35464748
   0.50058925  0.27107537  0.35464748
   0.98856911  0.76399622  0.48536542
   0.77399447  0.49766954  0.29318964
   0.72319361  0.99783771  0.42032196
   0.48906062  0.22687155  0.47908818
   0.00058986  0.72426545  0.35120881
   0.00058986  0.27107537  0.35120881
   0.48993357  0.76903841  0.47874717
   0.72156498  0.49608267  0.41471440
   0.77399447  0.99767067  0.28975097
   0.26487751  0.49615401  0.41374430
   0.22718577  0.99767067  0.28975097
   0.26794860  0.99717825  0.41969019
   0.22718577  0.49766954  0.29318964
   0.76854851  0.48120700  0.55047824
   0.21238492  0.98088471  0.54350875
   0.23416393  0.50214576  0.54914449
   0.75068684  0.98227699  0.54364355
   0.72558567  0.08103944  0.61663437
   0.18796857  0.24303587  0.60056355
   0.35446805  0.48738618  0.27144965
   0.25816528  0.46508405  0.57468882
   0.67210036  0.15169046  0.63827870
   0.06527126  0.19616555  0.61710385
Direct configuration=    52
   0.00058986  0.24767071  0.29147031
   0.49305682  0.74618241  0.41681489
   0.49287760  0.24680768  0.41657001
   0.00058986  0.74767011  0.29147031
   0.75058982  0.49766954  0.35292815
   0.74014450  0.99851545  0.48194935
   0.25059042  0.49766954  0.35292815
   0.23989317  0.99725680  0.48291138
   0.99618298  0.99740097  0.38536662
   0.51480552  0.49912326  0.51344919
   0.99557869  0.49257668  0.44950258
   0.50058925  0.99767067  0.32219910
   0.98408324  0.22484014  0.55268215
   0.98102294  0.73489357  0.54372353
   0.47592231  0.04707091  0.58166690
   0.99038892  0.22367097  0.48489650
   0.50058925  0.72426545  0.35464748
   0.50058925  0.27107537  0.35464748
   0.98856911  0.76399622  0.48536542
   0.77399447  0.49766954  0.29318964
   0.72319361  0.99783771  0.42032196
   0.48906062  0.22687155  0.47908818
   0.00058986  0.72426545  0.35120881
   0.00058986  0.27107537  0.35120881
   0.48993357  0.76903841  0.47874717
   0.72156498  0.49608267  0.41471440
   0.77399447  0.99767067  0.28975097
   0.26487751  0.49615401  0.41374430
   0.22718577  0.99767067  0.28975097
   0.26794860  0.99717825  0.41969019
   0.22718577  0.49766954  0.29318964
   0.76854851  0.48120700  0.55047824
   0.21238492  0.98088471  0.54350875
   0.23416393  0.50214576  0.54914449
   0.75068684  0.98227699  0.54364355
   0.72558567  0.08103944  0.61663437
   0.18796857  0.24303587  0.60056355
   0.35446805  0.48738618  0.27144965
   0.25816528  0.46508405  0.57468882
   0.67210036  0.15169046  0.63827870
   0.06527126  0.19616555  0.61710385
Direct configuration=    53
   0.00058986  0.24767071  0.29147031
   0.49305682  0.74618241  0.41681489
   0.49287760  0.24680768  0.41657001
   0.00058986  0.74767011  0.29147031
   0.75058982  0.49766954  0.35292815
   0.74014450  0.99851545  0.48194935
   0.25059042  0.49766954  0.35292815
   0.23989317  0.99725680  0.48291138
   0.99618298  0.99740097  0.38536662
   0.51480552  0.49912326  0.51344919
   0.99557869  0.49257668  0.44950258
   0.50058925  0.99767067  0.32219910
   0.98408324  0.22484014  0.55268215
   0.98102294  0.73489357  0.54372353
   0.47592231  0.04707091  0.58166690
   0.99038892  0.22367097  0.48489650
   0.50058925  0.72426545  0.35464748
   0.50058925  0.27107537  0.35464748
   0.98856911  0.76399622  0.48536542
   0.77399447  0.49766954  0.29318964
   0.72319361  0.99783771  0.42032196
   0.48906062  0.22687155  0.47908818
   0.00058986  0.72426545  0.35120881
   0.00058986  0.27107537  0.35120881
   0.48993357  0.76903841  0.47874717
   0.72156498  0.49608267  0.41471440
   0.77399447  0.99767067  0.28975097
   0.26487751  0.49615401  0.41374430
   0.22718577  0.99767067  0.28975097
   0.26794860  0.99717825  0.41969019
   0.22718577  0.49766954  0.29318964
   0.76854851  0.48120700  0.55047824
   0.21238492  0.98088471  0.54350875
   0.23416393  0.50214576  0.54914449
   0.75068684  0.98227699  0.54364355
   0.72558567  0.08103944  0.61663437
   0.18796857  0.24303587  0.60056355
   0.35446805  0.48738618  0.27144965
   0.25816528  0.46508405  0.57468882
   0.67210036  0.15169046  0.63827870
   0.06527126  0.19616555  0.61710385
Direct configuration=    54
   0.00058986  0.24767071  0.29147031
   0.49305682  0.74618241  0.41681489
   0.49287760  0.24680768  0.41657001
   0.00058986  0.74767011  0.29147031
   0.75058982  0.49766954  0.35292815
   0.74014450  0.99851545  0.48194935
   0.25059042  0.49766954  0.35292815
   0.23989317  0.99725680  0.48291138
   0.99618298  0.99740097  0.38536662
   0.51480552  0.49912326  0.51344919
   0.99557869  0.49257668  0.44950258
   0.50058925  0.99767067  0.32219910
   0.98408324  0.22484014  0.55268215
   0.98102294  0.73489357  0.54372353
   0.47592231  0.04707091  0.58166690
   0.99038892  0.22367097  0.48489650
   0.50058925  0.72426545  0.35464748
   0.50058925  0.27107537  0.35464748
   0.98856911  0.76399622  0.48536542
   0.77399447  0.49766954  0.29318964
   0.72319361  0.99783771  0.42032196
   0.48906062  0.22687155  0.47908818
   0.00058986  0.72426545  0.35120881
   0.00058986  0.27107537  0.35120881
   0.48993357  0.76903841  0.47874717
   0.72156498  0.49608267  0.41471440
   0.77399447  0.99767067  0.28975097
   0.26487751  0.49615401  0.41374430
   0.22718577  0.99767067  0.28975097
   0.26794860  0.99717825  0.41969019
   0.22718577  0.49766954  0.29318964
   0.76854851  0.48120700  0.55047824
   0.21238492  0.98088471  0.54350875
   0.23416393  0.50214576  0.54914449
   0.75068684  0.98227699  0.54364355
   0.72558567  0.08103944  0.61663437
   0.18796857  0.24303587  0.60056355
   0.35446805  0.48738618  0.27144965
   0.25816528  0.46508405  0.57468882
   0.67210036  0.15169046  0.63827870
   0.06527126  0.19616555  0.61710385
Direct configuration=    55
   0.00058986  0.24767071  0.29147031
   0.49305682  0.74618241  0.41681489
   0.49287760  0.24680768  0.41657001
   0.00058986  0.74767011  0.29147031
   0.75058982  0.49766954  0.35292815
   0.74014450  0.99851545  0.48194935
   0.25059042  0.49766954  0.35292815
   0.23989317  0.99725680  0.48291138
   0.99618298  0.99740097  0.38536662
   0.51480552  0.49912326  0.51344919
   0.99557869  0.49257668  0.44950258
   0.50058925  0.99767067  0.32219910
   0.98408324  0.22484014  0.55268215
   0.98102294  0.73489357  0.54372353
   0.47592231  0.04707091  0.58166690
   0.99038892  0.22367097  0.48489650
   0.50058925  0.72426545  0.35464748
   0.50058925  0.27107537  0.35464748
   0.98856911  0.76399622  0.48536542
   0.77399447  0.49766954  0.29318964
   0.72319361  0.99783771  0.42032196
   0.48906062  0.22687155  0.47908818
   0.00058986  0.72426545  0.35120881
   0.00058986  0.27107537  0.35120881
   0.48993357  0.76903841  0.47874717
   0.72156498  0.49608267  0.41471440
   0.77399447  0.99767067  0.28975097
   0.26487751  0.49615401  0.41374430
   0.22718577  0.99767067  0.28975097
   0.26794860  0.99717825  0.41969019
   0.22718577  0.49766954  0.29318964
   0.76854851  0.48120700  0.55047824
   0.21238492  0.98088471  0.54350875
   0.23416393  0.50214576  0.54914449
   0.75068684  0.98227699  0.54364355
   0.72558567  0.08103944  0.61663437
   0.18796857  0.24303587  0.60056355
   0.35446805  0.48738618  0.27144965
   0.25816528  0.46508405  0.57468882
   0.67210036  0.15169046  0.63827870
   0.06527126  0.19616555  0.61710385
Direct configuration=    56
   0.00058986  0.24767071  0.29147031
   0.49305682  0.74618241  0.41681489
   0.49287760  0.24680768  0.41657001
   0.00058986  0.74767011  0.29147031
   0.75058982  0.49766954  0.35292815
   0.74014450  0.99851545  0.48194935
   0.25059042  0.49766954  0.35292815
   0.23989317  0.99725680  0.48291138
   0.99618298  0.99740097  0.38536662
   0.51480552  0.49912326  0.51344919
   0.99557869  0.49257668  0.44950258
   0.50058925  0.99767067  0.32219910
   0.98408324  0.22484014  0.55268215
   0.98102294  0.73489357  0.54372353
   0.47592231  0.04707091  0.58166690
   0.99038892  0.22367097  0.48489650
   0.50058925  0.72426545  0.35464748
   0.50058925  0.27107537  0.35464748
   0.98856911  0.76399622  0.48536542
   0.77399447  0.49766954  0.29318964
   0.72319361  0.99783771  0.42032196
   0.48906062  0.22687155  0.47908818
   0.00058986  0.72426545  0.35120881
   0.00058986  0.27107537  0.35120881
   0.48993357  0.76903841  0.47874717
   0.72156498  0.49608267  0.41471440
   0.77399447  0.99767067  0.28975097
   0.26487751  0.49615401  0.41374430
   0.22718577  0.99767067  0.28975097
   0.26794860  0.99717825  0.41969019
   0.22718577  0.49766954  0.29318964
   0.76854851  0.48120700  0.55047824
   0.21238492  0.98088471  0.54350875
   0.23416393  0.50214576  0.54914449
   0.75068684  0.98227699  0.54364355
   0.72558567  0.08103944  0.61663437
   0.18796857  0.24303587  0.60056355
   0.35446805  0.48738618  0.27144965
   0.25816528  0.46508405  0.57468882
   0.67210036  0.15169046  0.63827870
   0.06527126  0.19616555  0.61710385
Direct configuration=    57
   0.00058986  0.24767071  0.29147031
   0.49305682  0.74618241  0.41681489
   0.49287760  0.24680768  0.41657001
   0.00058986  0.74767011  0.29147031
   0.75058982  0.49766954  0.35292815
   0.74014450  0.99851545  0.48194935
   0.25059042  0.49766954  0.35292815
   0.23989317  0.99725680  0.48291138
   0.99618298  0.99740097  0.38536662
   0.51480552  0.49912326  0.51344919
   0.99557869  0.49257668  0.44950258
   0.50058925  0.99767067  0.32219910
   0.98408324  0.22484014  0.55268215
   0.98102294  0.73489357  0.54372353
   0.47592231  0.04707091  0.58166690
   0.99038892  0.22367097  0.48489650
   0.50058925  0.72426545  0.35464748
   0.50058925  0.27107537  0.35464748
   0.98856911  0.76399622  0.48536542
   0.77399447  0.49766954  0.29318964
   0.72319361  0.99783771  0.42032196
   0.48906062  0.22687155  0.47908818
   0.00058986  0.72426545  0.35120881
   0.00058986  0.27107537  0.35120881
   0.48993357  0.76903841  0.47874717
   0.72156498  0.49608267  0.41471440
   0.77399447  0.99767067  0.28975097
   0.26487751  0.49615401  0.41374430
   0.22718577  0.99767067  0.28975097
   0.26794860  0.99717825  0.41969019
   0.22718577  0.49766954  0.29318964
   0.76854851  0.48120700  0.55047824
   0.21238492  0.98088471  0.54350875
   0.23416393  0.50214576  0.54914449
   0.75068684  0.98227699  0.54364355
   0.72558567  0.08103944  0.61663437
   0.18796857  0.24303587  0.60056355
   0.35446805  0.48738618  0.27144965
   0.25816528  0.46508405  0.57468882
   0.67210036  0.15169046  0.63827870
   0.06527126  0.19616555  0.61710385
Direct configuration=    58
   0.00058986  0.24767071  0.29147031
   0.49305682  0.74618241  0.41681489
   0.49287760  0.24680768  0.41657001
   0.00058986  0.74767011  0.29147031
   0.75058982  0.49766954  0.35292815
   0.74014450  0.99851545  0.48194935
   0.25059042  0.49766954  0.35292815
   0.23989317  0.99725680  0.48291138
   0.99618298  0.99740097  0.38536662
   0.51480552  0.49912326  0.51344919
   0.99557869  0.49257668  0.44950258
   0.50058925  0.99767067  0.32219910
   0.98408324  0.22484014  0.55268215
   0.98102294  0.73489357  0.54372353
   0.47592231  0.04707091  0.58166690
   0.99038892  0.22367097  0.48489650
   0.50058925  0.72426545  0.35464748
   0.50058925  0.27107537  0.35464748
   0.98856911  0.76399622  0.48536542
   0.77399447  0.49766954  0.29318964
   0.72319361  0.99783771  0.42032196
   0.48906062  0.22687155  0.47908818
   0.00058986  0.72426545  0.35120881
   0.00058986  0.27107537  0.35120881
   0.48993357  0.76903841  0.47874717
   0.72156498  0.49608267  0.41471440
   0.77399447  0.99767067  0.28975097
   0.26487751  0.49615401  0.41374430
   0.22718577  0.99767067  0.28975097
   0.26794860  0.99717825  0.41969019
   0.22718577  0.49766954  0.29318964
   0.76854851  0.48120700  0.55047824
   0.21238492  0.98088471  0.54350875
   0.23416393  0.50214576  0.54914449
   0.75068684  0.98227699  0.54364355
   0.72558567  0.08103944  0.61663437
   0.18796857  0.24303587  0.60056355
   0.35446805  0.48738618  0.27144965
   0.25816528  0.46508405  0.57468882
   0.67210036  0.15169046  0.63827870
   0.06527126  0.19616555  0.61710385
Direct configuration=    59
   0.00058986  0.24767071  0.29147031
   0.49305682  0.74618241  0.41681489
   0.49287760  0.24680768  0.41657001
   0.00058986  0.74767011  0.29147031
   0.75058982  0.49766954  0.35292815
   0.74014450  0.99851545  0.48194935
   0.25059042  0.49766954  0.35292815
   0.23989317  0.99725680  0.48291138
   0.99618298  0.99740097  0.38536662
   0.51480552  0.49912326  0.51344919
   0.99557869  0.49257668  0.44950258
   0.50058925  0.99767067  0.32219910
   0.98408324  0.22484014  0.55268215
   0.98102294  0.73489357  0.54372353
   0.47592231  0.04707091  0.58166690
   0.99038892  0.22367097  0.48489650
   0.50058925  0.72426545  0.35464748
   0.50058925  0.27107537  0.35464748
   0.98856911  0.76399622  0.48536542
   0.77399447  0.49766954  0.29318964
   0.72319361  0.99783771  0.42032196
   0.48906062  0.22687155  0.47908818
   0.00058986  0.72426545  0.35120881
   0.00058986  0.27107537  0.35120881
   0.48993357  0.76903841  0.47874717
   0.72156498  0.49608267  0.41471440
   0.77399447  0.99767067  0.28975097
   0.26487751  0.49615401  0.41374430
   0.22718577  0.99767067  0.28975097
   0.26794860  0.99717825  0.41969019
   0.22718577  0.49766954  0.29318964
   0.76854851  0.48120700  0.55047824
   0.21238492  0.98088471  0.54350875
   0.23416393  0.50214576  0.54914449
   0.75068684  0.98227699  0.54364355
   0.72558567  0.08103944  0.61663437
   0.18796857  0.24303587  0.60056355
   0.35446805  0.48738618  0.27144965
   0.25816528  0.46508405  0.57468882
   0.67210036  0.15169046  0.63827870
   0.06527126  0.19616555  0.61710385
Direct configuration=    60
   0.00058986  0.24767071  0.29147031
   0.49305682  0.74618241  0.41681489
   0.49287760  0.24680768  0.41657001
   0.00058986  0.74767011  0.29147031
   0.75058982  0.49766954  0.35292815
   0.74014450  0.99851545  0.48194935
   0.25059042  0.49766954  0.35292815
   0.23989317  0.99725680  0.48291138
   0.99618298  0.99740097  0.38536662
   0.51480552  0.49912326  0.51344919
   0.99557869  0.49257668  0.44950258
   0.50058925  0.99767067  0.32219910
   0.98408324  0.22484014  0.55268215
   0.98102294  0.73489357  0.54372353
   0.47592231  0.04707091  0.58166690
   0.99038892  0.22367097  0.48489650
   0.50058925  0.72426545  0.35464748
   0.50058925  0.27107537  0.35464748
   0.98856911  0.76399622  0.48536542
   0.77399447  0.49766954  0.29318964
   0.72319361  0.99783771  0.42032196
   0.48906062  0.22687155  0.47908818
   0.00058986  0.72426545  0.35120881
   0.00058986  0.27107537  0.35120881
   0.48993357  0.76903841  0.47874717
   0.72156498  0.49608267  0.41471440
   0.77399447  0.99767067  0.28975097
   0.26487751  0.49615401  0.41374430
   0.22718577  0.99767067  0.28975097
   0.26794860  0.99717825  0.41969019
   0.22718577  0.49766954  0.29318964
   0.76854851  0.48120700  0.55047824
   0.21238492  0.98088471  0.54350875
   0.23416393  0.50214576  0.54914449
   0.75068684  0.98227699  0.54364355
   0.72558567  0.08103944  0.61663437
   0.18796857  0.24303587  0.60056355
   0.35446805  0.48738618  0.27144965
   0.25816528  0.46508405  0.57468882
   0.67210036  0.15169046  0.63827870
   0.06527126  0.19616555  0.61710385
Direct configuration=    61
   0.00058986  0.24767071  0.29147031
   0.49305682  0.74618241  0.41681489
   0.49287760  0.24680768  0.41657001
   0.00058986  0.74767011  0.29147031
   0.75058982  0.49766954  0.35292815
   0.74014450  0.99851545  0.48194935
   0.25059042  0.49766954  0.35292815
   0.23989317  0.99725680  0.48291138
   0.99618298  0.99740097  0.38536662
   0.51480552  0.49912326  0.51344919
   0.99557869  0.49257668  0.44950258
   0.50058925  0.99767067  0.32219910
   0.98408324  0.22484014  0.55268215
   0.98102294  0.73489357  0.54372353
   0.47592231  0.04707091  0.58166690
   0.99038892  0.22367097  0.48489650
   0.50058925  0.72426545  0.35464748
   0.50058925  0.27107537  0.35464748
   0.98856911  0.76399622  0.48536542
   0.77399447  0.49766954  0.29318964
   0.72319361  0.99783771  0.42032196
   0.48906062  0.22687155  0.47908818
   0.00058986  0.72426545  0.35120881
   0.00058986  0.27107537  0.35120881
   0.48993357  0.76903841  0.47874717
   0.72156498  0.49608267  0.41471440
   0.77399447  0.99767067  0.28975097
   0.26487751  0.49615401  0.41374430
   0.22718577  0.99767067  0.28975097
   0.26794860  0.99717825  0.41969019
   0.22718577  0.49766954  0.29318964
   0.76854851  0.48120700  0.55047824
   0.21238492  0.98088471  0.54350875
   0.23416393  0.50214576  0.54914449
   0.75068684  0.98227699  0.54364355
   0.72558567  0.08103944  0.61663437
   0.18796857  0.24303587  0.60056355
   0.35446805  0.48738618  0.27144965
   0.25816528  0.46508405  0.57468882
   0.67210036  0.15169046  0.63827870
   0.06527126  0.19616555  0.61710385
Direct configuration=    62
   0.00058986  0.24767071  0.29147031
   0.49305682  0.74618241  0.41681489
   0.49287760  0.24680768  0.41657001
   0.00058986  0.74767011  0.29147031
   0.75058982  0.49766954  0.35292815
   0.74014450  0.99851545  0.48194935
   0.25059042  0.49766954  0.35292815
   0.23989317  0.99725680  0.48291138
   0.99618298  0.99740097  0.38536662
   0.51480552  0.49912326  0.51344919
   0.99557869  0.49257668  0.44950258
   0.50058925  0.99767067  0.32219910
   0.98408324  0.22484014  0.55268215
   0.98102294  0.73489357  0.54372353
   0.47592231  0.04707091  0.58166690
   0.99038892  0.22367097  0.48489650
   0.50058925  0.72426545  0.35464748
   0.50058925  0.27107537  0.35464748
   0.98856911  0.76399622  0.48536542
   0.77399447  0.49766954  0.29318964
   0.72319361  0.99783771  0.42032196
   0.48906062  0.22687155  0.47908818
   0.00058986  0.72426545  0.35120881
   0.00058986  0.27107537  0.35120881
   0.48993357  0.76903841  0.47874717
   0.72156498  0.49608267  0.41471440
   0.77399447  0.99767067  0.28975097
   0.26487751  0.49615401  0.41374430
   0.22718577  0.99767067  0.28975097
   0.26794860  0.99717825  0.41969019
   0.22718577  0.49766954  0.29318964
   0.76854851  0.48120700  0.55047824
   0.21238492  0.98088471  0.54350875
   0.23416393  0.50214576  0.54914449
   0.75068684  0.98227699  0.54364355
   0.72558567  0.08103944  0.61663437
   0.18796857  0.24303587  0.60056355
   0.35446805  0.48738618  0.27144965
   0.25816528  0.46508405  0.57468882
   0.67210036  0.15169046  0.63827870
   0.06527126  0.19616555  0.61710385
Direct configuration=    63
   0.00058986  0.24767071  0.29147031
   0.49305682  0.74618241  0.41681489
   0.49287760  0.24680768  0.41657001
   0.00058986  0.74767011  0.29147031
   0.75058982  0.49766954  0.35292815
   0.74014450  0.99851545  0.48194935
   0.25059042  0.49766954  0.35292815
   0.23989317  0.99725680  0.48291138
   0.99618298  0.99740097  0.38536662
   0.51480552  0.49912326  0.51344919
   0.99557869  0.49257668  0.44950258
   0.50058925  0.99767067  0.32219910
   0.98408324  0.22484014  0.55268215
   0.98102294  0.73489357  0.54372353
   0.47592231  0.04707091  0.58166690
   0.99038892  0.22367097  0.48489650
   0.50058925  0.72426545  0.35464748
   0.50058925  0.27107537  0.35464748
   0.98856911  0.76399622  0.48536542
   0.77399447  0.49766954  0.29318964
   0.72319361  0.99783771  0.42032196
   0.48906062  0.22687155  0.47908818
   0.00058986  0.72426545  0.35120881
   0.00058986  0.27107537  0.35120881
   0.48993357  0.76903841  0.47874717
   0.72156498  0.49608267  0.41471440
   0.77399447  0.99767067  0.28975097
   0.26487751  0.49615401  0.41374430
   0.22718577  0.99767067  0.28975097
   0.26794860  0.99717825  0.41969019
   0.22718577  0.49766954  0.29318964
   0.76854851  0.48120700  0.55047824
   0.21238492  0.98088471  0.54350875
   0.23416393  0.50214576  0.54914449
   0.75068684  0.98227699  0.54364355
   0.72558567  0.08103944  0.61663437
   0.18796857  0.24303587  0.60056355
   0.35446805  0.48738618  0.27144965
   0.25816528  0.46508405  0.57468882
   0.67210036  0.15169046  0.63827870
   0.06527126  0.19616555  0.61710385
Direct configuration=    64
   0.00058986  0.24767071  0.29147031
   0.49305682  0.74618241  0.41681489
   0.49287760  0.24680768  0.41657001
   0.00058986  0.74767011  0.29147031
   0.75058982  0.49766954  0.35292815
   0.74014450  0.99851545  0.48194935
   0.25059042  0.49766954  0.35292815
   0.23989317  0.99725680  0.48291138
   0.99618298  0.99740097  0.38536662
   0.51480552  0.49912326  0.51344919
   0.99557869  0.49257668  0.44950258
   0.50058925  0.99767067  0.32219910
   0.98408324  0.22484014  0.55268215
   0.98102294  0.73489357  0.54372353
   0.47592231  0.04707091  0.58166690
   0.99038892  0.22367097  0.48489650
   0.50058925  0.72426545  0.35464748
   0.50058925  0.27107537  0.35464748
   0.98856911  0.76399622  0.48536542
   0.77399447  0.49766954  0.29318964
   0.72319361  0.99783771  0.42032196
   0.48906062  0.22687155  0.47908818
   0.00058986  0.72426545  0.35120881
   0.00058986  0.27107537  0.35120881
   0.48993357  0.76903841  0.47874717
   0.72156498  0.49608267  0.41471440
   0.77399447  0.99767067  0.28975097
   0.26487751  0.49615401  0.41374430
   0.22718577  0.99767067  0.28975097
   0.26794860  0.99717825  0.41969019
   0.22718577  0.49766954  0.29318964
   0.76854851  0.48120700  0.55047824
   0.21238492  0.98088471  0.54350875
   0.23416393  0.50214576  0.54914449
   0.75068684  0.98227699  0.54364355
   0.72558567  0.08103944  0.61663437
   0.18796857  0.24303587  0.60056355
   0.35446805  0.48738618  0.27144965
   0.25816528  0.46508405  0.57468882
   0.67210036  0.15169046  0.63827870
   0.06527126  0.19616555  0.61710385
Direct configuration=    65
   0.00058986  0.24767071  0.29147031
   0.49305682  0.74618241  0.41681489
   0.49287760  0.24680768  0.41657001
   0.00058986  0.74767011  0.29147031
   0.75058982  0.49766954  0.35292815
   0.74014450  0.99851545  0.48194935
   0.25059042  0.49766954  0.35292815
   0.23989317  0.99725680  0.48291138
   0.99618298  0.99740097  0.38536662
   0.51480552  0.49912326  0.51344919
   0.99557869  0.49257668  0.44950258
   0.50058925  0.99767067  0.32219910
   0.98408324  0.22484014  0.55268215
   0.98102294  0.73489357  0.54372353
   0.47592231  0.04707091  0.58166690
   0.99038892  0.22367097  0.48489650
   0.50058925  0.72426545  0.35464748
   0.50058925  0.27107537  0.35464748
   0.98856911  0.76399622  0.48536542
   0.77399447  0.49766954  0.29318964
   0.72319361  0.99783771  0.42032196
   0.48906062  0.22687155  0.47908818
   0.00058986  0.72426545  0.35120881
   0.00058986  0.27107537  0.35120881
   0.48993357  0.76903841  0.47874717
   0.72156498  0.49608267  0.41471440
   0.77399447  0.99767067  0.28975097
   0.26487751  0.49615401  0.41374430
   0.22718577  0.99767067  0.28975097
   0.26794860  0.99717825  0.41969019
   0.22718577  0.49766954  0.29318964
   0.76854851  0.48120700  0.55047824
   0.21238492  0.98088471  0.54350875
   0.23416393  0.50214576  0.54914449
   0.75068684  0.98227699  0.54364355
   0.72558567  0.08103944  0.61663437
   0.18796857  0.24303587  0.60056355
   0.35446805  0.48738618  0.27144965
   0.25816528  0.46508405  0.57468882
   0.67210036  0.15169046  0.63827870
   0.06527126  0.19616555  0.61710385
Direct configuration=    66
   0.00058986  0.24767071  0.29147031
   0.49305682  0.74618241  0.41681489
   0.49287760  0.24680768  0.41657001
   0.00058986  0.74767011  0.29147031
   0.75058982  0.49766954  0.35292815
   0.74014450  0.99851545  0.48194935
   0.25059042  0.49766954  0.35292815
   0.23989317  0.99725680  0.48291138
   0.99618298  0.99740097  0.38536662
   0.51480552  0.49912326  0.51344919
   0.99557869  0.49257668  0.44950258
   0.50058925  0.99767067  0.32219910
   0.98408324  0.22484014  0.55268215
   0.98102294  0.73489357  0.54372353
   0.47592231  0.04707091  0.58166690
   0.99038892  0.22367097  0.48489650
   0.50058925  0.72426545  0.35464748
   0.50058925  0.27107537  0.35464748
   0.98856911  0.76399622  0.48536542
   0.77399447  0.49766954  0.29318964
   0.72319361  0.99783771  0.42032196
   0.48906062  0.22687155  0.47908818
   0.00058986  0.72426545  0.35120881
   0.00058986  0.27107537  0.35120881
   0.48993357  0.76903841  0.47874717
   0.72156498  0.49608267  0.41471440
   0.77399447  0.99767067  0.28975097
   0.26487751  0.49615401  0.41374430
   0.22718577  0.99767067  0.28975097
   0.26794860  0.99717825  0.41969019
   0.22718577  0.49766954  0.29318964
   0.76854851  0.48120700  0.55047824
   0.21238492  0.98088471  0.54350875
   0.23416393  0.50214576  0.54914449
   0.75068684  0.98227699  0.54364355
   0.72558567  0.08103944  0.61663437
   0.18796857  0.24303587  0.60056355
   0.35446805  0.48738618  0.27144965
   0.25816528  0.46508405  0.57468882
   0.67210036  0.15169046  0.63827870
   0.06527126  0.19616555  0.61710385
Direct configuration=    67
   0.00058986  0.24767071  0.29147031
   0.49305682  0.74618241  0.41681489
   0.49287760  0.24680768  0.41657001
   0.00058986  0.74767011  0.29147031
   0.75058982  0.49766954  0.35292815
   0.74014450  0.99851545  0.48194935
   0.25059042  0.49766954  0.35292815
   0.23989317  0.99725680  0.48291138
   0.99618298  0.99740097  0.38536662
   0.51480552  0.49912326  0.51344919
   0.99557869  0.49257668  0.44950258
   0.50058925  0.99767067  0.32219910
   0.98408324  0.22484014  0.55268215
   0.98102294  0.73489357  0.54372353
   0.47592231  0.04707091  0.58166690
   0.99038892  0.22367097  0.48489650
   0.50058925  0.72426545  0.35464748
   0.50058925  0.27107537  0.35464748
   0.98856911  0.76399622  0.48536542
   0.77399447  0.49766954  0.29318964
   0.72319361  0.99783771  0.42032196
   0.48906062  0.22687155  0.47908818
   0.00058986  0.72426545  0.35120881
   0.00058986  0.27107537  0.35120881
   0.48993357  0.76903841  0.47874717
   0.72156498  0.49608267  0.41471440
   0.77399447  0.99767067  0.28975097
   0.26487751  0.49615401  0.41374430
   0.22718577  0.99767067  0.28975097
   0.26794860  0.99717825  0.41969019
   0.22718577  0.49766954  0.29318964
   0.76854851  0.48120700  0.55047824
   0.21238492  0.98088471  0.54350875
   0.23416393  0.50214576  0.54914449
   0.75068684  0.98227699  0.54364355
   0.72558567  0.08103944  0.61663437
   0.18796857  0.24303587  0.60056355
   0.35446805  0.48738618  0.27144965
   0.25816528  0.46508405  0.57468882
   0.67210036  0.15169046  0.63827870
   0.06527126  0.19616555  0.61710385
Direct configuration=    68
   0.00058986  0.24767071  0.29147031
   0.49305682  0.74618241  0.41681489
   0.49287760  0.24680768  0.41657001
   0.00058986  0.74767011  0.29147031
   0.75058982  0.49766954  0.35292815
   0.74014450  0.99851545  0.48194935
   0.25059042  0.49766954  0.35292815
   0.23989317  0.99725680  0.48291138
   0.99618298  0.99740097  0.38536662
   0.51480552  0.49912326  0.51344919
   0.99557869  0.49257668  0.44950258
   0.50058925  0.99767067  0.32219910
   0.98408324  0.22484014  0.55268215
   0.98102294  0.73489357  0.54372353
   0.47592231  0.04707091  0.58166690
   0.99038892  0.22367097  0.48489650
   0.50058925  0.72426545  0.35464748
   0.50058925  0.27107537  0.35464748
   0.98856911  0.76399622  0.48536542
   0.77399447  0.49766954  0.29318964
   0.72319361  0.99783771  0.42032196
   0.48906062  0.22687155  0.47908818
   0.00058986  0.72426545  0.35120881
   0.00058986  0.27107537  0.35120881
   0.48993357  0.76903841  0.47874717
   0.72156498  0.49608267  0.41471440
   0.77399447  0.99767067  0.28975097
   0.26487751  0.49615401  0.41374430
   0.22718577  0.99767067  0.28975097
   0.26794860  0.99717825  0.41969019
   0.22718577  0.49766954  0.29318964
   0.76854851  0.48120700  0.55047824
   0.21238492  0.98088471  0.54350875
   0.23416393  0.50214576  0.54914449
   0.75068684  0.98227699  0.54364355
   0.72558567  0.08103944  0.61663437
   0.18796857  0.24303587  0.60056355
   0.35446805  0.48738618  0.27144965
   0.25816528  0.46508405  0.57468882
   0.67210036  0.15169046  0.63827870
   0.06527126  0.19616555  0.61710385
Direct configuration=    69
   0.00058986  0.24767071  0.29147031
   0.49305682  0.74618241  0.41681489
   0.49287760  0.24680768  0.41657001
   0.00058986  0.74767011  0.29147031
   0.75058982  0.49766954  0.35292815
   0.74014450  0.99851545  0.48194935
   0.25059042  0.49766954  0.35292815
   0.23989317  0.99725680  0.48291138
   0.99618298  0.99740097  0.38536662
   0.51480552  0.49912326  0.51344919
   0.99557869  0.49257668  0.44950258
   0.50058925  0.99767067  0.32219910
   0.98408324  0.22484014  0.55268215
   0.98102294  0.73489357  0.54372353
   0.47592231  0.04707091  0.58166690
   0.99038892  0.22367097  0.48489650
   0.50058925  0.72426545  0.35464748
   0.50058925  0.27107537  0.35464748
   0.98856911  0.76399622  0.48536542
   0.77399447  0.49766954  0.29318964
   0.72319361  0.99783771  0.42032196
   0.48906062  0.22687155  0.47908818
   0.00058986  0.72426545  0.35120881
   0.00058986  0.27107537  0.35120881
   0.48993357  0.76903841  0.47874717
   0.72156498  0.49608267  0.41471440
   0.77399447  0.99767067  0.28975097
   0.26487751  0.49615401  0.41374430
   0.22718577  0.99767067  0.28975097
   0.26794860  0.99717825  0.41969019
   0.22718577  0.49766954  0.29318964
   0.76854851  0.48120700  0.55047824
   0.21238492  0.98088471  0.54350875
   0.23416393  0.50214576  0.54914449
   0.75068684  0.98227699  0.54364355
   0.72558567  0.08103944  0.61663437
   0.18796857  0.24303587  0.60056355
   0.35446805  0.48738618  0.27144965
   0.25816528  0.46508405  0.57468882
   0.67210036  0.15169046  0.63827870
   0.06527126  0.19616555  0.61710385
Direct configuration=    70
   0.00058986  0.24767071  0.29147031
   0.49305682  0.74618241  0.41681489
   0.49287760  0.24680768  0.41657001
   0.00058986  0.74767011  0.29147031
   0.75058982  0.49766954  0.35292815
   0.74014450  0.99851545  0.48194935
   0.25059042  0.49766954  0.35292815
   0.23989317  0.99725680  0.48291138
   0.99618298  0.99740097  0.38536662
   0.51480552  0.49912326  0.51344919
   0.99557869  0.49257668  0.44950258
   0.50058925  0.99767067  0.32219910
   0.98408324  0.22484014  0.55268215
   0.98102294  0.73489357  0.54372353
   0.47592231  0.04707091  0.58166690
   0.99038892  0.22367097  0.48489650
   0.50058925  0.72426545  0.35464748
   0.50058925  0.27107537  0.35464748
   0.98856911  0.76399622  0.48536542
   0.77399447  0.49766954  0.29318964
   0.72319361  0.99783771  0.42032196
   0.48906062  0.22687155  0.47908818
   0.00058986  0.72426545  0.35120881
   0.00058986  0.27107537  0.35120881
   0.48993357  0.76903841  0.47874717
   0.72156498  0.49608267  0.41471440
   0.77399447  0.99767067  0.28975097
   0.26487751  0.49615401  0.41374430
   0.22718577  0.99767067  0.28975097
   0.26794860  0.99717825  0.41969019
   0.22718577  0.49766954  0.29318964
   0.76854851  0.48120700  0.55047824
   0.21238492  0.98088471  0.54350875
   0.23416393  0.50214576  0.54914449
   0.75068684  0.98227699  0.54364355
   0.72558567  0.08103944  0.61663437
   0.18796857  0.24303587  0.60056355
   0.35446805  0.48738618  0.27144965
   0.25816528  0.46508405  0.57468882
   0.67210036  0.15169046  0.63827870
   0.06527126  0.19616555  0.61710385
Direct configuration=    71
   0.00058986  0.24767071  0.29147031
   0.49305682  0.74618241  0.41681489
   0.49287760  0.24680768  0.41657001
   0.00058986  0.74767011  0.29147031
   0.75058982  0.49766954  0.35292815
   0.74014450  0.99851545  0.48194935
   0.25059042  0.49766954  0.35292815
   0.23989317  0.99725680  0.48291138
   0.99618298  0.99740097  0.38536662
   0.51480552  0.49912326  0.51344919
   0.99557869  0.49257668  0.44950258
   0.50058925  0.99767067  0.32219910
   0.98408324  0.22484014  0.55268215
   0.98102294  0.73489357  0.54372353
   0.47592231  0.04707091  0.58166690
   0.99038892  0.22367097  0.48489650
   0.50058925  0.72426545  0.35464748
   0.50058925  0.27107537  0.35464748
   0.98856911  0.76399622  0.48536542
   0.77399447  0.49766954  0.29318964
   0.72319361  0.99783771  0.42032196
   0.48906062  0.22687155  0.47908818
   0.00058986  0.72426545  0.35120881
   0.00058986  0.27107537  0.35120881
   0.48993357  0.76903841  0.47874717
   0.72156498  0.49608267  0.41471440
   0.77399447  0.99767067  0.28975097
   0.26487751  0.49615401  0.41374430
   0.22718577  0.99767067  0.28975097
   0.26794860  0.99717825  0.41969019
   0.22718577  0.49766954  0.29318964
   0.76854851  0.48120700  0.55047824
   0.21238492  0.98088471  0.54350875
   0.23416393  0.50214576  0.54914449
   0.75068684  0.98227699  0.54364355
   0.72558567  0.08103944  0.61663437
   0.18796857  0.24303587  0.60056355
   0.35446805  0.48738618  0.27144965
   0.25816528  0.46508405  0.57468882
   0.67210036  0.15169046  0.63827870
   0.06527126  0.19616555  0.61710385
Direct configuration=    72
   0.00058986  0.24767071  0.29147031
   0.49305682  0.74618241  0.41681489
   0.49287760  0.24680768  0.41657001
   0.00058986  0.74767011  0.29147031
   0.75058982  0.49766954  0.35292815
   0.74014450  0.99851545  0.48194935
   0.25059042  0.49766954  0.35292815
   0.23989317  0.99725680  0.48291138
   0.99618298  0.99740097  0.38536662
   0.51480552  0.49912326  0.51344919
   0.99557869  0.49257668  0.44950258
   0.50058925  0.99767067  0.32219910
   0.98408324  0.22484014  0.55268215
   0.98102294  0.73489357  0.54372353
   0.47592231  0.04707091  0.58166690
   0.99038892  0.22367097  0.48489650
   0.50058925  0.72426545  0.35464748
   0.50058925  0.27107537  0.35464748
   0.98856911  0.76399622  0.48536542
   0.77399447  0.49766954  0.29318964
   0.72319361  0.99783771  0.42032196
   0.48906062  0.22687155  0.47908818
   0.00058986  0.72426545  0.35120881
   0.00058986  0.27107537  0.35120881
   0.48993357  0.76903841  0.47874717
   0.72156498  0.49608267  0.41471440
   0.77399447  0.99767067  0.28975097
   0.26487751  0.49615401  0.41374430
   0.22718577  0.99767067  0.28975097
   0.26794860  0.99717825  0.41969019
   0.22718577  0.49766954  0.29318964
   0.76854851  0.48120700  0.55047824
   0.21238492  0.98088471  0.54350875
   0.23416393  0.50214576  0.54914449
   0.75068684  0.98227699  0.54364355
   0.72558567  0.08103944  0.61663437
   0.18796857  0.24303587  0.60056355
   0.35446805  0.48738618  0.27144965
   0.25816528  0.46508405  0.57468882
   0.67210036  0.15169046  0.63827870
   0.06527126  0.19616555  0.61710385
Direct configuration=    73
   0.00058986  0.24767071  0.29147031
   0.49305682  0.74618241  0.41681489
   0.49287760  0.24680768  0.41657001
   0.00058986  0.74767011  0.29147031
   0.75058982  0.49766954  0.35292815
   0.74014450  0.99851545  0.48194935
   0.25059042  0.49766954  0.35292815
   0.23989317  0.99725680  0.48291138
   0.99618298  0.99740097  0.38536662
   0.51480552  0.49912326  0.51344919
   0.99557869  0.49257668  0.44950258
   0.50058925  0.99767067  0.32219910
   0.98408324  0.22484014  0.55268215
   0.98102294  0.73489357  0.54372353
   0.47592231  0.04707091  0.58166690
   0.99038892  0.22367097  0.48489650
   0.50058925  0.72426545  0.35464748
   0.50058925  0.27107537  0.35464748
   0.98856911  0.76399622  0.48536542
   0.77399447  0.49766954  0.29318964
   0.72319361  0.99783771  0.42032196
   0.48906062  0.22687155  0.47908818
   0.00058986  0.72426545  0.35120881
   0.00058986  0.27107537  0.35120881
   0.48993357  0.76903841  0.47874717
   0.72156498  0.49608267  0.41471440
   0.77399447  0.99767067  0.28975097
   0.26487751  0.49615401  0.41374430
   0.22718577  0.99767067  0.28975097
   0.26794860  0.99717825  0.41969019
   0.22718577  0.49766954  0.29318964
   0.76854851  0.48120700  0.55047824
   0.21238492  0.98088471  0.54350875
   0.23416393  0.50214576  0.54914449
   0.75068684  0.98227699  0.54364355
   0.72558567  0.08103944  0.61663437
   0.18796857  0.24303587  0.60056355
   0.35446805  0.48738618  0.27144965
   0.25816528  0.46508405  0.57468882
   0.67210036  0.15169046  0.63827870
   0.06527126  0.19616555  0.61710385
Direct configuration=    74
   0.00058986  0.24767071  0.29147031
   0.49305682  0.74618241  0.41681489
   0.49287760  0.24680768  0.41657001
   0.00058986  0.74767011  0.29147031
   0.75058982  0.49766954  0.35292815
   0.74014450  0.99851545  0.48194935
   0.25059042  0.49766954  0.35292815
   0.23989317  0.99725680  0.48291138
   0.99618298  0.99740097  0.38536662
   0.51480552  0.49912326  0.51344919
   0.99557869  0.49257668  0.44950258
   0.50058925  0.99767067  0.32219910
   0.98408324  0.22484014  0.55268215
   0.98102294  0.73489357  0.54372353
   0.47592231  0.04707091  0.58166690
   0.99038892  0.22367097  0.48489650
   0.50058925  0.72426545  0.35464748
   0.50058925  0.27107537  0.35464748
   0.98856911  0.76399622  0.48536542
   0.77399447  0.49766954  0.29318964
   0.72319361  0.99783771  0.42032196
   0.48906062  0.22687155  0.47908818
   0.00058986  0.72426545  0.35120881
   0.00058986  0.27107537  0.35120881
   0.48993357  0.76903841  0.47874717
   0.72156498  0.49608267  0.41471440
   0.77399447  0.99767067  0.28975097
   0.26487751  0.49615401  0.41374430
   0.22718577  0.99767067  0.28975097
   0.26794860  0.99717825  0.41969019
   0.22718577  0.49766954  0.29318964
   0.76854851  0.48120700  0.55047824
   0.21238492  0.98088471  0.54350875
   0.23416393  0.50214576  0.54914449
   0.75068684  0.98227699  0.54364355
   0.72558567  0.08103944  0.61663437
   0.18796857  0.24303587  0.60056355
   0.35446805  0.48738618  0.27144965
   0.25816528  0.46508405  0.57468882
   0.67210036  0.15169046  0.63827870
   0.06527126  0.19616555  0.61710385
Direct configuration=    75
   0.00058986  0.24767071  0.29147031
   0.49305682  0.74618241  0.41681489
   0.49287760  0.24680768  0.41657001
   0.00058986  0.74767011  0.29147031
   0.75058982  0.49766954  0.35292815
   0.74014450  0.99851545  0.48194935
   0.25059042  0.49766954  0.35292815
   0.23989317  0.99725680  0.48291138
   0.99618298  0.99740097  0.38536662
   0.51480552  0.49912326  0.51344919
   0.99557869  0.49257668  0.44950258
   0.50058925  0.99767067  0.32219910
   0.98408324  0.22484014  0.55268215
   0.98102294  0.73489357  0.54372353
   0.47592231  0.04707091  0.58166690
   0.99038892  0.22367097  0.48489650
   0.50058925  0.72426545  0.35464748
   0.50058925  0.27107537  0.35464748
   0.98856911  0.76399622  0.48536542
   0.77399447  0.49766954  0.29318964
   0.72319361  0.99783771  0.42032196
   0.48906062  0.22687155  0.47908818
   0.00058986  0.72426545  0.35120881
   0.00058986  0.27107537  0.35120881
   0.48993357  0.76903841  0.47874717
   0.72156498  0.49608267  0.41471440
   0.77399447  0.99767067  0.28975097
   0.26487751  0.49615401  0.41374430
   0.22718577  0.99767067  0.28975097
   0.26794860  0.99717825  0.41969019
   0.22718577  0.49766954  0.29318964
   0.76854851  0.48120700  0.55047824
   0.21238492  0.98088471  0.54350875
   0.23416393  0.50214576  0.54914449
   0.75068684  0.98227699  0.54364355
   0.72558567  0.08103944  0.61663437
   0.18796857  0.24303587  0.60056355
   0.35446805  0.48738618  0.27144965
   0.25816528  0.46508405  0.57468882
   0.67210036  0.15169046  0.63827870
   0.06527126  0.19616555  0.61710385
Direct configuration=    76
   0.00058986  0.24767071  0.29147031
   0.49305682  0.74618241  0.41681489
   0.49287760  0.24680768  0.41657001
   0.00058986  0.74767011  0.29147031
   0.75058982  0.49766954  0.35292815
   0.74014450  0.99851545  0.48194935
   0.25059042  0.49766954  0.35292815
   0.23989317  0.99725680  0.48291138
   0.99618298  0.99740097  0.38536662
   0.51480552  0.49912326  0.51344919
   0.99557869  0.49257668  0.44950258
   0.50058925  0.99767067  0.32219910
   0.98408324  0.22484014  0.55268215
   0.98102294  0.73489357  0.54372353
   0.47592231  0.04707091  0.58166690
   0.99038892  0.22367097  0.48489650
   0.50058925  0.72426545  0.35464748
   0.50058925  0.27107537  0.35464748
   0.98856911  0.76399622  0.48536542
   0.77399447  0.49766954  0.29318964
   0.72319361  0.99783771  0.42032196
   0.48906062  0.22687155  0.47908818
   0.00058986  0.72426545  0.35120881
   0.00058986  0.27107537  0.35120881
   0.48993357  0.76903841  0.47874717
   0.72156498  0.49608267  0.41471440
   0.77399447  0.99767067  0.28975097
   0.26487751  0.49615401  0.41374430
   0.22718577  0.99767067  0.28975097
   0.26794860  0.99717825  0.41969019
   0.22718577  0.49766954  0.29318964
   0.76854851  0.48120700  0.55047824
   0.21238492  0.98088471  0.54350875
   0.23416393  0.50214576  0.54914449
   0.75068684  0.98227699  0.54364355
   0.72558567  0.08103944  0.61663437
   0.18796857  0.24303587  0.60056355
   0.35446805  0.48738618  0.27144965
   0.25816528  0.46508405  0.57468882
   0.67210036  0.15169046  0.63827870
   0.06527126  0.19616555  0.61710385
Direct configuration=    77
   0.00058986  0.24767071  0.29147031
   0.49305682  0.74618241  0.41681489
   0.49287760  0.24680768  0.41657001
   0.00058986  0.74767011  0.29147031
   0.75058982  0.49766954  0.35292815
   0.74014450  0.99851545  0.48194935
   0.25059042  0.49766954  0.35292815
   0.23989317  0.99725680  0.48291138
   0.99618298  0.99740097  0.38536662
   0.51480552  0.49912326  0.51344919
   0.99557869  0.49257668  0.44950258
   0.50058925  0.99767067  0.32219910
   0.98408324  0.22484014  0.55268215
   0.98102294  0.73489357  0.54372353
   0.47592231  0.04707091  0.58166690
   0.99038892  0.22367097  0.48489650
   0.50058925  0.72426545  0.35464748
   0.50058925  0.27107537  0.35464748
   0.98856911  0.76399622  0.48536542
   0.77399447  0.49766954  0.29318964
   0.72319361  0.99783771  0.42032196
   0.48906062  0.22687155  0.47908818
   0.00058986  0.72426545  0.35120881
   0.00058986  0.27107537  0.35120881
   0.48993357  0.76903841  0.47874717
   0.72156498  0.49608267  0.41471440
   0.77399447  0.99767067  0.28975097
   0.26487751  0.49615401  0.41374430
   0.22718577  0.99767067  0.28975097
   0.26794860  0.99717825  0.41969019
   0.22718577  0.49766954  0.29318964
   0.76854851  0.48120700  0.55047824
   0.21238492  0.98088471  0.54350875
   0.23416393  0.50214576  0.54914449
   0.75068684  0.98227699  0.54364355
   0.72558567  0.08103944  0.61663437
   0.18796857  0.24303587  0.60056355
   0.35446805  0.48738618  0.27144965
   0.25816528  0.46508405  0.57468882
   0.67210036  0.15169046  0.63827870
   0.06527126  0.19616555  0.61710385
Direct configuration=    78
   0.00058986  0.24767071  0.29147031
   0.49305682  0.74618241  0.41681489
   0.49287760  0.24680768  0.41657001
   0.00058986  0.74767011  0.29147031
   0.75058982  0.49766954  0.35292815
   0.74014450  0.99851545  0.48194935
   0.25059042  0.49766954  0.35292815
   0.23989317  0.99725680  0.48291138
   0.99618298  0.99740097  0.38536662
   0.51480552  0.49912326  0.51344919
   0.99557869  0.49257668  0.44950258
   0.50058925  0.99767067  0.32219910
   0.98408324  0.22484014  0.55268215
   0.98102294  0.73489357  0.54372353
   0.47592231  0.04707091  0.58166690
   0.99038892  0.22367097  0.48489650
   0.50058925  0.72426545  0.35464748
   0.50058925  0.27107537  0.35464748
   0.98856911  0.76399622  0.48536542
   0.77399447  0.49766954  0.29318964
   0.72319361  0.99783771  0.42032196
   0.48906062  0.22687155  0.47908818
   0.00058986  0.72426545  0.35120881
   0.00058986  0.27107537  0.35120881
   0.48993357  0.76903841  0.47874717
   0.72156498  0.49608267  0.41471440
   0.77399447  0.99767067  0.28975097
   0.26487751  0.49615401  0.41374430
   0.22718577  0.99767067  0.28975097
   0.26794860  0.99717825  0.41969019
   0.22718577  0.49766954  0.29318964
   0.76854851  0.48120700  0.55047824
   0.21238492  0.98088471  0.54350875
   0.23416393  0.50214576  0.54914449
   0.75068684  0.98227699  0.54364355
   0.72558567  0.08103944  0.61663437
   0.18796857  0.24303587  0.60056355
   0.35446805  0.48738618  0.27144965
   0.25816528  0.46508405  0.57468882
   0.67210036  0.15169046  0.63827870
   0.06527126  0.19616555  0.61710385
Direct configuration=    79
   0.00058986  0.24767071  0.29147031
   0.49305682  0.74618241  0.41681489
   0.49287760  0.24680768  0.41657001
   0.00058986  0.74767011  0.29147031
   0.75058982  0.49766954  0.35292815
   0.74014450  0.99851545  0.48194935
   0.25059042  0.49766954  0.35292815
   0.23989317  0.99725680  0.48291138
   0.99618298  0.99740097  0.38536662
   0.51480552  0.49912326  0.51344919
   0.99557869  0.49257668  0.44950258
   0.50058925  0.99767067  0.32219910
   0.98408324  0.22484014  0.55268215
   0.98102294  0.73489357  0.54372353
   0.47592231  0.04707091  0.58166690
   0.99038892  0.22367097  0.48489650
   0.50058925  0.72426545  0.35464748
   0.50058925  0.27107537  0.35464748
   0.98856911  0.76399622  0.48536542
   0.77399447  0.49766954  0.29318964
   0.72319361  0.99783771  0.42032196
   0.48906062  0.22687155  0.47908818
   0.00058986  0.72426545  0.35120881
   0.00058986  0.27107537  0.35120881
   0.48993357  0.76903841  0.47874717
   0.72156498  0.49608267  0.41471440
   0.77399447  0.99767067  0.28975097
   0.26487751  0.49615401  0.41374430
   0.22718577  0.99767067  0.28975097
   0.26794860  0.99717825  0.41969019
   0.22718577  0.49766954  0.29318964
   0.76854851  0.48120700  0.55047824
   0.21238492  0.98088471  0.54350875
   0.23416393  0.50214576  0.54914449
   0.75068684  0.98227699  0.54364355
   0.72558567  0.08103944  0.61663437
   0.18796857  0.24303587  0.60056355
   0.35446805  0.48738618  0.27144965
   0.25816528  0.46508405  0.57468882
   0.67210036  0.15169046  0.63827870
   0.06527126  0.19616555  0.61710385
Direct configuration=    80
   0.00058986  0.24767071  0.29147031
   0.49305682  0.74618241  0.41681489
   0.49287760  0.24680768  0.41657001
   0.00058986  0.74767011  0.29147031
   0.75058982  0.49766954  0.35292815
   0.74014450  0.99851545  0.48194935
   0.25059042  0.49766954  0.35292815
   0.23989317  0.99725680  0.48291138
   0.99618298  0.99740097  0.38536662
   0.51480552  0.49912326  0.51344919
   0.99557869  0.49257668  0.44950258
   0.50058925  0.99767067  0.32219910
   0.98408324  0.22484014  0.55268215
   0.98102294  0.73489357  0.54372353
   0.47592231  0.04707091  0.58166690
   0.99038892  0.22367097  0.48489650
   0.50058925  0.72426545  0.35464748
   0.50058925  0.27107537  0.35464748
   0.98856911  0.76399622  0.48536542
   0.77399447  0.49766954  0.29318964
   0.72319361  0.99783771  0.42032196
   0.48906062  0.22687155  0.47908818
   0.00058986  0.72426545  0.35120881
   0.00058986  0.27107537  0.35120881
   0.48993357  0.76903841  0.47874717
   0.72156498  0.49608267  0.41471440
   0.77399447  0.99767067  0.28975097
   0.26487751  0.49615401  0.41374430
   0.22718577  0.99767067  0.28975097
   0.26794860  0.99717825  0.41969019
   0.22718577  0.49766954  0.29318964
   0.76854851  0.48120700  0.55047824
   0.21238492  0.98088471  0.54350875
   0.23416393  0.50214576  0.54914449
   0.75068684  0.98227699  0.54364355
   0.72558567  0.08103944  0.61663437
   0.18796857  0.24303587  0.60056355
   0.35446805  0.48738618  0.27144965
   0.25816528  0.46508405  0.57468882
   0.67210036  0.15169046  0.63827870
   0.06527126  0.19616555  0.61710385
Direct configuration=    81
   0.00058986  0.24767071  0.29147031
   0.49305682  0.74618241  0.41681489
   0.49287760  0.24680768  0.41657001
   0.00058986  0.74767011  0.29147031
   0.75058982  0.49766954  0.35292815
   0.74014450  0.99851545  0.48194935
   0.25059042  0.49766954  0.35292815
   0.23989317  0.99725680  0.48291138
   0.99618298  0.99740097  0.38536662
   0.51480552  0.49912326  0.51344919
   0.99557869  0.49257668  0.44950258
   0.50058925  0.99767067  0.32219910
   0.98408324  0.22484014  0.55268215
   0.98102294  0.73489357  0.54372353
   0.47592231  0.04707091  0.58166690
   0.99038892  0.22367097  0.48489650
   0.50058925  0.72426545  0.35464748
   0.50058925  0.27107537  0.35464748
   0.98856911  0.76399622  0.48536542
   0.77399447  0.49766954  0.29318964
   0.72319361  0.99783771  0.42032196
   0.48906062  0.22687155  0.47908818
   0.00058986  0.72426545  0.35120881
   0.00058986  0.27107537  0.35120881
   0.48993357  0.76903841  0.47874717
   0.72156498  0.49608267  0.41471440
   0.77399447  0.99767067  0.28975097
   0.26487751  0.49615401  0.41374430
   0.22718577  0.99767067  0.28975097
   0.26794860  0.99717825  0.41969019
   0.22718577  0.49766954  0.29318964
   0.76854851  0.48120700  0.55047824
   0.21238492  0.98088471  0.54350875
   0.23416393  0.50214576  0.54914449
   0.75068684  0.98227699  0.54364355
   0.72558567  0.08103944  0.61663437
   0.18796857  0.24303587  0.60056355
   0.35446805  0.48738618  0.27144965
   0.25816528  0.46508405  0.57468882
   0.67210036  0.15169046  0.63827870
   0.06527126  0.19616555  0.61710385
Direct configuration=    82
   0.00058986  0.24767071  0.29147031
   0.49305682  0.74618241  0.41681489
   0.49287760  0.24680768  0.41657001
   0.00058986  0.74767011  0.29147031
   0.75058982  0.49766954  0.35292815
   0.74014450  0.99851545  0.48194935
   0.25059042  0.49766954  0.35292815
   0.23989317  0.99725680  0.48291138
   0.99618298  0.99740097  0.38536662
   0.51480552  0.49912326  0.51344919
   0.99557869  0.49257668  0.44950258
   0.50058925  0.99767067  0.32219910
   0.98408324  0.22484014  0.55268215
   0.98102294  0.73489357  0.54372353
   0.47592231  0.04707091  0.58166690
   0.99038892  0.22367097  0.48489650
   0.50058925  0.72426545  0.35464748
   0.50058925  0.27107537  0.35464748
   0.98856911  0.76399622  0.48536542
   0.77399447  0.49766954  0.29318964
   0.72319361  0.99783771  0.42032196
   0.48906062  0.22687155  0.47908818
   0.00058986  0.72426545  0.35120881
   0.00058986  0.27107537  0.35120881
   0.48993357  0.76903841  0.47874717
   0.72156498  0.49608267  0.41471440
   0.77399447  0.99767067  0.28975097
   0.26487751  0.49615401  0.41374430
   0.22718577  0.99767067  0.28975097
   0.26794860  0.99717825  0.41969019
   0.22718577  0.49766954  0.29318964
   0.76854851  0.48120700  0.55047824
   0.21238492  0.98088471  0.54350875
   0.23416393  0.50214576  0.54914449
   0.75068684  0.98227699  0.54364355
   0.72558567  0.08103944  0.61663437
   0.18796857  0.24303587  0.60056355
   0.35446805  0.48738618  0.27144965
   0.25816528  0.46508405  0.57468882
   0.67210036  0.15169046  0.63827870
   0.06527126  0.19616555  0.61710385
Direct configuration=    83
   0.00058986  0.24767071  0.29147031
   0.49305682  0.74618241  0.41681489
   0.49287760  0.24680768  0.41657001
   0.00058986  0.74767011  0.29147031
   0.75058982  0.49766954  0.35292815
   0.74014450  0.99851545  0.48194935
   0.25059042  0.49766954  0.35292815
   0.23989317  0.99725680  0.48291138
   0.99618298  0.99740097  0.38536662
   0.51480552  0.49912326  0.51344919
   0.99557869  0.49257668  0.44950258
   0.50058925  0.99767067  0.32219910
   0.98408324  0.22484014  0.55268215
   0.98102294  0.73489357  0.54372353
   0.47592231  0.04707091  0.58166690
   0.99038892  0.22367097  0.48489650
   0.50058925  0.72426545  0.35464748
   0.50058925  0.27107537  0.35464748
   0.98856911  0.76399622  0.48536542
   0.77399447  0.49766954  0.29318964
   0.72319361  0.99783771  0.42032196
   0.48906062  0.22687155  0.47908818
   0.00058986  0.72426545  0.35120881
   0.00058986  0.27107537  0.35120881
   0.48993357  0.76903841  0.47874717
   0.72156498  0.49608267  0.41471440
   0.77399447  0.99767067  0.28975097
   0.26487751  0.49615401  0.41374430
   0.22718577  0.99767067  0.28975097
   0.26794860  0.99717825  0.41969019
   0.22718577  0.49766954  0.29318964
   0.76854851  0.48120700  0.55047824
   0.21238492  0.98088471  0.54350875
   0.23416393  0.50214576  0.54914449
   0.75068684  0.98227699  0.54364355
   0.72558567  0.08103944  0.61663437
   0.18796857  0.24303587  0.60056355
   0.35446805  0.48738618  0.27144965
   0.25816528  0.46508405  0.57468882
   0.67210036  0.15169046  0.63827870
   0.06527126  0.19616555  0.61710385
Direct configuration=    84
   0.00058986  0.24767071  0.29147031
   0.49305682  0.74618241  0.41681489
   0.49287760  0.24680768  0.41657001
   0.00058986  0.74767011  0.29147031
   0.75058982  0.49766954  0.35292815
   0.74014450  0.99851545  0.48194935
   0.25059042  0.49766954  0.35292815
   0.23989317  0.99725680  0.48291138
   0.99618298  0.99740097  0.38536662
   0.51480552  0.49912326  0.51344919
   0.99557869  0.49257668  0.44950258
   0.50058925  0.99767067  0.32219910
   0.98408324  0.22484014  0.55268215
   0.98102294  0.73489357  0.54372353
   0.47592231  0.04707091  0.58166690
   0.99038892  0.22367097  0.48489650
   0.50058925  0.72426545  0.35464748
   0.50058925  0.27107537  0.35464748
   0.98856911  0.76399622  0.48536542
   0.77399447  0.49766954  0.29318964
   0.72319361  0.99783771  0.42032196
   0.48906062  0.22687155  0.47908818
   0.00058986  0.72426545  0.35120881
   0.00058986  0.27107537  0.35120881
   0.48993357  0.76903841  0.47874717
   0.72156498  0.49608267  0.41471440
   0.77399447  0.99767067  0.28975097
   0.26487751  0.49615401  0.41374430
   0.22718577  0.99767067  0.28975097
   0.26794860  0.99717825  0.41969019
   0.22718577  0.49766954  0.29318964
   0.76854851  0.48120700  0.55047824
   0.21238492  0.98088471  0.54350875
   0.23416393  0.50214576  0.54914449
   0.75068684  0.98227699  0.54364355
   0.72558567  0.08103944  0.61663437
   0.18796857  0.24303587  0.60056355
   0.35446805  0.48738618  0.27144965
   0.25816528  0.46508405  0.57468882
   0.67210036  0.15169046  0.63827870
   0.06527126  0.19616555  0.61710385
Direct configuration=    85
   0.00058986  0.24767071  0.29147031
   0.49305682  0.74618241  0.41681489
   0.49287760  0.24680768  0.41657001
   0.00058986  0.74767011  0.29147031
   0.75058982  0.49766954  0.35292815
   0.74014450  0.99851545  0.48194935
   0.25059042  0.49766954  0.35292815
   0.23989317  0.99725680  0.48291138
   0.99618298  0.99740097  0.38536662
   0.51480552  0.49912326  0.51344919
   0.99557869  0.49257668  0.44950258
   0.50058925  0.99767067  0.32219910
   0.98408324  0.22484014  0.55268215
   0.98102294  0.73489357  0.54372353
   0.47592231  0.04707091  0.58166690
   0.99038892  0.22367097  0.48489650
   0.50058925  0.72426545  0.35464748
   0.50058925  0.27107537  0.35464748
   0.98856911  0.76399622  0.48536542
   0.77399447  0.49766954  0.29318964
   0.72319361  0.99783771  0.42032196
   0.48906062  0.22687155  0.47908818
   0.00058986  0.72426545  0.35120881
   0.00058986  0.27107537  0.35120881
   0.48993357  0.76903841  0.47874717
   0.72156498  0.49608267  0.41471440
   0.77399447  0.99767067  0.28975097
   0.26487751  0.49615401  0.41374430
   0.22718577  0.99767067  0.28975097
   0.26794860  0.99717825  0.41969019
   0.22718577  0.49766954  0.29318964
   0.76854851  0.48120700  0.55047824
   0.21238492  0.98088471  0.54350875
   0.23416393  0.50214576  0.54914449
   0.75068684  0.98227699  0.54364355
   0.72558567  0.08103944  0.61663437
   0.18796857  0.24303587  0.60056355
   0.35446805  0.48738618  0.27144965
   0.25816528  0.46508405  0.57468882
   0.67210036  0.15169046  0.63827870
   0.06527126  0.19616555  0.61710385
Direct configuration=    86
   0.00058986  0.24767071  0.29147031
   0.49305682  0.74618241  0.41681489
   0.49287760  0.24680768  0.41657001
   0.00058986  0.74767011  0.29147031
   0.75058982  0.49766954  0.35292815
   0.74014450  0.99851545  0.48194935
   0.25059042  0.49766954  0.35292815
   0.23989317  0.99725680  0.48291138
   0.99618298  0.99740097  0.38536662
   0.51480552  0.49912326  0.51344919
   0.99557869  0.49257668  0.44950258
   0.50058925  0.99767067  0.32219910
   0.98408324  0.22484014  0.55268215
   0.98102294  0.73489357  0.54372353
   0.47592231  0.04707091  0.58166690
   0.99038892  0.22367097  0.48489650
   0.50058925  0.72426545  0.35464748
   0.50058925  0.27107537  0.35464748
   0.98856911  0.76399622  0.48536542
   0.77399447  0.49766954  0.29318964
   0.72319361  0.99783771  0.42032196
   0.48906062  0.22687155  0.47908818
   0.00058986  0.72426545  0.35120881
   0.00058986  0.27107537  0.35120881
   0.48993357  0.76903841  0.47874717
   0.72156498  0.49608267  0.41471440
   0.77399447  0.99767067  0.28975097
   0.26487751  0.49615401  0.41374430
   0.22718577  0.99767067  0.28975097
   0.26794860  0.99717825  0.41969019
   0.22718577  0.49766954  0.29318964
   0.76854851  0.48120700  0.55047824
   0.21238492  0.98088471  0.54350875
   0.23416393  0.50214576  0.54914449
   0.75068684  0.98227699  0.54364355
   0.72558567  0.08103944  0.61663437
   0.18796857  0.24303587  0.60056355
   0.35446805  0.48738618  0.27144965
   0.25816528  0.46508405  0.57468882
   0.67210036  0.15169046  0.63827870
   0.06527126  0.19616555  0.61710385
Direct configuration=    87
   0.00058986  0.24767071  0.29147031
   0.49305682  0.74618241  0.41681489
   0.49287760  0.24680768  0.41657001
   0.00058986  0.74767011  0.29147031
   0.75058982  0.49766954  0.35292815
   0.74014450  0.99851545  0.48194935
   0.25059042  0.49766954  0.35292815
   0.23989317  0.99725680  0.48291138
   0.99618298  0.99740097  0.38536662
   0.51480552  0.49912326  0.51344919
   0.99557869  0.49257668  0.44950258
   0.50058925  0.99767067  0.32219910
   0.98408324  0.22484014  0.55268215
   0.98102294  0.73489357  0.54372353
   0.47592231  0.04707091  0.58166690
   0.99038892  0.22367097  0.48489650
   0.50058925  0.72426545  0.35464748
   0.50058925  0.27107537  0.35464748
   0.98856911  0.76399622  0.48536542
   0.77399447  0.49766954  0.29318964
   0.72319361  0.99783771  0.42032196
   0.48906062  0.22687155  0.47908818
   0.00058986  0.72426545  0.35120881
   0.00058986  0.27107537  0.35120881
   0.48993357  0.76903841  0.47874717
   0.72156498  0.49608267  0.41471440
   0.77399447  0.99767067  0.28975097
   0.26487751  0.49615401  0.41374430
   0.22718577  0.99767067  0.28975097
   0.26794860  0.99717825  0.41969019
   0.22718577  0.49766954  0.29318964
   0.76854851  0.48120700  0.55047824
   0.21238492  0.98088471  0.54350875
   0.23416393  0.50214576  0.54914449
   0.75068684  0.98227699  0.54364355
   0.72558567  0.08103944  0.61663437
   0.18796857  0.24303587  0.60056355
   0.35446805  0.48738618  0.27144965
   0.25816528  0.46508405  0.57468882
   0.67210036  0.15169046  0.63827870
   0.06527126  0.19616555  0.61710385
Direct configuration=    88
   0.00058986  0.24767071  0.29147031
   0.49305682  0.74618241  0.41681489
   0.49287760  0.24680768  0.41657001
   0.00058986  0.74767011  0.29147031
   0.75058982  0.49766954  0.35292815
   0.74014450  0.99851545  0.48194935
   0.25059042  0.49766954  0.35292815
   0.23989317  0.99725680  0.48291138
   0.99618298  0.99740097  0.38536662
   0.51480552  0.49912326  0.51344919
   0.99557869  0.49257668  0.44950258
   0.50058925  0.99767067  0.32219910
   0.98408324  0.22484014  0.55268215
   0.98102294  0.73489357  0.54372353
   0.47592231  0.04707091  0.58166690
   0.99038892  0.22367097  0.48489650
   0.50058925  0.72426545  0.35464748
   0.50058925  0.27107537  0.35464748
   0.98856911  0.76399622  0.48536542
   0.77399447  0.49766954  0.29318964
   0.72319361  0.99783771  0.42032196
   0.48906062  0.22687155  0.47908818
   0.00058986  0.72426545  0.35120881
   0.00058986  0.27107537  0.35120881
   0.48993357  0.76903841  0.47874717
   0.72156498  0.49608267  0.41471440
   0.77399447  0.99767067  0.28975097
   0.26487751  0.49615401  0.41374430
   0.22718577  0.99767067  0.28975097
   0.26794860  0.99717825  0.41969019
   0.22718577  0.49766954  0.29318964
   0.76854851  0.48120700  0.55047824
   0.21238492  0.98088471  0.54350875
   0.23416393  0.50214576  0.54914449
   0.75068684  0.98227699  0.54364355
   0.72558567  0.08103944  0.61663437
   0.18796857  0.24303587  0.60056355
   0.35446805  0.48738618  0.27144965
   0.25816528  0.46508405  0.57468882
   0.67210036  0.15169046  0.63827870
   0.06527126  0.19616555  0.61710385
Direct configuration=    89
   0.00058986  0.24767071  0.29147031
   0.49305682  0.74618241  0.41681489
   0.49287760  0.24680768  0.41657001
   0.00058986  0.74767011  0.29147031
   0.75058982  0.49766954  0.35292815
   0.74014450  0.99851545  0.48194935
   0.25059042  0.49766954  0.35292815
   0.23989317  0.99725680  0.48291138
   0.99618298  0.99740097  0.38536662
   0.51480552  0.49912326  0.51344919
   0.99557869  0.49257668  0.44950258
   0.50058925  0.99767067  0.32219910
   0.98408324  0.22484014  0.55268215
   0.98102294  0.73489357  0.54372353
   0.47592231  0.04707091  0.58166690
   0.99038892  0.22367097  0.48489650
   0.50058925  0.72426545  0.35464748
   0.50058925  0.27107537  0.35464748
   0.98856911  0.76399622  0.48536542
   0.77399447  0.49766954  0.29318964
   0.72319361  0.99783771  0.42032196
   0.48906062  0.22687155  0.47908818
   0.00058986  0.72426545  0.35120881
   0.00058986  0.27107537  0.35120881
   0.48993357  0.76903841  0.47874717
   0.72156498  0.49608267  0.41471440
   0.77399447  0.99767067  0.28975097
   0.26487751  0.49615401  0.41374430
   0.22718577  0.99767067  0.28975097
   0.26794860  0.99717825  0.41969019
   0.22718577  0.49766954  0.29318964
   0.76854851  0.48120700  0.55047824
   0.21238492  0.98088471  0.54350875
   0.23416393  0.50214576  0.54914449
   0.75068684  0.98227699  0.54364355
   0.72558567  0.08103944  0.61663437
   0.18796857  0.24303587  0.60056355
   0.35446805  0.48738618  0.27144965
   0.25816528  0.46508405  0.57468882
   0.67210036  0.15169046  0.63827870
   0.06527126  0.19616555  0.61710385
Direct configuration=    90
   0.00058986  0.24767071  0.29147031
   0.49305682  0.74618241  0.41681489
   0.49287760  0.24680768  0.41657001
   0.00058986  0.74767011  0.29147031
   0.75058982  0.49766954  0.35292815
   0.74014450  0.99851545  0.48194935
   0.25059042  0.49766954  0.35292815
   0.23989317  0.99725680  0.48291138
   0.99618298  0.99740097  0.38536662
   0.51480552  0.49912326  0.51344919
   0.99557869  0.49257668  0.44950258
   0.50058925  0.99767067  0.32219910
   0.98408324  0.22484014  0.55268215
   0.98102294  0.73489357  0.54372353
   0.47592231  0.04707091  0.58166690
   0.99038892  0.22367097  0.48489650
   0.50058925  0.72426545  0.35464748
   0.50058925  0.27107537  0.35464748
   0.98856911  0.76399622  0.48536542
   0.77399447  0.49766954  0.29318964
   0.72319361  0.99783771  0.42032196
   0.48906062  0.22687155  0.47908818
   0.00058986  0.72426545  0.35120881
   0.00058986  0.27107537  0.35120881
   0.48993357  0.76903841  0.47874717
   0.72156498  0.49608267  0.41471440
   0.77399447  0.99767067  0.28975097
   0.26487751  0.49615401  0.41374430
   0.22718577  0.99767067  0.28975097
   0.26794860  0.99717825  0.41969019
   0.22718577  0.49766954  0.29318964
   0.76854851  0.48120700  0.55047824
   0.21238492  0.98088471  0.54350875
   0.23416393  0.50214576  0.54914449
   0.75068684  0.98227699  0.54364355
   0.72558567  0.08103944  0.61663437
   0.18796857  0.24303587  0.60056355
   0.35446805  0.48738618  0.27144965
   0.25816528  0.46508405  0.57468882
   0.67210036  0.15169046  0.63827870
   0.06527126  0.19616555  0.61710385
Direct configuration=    91
   0.00058986  0.24767071  0.29147031
   0.49305682  0.74618241  0.41681489
   0.49287760  0.24680768  0.41657001
   0.00058986  0.74767011  0.29147031
   0.75058982  0.49766954  0.35292815
   0.74014450  0.99851545  0.48194935
   0.25059042  0.49766954  0.35292815
   0.23989317  0.99725680  0.48291138
   0.99618298  0.99740097  0.38536662
   0.51480552  0.49912326  0.51344919
   0.99557869  0.49257668  0.44950258
   0.50058925  0.99767067  0.32219910
   0.98408324  0.22484014  0.55268215
   0.98102294  0.73489357  0.54372353
   0.47592231  0.04707091  0.58166690
   0.99038892  0.22367097  0.48489650
   0.50058925  0.72426545  0.35464748
   0.50058925  0.27107537  0.35464748
   0.98856911  0.76399622  0.48536542
   0.77399447  0.49766954  0.29318964
   0.72319361  0.99783771  0.42032196
   0.48906062  0.22687155  0.47908818
   0.00058986  0.72426545  0.35120881
   0.00058986  0.27107537  0.35120881
   0.48993357  0.76903841  0.47874717
   0.72156498  0.49608267  0.41471440
   0.77399447  0.99767067  0.28975097
   0.26487751  0.49615401  0.41374430
   0.22718577  0.99767067  0.28975097
   0.26794860  0.99717825  0.41969019
   0.22718577  0.49766954  0.29318964
   0.76854851  0.48120700  0.55047824
   0.21238492  0.98088471  0.54350875
   0.23416393  0.50214576  0.54914449
   0.75068684  0.98227699  0.54364355
   0.72558567  0.08103944  0.61663437
   0.18796857  0.24303587  0.60056355
   0.35446805  0.48738618  0.27144965
   0.25816528  0.46508405  0.57468882
   0.67210036  0.15169046  0.63827870
   0.06527126  0.19616555  0.61710385
Direct configuration=    92
   0.00058986  0.24767071  0.29147031
   0.49305682  0.74618241  0.41681489
   0.49287760  0.24680768  0.41657001
   0.00058986  0.74767011  0.29147031
   0.75058982  0.49766954  0.35292815
   0.74014450  0.99851545  0.48194935
   0.25059042  0.49766954  0.35292815
   0.23989317  0.99725680  0.48291138
   0.99618298  0.99740097  0.38536662
   0.51480552  0.49912326  0.51344919
   0.99557869  0.49257668  0.44950258
   0.50058925  0.99767067  0.32219910
   0.98408324  0.22484014  0.55268215
   0.98102294  0.73489357  0.54372353
   0.47592231  0.04707091  0.58166690
   0.99038892  0.22367097  0.48489650
   0.50058925  0.72426545  0.35464748
   0.50058925  0.27107537  0.35464748
   0.98856911  0.76399622  0.48536542
   0.77399447  0.49766954  0.29318964
   0.72319361  0.99783771  0.42032196
   0.48906062  0.22687155  0.47908818
   0.00058986  0.72426545  0.35120881
   0.00058986  0.27107537  0.35120881
   0.48993357  0.76903841  0.47874717
   0.72156498  0.49608267  0.41471440
   0.77399447  0.99767067  0.28975097
   0.26487751  0.49615401  0.41374430
   0.22718577  0.99767067  0.28975097
   0.26794860  0.99717825  0.41969019
   0.22718577  0.49766954  0.29318964
   0.76854851  0.48120700  0.55047824
   0.21238492  0.98088471  0.54350875
   0.23416393  0.50214576  0.54914449
   0.75068684  0.98227699  0.54364355
   0.72558567  0.08103944  0.61663437
   0.18796857  0.24303587  0.60056355
   0.35446805  0.48738618  0.27144965
   0.25816528  0.46508405  0.57468882
   0.67210036  0.15169046  0.63827870
   0.06527126  0.19616555  0.61710385
Direct configuration=    93
   0.00058986  0.24767071  0.29147031
   0.49305682  0.74618241  0.41681489
   0.49287760  0.24680768  0.41657001
   0.00058986  0.74767011  0.29147031
   0.75058982  0.49766954  0.35292815
   0.74014450  0.99851545  0.48194935
   0.25059042  0.49766954  0.35292815
   0.23989317  0.99725680  0.48291138
   0.99618298  0.99740097  0.38536662
   0.51480552  0.49912326  0.51344919
   0.99557869  0.49257668  0.44950258
   0.50058925  0.99767067  0.32219910
   0.98408324  0.22484014  0.55268215
   0.98102294  0.73489357  0.54372353
   0.47592231  0.04707091  0.58166690
   0.99038892  0.22367097  0.48489650
   0.50058925  0.72426545  0.35464748
   0.50058925  0.27107537  0.35464748
   0.98856911  0.76399622  0.48536542
   0.77399447  0.49766954  0.29318964
   0.72319361  0.99783771  0.42032196
   0.48906062  0.22687155  0.47908818
   0.00058986  0.72426545  0.35120881
   0.00058986  0.27107537  0.35120881
   0.48993357  0.76903841  0.47874717
   0.72156498  0.49608267  0.41471440
   0.77399447  0.99767067  0.28975097
   0.26487751  0.49615401  0.41374430
   0.22718577  0.99767067  0.28975097
   0.26794860  0.99717825  0.41969019
   0.22718577  0.49766954  0.29318964
   0.76854851  0.48120700  0.55047824
   0.21238492  0.98088471  0.54350875
   0.23416393  0.50214576  0.54914449
   0.75068684  0.98227699  0.54364355
   0.72558567  0.08103944  0.61663437
   0.18796857  0.24303587  0.60056355
   0.35446805  0.48738618  0.27144965
   0.25816528  0.46508405  0.57468882
   0.67210036  0.15169046  0.63827870
   0.06527126  0.19616555  0.61710385
Direct configuration=    94
   0.00058986  0.24767071  0.29147031
   0.49305682  0.74618241  0.41681489
   0.49287760  0.24680768  0.41657001
   0.00058986  0.74767011  0.29147031
   0.75058982  0.49766954  0.35292815
   0.74014450  0.99851545  0.48194935
   0.25059042  0.49766954  0.35292815
   0.23989317  0.99725680  0.48291138
   0.99618298  0.99740097  0.38536662
   0.51480552  0.49912326  0.51344919
   0.99557869  0.49257668  0.44950258
   0.50058925  0.99767067  0.32219910
   0.98408324  0.22484014  0.55268215
   0.98102294  0.73489357  0.54372353
   0.47592231  0.04707091  0.58166690
   0.99038892  0.22367097  0.48489650
   0.50058925  0.72426545  0.35464748
   0.50058925  0.27107537  0.35464748
   0.98856911  0.76399622  0.48536542
   0.77399447  0.49766954  0.29318964
   0.72319361  0.99783771  0.42032196
   0.48906062  0.22687155  0.47908818
   0.00058986  0.72426545  0.35120881
   0.00058986  0.27107537  0.35120881
   0.48993357  0.76903841  0.47874717
   0.72156498  0.49608267  0.41471440
   0.77399447  0.99767067  0.28975097
   0.26487751  0.49615401  0.41374430
   0.22718577  0.99767067  0.28975097
   0.26794860  0.99717825  0.41969019
   0.22718577  0.49766954  0.29318964
   0.76854851  0.48120700  0.55047824
   0.21238492  0.98088471  0.54350875
   0.23416393  0.50214576  0.54914449
   0.75068684  0.98227699  0.54364355
   0.72558567  0.08103944  0.61663437
   0.18796857  0.24303587  0.60056355
   0.35446805  0.48738618  0.27144965
   0.25816528  0.46508405  0.57468882
   0.67210036  0.15169046  0.63827870
   0.06527126  0.19616555  0.61710385
Direct configuration=    95
   0.00058986  0.24767071  0.29147031
   0.49305682  0.74618241  0.41681489
   0.49287760  0.24680768  0.41657001
   0.00058986  0.74767011  0.29147031
   0.75058982  0.49766954  0.35292815
   0.74014450  0.99851545  0.48194935
   0.25059042  0.49766954  0.35292815
   0.23989317  0.99725680  0.48291138
   0.99618298  0.99740097  0.38536662
   0.51480552  0.49912326  0.51344919
   0.99557869  0.49257668  0.44950258
   0.50058925  0.99767067  0.32219910
   0.98408324  0.22484014  0.55268215
   0.98102294  0.73489357  0.54372353
   0.47592231  0.04707091  0.58166690
   0.99038892  0.22367097  0.48489650
   0.50058925  0.72426545  0.35464748
   0.50058925  0.27107537  0.35464748
   0.98856911  0.76399622  0.48536542
   0.77399447  0.49766954  0.29318964
   0.72319361  0.99783771  0.42032196
   0.48906062  0.22687155  0.47908818
   0.00058986  0.72426545  0.35120881
   0.00058986  0.27107537  0.35120881
   0.48993357  0.76903841  0.47874717
   0.72156498  0.49608267  0.41471440
   0.77399447  0.99767067  0.28975097
   0.26487751  0.49615401  0.41374430
   0.22718577  0.99767067  0.28975097
   0.26794860  0.99717825  0.41969019
   0.22718577  0.49766954  0.29318964
   0.76854851  0.48120700  0.55047824
   0.21238492  0.98088471  0.54350875
   0.23416393  0.50214576  0.54914449
   0.75068684  0.98227699  0.54364355
   0.72558567  0.08103944  0.61663437
   0.18796857  0.24303587  0.60056355
   0.35446805  0.48738618  0.27144965
   0.25816528  0.46508405  0.57468882
   0.67210036  0.15169046  0.63827870
   0.06527126  0.19616555  0.61710385
Direct configuration=    96
   0.00058986  0.24767071  0.29147031
   0.49305682  0.74618241  0.41681489
   0.49287760  0.24680768  0.41657001
   0.00058986  0.74767011  0.29147031
   0.75058982  0.49766954  0.35292815
   0.74014450  0.99851545  0.48194935
   0.25059042  0.49766954  0.35292815
   0.23989317  0.99725680  0.48291138
   0.99618298  0.99740097  0.38536662
   0.51480552  0.49912326  0.51344919
   0.99557869  0.49257668  0.44950258
   0.50058925  0.99767067  0.32219910
   0.98408324  0.22484014  0.55268215
   0.98102294  0.73489357  0.54372353
   0.47592231  0.04707091  0.58166690
   0.99038892  0.22367097  0.48489650
   0.50058925  0.72426545  0.35464748
   0.50058925  0.27107537  0.35464748
   0.98856911  0.76399622  0.48536542
   0.77399447  0.49766954  0.29318964
   0.72319361  0.99783771  0.42032196
   0.48906062  0.22687155  0.47908818
   0.00058986  0.72426545  0.35120881
   0.00058986  0.27107537  0.35120881
   0.48993357  0.76903841  0.47874717
   0.72156498  0.49608267  0.41471440
   0.77399447  0.99767067  0.28975097
   0.26487751  0.49615401  0.41374430
   0.22718577  0.99767067  0.28975097
   0.26794860  0.99717825  0.41969019
   0.22718577  0.49766954  0.29318964
   0.76854851  0.48120700  0.55047824
   0.21238492  0.98088471  0.54350875
   0.23416393  0.50214576  0.54914449
   0.75068684  0.98227699  0.54364355
   0.72558567  0.08103944  0.61663437
   0.18796857  0.24303587  0.60056355
   0.35446805  0.48738618  0.27144965
   0.25816528  0.46508405  0.57468882
   0.67210036  0.15169046  0.63827870
   0.06527126  0.19616555  0.61710385
Direct configuration=    97
   0.00058986  0.24767071  0.29147031
   0.49305682  0.74618241  0.41681489
   0.49287760  0.24680768  0.41657001
   0.00058986  0.74767011  0.29147031
   0.75058982  0.49766954  0.35292815
   0.74014450  0.99851545  0.48194935
   0.25059042  0.49766954  0.35292815
   0.23989317  0.99725680  0.48291138
   0.99618298  0.99740097  0.38536662
   0.51480552  0.49912326  0.51344919
   0.99557869  0.49257668  0.44950258
   0.50058925  0.99767067  0.32219910
   0.98408324  0.22484014  0.55268215
   0.98102294  0.73489357  0.54372353
   0.47592231  0.04707091  0.58166690
   0.99038892  0.22367097  0.48489650
   0.50058925  0.72426545  0.35464748
   0.50058925  0.27107537  0.35464748
   0.98856911  0.76399622  0.48536542
   0.77399447  0.49766954  0.29318964
   0.72319361  0.99783771  0.42032196
   0.48906062  0.22687155  0.47908818
   0.00058986  0.72426545  0.35120881
   0.00058986  0.27107537  0.35120881
   0.48993357  0.76903841  0.47874717
   0.72156498  0.49608267  0.41471440
   0.77399447  0.99767067  0.28975097
   0.26487751  0.49615401  0.41374430
   0.22718577  0.99767067  0.28975097
   0.26794860  0.99717825  0.41969019
   0.22718577  0.49766954  0.29318964
   0.76854851  0.48120700  0.55047824
   0.21238492  0.98088471  0.54350875
   0.23416393  0.50214576  0.54914449
   0.75068684  0.98227699  0.54364355
   0.72558567  0.08103944  0.61663437
   0.18796857  0.24303587  0.60056355
   0.35446805  0.48738618  0.27144965
   0.25816528  0.46508405  0.57468882
   0.67210036  0.15169046  0.63827870
   0.06527126  0.19616555  0.61710385
Direct configuration=    98
   0.00058986  0.24767071  0.29147031
   0.49305682  0.74618241  0.41681489
   0.49287760  0.24680768  0.41657001
   0.00058986  0.74767011  0.29147031
   0.75058982  0.49766954  0.35292815
   0.74014450  0.99851545  0.48194935
   0.25059042  0.49766954  0.35292815
   0.23989317  0.99725680  0.48291138
   0.99618298  0.99740097  0.38536662
   0.51480552  0.49912326  0.51344919
   0.99557869  0.49257668  0.44950258
   0.50058925  0.99767067  0.32219910
   0.98408324  0.22484014  0.55268215
   0.98102294  0.73489357  0.54372353
   0.47592231  0.04707091  0.58166690
   0.99038892  0.22367097  0.48489650
   0.50058925  0.72426545  0.35464748
   0.50058925  0.27107537  0.35464748
   0.98856911  0.76399622  0.48536542
   0.77399447  0.49766954  0.29318964
   0.72319361  0.99783771  0.42032196
   0.48906062  0.22687155  0.47908818
   0.00058986  0.72426545  0.35120881
   0.00058986  0.27107537  0.35120881
   0.48993357  0.76903841  0.47874717
   0.72156498  0.49608267  0.41471440
   0.77399447  0.99767067  0.28975097
   0.26487751  0.49615401  0.41374430
   0.22718577  0.99767067  0.28975097
   0.26794860  0.99717825  0.41969019
   0.22718577  0.49766954  0.29318964
   0.76854851  0.48120700  0.55047824
   0.21238492  0.98088471  0.54350875
   0.23416393  0.50214576  0.54914449
   0.75068684  0.98227699  0.54364355
   0.72558567  0.08103944  0.61663437
   0.18796857  0.24303587  0.60056355
   0.35446805  0.48738618  0.27144965
   0.25816528  0.46508405  0.57468882
   0.67210036  0.15169046  0.63827870
   0.06527126  0.19616555  0.61710385
Direct configuration=    99
   0.00058986  0.24767071  0.29147031
   0.49305682  0.74618241  0.41681489
   0.49287760  0.24680768  0.41657001
   0.00058986  0.74767011  0.29147031
   0.75058982  0.49766954  0.35292815
   0.74014450  0.99851545  0.48194935
   0.25059042  0.49766954  0.35292815
   0.23989317  0.99725680  0.48291138
   0.99618298  0.99740097  0.38536662
   0.51480552  0.49912326  0.51344919
   0.99557869  0.49257668  0.44950258
   0.50058925  0.99767067  0.32219910
   0.98408324  0.22484014  0.55268215
   0.98102294  0.73489357  0.54372353
   0.47592231  0.04707091  0.58166690
   0.99038892  0.22367097  0.48489650
   0.50058925  0.72426545  0.35464748
   0.50058925  0.27107537  0.35464748
   0.98856911  0.76399622  0.48536542
   0.77399447  0.49766954  0.29318964
   0.72319361  0.99783771  0.42032196
   0.48906062  0.22687155  0.47908818
   0.00058986  0.72426545  0.35120881
   0.00058986  0.27107537  0.35120881
   0.48993357  0.76903841  0.47874717
   0.72156498  0.49608267  0.41471440
   0.77399447  0.99767067  0.28975097
   0.26487751  0.49615401  0.41374430
   0.22718577  0.99767067  0.28975097
   0.26794860  0.99717825  0.41969019
   0.22718577  0.49766954  0.29318964
   0.76854851  0.48120700  0.55047824
   0.21238492  0.98088471  0.54350875
   0.23416393  0.50214576  0.54914449
   0.75068684  0.98227699  0.54364355
   0.72558567  0.08103944  0.61663437
   0.18796857  0.24303587  0.60056355
   0.35446805  0.48738618  0.27144965
   0.25816528  0.46508405  0.57468882
   0.67210036  0.15169046  0.63827870
   0.06527126  0.19616555  0.61710385
Direct configuration=   100
   0.00058986  0.24767071  0.29147031
   0.49305682  0.74618241  0.41681489
   0.49287760  0.24680768  0.41657001
   0.00058986  0.74767011  0.29147031
   0.75058982  0.49766954  0.35292815
   0.74014450  0.99851545  0.48194935
   0.25059042  0.49766954  0.35292815
   0.23989317  0.99725680  0.48291138
   0.99618298  0.99740097  0.38536662
   0.51480552  0.49912326  0.51344919
   0.99557869  0.49257668  0.44950258
   0.50058925  0.99767067  0.32219910
   0.98408324  0.22484014  0.55268215
   0.98102294  0.73489357  0.54372353
   0.47592231  0.04707091  0.58166690
   0.99038892  0.22367097  0.48489650
   0.50058925  0.72426545  0.35464748
   0.50058925  0.27107537  0.35464748
   0.98856911  0.76399622  0.48536542
   0.77399447  0.49766954  0.29318964
   0.72319361  0.99783771  0.42032196
   0.48906062  0.22687155  0.47908818
   0.00058986  0.72426545  0.35120881
   0.00058986  0.27107537  0.35120881
   0.48993357  0.76903841  0.47874717
   0.72156498  0.49608267  0.41471440
   0.77399447  0.99767067  0.28975097
   0.26487751  0.49615401  0.41374430
   0.22718577  0.99767067  0.28975097
   0.26794860  0.99717825  0.41969019
   0.22718577  0.49766954  0.29318964
   0.76854851  0.48120700  0.55047824
   0.21238492  0.98088471  0.54350875
   0.23416393  0.50214576  0.54914449
   0.75068684  0.98227699  0.54364355
   0.72558567  0.08103944  0.61663437
   0.18796857  0.24303587  0.60056355
   0.35446805  0.48738618  0.27144965
   0.25816528  0.46508405  0.57468882
   0.67210036  0.15169046  0.63827870
   0.06527126  0.19616555  0.61710385
Direct configuration=   101
   0.00058986  0.24767071  0.29147031
   0.49305682  0.74618241  0.41681489
   0.49287760  0.24680768  0.41657001
   0.00058986  0.74767011  0.29147031
   0.75058982  0.49766954  0.35292815
   0.74014450  0.99851545  0.48194935
   0.25059042  0.49766954  0.35292815
   0.23989317  0.99725680  0.48291138
   0.99618298  0.99740097  0.38536662
   0.51480552  0.49912326  0.51344919
   0.99557869  0.49257668  0.44950258
   0.50058925  0.99767067  0.32219910
   0.98408324  0.22484014  0.55268215
   0.98102294  0.73489357  0.54372353
   0.47592231  0.04707091  0.58166690
   0.99038892  0.22367097  0.48489650
   0.50058925  0.72426545  0.35464748
   0.50058925  0.27107537  0.35464748
   0.98856911  0.76399622  0.48536542
   0.77399447  0.49766954  0.29318964
   0.72319361  0.99783771  0.42032196
   0.48906062  0.22687155  0.47908818
   0.00058986  0.72426545  0.35120881
   0.00058986  0.27107537  0.35120881
   0.48993357  0.76903841  0.47874717
   0.72156498  0.49608267  0.41471440
   0.77399447  0.99767067  0.28975097
   0.26487751  0.49615401  0.41374430
   0.22718577  0.99767067  0.28975097
   0.26794860  0.99717825  0.41969019
   0.22718577  0.49766954  0.29318964
   0.76854851  0.48120700  0.55047824
   0.21238492  0.98088471  0.54350875
   0.23416393  0.50214576  0.54914449
   0.75068684  0.98227699  0.54364355
   0.72558567  0.08103944  0.61663437
   0.18796857  0.24303587  0.60056355
   0.35446805  0.48738618  0.27144965
   0.25816528  0.46508405  0.57468882
   0.67210036  0.15169046  0.63827870
   0.06527126  0.19616555  0.61710385
Direct configuration=   102
   0.00058986  0.24767071  0.29147031
   0.49305682  0.74618241  0.41681489
   0.49287760  0.24680768  0.41657001
   0.00058986  0.74767011  0.29147031
   0.75058982  0.49766954  0.35292815
   0.74014450  0.99851545  0.48194935
   0.25059042  0.49766954  0.35292815
   0.23989317  0.99725680  0.48291138
   0.99618298  0.99740097  0.38536662
   0.51480552  0.49912326  0.51344919
   0.99557869  0.49257668  0.44950258
   0.50058925  0.99767067  0.32219910
   0.98408324  0.22484014  0.55268215
   0.98102294  0.73489357  0.54372353
   0.47592231  0.04707091  0.58166690
   0.99038892  0.22367097  0.48489650
   0.50058925  0.72426545  0.35464748
   0.50058925  0.27107537  0.35464748
   0.98856911  0.76399622  0.48536542
   0.77399447  0.49766954  0.29318964
   0.72319361  0.99783771  0.42032196
   0.48906062  0.22687155  0.47908818
   0.00058986  0.72426545  0.35120881
   0.00058986  0.27107537  0.35120881
   0.48993357  0.76903841  0.47874717
   0.72156498  0.49608267  0.41471440
   0.77399447  0.99767067  0.28975097
   0.26487751  0.49615401  0.41374430
   0.22718577  0.99767067  0.28975097
   0.26794860  0.99717825  0.41969019
   0.22718577  0.49766954  0.29318964
   0.76854851  0.48120700  0.55047824
   0.21238492  0.98088471  0.54350875
   0.23416393  0.50214576  0.54914449
   0.75068684  0.98227699  0.54364355
   0.72558567  0.08103944  0.61663437
   0.18796857  0.24303587  0.60056355
   0.35446805  0.48738618  0.27144965
   0.25816528  0.46508405  0.57468882
   0.67210036  0.15169046  0.63827870
   0.06527126  0.19616555  0.61710385
Direct configuration=   103
   0.00058986  0.24767071  0.29147031
   0.49305682  0.74618241  0.41681489
   0.49287760  0.24680768  0.41657001
   0.00058986  0.74767011  0.29147031
   0.75058982  0.49766954  0.35292815
   0.74014450  0.99851545  0.48194935
   0.25059042  0.49766954  0.35292815
   0.23989317  0.99725680  0.48291138
   0.99618298  0.99740097  0.38536662
   0.51480552  0.49912326  0.51344919
   0.99557869  0.49257668  0.44950258
   0.50058925  0.99767067  0.32219910
   0.98408324  0.22484014  0.55268215
   0.98102294  0.73489357  0.54372353
   0.47592231  0.04707091  0.58166690
   0.99038892  0.22367097  0.48489650
   0.50058925  0.72426545  0.35464748
   0.50058925  0.27107537  0.35464748
   0.98856911  0.76399622  0.48536542
   0.77399447  0.49766954  0.29318964
   0.72319361  0.99783771  0.42032196
   0.48906062  0.22687155  0.47908818
   0.00058986  0.72426545  0.35120881
   0.00058986  0.27107537  0.35120881
   0.48993357  0.76903841  0.47874717
   0.72156498  0.49608267  0.41471440
   0.77399447  0.99767067  0.28975097
   0.26487751  0.49615401  0.41374430
   0.22718577  0.99767067  0.28975097
   0.26794860  0.99717825  0.41969019
   0.22718577  0.49766954  0.29318964
   0.76854851  0.48120700  0.55047824
   0.21238492  0.98088471  0.54350875
   0.23416393  0.50214576  0.54914449
   0.75068684  0.98227699  0.54364355
   0.72558567  0.08103944  0.61663437
   0.18796857  0.24303587  0.60056355
   0.35446805  0.48738618  0.27144965
   0.25816528  0.46508405  0.57468882
   0.67210036  0.15169046  0.63827870
   0.06527126  0.19616555  0.61710385
Direct configuration=   104
   0.00058986  0.24767071  0.29147031
   0.49305682  0.74618241  0.41681489
   0.49287760  0.24680768  0.41657001
   0.00058986  0.74767011  0.29147031
   0.75058982  0.49766954  0.35292815
   0.74014450  0.99851545  0.48194935
   0.25059042  0.49766954  0.35292815
   0.23989317  0.99725680  0.48291138
   0.99618298  0.99740097  0.38536662
   0.51480552  0.49912326  0.51344919
   0.99557869  0.49257668  0.44950258
   0.50058925  0.99767067  0.32219910
   0.98408324  0.22484014  0.55268215
   0.98102294  0.73489357  0.54372353
   0.47592231  0.04707091  0.58166690
   0.99038892  0.22367097  0.48489650
   0.50058925  0.72426545  0.35464748
   0.50058925  0.27107537  0.35464748
   0.98856911  0.76399622  0.48536542
   0.77399447  0.49766954  0.29318964
   0.72319361  0.99783771  0.42032196
   0.48906062  0.22687155  0.47908818
   0.00058986  0.72426545  0.35120881
   0.00058986  0.27107537  0.35120881
   0.48993357  0.76903841  0.47874717
   0.72156498  0.49608267  0.41471440
   0.77399447  0.99767067  0.28975097
   0.26487751  0.49615401  0.41374430
   0.22718577  0.99767067  0.28975097
   0.26794860  0.99717825  0.41969019
   0.22718577  0.49766954  0.29318964
   0.76854851  0.48120700  0.55047824
   0.21238492  0.98088471  0.54350875
   0.23416393  0.50214576  0.54914449
   0.75068684  0.98227699  0.54364355
   0.72558567  0.08103944  0.61663437
   0.18796857  0.24303587  0.60056355
   0.35446805  0.48738618  0.27144965
   0.25816528  0.46508405  0.57468882
   0.67210036  0.15169046  0.63827870
   0.06527126  0.19616555  0.61710385
Direct configuration=   105
   0.00058986  0.24767071  0.29147031
   0.49305682  0.74618241  0.41681489
   0.49287760  0.24680768  0.41657001
   0.00058986  0.74767011  0.29147031
   0.75058982  0.49766954  0.35292815
   0.74014450  0.99851545  0.48194935
   0.25059042  0.49766954  0.35292815
   0.23989317  0.99725680  0.48291138
   0.99618298  0.99740097  0.38536662
   0.51480552  0.49912326  0.51344919
   0.99557869  0.49257668  0.44950258
   0.50058925  0.99767067  0.32219910
   0.98408324  0.22484014  0.55268215
   0.98102294  0.73489357  0.54372353
   0.47592231  0.04707091  0.58166690
   0.99038892  0.22367097  0.48489650
   0.50058925  0.72426545  0.35464748
   0.50058925  0.27107537  0.35464748
   0.98856911  0.76399622  0.48536542
   0.77399447  0.49766954  0.29318964
   0.72319361  0.99783771  0.42032196
   0.48906062  0.22687155  0.47908818
   0.00058986  0.72426545  0.35120881
   0.00058986  0.27107537  0.35120881
   0.48993357  0.76903841  0.47874717
   0.72156498  0.49608267  0.41471440
   0.77399447  0.99767067  0.28975097
   0.26487751  0.49615401  0.41374430
   0.22718577  0.99767067  0.28975097
   0.26794860  0.99717825  0.41969019
   0.22718577  0.49766954  0.29318964
   0.76854851  0.48120700  0.55047824
   0.21238492  0.98088471  0.54350875
   0.23416393  0.50214576  0.54914449
   0.75068684  0.98227699  0.54364355
   0.72558567  0.08103944  0.61663437
   0.18796857  0.24303587  0.60056355
   0.35446805  0.48738618  0.27144965
   0.25816528  0.46508405  0.57468882
   0.67210036  0.15169046  0.63827870
   0.06527126  0.19616555  0.61710385
Direct configuration=   106
   0.00058986  0.24767071  0.29147031
   0.49305682  0.74618241  0.41681489
   0.49287760  0.24680768  0.41657001
   0.00058986  0.74767011  0.29147031
   0.75058982  0.49766954  0.35292815
   0.74014450  0.99851545  0.48194935
   0.25059042  0.49766954  0.35292815
   0.23989317  0.99725680  0.48291138
   0.99618298  0.99740097  0.38536662
   0.51480552  0.49912326  0.51344919
   0.99557869  0.49257668  0.44950258
   0.50058925  0.99767067  0.32219910
   0.98408324  0.22484014  0.55268215
   0.98102294  0.73489357  0.54372353
   0.47592231  0.04707091  0.58166690
   0.99038892  0.22367097  0.48489650
   0.50058925  0.72426545  0.35464748
   0.50058925  0.27107537  0.35464748
   0.98856911  0.76399622  0.48536542
   0.77399447  0.49766954  0.29318964
   0.72319361  0.99783771  0.42032196
   0.48906062  0.22687155  0.47908818
   0.00058986  0.72426545  0.35120881
   0.00058986  0.27107537  0.35120881
   0.48993357  0.76903841  0.47874717
   0.72156498  0.49608267  0.41471440
   0.77399447  0.99767067  0.28975097
   0.26487751  0.49615401  0.41374430
   0.22718577  0.99767067  0.28975097
   0.26794860  0.99717825  0.41969019
   0.22718577  0.49766954  0.29318964
   0.76854851  0.48120700  0.55047824
   0.21238492  0.98088471  0.54350875
   0.23416393  0.50214576  0.54914449
   0.75068684  0.98227699  0.54364355
   0.72558567  0.08103944  0.61663437
   0.18796857  0.24303587  0.60056355
   0.35446805  0.48738618  0.27144965
   0.25816528  0.46508405  0.57468882
   0.67210036  0.15169046  0.63827870
   0.06527126  0.19616555  0.61710385
Direct configuration=   107
   0.00058986  0.24767071  0.29147031
   0.49305682  0.74618241  0.41681489
   0.49287760  0.24680768  0.41657001
   0.00058986  0.74767011  0.29147031
   0.75058982  0.49766954  0.35292815
   0.74014450  0.99851545  0.48194935
   0.25059042  0.49766954  0.35292815
   0.23989317  0.99725680  0.48291138
   0.99618298  0.99740097  0.38536662
   0.51480552  0.49912326  0.51344919
   0.99557869  0.49257668  0.44950258
   0.50058925  0.99767067  0.32219910
   0.98408324  0.22484014  0.55268215
   0.98102294  0.73489357  0.54372353
   0.47592231  0.04707091  0.58166690
   0.99038892  0.22367097  0.48489650
   0.50058925  0.72426545  0.35464748
   0.50058925  0.27107537  0.35464748
   0.98856911  0.76399622  0.48536542
   0.77399447  0.49766954  0.29318964
   0.72319361  0.99783771  0.42032196
   0.48906062  0.22687155  0.47908818
   0.00058986  0.72426545  0.35120881
   0.00058986  0.27107537  0.35120881
   0.48993357  0.76903841  0.47874717
   0.72156498  0.49608267  0.41471440
   0.77399447  0.99767067  0.28975097
   0.26487751  0.49615401  0.41374430
   0.22718577  0.99767067  0.28975097
   0.26794860  0.99717825  0.41969019
   0.22718577  0.49766954  0.29318964
   0.76854851  0.48120700  0.55047824
   0.21238492  0.98088471  0.54350875
   0.23416393  0.50214576  0.54914449
   0.75068684  0.98227699  0.54364355
   0.72558567  0.08103944  0.61663437
   0.18796857  0.24303587  0.60056355
   0.35446805  0.48738618  0.27144965
   0.25816528  0.46508405  0.57468882
   0.67210036  0.15169046  0.63827870
   0.06527126  0.19616555  0.61710385
Direct configuration=   108
   0.00058986  0.24767071  0.29147031
   0.49305682  0.74618241  0.41681489
   0.49287760  0.24680768  0.41657001
   0.00058986  0.74767011  0.29147031
   0.75058982  0.49766954  0.35292815
   0.74014450  0.99851545  0.48194935
   0.25059042  0.49766954  0.35292815
   0.23989317  0.99725680  0.48291138
   0.99618298  0.99740097  0.38536662
   0.51480552  0.49912326  0.51344919
   0.99557869  0.49257668  0.44950258
   0.50058925  0.99767067  0.32219910
   0.98408324  0.22484014  0.55268215
   0.98102294  0.73489357  0.54372353
   0.47592231  0.04707091  0.58166690
   0.99038892  0.22367097  0.48489650
   0.50058925  0.72426545  0.35464748
   0.50058925  0.27107537  0.35464748
   0.98856911  0.76399622  0.48536542
   0.77399447  0.49766954  0.29318964
   0.72319361  0.99783771  0.42032196
   0.48906062  0.22687155  0.47908818
   0.00058986  0.72426545  0.35120881
   0.00058986  0.27107537  0.35120881
   0.48993357  0.76903841  0.47874717
   0.72156498  0.49608267  0.41471440
   0.77399447  0.99767067  0.28975097
   0.26487751  0.49615401  0.41374430
   0.22718577  0.99767067  0.28975097
   0.26794860  0.99717825  0.41969019
   0.22718577  0.49766954  0.29318964
   0.76854851  0.48120700  0.55047824
   0.21238492  0.98088471  0.54350875
   0.23416393  0.50214576  0.54914449
   0.75068684  0.98227699  0.54364355
   0.72558567  0.08103944  0.61663437
   0.18796857  0.24303587  0.60056355
   0.35446805  0.48738618  0.27144965
   0.25816528  0.46508405  0.57468882
   0.67210036  0.15169046  0.63827870
   0.06527126  0.19616555  0.61710385
Direct configuration=   109
   0.00058986  0.24767071  0.29147031
   0.49305682  0.74618241  0.41681489
   0.49287760  0.24680768  0.41657001
   0.00058986  0.74767011  0.29147031
   0.75058982  0.49766954  0.35292815
   0.74014450  0.99851545  0.48194935
   0.25059042  0.49766954  0.35292815
   0.23989317  0.99725680  0.48291138
   0.99618298  0.99740097  0.38536662
   0.51480552  0.49912326  0.51344919
   0.99557869  0.49257668  0.44950258
   0.50058925  0.99767067  0.32219910
   0.98408324  0.22484014  0.55268215
   0.98102294  0.73489357  0.54372353
   0.47592231  0.04707091  0.58166690
   0.99038892  0.22367097  0.48489650
   0.50058925  0.72426545  0.35464748
   0.50058925  0.27107537  0.35464748
   0.98856911  0.76399622  0.48536542
   0.77399447  0.49766954  0.29318964
   0.72319361  0.99783771  0.42032196
   0.48906062  0.22687155  0.47908818
   0.00058986  0.72426545  0.35120881
   0.00058986  0.27107537  0.35120881
   0.48993357  0.76903841  0.47874717
   0.72156498  0.49608267  0.41471440
   0.77399447  0.99767067  0.28975097
   0.26487751  0.49615401  0.41374430
   0.22718577  0.99767067  0.28975097
   0.26794860  0.99717825  0.41969019
   0.22718577  0.49766954  0.29318964
   0.76854851  0.48120700  0.55047824
   0.21238492  0.98088471  0.54350875
   0.23416393  0.50214576  0.54914449
   0.75068684  0.98227699  0.54364355
   0.72558567  0.08103944  0.61663437
   0.18796857  0.24303587  0.60056355
   0.35446805  0.48738618  0.27144965
   0.25816528  0.46508405  0.57468882
   0.67210036  0.15169046  0.63827870
   0.06527126  0.19616555  0.61710385
Direct configuration=   110
   0.00058986  0.24767071  0.29147031
   0.49305682  0.74618241  0.41681489
   0.49287760  0.24680768  0.41657001
   0.00058986  0.74767011  0.29147031
   0.75058982  0.49766954  0.35292815
   0.74014450  0.99851545  0.48194935
   0.25059042  0.49766954  0.35292815
   0.23989317  0.99725680  0.48291138
   0.99618298  0.99740097  0.38536662
   0.51480552  0.49912326  0.51344919
   0.99557869  0.49257668  0.44950258
   0.50058925  0.99767067  0.32219910
   0.98408324  0.22484014  0.55268215
   0.98102294  0.73489357  0.54372353
   0.47592231  0.04707091  0.58166690
   0.99038892  0.22367097  0.48489650
   0.50058925  0.72426545  0.35464748
   0.50058925  0.27107537  0.35464748
   0.98856911  0.76399622  0.48536542
   0.77399447  0.49766954  0.29318964
   0.72319361  0.99783771  0.42032196
   0.48906062  0.22687155  0.47908818
   0.00058986  0.72426545  0.35120881
   0.00058986  0.27107537  0.35120881
   0.48993357  0.76903841  0.47874717
   0.72156498  0.49608267  0.41471440
   0.77399447  0.99767067  0.28975097
   0.26487751  0.49615401  0.41374430
   0.22718577  0.99767067  0.28975097
   0.26794860  0.99717825  0.41969019
   0.22718577  0.49766954  0.29318964
   0.76854851  0.48120700  0.55047824
   0.21238492  0.98088471  0.54350875
   0.23416393  0.50214576  0.54914449
   0.75068684  0.98227699  0.54364355
   0.72558567  0.08103944  0.61663437
   0.18796857  0.24303587  0.60056355
   0.35446805  0.48738618  0.27144965
   0.25816528  0.46508405  0.57468882
   0.67210036  0.15169046  0.63827870
   0.06527126  0.19616555  0.61710385
Direct configuration=   111
   0.00058986  0.24767071  0.29147031
   0.49305682  0.74618241  0.41681489
   0.49287760  0.24680768  0.41657001
   0.00058986  0.74767011  0.29147031
   0.75058982  0.49766954  0.35292815
   0.74014450  0.99851545  0.48194935
   0.25059042  0.49766954  0.35292815
   0.23989317  0.99725680  0.48291138
   0.99618298  0.99740097  0.38536662
   0.51480552  0.49912326  0.51344919
   0.99557869  0.49257668  0.44950258
   0.50058925  0.99767067  0.32219910
   0.98408324  0.22484014  0.55268215
   0.98102294  0.73489357  0.54372353
   0.47592231  0.04707091  0.58166690
   0.99038892  0.22367097  0.48489650
   0.50058925  0.72426545  0.35464748
   0.50058925  0.27107537  0.35464748
   0.98856911  0.76399622  0.48536542
   0.77399447  0.49766954  0.29318964
   0.72319361  0.99783771  0.42032196
   0.48906062  0.22687155  0.47908818
   0.00058986  0.72426545  0.35120881
   0.00058986  0.27107537  0.35120881
   0.48993357  0.76903841  0.47874717
   0.72156498  0.49608267  0.41471440
   0.77399447  0.99767067  0.28975097
   0.26487751  0.49615401  0.41374430
   0.22718577  0.99767067  0.28975097
   0.26794860  0.99717825  0.41969019
   0.22718577  0.49766954  0.29318964
   0.76854851  0.48120700  0.55047824
   0.21238492  0.98088471  0.54350875
   0.23416393  0.50214576  0.54914449
   0.75068684  0.98227699  0.54364355
   0.72558567  0.08103944  0.61663437
   0.18796857  0.24303587  0.60056355
   0.35446805  0.48738618  0.27144965
   0.25816528  0.46508405  0.57468882
   0.67210036  0.15169046  0.63827870
   0.06527126  0.19616555  0.61710385
Direct configuration=   112
   0.00058986  0.24767071  0.29147031
   0.49305682  0.74618241  0.41681489
   0.49287760  0.24680768  0.41657001
   0.00058986  0.74767011  0.29147031
   0.75058982  0.49766954  0.35292815
   0.74014450  0.99851545  0.48194935
   0.25059042  0.49766954  0.35292815
   0.23989317  0.99725680  0.48291138
   0.99618298  0.99740097  0.38536662
   0.51480552  0.49912326  0.51344919
   0.99557869  0.49257668  0.44950258
   0.50058925  0.99767067  0.32219910
   0.98408324  0.22484014  0.55268215
   0.98102294  0.73489357  0.54372353
   0.47592231  0.04707091  0.58166690
   0.99038892  0.22367097  0.48489650
   0.50058925  0.72426545  0.35464748
   0.50058925  0.27107537  0.35464748
   0.98856911  0.76399622  0.48536542
   0.77399447  0.49766954  0.29318964
   0.72319361  0.99783771  0.42032196
   0.48906062  0.22687155  0.47908818
   0.00058986  0.72426545  0.35120881
   0.00058986  0.27107537  0.35120881
   0.48993357  0.76903841  0.47874717
   0.72156498  0.49608267  0.41471440
   0.77399447  0.99767067  0.28975097
   0.26487751  0.49615401  0.41374430
   0.22718577  0.99767067  0.28975097
   0.26794860  0.99717825  0.41969019
   0.22718577  0.49766954  0.29318964
   0.76854851  0.48120700  0.55047824
   0.21238492  0.98088471  0.54350875
   0.23416393  0.50214576  0.54914449
   0.75068684  0.98227699  0.54364355
   0.72558567  0.08103944  0.61663437
   0.18796857  0.24303587  0.60056355
   0.35446805  0.48738618  0.27144965
   0.25816528  0.46508405  0.57468882
   0.67210036  0.15169046  0.63827870
   0.06527126  0.19616555  0.61710385
Direct configuration=   113
   0.00058986  0.24767071  0.29147031
   0.49305682  0.74618241  0.41681489
   0.49287760  0.24680768  0.41657001
   0.00058986  0.74767011  0.29147031
   0.75058982  0.49766954  0.35292815
   0.74014450  0.99851545  0.48194935
   0.25059042  0.49766954  0.35292815
   0.23989317  0.99725680  0.48291138
   0.99618298  0.99740097  0.38536662
   0.51480552  0.49912326  0.51344919
   0.99557869  0.49257668  0.44950258
   0.50058925  0.99767067  0.32219910
   0.98408324  0.22484014  0.55268215
   0.98102294  0.73489357  0.54372353
   0.47592231  0.04707091  0.58166690
   0.99038892  0.22367097  0.48489650
   0.50058925  0.72426545  0.35464748
   0.50058925  0.27107537  0.35464748
   0.98856911  0.76399622  0.48536542
   0.77399447  0.49766954  0.29318964
   0.72319361  0.99783771  0.42032196
   0.48906062  0.22687155  0.47908818
   0.00058986  0.72426545  0.35120881
   0.00058986  0.27107537  0.35120881
   0.48993357  0.76903841  0.47874717
   0.72156498  0.49608267  0.41471440
   0.77399447  0.99767067  0.28975097
   0.26487751  0.49615401  0.41374430
   0.22718577  0.99767067  0.28975097
   0.26794860  0.99717825  0.41969019
   0.22718577  0.49766954  0.29318964
   0.76854851  0.48120700  0.55047824
   0.21238492  0.98088471  0.54350875
   0.23416393  0.50214576  0.54914449
   0.75068684  0.98227699  0.54364355
   0.72558567  0.08103944  0.61663437
   0.18796857  0.24303587  0.60056355
   0.35446805  0.48738618  0.27144965
   0.25816528  0.46508405  0.57468882
   0.67210036  0.15169046  0.63827870
   0.06527126  0.19616555  0.61710385
Direct configuration=   114
   0.00058986  0.24767071  0.29147031
   0.49305682  0.74618241  0.41681489
   0.49287760  0.24680768  0.41657001
   0.00058986  0.74767011  0.29147031
   0.75058982  0.49766954  0.35292815
   0.74014450  0.99851545  0.48194935
   0.25059042  0.49766954  0.35292815
   0.23989317  0.99725680  0.48291138
   0.99618298  0.99740097  0.38536662
   0.51480552  0.49912326  0.51344919
   0.99557869  0.49257668  0.44950258
   0.50058925  0.99767067  0.32219910
   0.98408324  0.22484014  0.55268215
   0.98102294  0.73489357  0.54372353
   0.47592231  0.04707091  0.58166690
   0.99038892  0.22367097  0.48489650
   0.50058925  0.72426545  0.35464748
   0.50058925  0.27107537  0.35464748
   0.98856911  0.76399622  0.48536542
   0.77399447  0.49766954  0.29318964
   0.72319361  0.99783771  0.42032196
   0.48906062  0.22687155  0.47908818
   0.00058986  0.72426545  0.35120881
   0.00058986  0.27107537  0.35120881
   0.48993357  0.76903841  0.47874717
   0.72156498  0.49608267  0.41471440
   0.77399447  0.99767067  0.28975097
   0.26487751  0.49615401  0.41374430
   0.22718577  0.99767067  0.28975097
   0.26794860  0.99717825  0.41969019
   0.22718577  0.49766954  0.29318964
   0.76854851  0.48120700  0.55047824
   0.21238492  0.98088471  0.54350875
   0.23416393  0.50214576  0.54914449
   0.75068684  0.98227699  0.54364355
   0.72558567  0.08103944  0.61663437
   0.18796857  0.24303587  0.60056355
   0.35446805  0.48738618  0.27144965
   0.25816528  0.46508405  0.57468882
   0.67210036  0.15169046  0.63827870
   0.06527126  0.19616555  0.61710385
Direct configuration=   115
   0.00058986  0.24767071  0.29147031
   0.49305682  0.74618241  0.41681489
   0.49287760  0.24680768  0.41657001
   0.00058986  0.74767011  0.29147031
   0.75058982  0.49766954  0.35292815
   0.74014450  0.99851545  0.48194935
   0.25059042  0.49766954  0.35292815
   0.23989317  0.99725680  0.48291138
   0.99618298  0.99740097  0.38536662
   0.51480552  0.49912326  0.51344919
   0.99557869  0.49257668  0.44950258
   0.50058925  0.99767067  0.32219910
   0.98408324  0.22484014  0.55268215
   0.98102294  0.73489357  0.54372353
   0.47592231  0.04707091  0.58166690
   0.99038892  0.22367097  0.48489650
   0.50058925  0.72426545  0.35464748
   0.50058925  0.27107537  0.35464748
   0.98856911  0.76399622  0.48536542
   0.77399447  0.49766954  0.29318964
   0.72319361  0.99783771  0.42032196
   0.48906062  0.22687155  0.47908818
   0.00058986  0.72426545  0.35120881
   0.00058986  0.27107537  0.35120881
   0.48993357  0.76903841  0.47874717
   0.72156498  0.49608267  0.41471440
   0.77399447  0.99767067  0.28975097
   0.26487751  0.49615401  0.41374430
   0.22718577  0.99767067  0.28975097
   0.26794860  0.99717825  0.41969019
   0.22718577  0.49766954  0.29318964
   0.76854851  0.48120700  0.55047824
   0.21238492  0.98088471  0.54350875
   0.23416393  0.50214576  0.54914449
   0.75068684  0.98227699  0.54364355
   0.72558567  0.08103944  0.61663437
   0.18796857  0.24303587  0.60056355
   0.35446805  0.48738618  0.27144965
   0.25816528  0.46508405  0.57468882
   0.67210036  0.15169046  0.63827870
   0.06527126  0.19616555  0.61710385
Direct configuration=   116
   0.00058986  0.24767071  0.29147031
   0.49305682  0.74618241  0.41681489
   0.49287760  0.24680768  0.41657001
   0.00058986  0.74767011  0.29147031
   0.75058982  0.49766954  0.35292815
   0.74014450  0.99851545  0.48194935
   0.25059042  0.49766954  0.35292815
   0.23989317  0.99725680  0.48291138
   0.99618298  0.99740097  0.38536662
   0.51480552  0.49912326  0.51344919
   0.99557869  0.49257668  0.44950258
   0.50058925  0.99767067  0.32219910
   0.98408324  0.22484014  0.55268215
   0.98102294  0.73489357  0.54372353
   0.47592231  0.04707091  0.58166690
   0.99038892  0.22367097  0.48489650
   0.50058925  0.72426545  0.35464748
   0.50058925  0.27107537  0.35464748
   0.98856911  0.76399622  0.48536542
   0.77399447  0.49766954  0.29318964
   0.72319361  0.99783771  0.42032196
   0.48906062  0.22687155  0.47908818
   0.00058986  0.72426545  0.35120881
   0.00058986  0.27107537  0.35120881
   0.48993357  0.76903841  0.47874717
   0.72156498  0.49608267  0.41471440
   0.77399447  0.99767067  0.28975097
   0.26487751  0.49615401  0.41374430
   0.22718577  0.99767067  0.28975097
   0.26794860  0.99717825  0.41969019
   0.22718577  0.49766954  0.29318964
   0.76854851  0.48120700  0.55047824
   0.21238492  0.98088471  0.54350875
   0.23416393  0.50214576  0.54914449
   0.75068684  0.98227699  0.54364355
   0.72558567  0.08103944  0.61663437
   0.18796857  0.24303587  0.60056355
   0.35446805  0.48738618  0.27144965
   0.25816528  0.46508405  0.57468882
   0.67210036  0.15169046  0.63827870
   0.06527126  0.19616555  0.61710385
Direct configuration=   117
   0.00058986  0.24767071  0.29147031
   0.49305682  0.74618241  0.41681489
   0.49287760  0.24680768  0.41657001
   0.00058986  0.74767011  0.29147031
   0.75058982  0.49766954  0.35292815
   0.74014450  0.99851545  0.48194935
   0.25059042  0.49766954  0.35292815
   0.23989317  0.99725680  0.48291138
   0.99618298  0.99740097  0.38536662
   0.51480552  0.49912326  0.51344919
   0.99557869  0.49257668  0.44950258
   0.50058925  0.99767067  0.32219910
   0.98408324  0.22484014  0.55268215
   0.98102294  0.73489357  0.54372353
   0.47592231  0.04707091  0.58166690
   0.99038892  0.22367097  0.48489650
   0.50058925  0.72426545  0.35464748
   0.50058925  0.27107537  0.35464748
   0.98856911  0.76399622  0.48536542
   0.77399447  0.49766954  0.29318964
   0.72319361  0.99783771  0.42032196
   0.48906062  0.22687155  0.47908818
   0.00058986  0.72426545  0.35120881
   0.00058986  0.27107537  0.35120881
   0.48993357  0.76903841  0.47874717
   0.72156498  0.49608267  0.41471440
   0.77399447  0.99767067  0.28975097
   0.26487751  0.49615401  0.41374430
   0.22718577  0.99767067  0.28975097
   0.26794860  0.99717825  0.41969019
   0.22718577  0.49766954  0.29318964
   0.76854851  0.48120700  0.55047824
   0.21238492  0.98088471  0.54350875
   0.23416393  0.50214576  0.54914449
   0.75068684  0.98227699  0.54364355
   0.72558567  0.08103944  0.61663437
   0.18796857  0.24303587  0.60056355
   0.35446805  0.48738618  0.27144965
   0.25816528  0.46508405  0.57468882
   0.67210036  0.15169046  0.63827870
   0.06527126  0.19616555  0.61710385
Direct configuration=   118
   0.00058986  0.24767071  0.29147031
   0.49305682  0.74618241  0.41681489
   0.49287760  0.24680768  0.41657001
   0.00058986  0.74767011  0.29147031
   0.75058982  0.49766954  0.35292815
   0.74014450  0.99851545  0.48194935
   0.25059042  0.49766954  0.35292815
   0.23989317  0.99725680  0.48291138
   0.99618298  0.99740097  0.38536662
   0.51480552  0.49912326  0.51344919
   0.99557869  0.49257668  0.44950258
   0.50058925  0.99767067  0.32219910
   0.98408324  0.22484014  0.55268215
   0.98102294  0.73489357  0.54372353
   0.47592231  0.04707091  0.58166690
   0.99038892  0.22367097  0.48489650
   0.50058925  0.72426545  0.35464748
   0.50058925  0.27107537  0.35464748
   0.98856911  0.76399622  0.48536542
   0.77399447  0.49766954  0.29318964
   0.72319361  0.99783771  0.42032196
   0.48906062  0.22687155  0.47908818
   0.00058986  0.72426545  0.35120881
   0.00058986  0.27107537  0.35120881
   0.48993357  0.76903841  0.47874717
   0.72156498  0.49608267  0.41471440
   0.77399447  0.99767067  0.28975097
   0.26487751  0.49615401  0.41374430
   0.22718577  0.99767067  0.28975097
   0.26794860  0.99717825  0.41969019
   0.22718577  0.49766954  0.29318964
   0.76854851  0.48120700  0.55047824
   0.21238492  0.98088471  0.54350875
   0.23416393  0.50214576  0.54914449
   0.75068684  0.98227699  0.54364355
   0.72558567  0.08103944  0.61663437
   0.18796857  0.24303587  0.60056355
   0.35446805  0.48738618  0.27144965
   0.25816528  0.46508405  0.57468882
   0.67210036  0.15169046  0.63827870
   0.06527126  0.19616555  0.61710385
Direct configuration=   119
   0.00058986  0.24767071  0.29147031
   0.49305682  0.74618241  0.41681489
   0.49287760  0.24680768  0.41657001
   0.00058986  0.74767011  0.29147031
   0.75058982  0.49766954  0.35292815
   0.74014450  0.99851545  0.48194935
   0.25059042  0.49766954  0.35292815
   0.23989317  0.99725680  0.48291138
   0.99618298  0.99740097  0.38536662
   0.51480552  0.49912326  0.51344919
   0.99557869  0.49257668  0.44950258
   0.50058925  0.99767067  0.32219910
   0.98408324  0.22484014  0.55268215
   0.98102294  0.73489357  0.54372353
   0.47592231  0.04707091  0.58166690
   0.99038892  0.22367097  0.48489650
   0.50058925  0.72426545  0.35464748
   0.50058925  0.27107537  0.35464748
   0.98856911  0.76399622  0.48536542
   0.77399447  0.49766954  0.29318964
   0.72319361  0.99783771  0.42032196
   0.48906062  0.22687155  0.47908818
   0.00058986  0.72426545  0.35120881
   0.00058986  0.27107537  0.35120881
   0.48993357  0.76903841  0.47874717
   0.72156498  0.49608267  0.41471440
   0.77399447  0.99767067  0.28975097
   0.26487751  0.49615401  0.41374430
   0.22718577  0.99767067  0.28975097
   0.26794860  0.99717825  0.41969019
   0.22718577  0.49766954  0.29318964
   0.76854851  0.48120700  0.55047824
   0.21238492  0.98088471  0.54350875
   0.23416393  0.50214576  0.54914449
   0.75068684  0.98227699  0.54364355
   0.72558567  0.08103944  0.61663437
   0.18796857  0.24303587  0.60056355
   0.35446805  0.48738618  0.27144965
   0.25816528  0.46508405  0.57468882
   0.67210036  0.15169046  0.63827870
   0.06527126  0.19616555  0.61710385
Direct configuration=   120
   0.00058986  0.24767071  0.29147031
   0.49305682  0.74618241  0.41681489
   0.49287760  0.24680768  0.41657001
   0.00058986  0.74767011  0.29147031
   0.75058982  0.49766954  0.35292815
   0.74014450  0.99851545  0.48194935
   0.25059042  0.49766954  0.35292815
   0.23989317  0.99725680  0.48291138
   0.99618298  0.99740097  0.38536662
   0.51480552  0.49912326  0.51344919
   0.99557869  0.49257668  0.44950258
   0.50058925  0.99767067  0.32219910
   0.98408324  0.22484014  0.55268215
   0.98102294  0.73489357  0.54372353
   0.47592231  0.04707091  0.58166690
   0.99038892  0.22367097  0.48489650
   0.50058925  0.72426545  0.35464748
   0.50058925  0.27107537  0.35464748
   0.98856911  0.76399622  0.48536542
   0.77399447  0.49766954  0.29318964
   0.72319361  0.99783771  0.42032196
   0.48906062  0.22687155  0.47908818
   0.00058986  0.72426545  0.35120881
   0.00058986  0.27107537  0.35120881
   0.48993357  0.76903841  0.47874717
   0.72156498  0.49608267  0.41471440
   0.77399447  0.99767067  0.28975097
   0.26487751  0.49615401  0.41374430
   0.22718577  0.99767067  0.28975097
   0.26794860  0.99717825  0.41969019
   0.22718577  0.49766954  0.29318964
   0.76854851  0.48120700  0.55047824
   0.21238492  0.98088471  0.54350875
   0.23416393  0.50214576  0.54914449
   0.75068684  0.98227699  0.54364355
   0.72558567  0.08103944  0.61663437
   0.18796857  0.24303587  0.60056355
   0.35446805  0.48738618  0.27144965
   0.25816528  0.46508405  0.57468882
   0.67210036  0.15169046  0.63827870
   0.06527126  0.19616555  0.61710385
Direct configuration=   121
   0.00058986  0.24767071  0.29147031
   0.49305682  0.74618241  0.41681489
   0.49287760  0.24680768  0.41657001
   0.00058986  0.74767011  0.29147031
   0.75058982  0.49766954  0.35292815
   0.74014450  0.99851545  0.48194935
   0.25059042  0.49766954  0.35292815
   0.23989317  0.99725680  0.48291138
   0.99618298  0.99740097  0.38536662
   0.51480552  0.49912326  0.51344919
   0.99557869  0.49257668  0.44950258
   0.50058925  0.99767067  0.32219910
   0.98408324  0.22484014  0.55268215
   0.98102294  0.73489357  0.54372353
   0.47592231  0.04707091  0.58166690
   0.99038892  0.22367097  0.48489650
   0.50058925  0.72426545  0.35464748
   0.50058925  0.27107537  0.35464748
   0.98856911  0.76399622  0.48536542
   0.77399447  0.49766954  0.29318964
   0.72319361  0.99783771  0.42032196
   0.48906062  0.22687155  0.47908818
   0.00058986  0.72426545  0.35120881
   0.00058986  0.27107537  0.35120881
   0.48993357  0.76903841  0.47874717
   0.72156498  0.49608267  0.41471440
   0.77399447  0.99767067  0.28975097
   0.26487751  0.49615401  0.41374430
   0.22718577  0.99767067  0.28975097
   0.26794860  0.99717825  0.41969019
   0.22718577  0.49766954  0.29318964
   0.76854851  0.48120700  0.55047824
   0.21238492  0.98088471  0.54350875
   0.23416393  0.50214576  0.54914449
   0.75068684  0.98227699  0.54364355
   0.72558567  0.08103944  0.61663437
   0.18796857  0.24303587  0.60056355
   0.35446805  0.48738618  0.27144965
   0.25816528  0.46508405  0.57468882
   0.67210036  0.15169046  0.63827870
   0.06527126  0.19616555  0.61710385
Direct configuration=   122
   0.00058986  0.24767071  0.29147031
   0.49305682  0.74618241  0.41681489
   0.49287760  0.24680768  0.41657001
   0.00058986  0.74767011  0.29147031
   0.75058982  0.49766954  0.35292815
   0.74014450  0.99851545  0.48194935
   0.25059042  0.49766954  0.35292815
   0.23989317  0.99725680  0.48291138
   0.99618298  0.99740097  0.38536662
   0.51480552  0.49912326  0.51344919
   0.99557869  0.49257668  0.44950258
   0.50058925  0.99767067  0.32219910
   0.98408324  0.22484014  0.55268215
   0.98102294  0.73489357  0.54372353
   0.47592231  0.04707091  0.58166690
   0.99038892  0.22367097  0.48489650
   0.50058925  0.72426545  0.35464748
   0.50058925  0.27107537  0.35464748
   0.98856911  0.76399622  0.48536542
   0.77399447  0.49766954  0.29318964
   0.72319361  0.99783771  0.42032196
   0.48906062  0.22687155  0.47908818
   0.00058986  0.72426545  0.35120881
   0.00058986  0.27107537  0.35120881
   0.48993357  0.76903841  0.47874717
   0.72156498  0.49608267  0.41471440
   0.77399447  0.99767067  0.28975097
   0.26487751  0.49615401  0.41374430
   0.22718577  0.99767067  0.28975097
   0.26794860  0.99717825  0.41969019
   0.22718577  0.49766954  0.29318964
   0.76854851  0.48120700  0.55047824
   0.21238492  0.98088471  0.54350875
   0.23416393  0.50214576  0.54914449
   0.75068684  0.98227699  0.54364355
   0.72558567  0.08103944  0.61663437
   0.18796857  0.24303587  0.60056355
   0.35446805  0.48738618  0.27144965
   0.25816528  0.46508405  0.57468882
   0.67210036  0.15169046  0.63827870
   0.06527126  0.19616555  0.61710385
Direct configuration=   123
   0.00058986  0.24767071  0.29147031
   0.49305682  0.74618241  0.41681489
   0.49287760  0.24680768  0.41657001
   0.00058986  0.74767011  0.29147031
   0.75058982  0.49766954  0.35292815
   0.74014450  0.99851545  0.48194935
   0.25059042  0.49766954  0.35292815
   0.23989317  0.99725680  0.48291138
   0.99618298  0.99740097  0.38536662
   0.51480552  0.49912326  0.51344919
   0.99557869  0.49257668  0.44950258
   0.50058925  0.99767067  0.32219910
   0.98408324  0.22484014  0.55268215
   0.98102294  0.73489357  0.54372353
   0.47592231  0.04707091  0.58166690
   0.99038892  0.22367097  0.48489650
   0.50058925  0.72426545  0.35464748
   0.50058925  0.27107537  0.35464748
   0.98856911  0.76399622  0.48536542
   0.77399447  0.49766954  0.29318964
   0.72319361  0.99783771  0.42032196
   0.48906062  0.22687155  0.47908818
   0.00058986  0.72426545  0.35120881
   0.00058986  0.27107537  0.35120881
   0.48993357  0.76903841  0.47874717
   0.72156498  0.49608267  0.41471440
   0.77399447  0.99767067  0.28975097
   0.26487751  0.49615401  0.41374430
   0.22718577  0.99767067  0.28975097
   0.26794860  0.99717825  0.41969019
   0.22718577  0.49766954  0.29318964
   0.76854851  0.48120700  0.55047824
   0.21238492  0.98088471  0.54350875
   0.23416393  0.50214576  0.54914449
   0.75068684  0.98227699  0.54364355
   0.72558567  0.08103944  0.61663437
   0.18796857  0.24303587  0.60056355
   0.35446805  0.48738618  0.27144965
   0.25816528  0.46508405  0.57468882
   0.67210036  0.15169046  0.63827870
   0.06527126  0.19616555  0.61710385
Direct configuration=   124
   0.00058986  0.24767071  0.29147031
   0.49305682  0.74618241  0.41681489
   0.49287760  0.24680768  0.41657001
   0.00058986  0.74767011  0.29147031
   0.75058982  0.49766954  0.35292815
   0.74014450  0.99851545  0.48194935
   0.25059042  0.49766954  0.35292815
   0.23989317  0.99725680  0.48291138
   0.99618298  0.99740097  0.38536662
   0.51480552  0.49912326  0.51344919
   0.99557869  0.49257668  0.44950258
   0.50058925  0.99767067  0.32219910
   0.98408324  0.22484014  0.55268215
   0.98102294  0.73489357  0.54372353
   0.47592231  0.04707091  0.58166690
   0.99038892  0.22367097  0.48489650
   0.50058925  0.72426545  0.35464748
   0.50058925  0.27107537  0.35464748
   0.98856911  0.76399622  0.48536542
   0.77399447  0.49766954  0.29318964
   0.72319361  0.99783771  0.42032196
   0.48906062  0.22687155  0.47908818
   0.00058986  0.72426545  0.35120881
   0.00058986  0.27107537  0.35120881
   0.48993357  0.76903841  0.47874717
   0.72156498  0.49608267  0.41471440
   0.77399447  0.99767067  0.28975097
   0.26487751  0.49615401  0.41374430
   0.22718577  0.99767067  0.28975097
   0.26794860  0.99717825  0.41969019
   0.22718577  0.49766954  0.29318964
   0.76854851  0.48120700  0.55047824
   0.21238492  0.98088471  0.54350875
   0.23416393  0.50214576  0.54914449
   0.75068684  0.98227699  0.54364355
   0.72558567  0.08103944  0.61663437
   0.18796857  0.24303587  0.60056355
   0.35446805  0.48738618  0.27144965
   0.25816528  0.46508405  0.57468882
   0.67210036  0.15169046  0.63827870
   0.06527126  0.19616555  0.61710385
Direct configuration=   125
   0.00058986  0.24767071  0.29147031
   0.49305682  0.74618241  0.41681489
   0.49287760  0.24680768  0.41657001
   0.00058986  0.74767011  0.29147031
   0.75058982  0.49766954  0.35292815
   0.74014450  0.99851545  0.48194935
   0.25059042  0.49766954  0.35292815
   0.23989317  0.99725680  0.48291138
   0.99618298  0.99740097  0.38536662
   0.51480552  0.49912326  0.51344919
   0.99557869  0.49257668  0.44950258
   0.50058925  0.99767067  0.32219910
   0.98408324  0.22484014  0.55268215
   0.98102294  0.73489357  0.54372353
   0.47592231  0.04707091  0.58166690
   0.99038892  0.22367097  0.48489650
   0.50058925  0.72426545  0.35464748
   0.50058925  0.27107537  0.35464748
   0.98856911  0.76399622  0.48536542
   0.77399447  0.49766954  0.29318964
   0.72319361  0.99783771  0.42032196
   0.48906062  0.22687155  0.47908818
   0.00058986  0.72426545  0.35120881
   0.00058986  0.27107537  0.35120881
   0.48993357  0.76903841  0.47874717
   0.72156498  0.49608267  0.41471440
   0.77399447  0.99767067  0.28975097
   0.26487751  0.49615401  0.41374430
   0.22718577  0.99767067  0.28975097
   0.26794860  0.99717825  0.41969019
   0.22718577  0.49766954  0.29318964
   0.76854851  0.48120700  0.55047824
   0.21238492  0.98088471  0.54350875
   0.23416393  0.50214576  0.54914449
   0.75068684  0.98227699  0.54364355
   0.72558567  0.08103944  0.61663437
   0.18796857  0.24303587  0.60056355
   0.35446805  0.48738618  0.27144965
   0.25816528  0.46508405  0.57468882
   0.67210036  0.15169046  0.63827870
   0.06527126  0.19616555  0.61710385
Direct configuration=   126
   0.00058986  0.24767071  0.29147031
   0.49305682  0.74618241  0.41681489
   0.49287760  0.24680768  0.41657001
   0.00058986  0.74767011  0.29147031
   0.75058982  0.49766954  0.35292815
   0.74014450  0.99851545  0.48194935
   0.25059042  0.49766954  0.35292815
   0.23989317  0.99725680  0.48291138
   0.99618298  0.99740097  0.38536662
   0.51480552  0.49912326  0.51344919
   0.99557869  0.49257668  0.44950258
   0.50058925  0.99767067  0.32219910
   0.98408324  0.22484014  0.55268215
   0.98102294  0.73489357  0.54372353
   0.47592231  0.04707091  0.58166690
   0.99038892  0.22367097  0.48489650
   0.50058925  0.72426545  0.35464748
   0.50058925  0.27107537  0.35464748
   0.98856911  0.76399622  0.48536542
   0.77399447  0.49766954  0.29318964
   0.72319361  0.99783771  0.42032196
   0.48906062  0.22687155  0.47908818
   0.00058986  0.72426545  0.35120881
   0.00058986  0.27107537  0.35120881
   0.48993357  0.76903841  0.47874717
   0.72156498  0.49608267  0.41471440
   0.77399447  0.99767067  0.28975097
   0.26487751  0.49615401  0.41374430
   0.22718577  0.99767067  0.28975097
   0.26794860  0.99717825  0.41969019
   0.22718577  0.49766954  0.29318964
   0.76854851  0.48120700  0.55047824
   0.21238492  0.98088471  0.54350875
   0.23416393  0.50214576  0.54914449
   0.75068684  0.98227699  0.54364355
   0.72558567  0.08103944  0.61663437
   0.18796857  0.24303587  0.60056355
   0.35446805  0.48738618  0.27144965
   0.25816528  0.46508405  0.57468882
   0.67210036  0.15169046  0.63827870
   0.06527126  0.19616555  0.61710385
Direct configuration=   127
   0.00058986  0.24767071  0.29147031
   0.49305682  0.74618241  0.41681489
   0.49287760  0.24680768  0.41657001
   0.00058986  0.74767011  0.29147031
   0.75058982  0.49766954  0.35292815
   0.74014450  0.99851545  0.48194935
   0.25059042  0.49766954  0.35292815
   0.23989317  0.99725680  0.48291138
   0.99618298  0.99740097  0.38536662
   0.51480552  0.49912326  0.51344919
   0.99557869  0.49257668  0.44950258
   0.50058925  0.99767067  0.32219910
   0.98408324  0.22484014  0.55268215
   0.98102294  0.73489357  0.54372353
   0.47592231  0.04707091  0.58166690
   0.99038892  0.22367097  0.48489650
   0.50058925  0.72426545  0.35464748
   0.50058925  0.27107537  0.35464748
   0.98856911  0.76399622  0.48536542
   0.77399447  0.49766954  0.29318964
   0.72319361  0.99783771  0.42032196
   0.48906062  0.22687155  0.47908818
   0.00058986  0.72426545  0.35120881
   0.00058986  0.27107537  0.35120881
   0.48993357  0.76903841  0.47874717
   0.72156498  0.49608267  0.41471440
   0.77399447  0.99767067  0.28975097
   0.26487751  0.49615401  0.41374430
   0.22718577  0.99767067  0.28975097
   0.26794860  0.99717825  0.41969019
   0.22718577  0.49766954  0.29318964
   0.76854851  0.48120700  0.55047824
   0.21238492  0.98088471  0.54350875
   0.23416393  0.50214576  0.54914449
   0.75068684  0.98227699  0.54364355
   0.72558567  0.08103944  0.61663437
   0.18796857  0.24303587  0.60056355
   0.35446805  0.48738618  0.27144965
   0.25816528  0.46508405  0.57468882
   0.67210036  0.15169046  0.63827870
   0.06527126  0.19616555  0.61710385
Direct configuration=   128
   0.00058986  0.24767071  0.29147031
   0.49305682  0.74618241  0.41681489
   0.49287760  0.24680768  0.41657001
   0.00058986  0.74767011  0.29147031
   0.75058982  0.49766954  0.35292815
   0.74014450  0.99851545  0.48194935
   0.25059042  0.49766954  0.35292815
   0.23989317  0.99725680  0.48291138
   0.99618298  0.99740097  0.38536662
   0.51480552  0.49912326  0.51344919
   0.99557869  0.49257668  0.44950258
   0.50058925  0.99767067  0.32219910
   0.98408324  0.22484014  0.55268215
   0.98102294  0.73489357  0.54372353
   0.47592231  0.04707091  0.58166690
   0.99038892  0.22367097  0.48489650
   0.50058925  0.72426545  0.35464748
   0.50058925  0.27107537  0.35464748
   0.98856911  0.76399622  0.48536542
   0.77399447  0.49766954  0.29318964
   0.72319361  0.99783771  0.42032196
   0.48906062  0.22687155  0.47908818
   0.00058986  0.72426545  0.35120881
   0.00058986  0.27107537  0.35120881
   0.48993357  0.76903841  0.47874717
   0.72156498  0.49608267  0.41471440
   0.77399447  0.99767067  0.28975097
   0.26487751  0.49615401  0.41374430
   0.22718577  0.99767067  0.28975097
   0.26794860  0.99717825  0.41969019
   0.22718577  0.49766954  0.29318964
   0.76854851  0.48120700  0.55047824
   0.21238492  0.98088471  0.54350875
   0.23416393  0.50214576  0.54914449
   0.75068684  0.98227699  0.54364355
   0.72558567  0.08103944  0.61663437
   0.18796857  0.24303587  0.60056355
   0.35446805  0.48738618  0.27144965
   0.25816528  0.46508405  0.57468882
   0.67210036  0.15169046  0.63827870
   0.06527126  0.19616555  0.61710385
Direct configuration=   129
   0.00058986  0.24767071  0.29147031
   0.49305682  0.74618241  0.41681489
   0.49287760  0.24680768  0.41657001
   0.00058986  0.74767011  0.29147031
   0.75058982  0.49766954  0.35292815
   0.74014450  0.99851545  0.48194935
   0.25059042  0.49766954  0.35292815
   0.23989317  0.99725680  0.48291138
   0.99618298  0.99740097  0.38536662
   0.51480552  0.49912326  0.51344919
   0.99557869  0.49257668  0.44950258
   0.50058925  0.99767067  0.32219910
   0.98408324  0.22484014  0.55268215
   0.98102294  0.73489357  0.54372353
   0.47592231  0.04707091  0.58166690
   0.99038892  0.22367097  0.48489650
   0.50058925  0.72426545  0.35464748
   0.50058925  0.27107537  0.35464748
   0.98856911  0.76399622  0.48536542
   0.77399447  0.49766954  0.29318964
   0.72319361  0.99783771  0.42032196
   0.48906062  0.22687155  0.47908818
   0.00058986  0.72426545  0.35120881
   0.00058986  0.27107537  0.35120881
   0.48993357  0.76903841  0.47874717
   0.72156498  0.49608267  0.41471440
   0.77399447  0.99767067  0.28975097
   0.26487751  0.49615401  0.41374430
   0.22718577  0.99767067  0.28975097
   0.26794860  0.99717825  0.41969019
   0.22718577  0.49766954  0.29318964
   0.76854851  0.48120700  0.55047824
   0.21238492  0.98088471  0.54350875
   0.23416393  0.50214576  0.54914449
   0.75068684  0.98227699  0.54364355
   0.72558567  0.08103944  0.61663437
   0.18796857  0.24303587  0.60056355
   0.35446805  0.48738618  0.27144965
   0.25816528  0.46508405  0.57468882
   0.67210036  0.15169046  0.63827870
   0.06527126  0.19616555  0.61710385
Direct configuration=   130
   0.00058986  0.24767071  0.29147031
   0.49305682  0.74618241  0.41681489
   0.49287760  0.24680768  0.41657001
   0.00058986  0.74767011  0.29147031
   0.75058982  0.49766954  0.35292815
   0.74014450  0.99851545  0.48194935
   0.25059042  0.49766954  0.35292815
   0.23989317  0.99725680  0.48291138
   0.99618298  0.99740097  0.38536662
   0.51480552  0.49912326  0.51344919
   0.99557869  0.49257668  0.44950258
   0.50058925  0.99767067  0.32219910
   0.98408324  0.22484014  0.55268215
   0.98102294  0.73489357  0.54372353
   0.47592231  0.04707091  0.58166690
   0.99038892  0.22367097  0.48489650
   0.50058925  0.72426545  0.35464748
   0.50058925  0.27107537  0.35464748
   0.98856911  0.76399622  0.48536542
   0.77399447  0.49766954  0.29318964
   0.72319361  0.99783771  0.42032196
   0.48906062  0.22687155  0.47908818
   0.00058986  0.72426545  0.35120881
   0.00058986  0.27107537  0.35120881
   0.48993357  0.76903841  0.47874717
   0.72156498  0.49608267  0.41471440
   0.77399447  0.99767067  0.28975097
   0.26487751  0.49615401  0.41374430
   0.22718577  0.99767067  0.28975097
   0.26794860  0.99717825  0.41969019
   0.22718577  0.49766954  0.29318964
   0.76854851  0.48120700  0.55047824
   0.21238492  0.98088471  0.54350875
   0.23416393  0.50214576  0.54914449
   0.75068684  0.98227699  0.54364355
   0.72558567  0.08103944  0.61663437
   0.18796857  0.24303587  0.60056355
   0.35446805  0.48738618  0.27144965
   0.25816528  0.46508405  0.57468882
   0.67210036  0.15169046  0.63827870
   0.06527126  0.19616555  0.61710385
Direct configuration=   131
   0.00058986  0.24767071  0.29147031
   0.49305682  0.74618241  0.41681489
   0.49287760  0.24680768  0.41657001
   0.00058986  0.74767011  0.29147031
   0.75058982  0.49766954  0.35292815
   0.74014450  0.99851545  0.48194935
   0.25059042  0.49766954  0.35292815
   0.23989317  0.99725680  0.48291138
   0.99618298  0.99740097  0.38536662
   0.51480552  0.49912326  0.51344919
   0.99557869  0.49257668  0.44950258
   0.50058925  0.99767067  0.32219910
   0.98408324  0.22484014  0.55268215
   0.98102294  0.73489357  0.54372353
   0.47592231  0.04707091  0.58166690
   0.99038892  0.22367097  0.48489650
   0.50058925  0.72426545  0.35464748
   0.50058925  0.27107537  0.35464748
   0.98856911  0.76399622  0.48536542
   0.77399447  0.49766954  0.29318964
   0.72319361  0.99783771  0.42032196
   0.48906062  0.22687155  0.47908818
   0.00058986  0.72426545  0.35120881
   0.00058986  0.27107537  0.35120881
   0.48993357  0.76903841  0.47874717
   0.72156498  0.49608267  0.41471440
   0.77399447  0.99767067  0.28975097
   0.26487751  0.49615401  0.41374430
   0.22718577  0.99767067  0.28975097
   0.26794860  0.99717825  0.41969019
   0.22718577  0.49766954  0.29318964
   0.76854851  0.48120700  0.55047824
   0.21238492  0.98088471  0.54350875
   0.23416393  0.50214576  0.54914449
   0.75068684  0.98227699  0.54364355
   0.72558567  0.08103944  0.61663437
   0.18796857  0.24303587  0.60056355
   0.35446805  0.48738618  0.27144965
   0.25816528  0.46508405  0.57468882
   0.67210036  0.15169046  0.63827870
   0.06527126  0.19616555  0.61710385
Direct configuration=   132
   0.00058986  0.24767071  0.29147031
   0.49305682  0.74618241  0.41681489
   0.49287760  0.24680768  0.41657001
   0.00058986  0.74767011  0.29147031
   0.75058982  0.49766954  0.35292815
   0.74014450  0.99851545  0.48194935
   0.25059042  0.49766954  0.35292815
   0.23989317  0.99725680  0.48291138
   0.99618298  0.99740097  0.38536662
   0.51480552  0.49912326  0.51344919
   0.99557869  0.49257668  0.44950258
   0.50058925  0.99767067  0.32219910
   0.98408324  0.22484014  0.55268215
   0.98102294  0.73489357  0.54372353
   0.47592231  0.04707091  0.58166690
   0.99038892  0.22367097  0.48489650
   0.50058925  0.72426545  0.35464748
   0.50058925  0.27107537  0.35464748
   0.98856911  0.76399622  0.48536542
   0.77399447  0.49766954  0.29318964
   0.72319361  0.99783771  0.42032196
   0.48906062  0.22687155  0.47908818
   0.00058986  0.72426545  0.35120881
   0.00058986  0.27107537  0.35120881
   0.48993357  0.76903841  0.47874717
   0.72156498  0.49608267  0.41471440
   0.77399447  0.99767067  0.28975097
   0.26487751  0.49615401  0.41374430
   0.22718577  0.99767067  0.28975097
   0.26794860  0.99717825  0.41969019
   0.22718577  0.49766954  0.29318964
   0.76854851  0.48120700  0.55047824
   0.21238492  0.98088471  0.54350875
   0.23416393  0.50214576  0.54914449
   0.75068684  0.98227699  0.54364355
   0.72558567  0.08103944  0.61663437
   0.18796857  0.24303587  0.60056355
   0.35446805  0.48738618  0.27144965
   0.25816528  0.46508405  0.57468882
   0.67210036  0.15169046  0.63827870
   0.06527126  0.19616555  0.61710385
Direct configuration=   133
   0.00058986  0.24767071  0.29147031
   0.49305682  0.74618241  0.41681489
   0.49287760  0.24680768  0.41657001
   0.00058986  0.74767011  0.29147031
   0.75058982  0.49766954  0.35292815
   0.74014450  0.99851545  0.48194935
   0.25059042  0.49766954  0.35292815
   0.23989317  0.99725680  0.48291138
   0.99618298  0.99740097  0.38536662
   0.51480552  0.49912326  0.51344919
   0.99557869  0.49257668  0.44950258
   0.50058925  0.99767067  0.32219910
   0.98408324  0.22484014  0.55268215
   0.98102294  0.73489357  0.54372353
   0.47592231  0.04707091  0.58166690
   0.99038892  0.22367097  0.48489650
   0.50058925  0.72426545  0.35464748
   0.50058925  0.27107537  0.35464748
   0.98856911  0.76399622  0.48536542
   0.77399447  0.49766954  0.29318964
   0.72319361  0.99783771  0.42032196
   0.48906062  0.22687155  0.47908818
   0.00058986  0.72426545  0.35120881
   0.00058986  0.27107537  0.35120881
   0.48993357  0.76903841  0.47874717
   0.72156498  0.49608267  0.41471440
   0.77399447  0.99767067  0.28975097
   0.26487751  0.49615401  0.41374430
   0.22718577  0.99767067  0.28975097
   0.26794860  0.99717825  0.41969019
   0.22718577  0.49766954  0.29318964
   0.76854851  0.48120700  0.55047824
   0.21238492  0.98088471  0.54350875
   0.23416393  0.50214576  0.54914449
   0.75068684  0.98227699  0.54364355
   0.72558567  0.08103944  0.61663437
   0.18796857  0.24303587  0.60056355
   0.35446805  0.48738618  0.27144965
   0.25816528  0.46508405  0.57468882
   0.67210036  0.15169046  0.63827870
   0.06527126  0.19616555  0.61710385
Direct configuration=   134
   0.00058986  0.24767071  0.29147031
   0.49305682  0.74618241  0.41681489
   0.49287760  0.24680768  0.41657001
   0.00058986  0.74767011  0.29147031
   0.75058982  0.49766954  0.35292815
   0.74014450  0.99851545  0.48194935
   0.25059042  0.49766954  0.35292815
   0.23989317  0.99725680  0.48291138
   0.99618298  0.99740097  0.38536662
   0.51480552  0.49912326  0.51344919
   0.99557869  0.49257668  0.44950258
   0.50058925  0.99767067  0.32219910
   0.98408324  0.22484014  0.55268215
   0.98102294  0.73489357  0.54372353
   0.47592231  0.04707091  0.58166690
   0.99038892  0.22367097  0.48489650
   0.50058925  0.72426545  0.35464748
   0.50058925  0.27107537  0.35464748
   0.98856911  0.76399622  0.48536542
   0.77399447  0.49766954  0.29318964
   0.72319361  0.99783771  0.42032196
   0.48906062  0.22687155  0.47908818
   0.00058986  0.72426545  0.35120881
   0.00058986  0.27107537  0.35120881
   0.48993357  0.76903841  0.47874717
   0.72156498  0.49608267  0.41471440
   0.77399447  0.99767067  0.28975097
   0.26487751  0.49615401  0.41374430
   0.22718577  0.99767067  0.28975097
   0.26794860  0.99717825  0.41969019
   0.22718577  0.49766954  0.29318964
   0.76854851  0.48120700  0.55047824
   0.21238492  0.98088471  0.54350875
   0.23416393  0.50214576  0.54914449
   0.75068684  0.98227699  0.54364355
   0.72558567  0.08103944  0.61663437
   0.18796857  0.24303587  0.60056355
   0.35446805  0.48738618  0.27144965
   0.25816528  0.46508405  0.57468882
   0.67210036  0.15169046  0.63827870
   0.06527126  0.19616555  0.61710385
Direct configuration=   135
   0.00058986  0.24767071  0.29147031
   0.49305682  0.74618241  0.41681489
   0.49287760  0.24680768  0.41657001
   0.00058986  0.74767011  0.29147031
   0.75058982  0.49766954  0.35292815
   0.74014450  0.99851545  0.48194935
   0.25059042  0.49766954  0.35292815
   0.23989317  0.99725680  0.48291138
   0.99618298  0.99740097  0.38536662
   0.51480552  0.49912326  0.51344919
   0.99557869  0.49257668  0.44950258
   0.50058925  0.99767067  0.32219910
   0.98408324  0.22484014  0.55268215
   0.98102294  0.73489357  0.54372353
   0.47592231  0.04707091  0.58166690
   0.99038892  0.22367097  0.48489650
   0.50058925  0.72426545  0.35464748
   0.50058925  0.27107537  0.35464748
   0.98856911  0.76399622  0.48536542
   0.77399447  0.49766954  0.29318964
   0.72319361  0.99783771  0.42032196
   0.48906062  0.22687155  0.47908818
   0.00058986  0.72426545  0.35120881
   0.00058986  0.27107537  0.35120881
   0.48993357  0.76903841  0.47874717
   0.72156498  0.49608267  0.41471440
   0.77399447  0.99767067  0.28975097
   0.26487751  0.49615401  0.41374430
   0.22718577  0.99767067  0.28975097
   0.26794860  0.99717825  0.41969019
   0.22718577  0.49766954  0.29318964
   0.76854851  0.48120700  0.55047824
   0.21238492  0.98088471  0.54350875
   0.23416393  0.50214576  0.54914449
   0.75068684  0.98227699  0.54364355
   0.72558567  0.08103944  0.61663437
   0.18796857  0.24303587  0.60056355
   0.35446805  0.48738618  0.27144965
   0.25816528  0.46508405  0.57468882
   0.67210036  0.15169046  0.63827870
   0.06527126  0.19616555  0.61710385
Direct configuration=   136
   0.00058986  0.24767071  0.29147031
   0.49305682  0.74618241  0.41681489
   0.49287760  0.24680768  0.41657001
   0.00058986  0.74767011  0.29147031
   0.75058982  0.49766954  0.35292815
   0.74014450  0.99851545  0.48194935
   0.25059042  0.49766954  0.35292815
   0.23989317  0.99725680  0.48291138
   0.99618298  0.99740097  0.38536662
   0.51480552  0.49912326  0.51344919
   0.99557869  0.49257668  0.44950258
   0.50058925  0.99767067  0.32219910
   0.98408324  0.22484014  0.55268215
   0.98102294  0.73489357  0.54372353
   0.47592231  0.04707091  0.58166690
   0.99038892  0.22367097  0.48489650
   0.50058925  0.72426545  0.35464748
   0.50058925  0.27107537  0.35464748
   0.98856911  0.76399622  0.48536542
   0.77399447  0.49766954  0.29318964
   0.72319361  0.99783771  0.42032196
   0.48906062  0.22687155  0.47908818
   0.00058986  0.72426545  0.35120881
   0.00058986  0.27107537  0.35120881
   0.48993357  0.76903841  0.47874717
   0.72156498  0.49608267  0.41471440
   0.77399447  0.99767067  0.28975097
   0.26487751  0.49615401  0.41374430
   0.22718577  0.99767067  0.28975097
   0.26794860  0.99717825  0.41969019
   0.22718577  0.49766954  0.29318964
   0.76854851  0.48120700  0.55047824
   0.21238492  0.98088471  0.54350875
   0.23416393  0.50214576  0.54914449
   0.75068684  0.98227699  0.54364355
   0.72558567  0.08103944  0.61663437
   0.18796857  0.24303587  0.60056355
   0.35446805  0.48738618  0.27144965
   0.25816528  0.46508405  0.57468882
   0.67210036  0.15169046  0.63827870
   0.06527126  0.19616555  0.61710385
Direct configuration=   137
   0.00058986  0.24767071  0.29147031
   0.49305682  0.74618241  0.41681489
   0.49287760  0.24680768  0.41657001
   0.00058986  0.74767011  0.29147031
   0.75058982  0.49766954  0.35292815
   0.74014450  0.99851545  0.48194935
   0.25059042  0.49766954  0.35292815
   0.23989317  0.99725680  0.48291138
   0.99618298  0.99740097  0.38536662
   0.51480552  0.49912326  0.51344919
   0.99557869  0.49257668  0.44950258
   0.50058925  0.99767067  0.32219910
   0.98408324  0.22484014  0.55268215
   0.98102294  0.73489357  0.54372353
   0.47592231  0.04707091  0.58166690
   0.99038892  0.22367097  0.48489650
   0.50058925  0.72426545  0.35464748
   0.50058925  0.27107537  0.35464748
   0.98856911  0.76399622  0.48536542
   0.77399447  0.49766954  0.29318964
   0.72319361  0.99783771  0.42032196
   0.48906062  0.22687155  0.47908818
   0.00058986  0.72426545  0.35120881
   0.00058986  0.27107537  0.35120881
   0.48993357  0.76903841  0.47874717
   0.72156498  0.49608267  0.41471440
   0.77399447  0.99767067  0.28975097
   0.26487751  0.49615401  0.41374430
   0.22718577  0.99767067  0.28975097
   0.26794860  0.99717825  0.41969019
   0.22718577  0.49766954  0.29318964
   0.76854851  0.48120700  0.55047824
   0.21238492  0.98088471  0.54350875
   0.23416393  0.50214576  0.54914449
   0.75068684  0.98227699  0.54364355
   0.72558567  0.08103944  0.61663437
   0.18796857  0.24303587  0.60056355
   0.35446805  0.48738618  0.27144965
   0.25816528  0.46508405  0.57468882
   0.67210036  0.15169046  0.63827870
   0.06527126  0.19616555  0.61710385
Direct configuration=   138
   0.00058986  0.24767071  0.29147031
   0.49305682  0.74618241  0.41681489
   0.49287760  0.24680768  0.41657001
   0.00058986  0.74767011  0.29147031
   0.75058982  0.49766954  0.35292815
   0.74014450  0.99851545  0.48194935
   0.25059042  0.49766954  0.35292815
   0.23989317  0.99725680  0.48291138
   0.99618298  0.99740097  0.38536662
   0.51480552  0.49912326  0.51344919
   0.99557869  0.49257668  0.44950258
   0.50058925  0.99767067  0.32219910
   0.98408324  0.22484014  0.55268215
   0.98102294  0.73489357  0.54372353
   0.47592231  0.04707091  0.58166690
   0.99038892  0.22367097  0.48489650
   0.50058925  0.72426545  0.35464748
   0.50058925  0.27107537  0.35464748
   0.98856911  0.76399622  0.48536542
   0.77399447  0.49766954  0.29318964
   0.72319361  0.99783771  0.42032196
   0.48906062  0.22687155  0.47908818
   0.00058986  0.72426545  0.35120881
   0.00058986  0.27107537  0.35120881
   0.48993357  0.76903841  0.47874717
   0.72156498  0.49608267  0.41471440
   0.77399447  0.99767067  0.28975097
   0.26487751  0.49615401  0.41374430
   0.22718577  0.99767067  0.28975097
   0.26794860  0.99717825  0.41969019
   0.22718577  0.49766954  0.29318964
   0.76854851  0.48120700  0.55047824
   0.21238492  0.98088471  0.54350875
   0.23416393  0.50214576  0.54914449
   0.75068684  0.98227699  0.54364355
   0.72558567  0.08103944  0.61663437
   0.18796857  0.24303587  0.60056355
   0.35446805  0.48738618  0.27144965
   0.25816528  0.46508405  0.57468882
   0.67210036  0.15169046  0.63827870
   0.06527126  0.19616555  0.61710385
Direct configuration=   139
   0.00058986  0.24767071  0.29147031
   0.49305682  0.74618241  0.41681489
   0.49287760  0.24680768  0.41657001
   0.00058986  0.74767011  0.29147031
   0.75058982  0.49766954  0.35292815
   0.74014450  0.99851545  0.48194935
   0.25059042  0.49766954  0.35292815
   0.23989317  0.99725680  0.48291138
   0.99618298  0.99740097  0.38536662
   0.51480552  0.49912326  0.51344919
   0.99557869  0.49257668  0.44950258
   0.50058925  0.99767067  0.32219910
   0.98408324  0.22484014  0.55268215
   0.98102294  0.73489357  0.54372353
   0.47592231  0.04707091  0.58166690
   0.99038892  0.22367097  0.48489650
   0.50058925  0.72426545  0.35464748
   0.50058925  0.27107537  0.35464748
   0.98856911  0.76399622  0.48536542
   0.77399447  0.49766954  0.29318964
   0.72319361  0.99783771  0.42032196
   0.48906062  0.22687155  0.47908818
   0.00058986  0.72426545  0.35120881
   0.00058986  0.27107537  0.35120881
   0.48993357  0.76903841  0.47874717
   0.72156498  0.49608267  0.41471440
   0.77399447  0.99767067  0.28975097
   0.26487751  0.49615401  0.41374430
   0.22718577  0.99767067  0.28975097
   0.26794860  0.99717825  0.41969019
   0.22718577  0.49766954  0.29318964
   0.76854851  0.48120700  0.55047824
   0.21238492  0.98088471  0.54350875
   0.23416393  0.50214576  0.54914449
   0.75068684  0.98227699  0.54364355
   0.72558567  0.08103944  0.61663437
   0.18796857  0.24303587  0.60056355
   0.35446805  0.48738618  0.27144965
   0.25816528  0.46508405  0.57468882
   0.67210036  0.15169046  0.63827870
   0.06527126  0.19616555  0.61710385
Direct configuration=   140
   0.00058986  0.24767071  0.29147031
   0.49305682  0.74618241  0.41681489
   0.49287760  0.24680768  0.41657001
   0.00058986  0.74767011  0.29147031
   0.75058982  0.49766954  0.35292815
   0.74014450  0.99851545  0.48194935
   0.25059042  0.49766954  0.35292815
   0.23989317  0.99725680  0.48291138
   0.99618298  0.99740097  0.38536662
   0.51480552  0.49912326  0.51344919
   0.99557869  0.49257668  0.44950258
   0.50058925  0.99767067  0.32219910
   0.98408324  0.22484014  0.55268215
   0.98102294  0.73489357  0.54372353
   0.47592231  0.04707091  0.58166690
   0.99038892  0.22367097  0.48489650
   0.50058925  0.72426545  0.35464748
   0.50058925  0.27107537  0.35464748
   0.98856911  0.76399622  0.48536542
   0.77399447  0.49766954  0.29318964
   0.72319361  0.99783771  0.42032196
   0.48906062  0.22687155  0.47908818
   0.00058986  0.72426545  0.35120881
   0.00058986  0.27107537  0.35120881
   0.48993357  0.76903841  0.47874717
   0.72156498  0.49608267  0.41471440
   0.77399447  0.99767067  0.28975097
   0.26487751  0.49615401  0.41374430
   0.22718577  0.99767067  0.28975097
   0.26794860  0.99717825  0.41969019
   0.22718577  0.49766954  0.29318964
   0.76854851  0.48120700  0.55047824
   0.21238492  0.98088471  0.54350875
   0.23416393  0.50214576  0.54914449
   0.75068684  0.98227699  0.54364355
   0.72558567  0.08103944  0.61663437
   0.18796857  0.24303587  0.60056355
   0.35446805  0.48738618  0.27144965
   0.25816528  0.46508405  0.57468882
   0.67210036  0.15169046  0.63827870
   0.06527126  0.19616555  0.61710385
Direct configuration=   141
   0.00058986  0.24767071  0.29147031
   0.49305682  0.74618241  0.41681489
   0.49287760  0.24680768  0.41657001
   0.00058986  0.74767011  0.29147031
   0.75058982  0.49766954  0.35292815
   0.74014450  0.99851545  0.48194935
   0.25059042  0.49766954  0.35292815
   0.23989317  0.99725680  0.48291138
   0.99618298  0.99740097  0.38536662
   0.51480552  0.49912326  0.51344919
   0.99557869  0.49257668  0.44950258
   0.50058925  0.99767067  0.32219910
   0.98408324  0.22484014  0.55268215
   0.98102294  0.73489357  0.54372353
   0.47592231  0.04707091  0.58166690
   0.99038892  0.22367097  0.48489650
   0.50058925  0.72426545  0.35464748
   0.50058925  0.27107537  0.35464748
   0.98856911  0.76399622  0.48536542
   0.77399447  0.49766954  0.29318964
   0.72319361  0.99783771  0.42032196
   0.48906062  0.22687155  0.47908818
   0.00058986  0.72426545  0.35120881
   0.00058986  0.27107537  0.35120881
   0.48993357  0.76903841  0.47874717
   0.72156498  0.49608267  0.41471440
   0.77399447  0.99767067  0.28975097
   0.26487751  0.49615401  0.41374430
   0.22718577  0.99767067  0.28975097
   0.26794860  0.99717825  0.41969019
   0.22718577  0.49766954  0.29318964
   0.76854851  0.48120700  0.55047824
   0.21238492  0.98088471  0.54350875
   0.23416393  0.50214576  0.54914449
   0.75068684  0.98227699  0.54364355
   0.72558567  0.08103944  0.61663437
   0.18796857  0.24303587  0.60056355
   0.35446805  0.48738618  0.27144965
   0.25816528  0.46508405  0.57468882
   0.67210036  0.15169046  0.63827870
   0.06527126  0.19616555  0.61710385
Direct configuration=   142
   0.00058986  0.24767071  0.29147031
   0.49305682  0.74618241  0.41681489
   0.49287760  0.24680768  0.41657001
   0.00058986  0.74767011  0.29147031
   0.75058982  0.49766954  0.35292815
   0.74014450  0.99851545  0.48194935
   0.25059042  0.49766954  0.35292815
   0.23989317  0.99725680  0.48291138
   0.99618298  0.99740097  0.38536662
   0.51480552  0.49912326  0.51344919
   0.99557869  0.49257668  0.44950258
   0.50058925  0.99767067  0.32219910
   0.98408324  0.22484014  0.55268215
   0.98102294  0.73489357  0.54372353
   0.47592231  0.04707091  0.58166690
   0.99038892  0.22367097  0.48489650
   0.50058925  0.72426545  0.35464748
   0.50058925  0.27107537  0.35464748
   0.98856911  0.76399622  0.48536542
   0.77399447  0.49766954  0.29318964
   0.72319361  0.99783771  0.42032196
   0.48906062  0.22687155  0.47908818
   0.00058986  0.72426545  0.35120881
   0.00058986  0.27107537  0.35120881
   0.48993357  0.76903841  0.47874717
   0.72156498  0.49608267  0.41471440
   0.77399447  0.99767067  0.28975097
   0.26487751  0.49615401  0.41374430
   0.22718577  0.99767067  0.28975097
   0.26794860  0.99717825  0.41969019
   0.22718577  0.49766954  0.29318964
   0.76854851  0.48120700  0.55047824
   0.21238492  0.98088471  0.54350875
   0.23416393  0.50214576  0.54914449
   0.75068684  0.98227699  0.54364355
   0.72558567  0.08103944  0.61663437
   0.18796857  0.24303587  0.60056355
   0.35446805  0.48738618  0.27144965
   0.25816528  0.46508405  0.57468882
   0.67210036  0.15169046  0.63827870
   0.06527126  0.19616555  0.61710385
Direct configuration=   143
   0.00058986  0.24767071  0.29147031
   0.49305682  0.74618241  0.41681489
   0.49287760  0.24680768  0.41657001
   0.00058986  0.74767011  0.29147031
   0.75058982  0.49766954  0.35292815
   0.74014450  0.99851545  0.48194935
   0.25059042  0.49766954  0.35292815
   0.23989317  0.99725680  0.48291138
   0.99618298  0.99740097  0.38536662
   0.51480552  0.49912326  0.51344919
   0.99557869  0.49257668  0.44950258
   0.50058925  0.99767067  0.32219910
   0.98408324  0.22484014  0.55268215
   0.98102294  0.73489357  0.54372353
   0.47592231  0.04707091  0.58166690
   0.99038892  0.22367097  0.48489650
   0.50058925  0.72426545  0.35464748
   0.50058925  0.27107537  0.35464748
   0.98856911  0.76399622  0.48536542
   0.77399447  0.49766954  0.29318964
   0.72319361  0.99783771  0.42032196
   0.48906062  0.22687155  0.47908818
   0.00058986  0.72426545  0.35120881
   0.00058986  0.27107537  0.35120881
   0.48993357  0.76903841  0.47874717
   0.72156498  0.49608267  0.41471440
   0.77399447  0.99767067  0.28975097
   0.26487751  0.49615401  0.41374430
   0.22718577  0.99767067  0.28975097
   0.26794860  0.99717825  0.41969019
   0.22718577  0.49766954  0.29318964
   0.76854851  0.48120700  0.55047824
   0.21238492  0.98088471  0.54350875
   0.23416393  0.50214576  0.54914449
   0.75068684  0.98227699  0.54364355
   0.72558567  0.08103944  0.61663437
   0.18796857  0.24303587  0.60056355
   0.35446805  0.48738618  0.27144965
   0.25816528  0.46508405  0.57468882
   0.67210036  0.15169046  0.63827870
   0.06527126  0.19616555  0.61710385
Direct configuration=   144
   0.00058986  0.24767071  0.29147031
   0.49305682  0.74618241  0.41681489
   0.49287760  0.24680768  0.41657001
   0.00058986  0.74767011  0.29147031
   0.75058982  0.49766954  0.35292815
   0.74014450  0.99851545  0.48194935
   0.25059042  0.49766954  0.35292815
   0.23989317  0.99725680  0.48291138
   0.99618298  0.99740097  0.38536662
   0.51480552  0.49912326  0.51344919
   0.99557869  0.49257668  0.44950258
   0.50058925  0.99767067  0.32219910
   0.98408324  0.22484014  0.55268215
   0.98102294  0.73489357  0.54372353
   0.47592231  0.04707091  0.58166690
   0.99038892  0.22367097  0.48489650
   0.50058925  0.72426545  0.35464748
   0.50058925  0.27107537  0.35464748
   0.98856911  0.76399622  0.48536542
   0.77399447  0.49766954  0.29318964
   0.72319361  0.99783771  0.42032196
   0.48906062  0.22687155  0.47908818
   0.00058986  0.72426545  0.35120881
   0.00058986  0.27107537  0.35120881
   0.48993357  0.76903841  0.47874717
   0.72156498  0.49608267  0.41471440
   0.77399447  0.99767067  0.28975097
   0.26487751  0.49615401  0.41374430
   0.22718577  0.99767067  0.28975097
   0.26794860  0.99717825  0.41969019
   0.22718577  0.49766954  0.29318964
   0.76854851  0.48120700  0.55047824
   0.21238492  0.98088471  0.54350875
   0.23416393  0.50214576  0.54914449
   0.75068684  0.98227699  0.54364355
   0.72558567  0.08103944  0.61663437
   0.18796857  0.24303587  0.60056355
   0.35446805  0.48738618  0.27144965
   0.25816528  0.46508405  0.57468882
   0.67210036  0.15169046  0.63827870
   0.06527126  0.19616555  0.61710385
Direct configuration=   145
   0.00058986  0.24767071  0.29147031
   0.49305682  0.74618241  0.41681489
   0.49287760  0.24680768  0.41657001
   0.00058986  0.74767011  0.29147031
   0.75058982  0.49766954  0.35292815
   0.74014450  0.99851545  0.48194935
   0.25059042  0.49766954  0.35292815
   0.23989317  0.99725680  0.48291138
   0.99618298  0.99740097  0.38536662
   0.51480552  0.49912326  0.51344919
   0.99557869  0.49257668  0.44950258
   0.50058925  0.99767067  0.32219910
   0.98408324  0.22484014  0.55268215
   0.98102294  0.73489357  0.54372353
   0.47592231  0.04707091  0.58166690
   0.99038892  0.22367097  0.48489650
   0.50058925  0.72426545  0.35464748
   0.50058925  0.27107537  0.35464748
   0.98856911  0.76399622  0.48536542
   0.77399447  0.49766954  0.29318964
   0.72319361  0.99783771  0.42032196
   0.48906062  0.22687155  0.47908818
   0.00058986  0.72426545  0.35120881
   0.00058986  0.27107537  0.35120881
   0.48993357  0.76903841  0.47874717
   0.72156498  0.49608267  0.41471440
   0.77399447  0.99767067  0.28975097
   0.26487751  0.49615401  0.41374430
   0.22718577  0.99767067  0.28975097
   0.26794860  0.99717825  0.41969019
   0.22718577  0.49766954  0.29318964
   0.76854851  0.48120700  0.55047824
   0.21238492  0.98088471  0.54350875
   0.23416393  0.50214576  0.54914449
   0.75068684  0.98227699  0.54364355
   0.72558567  0.08103944  0.61663437
   0.18796857  0.24303587  0.60056355
   0.35446805  0.48738618  0.27144965
   0.25816528  0.46508405  0.57468882
   0.67210036  0.15169046  0.63827870
   0.06527126  0.19616555  0.61710385
Direct configuration=   146
   0.00058986  0.24767071  0.29147031
   0.49305682  0.74618241  0.41681489
   0.49287760  0.24680768  0.41657001
   0.00058986  0.74767011  0.29147031
   0.75058982  0.49766954  0.35292815
   0.74014450  0.99851545  0.48194935
   0.25059042  0.49766954  0.35292815
   0.23989317  0.99725680  0.48291138
   0.99618298  0.99740097  0.38536662
   0.51480552  0.49912326  0.51344919
   0.99557869  0.49257668  0.44950258
   0.50058925  0.99767067  0.32219910
   0.98408324  0.22484014  0.55268215
   0.98102294  0.73489357  0.54372353
   0.47592231  0.04707091  0.58166690
   0.99038892  0.22367097  0.48489650
   0.50058925  0.72426545  0.35464748
   0.50058925  0.27107537  0.35464748
   0.98856911  0.76399622  0.48536542
   0.77399447  0.49766954  0.29318964
   0.72319361  0.99783771  0.42032196
   0.48906062  0.22687155  0.47908818
   0.00058986  0.72426545  0.35120881
   0.00058986  0.27107537  0.35120881
   0.48993357  0.76903841  0.47874717
   0.72156498  0.49608267  0.41471440
   0.77399447  0.99767067  0.28975097
   0.26487751  0.49615401  0.41374430
   0.22718577  0.99767067  0.28975097
   0.26794860  0.99717825  0.41969019
   0.22718577  0.49766954  0.29318964
   0.76854851  0.48120700  0.55047824
   0.21238492  0.98088471  0.54350875
   0.23416393  0.50214576  0.54914449
   0.75068684  0.98227699  0.54364355
   0.72558567  0.08103944  0.61663437
   0.18796857  0.24303587  0.60056355
   0.35446805  0.48738618  0.27144965
   0.25816528  0.46508405  0.57468882
   0.67210036  0.15169046  0.63827870
   0.06527126  0.19616555  0.61710385
Direct configuration=   147
   0.00058986  0.24767071  0.29147031
   0.49305682  0.74618241  0.41681489
   0.49287760  0.24680768  0.41657001
   0.00058986  0.74767011  0.29147031
   0.75058982  0.49766954  0.35292815
   0.74014450  0.99851545  0.48194935
   0.25059042  0.49766954  0.35292815
   0.23989317  0.99725680  0.48291138
   0.99618298  0.99740097  0.38536662
   0.51480552  0.49912326  0.51344919
   0.99557869  0.49257668  0.44950258
   0.50058925  0.99767067  0.32219910
   0.98408324  0.22484014  0.55268215
   0.98102294  0.73489357  0.54372353
   0.47592231  0.04707091  0.58166690
   0.99038892  0.22367097  0.48489650
   0.50058925  0.72426545  0.35464748
   0.50058925  0.27107537  0.35464748
   0.98856911  0.76399622  0.48536542
   0.77399447  0.49766954  0.29318964
   0.72319361  0.99783771  0.42032196
   0.48906062  0.22687155  0.47908818
   0.00058986  0.72426545  0.35120881
   0.00058986  0.27107537  0.35120881
   0.48993357  0.76903841  0.47874717
   0.72156498  0.49608267  0.41471440
   0.77399447  0.99767067  0.28975097
   0.26487751  0.49615401  0.41374430
   0.22718577  0.99767067  0.28975097
   0.26794860  0.99717825  0.41969019
   0.22718577  0.49766954  0.29318964
   0.76854851  0.48120700  0.55047824
   0.21238492  0.98088471  0.54350875
   0.23416393  0.50214576  0.54914449
   0.75068684  0.98227699  0.54364355
   0.72558567  0.08103944  0.61663437
   0.18796857  0.24303587  0.60056355
   0.35446805  0.48738618  0.27144965
   0.25816528  0.46508405  0.57468882
   0.67210036  0.15169046  0.63827870
   0.06527126  0.19616555  0.61710385
Direct configuration=   148
   0.00058986  0.24767071  0.29147031
   0.49305682  0.74618241  0.41681489
   0.49287760  0.24680768  0.41657001
   0.00058986  0.74767011  0.29147031
   0.75058982  0.49766954  0.35292815
   0.74014450  0.99851545  0.48194935
   0.25059042  0.49766954  0.35292815
   0.23989317  0.99725680  0.48291138
   0.99618298  0.99740097  0.38536662
   0.51480552  0.49912326  0.51344919
   0.99557869  0.49257668  0.44950258
   0.50058925  0.99767067  0.32219910
   0.98408324  0.22484014  0.55268215
   0.98102294  0.73489357  0.54372353
   0.47592231  0.04707091  0.58166690
   0.99038892  0.22367097  0.48489650
   0.50058925  0.72426545  0.35464748
   0.50058925  0.27107537  0.35464748
   0.98856911  0.76399622  0.48536542
   0.77399447  0.49766954  0.29318964
   0.72319361  0.99783771  0.42032196
   0.48906062  0.22687155  0.47908818
   0.00058986  0.72426545  0.35120881
   0.00058986  0.27107537  0.35120881
   0.48993357  0.76903841  0.47874717
   0.72156498  0.49608267  0.41471440
   0.77399447  0.99767067  0.28975097
   0.26487751  0.49615401  0.41374430
   0.22718577  0.99767067  0.28975097
   0.26794860  0.99717825  0.41969019
   0.22718577  0.49766954  0.29318964
   0.76854851  0.48120700  0.55047824
   0.21238492  0.98088471  0.54350875
   0.23416393  0.50214576  0.54914449
   0.75068684  0.98227699  0.54364355
   0.72558567  0.08103944  0.61663437
   0.18796857  0.24303587  0.60056355
   0.35446805  0.48738618  0.27144965
   0.25816528  0.46508405  0.57468882
   0.67210036  0.15169046  0.63827870
   0.06527126  0.19616555  0.61710385
Direct configuration=   149
   0.00058986  0.24767071  0.29147031
   0.49305682  0.74618241  0.41681489
   0.49287760  0.24680768  0.41657001
   0.00058986  0.74767011  0.29147031
   0.75058982  0.49766954  0.35292815
   0.74014450  0.99851545  0.48194935
   0.25059042  0.49766954  0.35292815
   0.23989317  0.99725680  0.48291138
   0.99618298  0.99740097  0.38536662
   0.51480552  0.49912326  0.51344919
   0.99557869  0.49257668  0.44950258
   0.50058925  0.99767067  0.32219910
   0.98408324  0.22484014  0.55268215
   0.98102294  0.73489357  0.54372353
   0.47592231  0.04707091  0.58166690
   0.99038892  0.22367097  0.48489650
   0.50058925  0.72426545  0.35464748
   0.50058925  0.27107537  0.35464748
   0.98856911  0.76399622  0.48536542
   0.77399447  0.49766954  0.29318964
   0.72319361  0.99783771  0.42032196
   0.48906062  0.22687155  0.47908818
   0.00058986  0.72426545  0.35120881
   0.00058986  0.27107537  0.35120881
   0.48993357  0.76903841  0.47874717
   0.72156498  0.49608267  0.41471440
   0.77399447  0.99767067  0.28975097
   0.26487751  0.49615401  0.41374430
   0.22718577  0.99767067  0.28975097
   0.26794860  0.99717825  0.41969019
   0.22718577  0.49766954  0.29318964
   0.76854851  0.48120700  0.55047824
   0.21238492  0.98088471  0.54350875
   0.23416393  0.50214576  0.54914449
   0.75068684  0.98227699  0.54364355
   0.72558567  0.08103944  0.61663437
   0.18796857  0.24303587  0.60056355
   0.35446805  0.48738618  0.27144965
   0.25816528  0.46508405  0.57468882
   0.67210036  0.15169046  0.63827870
   0.06527126  0.19616555  0.61710385
Direct configuration=   150
   0.00058986  0.24767071  0.29147031
   0.49305682  0.74618241  0.41681489
   0.49287760  0.24680768  0.41657001
   0.00058986  0.74767011  0.29147031
   0.75058982  0.49766954  0.35292815
   0.74014450  0.99851545  0.48194935
   0.25059042  0.49766954  0.35292815
   0.23989317  0.99725680  0.48291138
   0.99618298  0.99740097  0.38536662
   0.51480552  0.49912326  0.51344919
   0.99557869  0.49257668  0.44950258
   0.50058925  0.99767067  0.32219910
   0.98408324  0.22484014  0.55268215
   0.98102294  0.73489357  0.54372353
   0.47592231  0.04707091  0.58166690
   0.99038892  0.22367097  0.48489650
   0.50058925  0.72426545  0.35464748
   0.50058925  0.27107537  0.35464748
   0.98856911  0.76399622  0.48536542
   0.77399447  0.49766954  0.29318964
   0.72319361  0.99783771  0.42032196
   0.48906062  0.22687155  0.47908818
   0.00058986  0.72426545  0.35120881
   0.00058986  0.27107537  0.35120881
   0.48993357  0.76903841  0.47874717
   0.72156498  0.49608267  0.41471440
   0.77399447  0.99767067  0.28975097
   0.26487751  0.49615401  0.41374430
   0.22718577  0.99767067  0.28975097
   0.26794860  0.99717825  0.41969019
   0.22718577  0.49766954  0.29318964
   0.76854851  0.48120700  0.55047824
   0.21238492  0.98088471  0.54350875
   0.23416393  0.50214576  0.54914449
   0.75068684  0.98227699  0.54364355
   0.72558567  0.08103944  0.61663437
   0.18796857  0.24303587  0.60056355
   0.35446805  0.48738618  0.27144965
   0.25816528  0.46508405  0.57468882
   0.67210036  0.15169046  0.63827870
   0.06527126  0.19616555  0.61710385
Direct configuration=   151
   0.00058986  0.24767071  0.29147031
   0.49305682  0.74618241  0.41681489
   0.49287760  0.24680768  0.41657001
   0.00058986  0.74767011  0.29147031
   0.75058982  0.49766954  0.35292815
   0.74014450  0.99851545  0.48194935
   0.25059042  0.49766954  0.35292815
   0.23989317  0.99725680  0.48291138
   0.99618298  0.99740097  0.38536662
   0.51480552  0.49912326  0.51344919
   0.99557869  0.49257668  0.44950258
   0.50058925  0.99767067  0.32219910
   0.98408324  0.22484014  0.55268215
   0.98102294  0.73489357  0.54372353
   0.47592231  0.04707091  0.58166690
   0.99038892  0.22367097  0.48489650
   0.50058925  0.72426545  0.35464748
   0.50058925  0.27107537  0.35464748
   0.98856911  0.76399622  0.48536542
   0.77399447  0.49766954  0.29318964
   0.72319361  0.99783771  0.42032196
   0.48906062  0.22687155  0.47908818
   0.00058986  0.72426545  0.35120881
   0.00058986  0.27107537  0.35120881
   0.48993357  0.76903841  0.47874717
   0.72156498  0.49608267  0.41471440
   0.77399447  0.99767067  0.28975097
   0.26487751  0.49615401  0.41374430
   0.22718577  0.99767067  0.28975097
   0.26794860  0.99717825  0.41969019
   0.22718577  0.49766954  0.29318964
   0.76854851  0.48120700  0.55047824
   0.21238492  0.98088471  0.54350875
   0.23416393  0.50214576  0.54914449
   0.75068684  0.98227699  0.54364355
   0.72558567  0.08103944  0.61663437
   0.18796857  0.24303587  0.60056355
   0.35446805  0.48738618  0.27144965
   0.25816528  0.46508405  0.57468882
   0.67210036  0.15169046  0.63827870
   0.06527126  0.19616555  0.61710385
Direct configuration=   152
   0.00058986  0.24767071  0.29147031
   0.49305682  0.74618241  0.41681489
   0.49287760  0.24680768  0.41657001
   0.00058986  0.74767011  0.29147031
   0.75058982  0.49766954  0.35292815
   0.74014450  0.99851545  0.48194935
   0.25059042  0.49766954  0.35292815
   0.23989317  0.99725680  0.48291138
   0.99618298  0.99740097  0.38536662
   0.51480552  0.49912326  0.51344919
   0.99557869  0.49257668  0.44950258
   0.50058925  0.99767067  0.32219910
   0.98408324  0.22484014  0.55268215
   0.98102294  0.73489357  0.54372353
   0.47592231  0.04707091  0.58166690
   0.99038892  0.22367097  0.48489650
   0.50058925  0.72426545  0.35464748
   0.50058925  0.27107537  0.35464748
   0.98856911  0.76399622  0.48536542
   0.77399447  0.49766954  0.29318964
   0.72319361  0.99783771  0.42032196
   0.48906062  0.22687155  0.47908818
   0.00058986  0.72426545  0.35120881
   0.00058986  0.27107537  0.35120881
   0.48993357  0.76903841  0.47874717
   0.72156498  0.49608267  0.41471440
   0.77399447  0.99767067  0.28975097
   0.26487751  0.49615401  0.41374430
   0.22718577  0.99767067  0.28975097
   0.26794860  0.99717825  0.41969019
   0.22718577  0.49766954  0.29318964
   0.76854851  0.48120700  0.55047824
   0.21238492  0.98088471  0.54350875
   0.23416393  0.50214576  0.54914449
   0.75068684  0.98227699  0.54364355
   0.72558567  0.08103944  0.61663437
   0.18796857  0.24303587  0.60056355
   0.35446805  0.48738618  0.27144965
   0.25816528  0.46508405  0.57468882
   0.67210036  0.15169046  0.63827870
   0.06527126  0.19616555  0.61710385
Direct configuration=   153
   0.00058986  0.24767071  0.29147031
   0.49305682  0.74618241  0.41681489
   0.49287760  0.24680768  0.41657001
   0.00058986  0.74767011  0.29147031
   0.75058982  0.49766954  0.35292815
   0.74014450  0.99851545  0.48194935
   0.25059042  0.49766954  0.35292815
   0.23989317  0.99725680  0.48291138
   0.99618298  0.99740097  0.38536662
   0.51480552  0.49912326  0.51344919
   0.99557869  0.49257668  0.44950258
   0.50058925  0.99767067  0.32219910
   0.98408324  0.22484014  0.55268215
   0.98102294  0.73489357  0.54372353
   0.47592231  0.04707091  0.58166690
   0.99038892  0.22367097  0.48489650
   0.50058925  0.72426545  0.35464748
   0.50058925  0.27107537  0.35464748
   0.98856911  0.76399622  0.48536542
   0.77399447  0.49766954  0.29318964
   0.72319361  0.99783771  0.42032196
   0.48906062  0.22687155  0.47908818
   0.00058986  0.72426545  0.35120881
   0.00058986  0.27107537  0.35120881
   0.48993357  0.76903841  0.47874717
   0.72156498  0.49608267  0.41471440
   0.77399447  0.99767067  0.28975097
   0.26487751  0.49615401  0.41374430
   0.22718577  0.99767067  0.28975097
   0.26794860  0.99717825  0.41969019
   0.22718577  0.49766954  0.29318964
   0.76854851  0.48120700  0.55047824
   0.21238492  0.98088471  0.54350875
   0.23416393  0.50214576  0.54914449
   0.75068684  0.98227699  0.54364355
   0.72558567  0.08103944  0.61663437
   0.18796857  0.24303587  0.60056355
   0.35446805  0.48738618  0.27144965
   0.25816528  0.46508405  0.57468882
   0.67210036  0.15169046  0.63827870
   0.06527126  0.19616555  0.61710385
Direct configuration=   154
   0.00058986  0.24767071  0.29147031
   0.49305682  0.74618241  0.41681489
   0.49287760  0.24680768  0.41657001
   0.00058986  0.74767011  0.29147031
   0.75058982  0.49766954  0.35292815
   0.74014450  0.99851545  0.48194935
   0.25059042  0.49766954  0.35292815
   0.23989317  0.99725680  0.48291138
   0.99618298  0.99740097  0.38536662
   0.51480552  0.49912326  0.51344919
   0.99557869  0.49257668  0.44950258
   0.50058925  0.99767067  0.32219910
   0.98408324  0.22484014  0.55268215
   0.98102294  0.73489357  0.54372353
   0.47592231  0.04707091  0.58166690
   0.99038892  0.22367097  0.48489650
   0.50058925  0.72426545  0.35464748
   0.50058925  0.27107537  0.35464748
   0.98856911  0.76399622  0.48536542
   0.77399447  0.49766954  0.29318964
   0.72319361  0.99783771  0.42032196
   0.48906062  0.22687155  0.47908818
   0.00058986  0.72426545  0.35120881
   0.00058986  0.27107537  0.35120881
   0.48993357  0.76903841  0.47874717
   0.72156498  0.49608267  0.41471440
   0.77399447  0.99767067  0.28975097
   0.26487751  0.49615401  0.41374430
   0.22718577  0.99767067  0.28975097
   0.26794860  0.99717825  0.41969019
   0.22718577  0.49766954  0.29318964
   0.76854851  0.48120700  0.55047824
   0.21238492  0.98088471  0.54350875
   0.23416393  0.50214576  0.54914449
   0.75068684  0.98227699  0.54364355
   0.72558567  0.08103944  0.61663437
   0.18796857  0.24303587  0.60056355
   0.35446805  0.48738618  0.27144965
   0.25816528  0.46508405  0.57468882
   0.67210036  0.15169046  0.63827870
   0.06527126  0.19616555  0.61710385
Direct configuration=   155
   0.00058986  0.24767071  0.29147031
   0.49305682  0.74618241  0.41681489
   0.49287760  0.24680768  0.41657001
   0.00058986  0.74767011  0.29147031
   0.75058982  0.49766954  0.35292815
   0.74014450  0.99851545  0.48194935
   0.25059042  0.49766954  0.35292815
   0.23989317  0.99725680  0.48291138
   0.99618298  0.99740097  0.38536662
   0.51480552  0.49912326  0.51344919
   0.99557869  0.49257668  0.44950258
   0.50058925  0.99767067  0.32219910
   0.98408324  0.22484014  0.55268215
   0.98102294  0.73489357  0.54372353
   0.47592231  0.04707091  0.58166690
   0.99038892  0.22367097  0.48489650
   0.50058925  0.72426545  0.35464748
   0.50058925  0.27107537  0.35464748
   0.98856911  0.76399622  0.48536542
   0.77399447  0.49766954  0.29318964
   0.72319361  0.99783771  0.42032196
   0.48906062  0.22687155  0.47908818
   0.00058986  0.72426545  0.35120881
   0.00058986  0.27107537  0.35120881
   0.48993357  0.76903841  0.47874717
   0.72156498  0.49608267  0.41471440
   0.77399447  0.99767067  0.28975097
   0.26487751  0.49615401  0.41374430
   0.22718577  0.99767067  0.28975097
   0.26794860  0.99717825  0.41969019
   0.22718577  0.49766954  0.29318964
   0.76854851  0.48120700  0.55047824
   0.21238492  0.98088471  0.54350875
   0.23416393  0.50214576  0.54914449
   0.75068684  0.98227699  0.54364355
   0.72558567  0.08103944  0.61663437
   0.18796857  0.24303587  0.60056355
   0.35446805  0.48738618  0.27144965
   0.25816528  0.46508405  0.57468882
   0.67210036  0.15169046  0.63827870
   0.06527126  0.19616555  0.61710385
Direct configuration=   156
   0.00058986  0.24767071  0.29147031
   0.49305682  0.74618241  0.41681489
   0.49287760  0.24680768  0.41657001
   0.00058986  0.74767011  0.29147031
   0.75058982  0.49766954  0.35292815
   0.74014450  0.99851545  0.48194935
   0.25059042  0.49766954  0.35292815
   0.23989317  0.99725680  0.48291138
   0.99618298  0.99740097  0.38536662
   0.51480552  0.49912326  0.51344919
   0.99557869  0.49257668  0.44950258
   0.50058925  0.99767067  0.32219910
   0.98408324  0.22484014  0.55268215
   0.98102294  0.73489357  0.54372353
   0.47592231  0.04707091  0.58166690
   0.99038892  0.22367097  0.48489650
   0.50058925  0.72426545  0.35464748
   0.50058925  0.27107537  0.35464748
   0.98856911  0.76399622  0.48536542
   0.77399447  0.49766954  0.29318964
   0.72319361  0.99783771  0.42032196
   0.48906062  0.22687155  0.47908818
   0.00058986  0.72426545  0.35120881
   0.00058986  0.27107537  0.35120881
   0.48993357  0.76903841  0.47874717
   0.72156498  0.49608267  0.41471440
   0.77399447  0.99767067  0.28975097
   0.26487751  0.49615401  0.41374430
   0.22718577  0.99767067  0.28975097
   0.26794860  0.99717825  0.41969019
   0.22718577  0.49766954  0.29318964
   0.76854851  0.48120700  0.55047824
   0.21238492  0.98088471  0.54350875
   0.23416393  0.50214576  0.54914449
   0.75068684  0.98227699  0.54364355
   0.72558567  0.08103944  0.61663437
   0.18796857  0.24303587  0.60056355
   0.35446805  0.48738618  0.27144965
   0.25816528  0.46508405  0.57468882
   0.67210036  0.15169046  0.63827870
   0.06527126  0.19616555  0.61710385
Direct configuration=   157
   0.00058986  0.24767071  0.29147031
   0.49305682  0.74618241  0.41681489
   0.49287760  0.24680768  0.41657001
   0.00058986  0.74767011  0.29147031
   0.75058982  0.49766954  0.35292815
   0.74014450  0.99851545  0.48194935
   0.25059042  0.49766954  0.35292815
   0.23989317  0.99725680  0.48291138
   0.99618298  0.99740097  0.38536662
   0.51480552  0.49912326  0.51344919
   0.99557869  0.49257668  0.44950258
   0.50058925  0.99767067  0.32219910
   0.98408324  0.22484014  0.55268215
   0.98102294  0.73489357  0.54372353
   0.47592231  0.04707091  0.58166690
   0.99038892  0.22367097  0.48489650
   0.50058925  0.72426545  0.35464748
   0.50058925  0.27107537  0.35464748
   0.98856911  0.76399622  0.48536542
   0.77399447  0.49766954  0.29318964
   0.72319361  0.99783771  0.42032196
   0.48906062  0.22687155  0.47908818
   0.00058986  0.72426545  0.35120881
   0.00058986  0.27107537  0.35120881
   0.48993357  0.76903841  0.47874717
   0.72156498  0.49608267  0.41471440
   0.77399447  0.99767067  0.28975097
   0.26487751  0.49615401  0.41374430
   0.22718577  0.99767067  0.28975097
   0.26794860  0.99717825  0.41969019
   0.22718577  0.49766954  0.29318964
   0.76854851  0.48120700  0.55047824
   0.21238492  0.98088471  0.54350875
   0.23416393  0.50214576  0.54914449
   0.75068684  0.98227699  0.54364355
   0.72558567  0.08103944  0.61663437
   0.18796857  0.24303587  0.60056355
   0.35446805  0.48738618  0.27144965
   0.25816528  0.46508405  0.57468882
   0.67210036  0.15169046  0.63827870
   0.06527126  0.19616555  0.61710385
Direct configuration=   158
   0.00058986  0.24767071  0.29147031
   0.49305682  0.74618241  0.41681489
   0.49287760  0.24680768  0.41657001
   0.00058986  0.74767011  0.29147031
   0.75058982  0.49766954  0.35292815
   0.74014450  0.99851545  0.48194935
   0.25059042  0.49766954  0.35292815
   0.23989317  0.99725680  0.48291138
   0.99618298  0.99740097  0.38536662
   0.51480552  0.49912326  0.51344919
   0.99557869  0.49257668  0.44950258
   0.50058925  0.99767067  0.32219910
   0.98408324  0.22484014  0.55268215
   0.98102294  0.73489357  0.54372353
   0.47592231  0.04707091  0.58166690
   0.99038892  0.22367097  0.48489650
   0.50058925  0.72426545  0.35464748
   0.50058925  0.27107537  0.35464748
   0.98856911  0.76399622  0.48536542
   0.77399447  0.49766954  0.29318964
   0.72319361  0.99783771  0.42032196
   0.48906062  0.22687155  0.47908818
   0.00058986  0.72426545  0.35120881
   0.00058986  0.27107537  0.35120881
   0.48993357  0.76903841  0.47874717
   0.72156498  0.49608267  0.41471440
   0.77399447  0.99767067  0.28975097
   0.26487751  0.49615401  0.41374430
   0.22718577  0.99767067  0.28975097
   0.26794860  0.99717825  0.41969019
   0.22718577  0.49766954  0.29318964
   0.76854851  0.48120700  0.55047824
   0.21238492  0.98088471  0.54350875
   0.23416393  0.50214576  0.54914449
   0.75068684  0.98227699  0.54364355
   0.72558567  0.08103944  0.61663437
   0.18796857  0.24303587  0.60056355
   0.35446805  0.48738618  0.27144965
   0.25816528  0.46508405  0.57468882
   0.67210036  0.15169046  0.63827870
   0.06527126  0.19616555  0.61710385
Direct configuration=   159
   0.00058986  0.24767071  0.29147031
   0.49305682  0.74618241  0.41681489
   0.49287760  0.24680768  0.41657001
   0.00058986  0.74767011  0.29147031
   0.75058982  0.49766954  0.35292815
   0.74014450  0.99851545  0.48194935
   0.25059042  0.49766954  0.35292815
   0.23989317  0.99725680  0.48291138
   0.99618298  0.99740097  0.38536662
   0.51480552  0.49912326  0.51344919
   0.99557869  0.49257668  0.44950258
   0.50058925  0.99767067  0.32219910
   0.98408324  0.22484014  0.55268215
   0.98102294  0.73489357  0.54372353
   0.47592231  0.04707091  0.58166690
   0.99038892  0.22367097  0.48489650
   0.50058925  0.72426545  0.35464748
   0.50058925  0.27107537  0.35464748
   0.98856911  0.76399622  0.48536542
   0.77399447  0.49766954  0.29318964
   0.72319361  0.99783771  0.42032196
   0.48906062  0.22687155  0.47908818
   0.00058986  0.72426545  0.35120881
   0.00058986  0.27107537  0.35120881
   0.48993357  0.76903841  0.47874717
   0.72156498  0.49608267  0.41471440
   0.77399447  0.99767067  0.28975097
   0.26487751  0.49615401  0.41374430
   0.22718577  0.99767067  0.28975097
   0.26794860  0.99717825  0.41969019
   0.22718577  0.49766954  0.29318964
   0.76854851  0.48120700  0.55047824
   0.21238492  0.98088471  0.54350875
   0.23416393  0.50214576  0.54914449
   0.75068684  0.98227699  0.54364355
   0.72558567  0.08103944  0.61663437
   0.18796857  0.24303587  0.60056355
   0.35446805  0.48738618  0.27144965
   0.25816528  0.46508405  0.57468882
   0.67210036  0.15169046  0.63827870
   0.06527126  0.19616555  0.61710385
Direct configuration=   160
   0.00058986  0.24767071  0.29147031
   0.49305682  0.74618241  0.41681489
   0.49287760  0.24680768  0.41657001
   0.00058986  0.74767011  0.29147031
   0.75058982  0.49766954  0.35292815
   0.74014450  0.99851545  0.48194935
   0.25059042  0.49766954  0.35292815
   0.23989317  0.99725680  0.48291138
   0.99618298  0.99740097  0.38536662
   0.51480552  0.49912326  0.51344919
   0.99557869  0.49257668  0.44950258
   0.50058925  0.99767067  0.32219910
   0.98408324  0.22484014  0.55268215
   0.98102294  0.73489357  0.54372353
   0.47592231  0.04707091  0.58166690
   0.99038892  0.22367097  0.48489650
   0.50058925  0.72426545  0.35464748
   0.50058925  0.27107537  0.35464748
   0.98856911  0.76399622  0.48536542
   0.77399447  0.49766954  0.29318964
   0.72319361  0.99783771  0.42032196
   0.48906062  0.22687155  0.47908818
   0.00058986  0.72426545  0.35120881
   0.00058986  0.27107537  0.35120881
   0.48993357  0.76903841  0.47874717
   0.72156498  0.49608267  0.41471440
   0.77399447  0.99767067  0.28975097
   0.26487751  0.49615401  0.41374430
   0.22718577  0.99767067  0.28975097
   0.26794860  0.99717825  0.41969019
   0.22718577  0.49766954  0.29318964
   0.76854851  0.48120700  0.55047824
   0.21238492  0.98088471  0.54350875
   0.23416393  0.50214576  0.54914449
   0.75068684  0.98227699  0.54364355
   0.72558567  0.08103944  0.61663437
   0.18796857  0.24303587  0.60056355
   0.35446805  0.48738618  0.27144965
   0.25816528  0.46508405  0.57468882
   0.67210036  0.15169046  0.63827870
   0.06527126  0.19616555  0.61710385
Direct configuration=   161
   0.00058986  0.24767071  0.29147031
   0.49305682  0.74618241  0.41681489
   0.49287760  0.24680768  0.41657001
   0.00058986  0.74767011  0.29147031
   0.75058982  0.49766954  0.35292815
   0.74014450  0.99851545  0.48194935
   0.25059042  0.49766954  0.35292815
   0.23989317  0.99725680  0.48291138
   0.99618298  0.99740097  0.38536662
   0.51480552  0.49912326  0.51344919
   0.99557869  0.49257668  0.44950258
   0.50058925  0.99767067  0.32219910
   0.98408324  0.22484014  0.55268215
   0.98102294  0.73489357  0.54372353
   0.47592231  0.04707091  0.58166690
   0.99038892  0.22367097  0.48489650
   0.50058925  0.72426545  0.35464748
   0.50058925  0.27107537  0.35464748
   0.98856911  0.76399622  0.48536542
   0.77399447  0.49766954  0.29318964
   0.72319361  0.99783771  0.42032196
   0.48906062  0.22687155  0.47908818
   0.00058986  0.72426545  0.35120881
   0.00058986  0.27107537  0.35120881
   0.48993357  0.76903841  0.47874717
   0.72156498  0.49608267  0.41471440
   0.77399447  0.99767067  0.28975097
   0.26487751  0.49615401  0.41374430
   0.22718577  0.99767067  0.28975097
   0.26794860  0.99717825  0.41969019
   0.22718577  0.49766954  0.29318964
   0.76854851  0.48120700  0.55047824
   0.21238492  0.98088471  0.54350875
   0.23416393  0.50214576  0.54914449
   0.75068684  0.98227699  0.54364355
   0.72558567  0.08103944  0.61663437
   0.18796857  0.24303587  0.60056355
   0.35446805  0.48738618  0.27144965
   0.25816528  0.46508405  0.57468882
   0.67210036  0.15169046  0.63827870
   0.06527126  0.19616555  0.61710385
Direct configuration=   162
   0.00058986  0.24767071  0.29147031
   0.49305682  0.74618241  0.41681489
   0.49287760  0.24680768  0.41657001
   0.00058986  0.74767011  0.29147031
   0.75058982  0.49766954  0.35292815
   0.74014450  0.99851545  0.48194935
   0.25059042  0.49766954  0.35292815
   0.23989317  0.99725680  0.48291138
   0.99618298  0.99740097  0.38536662
   0.51480552  0.49912326  0.51344919
   0.99557869  0.49257668  0.44950258
   0.50058925  0.99767067  0.32219910
   0.98408324  0.22484014  0.55268215
   0.98102294  0.73489357  0.54372353
   0.47592231  0.04707091  0.58166690
   0.99038892  0.22367097  0.48489650
   0.50058925  0.72426545  0.35464748
   0.50058925  0.27107537  0.35464748
   0.98856911  0.76399622  0.48536542
   0.77399447  0.49766954  0.29318964
   0.72319361  0.99783771  0.42032196
   0.48906062  0.22687155  0.47908818
   0.00058986  0.72426545  0.35120881
   0.00058986  0.27107537  0.35120881
   0.48993357  0.76903841  0.47874717
   0.72156498  0.49608267  0.41471440
   0.77399447  0.99767067  0.28975097
   0.26487751  0.49615401  0.41374430
   0.22718577  0.99767067  0.28975097
   0.26794860  0.99717825  0.41969019
   0.22718577  0.49766954  0.29318964
   0.76854851  0.48120700  0.55047824
   0.21238492  0.98088471  0.54350875
   0.23416393  0.50214576  0.54914449
   0.75068684  0.98227699  0.54364355
   0.72558567  0.08103944  0.61663437
   0.18796857  0.24303587  0.60056355
   0.35446805  0.48738618  0.27144965
   0.25816528  0.46508405  0.57468882
   0.67210036  0.15169046  0.63827870
   0.06527126  0.19616555  0.61710385
Direct configuration=   163
   0.00058986  0.24767071  0.29147031
   0.49305682  0.74618241  0.41681489
   0.49287760  0.24680768  0.41657001
   0.00058986  0.74767011  0.29147031
   0.75058982  0.49766954  0.35292815
   0.74014450  0.99851545  0.48194935
   0.25059042  0.49766954  0.35292815
   0.23989317  0.99725680  0.48291138
   0.99618298  0.99740097  0.38536662
   0.51480552  0.49912326  0.51344919
   0.99557869  0.49257668  0.44950258
   0.50058925  0.99767067  0.32219910
   0.98408324  0.22484014  0.55268215
   0.98102294  0.73489357  0.54372353
   0.47592231  0.04707091  0.58166690
   0.99038892  0.22367097  0.48489650
   0.50058925  0.72426545  0.35464748
   0.50058925  0.27107537  0.35464748
   0.98856911  0.76399622  0.48536542
   0.77399447  0.49766954  0.29318964
   0.72319361  0.99783771  0.42032196
   0.48906062  0.22687155  0.47908818
   0.00058986  0.72426545  0.35120881
   0.00058986  0.27107537  0.35120881
   0.48993357  0.76903841  0.47874717
   0.72156498  0.49608267  0.41471440
   0.77399447  0.99767067  0.28975097
   0.26487751  0.49615401  0.41374430
   0.22718577  0.99767067  0.28975097
   0.26794860  0.99717825  0.41969019
   0.22718577  0.49766954  0.29318964
   0.76854851  0.48120700  0.55047824
   0.21238492  0.98088471  0.54350875
   0.23416393  0.50214576  0.54914449
   0.75068684  0.98227699  0.54364355
   0.72558567  0.08103944  0.61663437
   0.18796857  0.24303587  0.60056355
   0.35446805  0.48738618  0.27144965
   0.25816528  0.46508405  0.57468882
   0.67210036  0.15169046  0.63827870
   0.06527126  0.19616555  0.61710385
Direct configuration=   164
   0.00058986  0.24767071  0.29147031
   0.49305682  0.74618241  0.41681489
   0.49287760  0.24680768  0.41657001
   0.00058986  0.74767011  0.29147031
   0.75058982  0.49766954  0.35292815
   0.74014450  0.99851545  0.48194935
   0.25059042  0.49766954  0.35292815
   0.23989317  0.99725680  0.48291138
   0.99618298  0.99740097  0.38536662
   0.51480552  0.49912326  0.51344919
   0.99557869  0.49257668  0.44950258
   0.50058925  0.99767067  0.32219910
   0.98408324  0.22484014  0.55268215
   0.98102294  0.73489357  0.54372353
   0.47592231  0.04707091  0.58166690
   0.99038892  0.22367097  0.48489650
   0.50058925  0.72426545  0.35464748
   0.50058925  0.27107537  0.35464748
   0.98856911  0.76399622  0.48536542
   0.77399447  0.49766954  0.29318964
   0.72319361  0.99783771  0.42032196
   0.48906062  0.22687155  0.47908818
   0.00058986  0.72426545  0.35120881
   0.00058986  0.27107537  0.35120881
   0.48993357  0.76903841  0.47874717
   0.72156498  0.49608267  0.41471440
   0.77399447  0.99767067  0.28975097
   0.26487751  0.49615401  0.41374430
   0.22718577  0.99767067  0.28975097
   0.26794860  0.99717825  0.41969019
   0.22718577  0.49766954  0.29318964
   0.76854851  0.48120700  0.55047824
   0.21238492  0.98088471  0.54350875
   0.23416393  0.50214576  0.54914449
   0.75068684  0.98227699  0.54364355
   0.72558567  0.08103944  0.61663437
   0.18796857  0.24303587  0.60056355
   0.35446805  0.48738618  0.27144965
   0.25816528  0.46508405  0.57468882
   0.67210036  0.15169046  0.63827870
   0.06527126  0.19616555  0.61710385
Direct configuration=   165
   0.00058986  0.24767071  0.29147031
   0.49305682  0.74618241  0.41681489
   0.49287760  0.24680768  0.41657001
   0.00058986  0.74767011  0.29147031
   0.75058982  0.49766954  0.35292815
   0.74014450  0.99851545  0.48194935
   0.25059042  0.49766954  0.35292815
   0.23989317  0.99725680  0.48291138
   0.99618298  0.99740097  0.38536662
   0.51480552  0.49912326  0.51344919
   0.99557869  0.49257668  0.44950258
   0.50058925  0.99767067  0.32219910
   0.98408324  0.22484014  0.55268215
   0.98102294  0.73489357  0.54372353
   0.47592231  0.04707091  0.58166690
   0.99038892  0.22367097  0.48489650
   0.50058925  0.72426545  0.35464748
   0.50058925  0.27107537  0.35464748
   0.98856911  0.76399622  0.48536542
   0.77399447  0.49766954  0.29318964
   0.72319361  0.99783771  0.42032196
   0.48906062  0.22687155  0.47908818
   0.00058986  0.72426545  0.35120881
   0.00058986  0.27107537  0.35120881
   0.48993357  0.76903841  0.47874717
   0.72156498  0.49608267  0.41471440
   0.77399447  0.99767067  0.28975097
   0.26487751  0.49615401  0.41374430
   0.22718577  0.99767067  0.28975097
   0.26794860  0.99717825  0.41969019
   0.22718577  0.49766954  0.29318964
   0.76854851  0.48120700  0.55047824
   0.21238492  0.98088471  0.54350875
   0.23416393  0.50214576  0.54914449
   0.75068684  0.98227699  0.54364355
   0.72558567  0.08103944  0.61663437
   0.18796857  0.24303587  0.60056355
   0.35446805  0.48738618  0.27144965
   0.25816528  0.46508405  0.57468882
   0.67210036  0.15169046  0.63827870
   0.06527126  0.19616555  0.61710385
Direct configuration=   166
   0.00058986  0.24767071  0.29147031
   0.49305682  0.74618241  0.41681489
   0.49287760  0.24680768  0.41657001
   0.00058986  0.74767011  0.29147031
   0.75058982  0.49766954  0.35292815
   0.74014450  0.99851545  0.48194935
   0.25059042  0.49766954  0.35292815
   0.23989317  0.99725680  0.48291138
   0.99618298  0.99740097  0.38536662
   0.51480552  0.49912326  0.51344919
   0.99557869  0.49257668  0.44950258
   0.50058925  0.99767067  0.32219910
   0.98408324  0.22484014  0.55268215
   0.98102294  0.73489357  0.54372353
   0.47592231  0.04707091  0.58166690
   0.99038892  0.22367097  0.48489650
   0.50058925  0.72426545  0.35464748
   0.50058925  0.27107537  0.35464748
   0.98856911  0.76399622  0.48536542
   0.77399447  0.49766954  0.29318964
   0.72319361  0.99783771  0.42032196
   0.48906062  0.22687155  0.47908818
   0.00058986  0.72426545  0.35120881
   0.00058986  0.27107537  0.35120881
   0.48993357  0.76903841  0.47874717
   0.72156498  0.49608267  0.41471440
   0.77399447  0.99767067  0.28975097
   0.26487751  0.49615401  0.41374430
   0.22718577  0.99767067  0.28975097
   0.26794860  0.99717825  0.41969019
   0.22718577  0.49766954  0.29318964
   0.76854851  0.48120700  0.55047824
   0.21238492  0.98088471  0.54350875
   0.23416393  0.50214576  0.54914449
   0.75068684  0.98227699  0.54364355
   0.72558567  0.08103944  0.61663437
   0.18796857  0.24303587  0.60056355
   0.35446805  0.48738618  0.27144965
   0.25816528  0.46508405  0.57468882
   0.67210036  0.15169046  0.63827870
   0.06527126  0.19616555  0.61710385
Direct configuration=   167
   0.00058986  0.24767071  0.29147031
   0.49305682  0.74618241  0.41681489
   0.49287760  0.24680768  0.41657001
   0.00058986  0.74767011  0.29147031
   0.75058982  0.49766954  0.35292815
   0.74014450  0.99851545  0.48194935
   0.25059042  0.49766954  0.35292815
   0.23989317  0.99725680  0.48291138
   0.99618298  0.99740097  0.38536662
   0.51480552  0.49912326  0.51344919
   0.99557869  0.49257668  0.44950258
   0.50058925  0.99767067  0.32219910
   0.98408324  0.22484014  0.55268215
   0.98102294  0.73489357  0.54372353
   0.47592231  0.04707091  0.58166690
   0.99038892  0.22367097  0.48489650
   0.50058925  0.72426545  0.35464748
   0.50058925  0.27107537  0.35464748
   0.98856911  0.76399622  0.48536542
   0.77399447  0.49766954  0.29318964
   0.72319361  0.99783771  0.42032196
   0.48906062  0.22687155  0.47908818
   0.00058986  0.72426545  0.35120881
   0.00058986  0.27107537  0.35120881
   0.48993357  0.76903841  0.47874717
   0.72156498  0.49608267  0.41471440
   0.77399447  0.99767067  0.28975097
   0.26487751  0.49615401  0.41374430
   0.22718577  0.99767067  0.28975097
   0.26794860  0.99717825  0.41969019
   0.22718577  0.49766954  0.29318964
   0.76854851  0.48120700  0.55047824
   0.21238492  0.98088471  0.54350875
   0.23416393  0.50214576  0.54914449
   0.75068684  0.98227699  0.54364355
   0.72558567  0.08103944  0.61663437
   0.18796857  0.24303587  0.60056355
   0.35446805  0.48738618  0.27144965
   0.25816528  0.46508405  0.57468882
   0.67210036  0.15169046  0.63827870
   0.06527126  0.19616555  0.61710385
Direct configuration=   168
   0.00058986  0.24767071  0.29147031
   0.49305682  0.74618241  0.41681489
   0.49287760  0.24680768  0.41657001
   0.00058986  0.74767011  0.29147031
   0.75058982  0.49766954  0.35292815
   0.74014450  0.99851545  0.48194935
   0.25059042  0.49766954  0.35292815
   0.23989317  0.99725680  0.48291138
   0.99618298  0.99740097  0.38536662
   0.51480552  0.49912326  0.51344919
   0.99557869  0.49257668  0.44950258
   0.50058925  0.99767067  0.32219910
   0.98408324  0.22484014  0.55268215
   0.98102294  0.73489357  0.54372353
   0.47592231  0.04707091  0.58166690
   0.99038892  0.22367097  0.48489650
   0.50058925  0.72426545  0.35464748
   0.50058925  0.27107537  0.35464748
   0.98856911  0.76399622  0.48536542
   0.77399447  0.49766954  0.29318964
   0.72319361  0.99783771  0.42032196
   0.48906062  0.22687155  0.47908818
   0.00058986  0.72426545  0.35120881
   0.00058986  0.27107537  0.35120881
   0.48993357  0.76903841  0.47874717
   0.72156498  0.49608267  0.41471440
   0.77399447  0.99767067  0.28975097
   0.26487751  0.49615401  0.41374430
   0.22718577  0.99767067  0.28975097
   0.26794860  0.99717825  0.41969019
   0.22718577  0.49766954  0.29318964
   0.76854851  0.48120700  0.55047824
   0.21238492  0.98088471  0.54350875
   0.23416393  0.50214576  0.54914449
   0.75068684  0.98227699  0.54364355
   0.72558567  0.08103944  0.61663437
   0.18796857  0.24303587  0.60056355
   0.35446805  0.48738618  0.27144965
   0.25816528  0.46508405  0.57468882
   0.67210036  0.15169046  0.63827870
   0.06527126  0.19616555  0.61710385
Direct configuration=   169
   0.00058986  0.24767071  0.29147031
   0.49305682  0.74618241  0.41681489
   0.49287760  0.24680768  0.41657001
   0.00058986  0.74767011  0.29147031
   0.75058982  0.49766954  0.35292815
   0.74014450  0.99851545  0.48194935
   0.25059042  0.49766954  0.35292815
   0.23989317  0.99725680  0.48291138
   0.99618298  0.99740097  0.38536662
   0.51480552  0.49912326  0.51344919
   0.99557869  0.49257668  0.44950258
   0.50058925  0.99767067  0.32219910
   0.98408324  0.22484014  0.55268215
   0.98102294  0.73489357  0.54372353
   0.47592231  0.04707091  0.58166690
   0.99038892  0.22367097  0.48489650
   0.50058925  0.72426545  0.35464748
   0.50058925  0.27107537  0.35464748
   0.98856911  0.76399622  0.48536542
   0.77399447  0.49766954  0.29318964
   0.72319361  0.99783771  0.42032196
   0.48906062  0.22687155  0.47908818
   0.00058986  0.72426545  0.35120881
   0.00058986  0.27107537  0.35120881
   0.48993357  0.76903841  0.47874717
   0.72156498  0.49608267  0.41471440
   0.77399447  0.99767067  0.28975097
   0.26487751  0.49615401  0.41374430
   0.22718577  0.99767067  0.28975097
   0.26794860  0.99717825  0.41969019
   0.22718577  0.49766954  0.29318964
   0.76854851  0.48120700  0.55047824
   0.21238492  0.98088471  0.54350875
   0.23416393  0.50214576  0.54914449
   0.75068684  0.98227699  0.54364355
   0.72558567  0.08103944  0.61663437
   0.18796857  0.24303587  0.60056355
   0.35446805  0.48738618  0.27144965
   0.25816528  0.46508405  0.57468882
   0.67210036  0.15169046  0.63827870
   0.06527126  0.19616555  0.61710385
Direct configuration=   170
   0.00058986  0.24767071  0.29147031
   0.49305682  0.74618241  0.41681489
   0.49287760  0.24680768  0.41657001
   0.00058986  0.74767011  0.29147031
   0.75058982  0.49766954  0.35292815
   0.74014450  0.99851545  0.48194935
   0.25059042  0.49766954  0.35292815
   0.23989317  0.99725680  0.48291138
   0.99618298  0.99740097  0.38536662
   0.51480552  0.49912326  0.51344919
   0.99557869  0.49257668  0.44950258
   0.50058925  0.99767067  0.32219910
   0.98408324  0.22484014  0.55268215
   0.98102294  0.73489357  0.54372353
   0.47592231  0.04707091  0.58166690
   0.99038892  0.22367097  0.48489650
   0.50058925  0.72426545  0.35464748
   0.50058925  0.27107537  0.35464748
   0.98856911  0.76399622  0.48536542
   0.77399447  0.49766954  0.29318964
   0.72319361  0.99783771  0.42032196
   0.48906062  0.22687155  0.47908818
   0.00058986  0.72426545  0.35120881
   0.00058986  0.27107537  0.35120881
   0.48993357  0.76903841  0.47874717
   0.72156498  0.49608267  0.41471440
   0.77399447  0.99767067  0.28975097
   0.26487751  0.49615401  0.41374430
   0.22718577  0.99767067  0.28975097
   0.26794860  0.99717825  0.41969019
   0.22718577  0.49766954  0.29318964
   0.76854851  0.48120700  0.55047824
   0.21238492  0.98088471  0.54350875
   0.23416393  0.50214576  0.54914449
   0.75068684  0.98227699  0.54364355
   0.72558567  0.08103944  0.61663437
   0.18796857  0.24303587  0.60056355
   0.35446805  0.48738618  0.27144965
   0.25816528  0.46508405  0.57468882
   0.67210036  0.15169046  0.63827870
   0.06527126  0.19616555  0.61710385
Direct configuration=   171
   0.00058986  0.24767071  0.29147031
   0.49305682  0.74618241  0.41681489
   0.49287760  0.24680768  0.41657001
   0.00058986  0.74767011  0.29147031
   0.75058982  0.49766954  0.35292815
   0.74014450  0.99851545  0.48194935
   0.25059042  0.49766954  0.35292815
   0.23989317  0.99725680  0.48291138
   0.99618298  0.99740097  0.38536662
   0.51480552  0.49912326  0.51344919
   0.99557869  0.49257668  0.44950258
   0.50058925  0.99767067  0.32219910
   0.98408324  0.22484014  0.55268215
   0.98102294  0.73489357  0.54372353
   0.47592231  0.04707091  0.58166690
   0.99038892  0.22367097  0.48489650
   0.50058925  0.72426545  0.35464748
   0.50058925  0.27107537  0.35464748
   0.98856911  0.76399622  0.48536542
   0.77399447  0.49766954  0.29318964
   0.72319361  0.99783771  0.42032196
   0.48906062  0.22687155  0.47908818
   0.00058986  0.72426545  0.35120881
   0.00058986  0.27107537  0.35120881
   0.48993357  0.76903841  0.47874717
   0.72156498  0.49608267  0.41471440
   0.77399447  0.99767067  0.28975097
   0.26487751  0.49615401  0.41374430
   0.22718577  0.99767067  0.28975097
   0.26794860  0.99717825  0.41969019
   0.22718577  0.49766954  0.29318964
   0.76854851  0.48120700  0.55047824
   0.21238492  0.98088471  0.54350875
   0.23416393  0.50214576  0.54914449
   0.75068684  0.98227699  0.54364355
   0.72558567  0.08103944  0.61663437
   0.18796857  0.24303587  0.60056355
   0.35446805  0.48738618  0.27144965
   0.25816528  0.46508405  0.57468882
   0.67210036  0.15169046  0.63827870
   0.06527126  0.19616555  0.61710385
Direct configuration=   172
   0.00058986  0.24767071  0.29147031
   0.49305682  0.74618241  0.41681489
   0.49287760  0.24680768  0.41657001
   0.00058986  0.74767011  0.29147031
   0.75058982  0.49766954  0.35292815
   0.74014450  0.99851545  0.48194935
   0.25059042  0.49766954  0.35292815
   0.23989317  0.99725680  0.48291138
   0.99618298  0.99740097  0.38536662
   0.51480552  0.49912326  0.51344919
   0.99557869  0.49257668  0.44950258
   0.50058925  0.99767067  0.32219910
   0.98408324  0.22484014  0.55268215
   0.98102294  0.73489357  0.54372353
   0.47592231  0.04707091  0.58166690
   0.99038892  0.22367097  0.48489650
   0.50058925  0.72426545  0.35464748
   0.50058925  0.27107537  0.35464748
   0.98856911  0.76399622  0.48536542
   0.77399447  0.49766954  0.29318964
   0.72319361  0.99783771  0.42032196
   0.48906062  0.22687155  0.47908818
   0.00058986  0.72426545  0.35120881
   0.00058986  0.27107537  0.35120881
   0.48993357  0.76903841  0.47874717
   0.72156498  0.49608267  0.41471440
   0.77399447  0.99767067  0.28975097
   0.26487751  0.49615401  0.41374430
   0.22718577  0.99767067  0.28975097
   0.26794860  0.99717825  0.41969019
   0.22718577  0.49766954  0.29318964
   0.76854851  0.48120700  0.55047824
   0.21238492  0.98088471  0.54350875
   0.23416393  0.50214576  0.54914449
   0.75068684  0.98227699  0.54364355
   0.72558567  0.08103944  0.61663437
   0.18796857  0.24303587  0.60056355
   0.35446805  0.48738618  0.27144965
   0.25816528  0.46508405  0.57468882
   0.67210036  0.15169046  0.63827870
   0.06527126  0.19616555  0.61710385
Direct configuration=   173
   0.00058986  0.24767071  0.29147031
   0.49305682  0.74618241  0.41681489
   0.49287760  0.24680768  0.41657001
   0.00058986  0.74767011  0.29147031
   0.75058982  0.49766954  0.35292815
   0.74014450  0.99851545  0.48194935
   0.25059042  0.49766954  0.35292815
   0.23989317  0.99725680  0.48291138
   0.99618298  0.99740097  0.38536662
   0.51480552  0.49912326  0.51344919
   0.99557869  0.49257668  0.44950258
   0.50058925  0.99767067  0.32219910
   0.98408324  0.22484014  0.55268215
   0.98102294  0.73489357  0.54372353
   0.47592231  0.04707091  0.58166690
   0.99038892  0.22367097  0.48489650
   0.50058925  0.72426545  0.35464748
   0.50058925  0.27107537  0.35464748
   0.98856911  0.76399622  0.48536542
   0.77399447  0.49766954  0.29318964
   0.72319361  0.99783771  0.42032196
   0.48906062  0.22687155  0.47908818
   0.00058986  0.72426545  0.35120881
   0.00058986  0.27107537  0.35120881
   0.48993357  0.76903841  0.47874717
   0.72156498  0.49608267  0.41471440
   0.77399447  0.99767067  0.28975097
   0.26487751  0.49615401  0.41374430
   0.22718577  0.99767067  0.28975097
   0.26794860  0.99717825  0.41969019
   0.22718577  0.49766954  0.29318964
   0.76854851  0.48120700  0.55047824
   0.21238492  0.98088471  0.54350875
   0.23416393  0.50214576  0.54914449
   0.75068684  0.98227699  0.54364355
   0.72558567  0.08103944  0.61663437
   0.18796857  0.24303587  0.60056355
   0.35446805  0.48738618  0.27144965
   0.25816528  0.46508405  0.57468882
   0.67210036  0.15169046  0.63827870
   0.06527126  0.19616555  0.61710385
Direct configuration=   174
   0.00058986  0.24767071  0.29147031
   0.49305682  0.74618241  0.41681489
   0.49287760  0.24680768  0.41657001
   0.00058986  0.74767011  0.29147031
   0.75058982  0.49766954  0.35292815
   0.74014450  0.99851545  0.48194935
   0.25059042  0.49766954  0.35292815
   0.23989317  0.99725680  0.48291138
   0.99618298  0.99740097  0.38536662
   0.51480552  0.49912326  0.51344919
   0.99557869  0.49257668  0.44950258
   0.50058925  0.99767067  0.32219910
   0.98408324  0.22484014  0.55268215
   0.98102294  0.73489357  0.54372353
   0.47592231  0.04707091  0.58166690
   0.99038892  0.22367097  0.48489650
   0.50058925  0.72426545  0.35464748
   0.50058925  0.27107537  0.35464748
   0.98856911  0.76399622  0.48536542
   0.77399447  0.49766954  0.29318964
   0.72319361  0.99783771  0.42032196
   0.48906062  0.22687155  0.47908818
   0.00058986  0.72426545  0.35120881
   0.00058986  0.27107537  0.35120881
   0.48993357  0.76903841  0.47874717
   0.72156498  0.49608267  0.41471440
   0.77399447  0.99767067  0.28975097
   0.26487751  0.49615401  0.41374430
   0.22718577  0.99767067  0.28975097
   0.26794860  0.99717825  0.41969019
   0.22718577  0.49766954  0.29318964
   0.76854851  0.48120700  0.55047824
   0.21238492  0.98088471  0.54350875
   0.23416393  0.50214576  0.54914449
   0.75068684  0.98227699  0.54364355
   0.72558567  0.08103944  0.61663437
   0.18796857  0.24303587  0.60056355
   0.35446805  0.48738618  0.27144965
   0.25816528  0.46508405  0.57468882
   0.67210036  0.15169046  0.63827870
   0.06527126  0.19616555  0.61710385
Direct configuration=   175
   0.00058986  0.24767071  0.29147031
   0.49305682  0.74618241  0.41681489
   0.49287760  0.24680768  0.41657001
   0.00058986  0.74767011  0.29147031
   0.75058982  0.49766954  0.35292815
   0.74014450  0.99851545  0.48194935
   0.25059042  0.49766954  0.35292815
   0.23989317  0.99725680  0.48291138
   0.99618298  0.99740097  0.38536662
   0.51480552  0.49912326  0.51344919
   0.99557869  0.49257668  0.44950258
   0.50058925  0.99767067  0.32219910
   0.98408324  0.22484014  0.55268215
   0.98102294  0.73489357  0.54372353
   0.47592231  0.04707091  0.58166690
   0.99038892  0.22367097  0.48489650
   0.50058925  0.72426545  0.35464748
   0.50058925  0.27107537  0.35464748
   0.98856911  0.76399622  0.48536542
   0.77399447  0.49766954  0.29318964
   0.72319361  0.99783771  0.42032196
   0.48906062  0.22687155  0.47908818
   0.00058986  0.72426545  0.35120881
   0.00058986  0.27107537  0.35120881
   0.48993357  0.76903841  0.47874717
   0.72156498  0.49608267  0.41471440
   0.77399447  0.99767067  0.28975097
   0.26487751  0.49615401  0.41374430
   0.22718577  0.99767067  0.28975097
   0.26794860  0.99717825  0.41969019
   0.22718577  0.49766954  0.29318964
   0.76854851  0.48120700  0.55047824
   0.21238492  0.98088471  0.54350875
   0.23416393  0.50214576  0.54914449
   0.75068684  0.98227699  0.54364355
   0.72558567  0.08103944  0.61663437
   0.18796857  0.24303587  0.60056355
   0.35446805  0.48738618  0.27144965
   0.25816528  0.46508405  0.57468882
   0.67210036  0.15169046  0.63827870
   0.06527126  0.19616555  0.61710385
Direct configuration=   176
   0.00058986  0.24767071  0.29147031
   0.49305682  0.74618241  0.41681489
   0.49287760  0.24680768  0.41657001
   0.00058986  0.74767011  0.29147031
   0.75058982  0.49766954  0.35292815
   0.74014450  0.99851545  0.48194935
   0.25059042  0.49766954  0.35292815
   0.23989317  0.99725680  0.48291138
   0.99618298  0.99740097  0.38536662
   0.51480552  0.49912326  0.51344919
   0.99557869  0.49257668  0.44950258
   0.50058925  0.99767067  0.32219910
   0.98408324  0.22484014  0.55268215
   0.98102294  0.73489357  0.54372353
   0.47592231  0.04707091  0.58166690
   0.99038892  0.22367097  0.48489650
   0.50058925  0.72426545  0.35464748
   0.50058925  0.27107537  0.35464748
   0.98856911  0.76399622  0.48536542
   0.77399447  0.49766954  0.29318964
   0.72319361  0.99783771  0.42032196
   0.48906062  0.22687155  0.47908818
   0.00058986  0.72426545  0.35120881
   0.00058986  0.27107537  0.35120881
   0.48993357  0.76903841  0.47874717
   0.72156498  0.49608267  0.41471440
   0.77399447  0.99767067  0.28975097
   0.26487751  0.49615401  0.41374430
   0.22718577  0.99767067  0.28975097
   0.26794860  0.99717825  0.41969019
   0.22718577  0.49766954  0.29318964
   0.76854851  0.48120700  0.55047824
   0.21238492  0.98088471  0.54350875
   0.23416393  0.50214576  0.54914449
   0.75068684  0.98227699  0.54364355
   0.72558567  0.08103944  0.61663437
   0.18796857  0.24303587  0.60056355
   0.35446805  0.48738618  0.27144965
   0.25816528  0.46508405  0.57468882
   0.67210036  0.15169046  0.63827870
   0.06527126  0.19616555  0.61710385
Direct configuration=   177
   0.00058986  0.24767071  0.29147031
   0.49305682  0.74618241  0.41681489
   0.49287760  0.24680768  0.41657001
   0.00058986  0.74767011  0.29147031
   0.75058982  0.49766954  0.35292815
   0.74014450  0.99851545  0.48194935
   0.25059042  0.49766954  0.35292815
   0.23989317  0.99725680  0.48291138
   0.99618298  0.99740097  0.38536662
   0.51480552  0.49912326  0.51344919
   0.99557869  0.49257668  0.44950258
   0.50058925  0.99767067  0.32219910
   0.98408324  0.22484014  0.55268215
   0.98102294  0.73489357  0.54372353
   0.47592231  0.04707091  0.58166690
   0.99038892  0.22367097  0.48489650
   0.50058925  0.72426545  0.35464748
   0.50058925  0.27107537  0.35464748
   0.98856911  0.76399622  0.48536542
   0.77399447  0.49766954  0.29318964
   0.72319361  0.99783771  0.42032196
   0.48906062  0.22687155  0.47908818
   0.00058986  0.72426545  0.35120881
   0.00058986  0.27107537  0.35120881
   0.48993357  0.76903841  0.47874717
   0.72156498  0.49608267  0.41471440
   0.77399447  0.99767067  0.28975097
   0.26487751  0.49615401  0.41374430
   0.22718577  0.99767067  0.28975097
   0.26794860  0.99717825  0.41969019
   0.22718577  0.49766954  0.29318964
   0.76854851  0.48120700  0.55047824
   0.21238492  0.98088471  0.54350875
   0.23416393  0.50214576  0.54914449
   0.75068684  0.98227699  0.54364355
   0.72558567  0.08103944  0.61663437
   0.18796857  0.24303587  0.60056355
   0.35446805  0.48738618  0.27144965
   0.25816528  0.46508405  0.57468882
   0.67210036  0.15169046  0.63827870
   0.06527126  0.19616555  0.61710385
Direct configuration=   178
   0.00058986  0.24767071  0.29147031
   0.49305682  0.74618241  0.41681489
   0.49287760  0.24680768  0.41657001
   0.00058986  0.74767011  0.29147031
   0.75058982  0.49766954  0.35292815
   0.74014450  0.99851545  0.48194935
   0.25059042  0.49766954  0.35292815
   0.23989317  0.99725680  0.48291138
   0.99618298  0.99740097  0.38536662
   0.51480552  0.49912326  0.51344919
   0.99557869  0.49257668  0.44950258
   0.50058925  0.99767067  0.32219910
   0.98408324  0.22484014  0.55268215
   0.98102294  0.73489357  0.54372353
   0.47592231  0.04707091  0.58166690
   0.99038892  0.22367097  0.48489650
   0.50058925  0.72426545  0.35464748
   0.50058925  0.27107537  0.35464748
   0.98856911  0.76399622  0.48536542
   0.77399447  0.49766954  0.29318964
   0.72319361  0.99783771  0.42032196
   0.48906062  0.22687155  0.47908818
   0.00058986  0.72426545  0.35120881
   0.00058986  0.27107537  0.35120881
   0.48993357  0.76903841  0.47874717
   0.72156498  0.49608267  0.41471440
   0.77399447  0.99767067  0.28975097
   0.26487751  0.49615401  0.41374430
   0.22718577  0.99767067  0.28975097
   0.26794860  0.99717825  0.41969019
   0.22718577  0.49766954  0.29318964
   0.76854851  0.48120700  0.55047824
   0.21238492  0.98088471  0.54350875
   0.23416393  0.50214576  0.54914449
   0.75068684  0.98227699  0.54364355
   0.72558567  0.08103944  0.61663437
   0.18796857  0.24303587  0.60056355
   0.35446805  0.48738618  0.27144965
   0.25816528  0.46508405  0.57468882
   0.67210036  0.15169046  0.63827870
   0.06527126  0.19616555  0.61710385
Direct configuration=   179
   0.00058986  0.24767071  0.29147031
   0.49305682  0.74618241  0.41681489
   0.49287760  0.24680768  0.41657001
   0.00058986  0.74767011  0.29147031
   0.75058982  0.49766954  0.35292815
   0.74014450  0.99851545  0.48194935
   0.25059042  0.49766954  0.35292815
   0.23989317  0.99725680  0.48291138
   0.99618298  0.99740097  0.38536662
   0.51480552  0.49912326  0.51344919
   0.99557869  0.49257668  0.44950258
   0.50058925  0.99767067  0.32219910
   0.98408324  0.22484014  0.55268215
   0.98102294  0.73489357  0.54372353
   0.47592231  0.04707091  0.58166690
   0.99038892  0.22367097  0.48489650
   0.50058925  0.72426545  0.35464748
   0.50058925  0.27107537  0.35464748
   0.98856911  0.76399622  0.48536542
   0.77399447  0.49766954  0.29318964
   0.72319361  0.99783771  0.42032196
   0.48906062  0.22687155  0.47908818
   0.00058986  0.72426545  0.35120881
   0.00058986  0.27107537  0.35120881
   0.48993357  0.76903841  0.47874717
   0.72156498  0.49608267  0.41471440
   0.77399447  0.99767067  0.28975097
   0.26487751  0.49615401  0.41374430
   0.22718577  0.99767067  0.28975097
   0.26794860  0.99717825  0.41969019
   0.22718577  0.49766954  0.29318964
   0.76854851  0.48120700  0.55047824
   0.21238492  0.98088471  0.54350875
   0.23416393  0.50214576  0.54914449
   0.75068684  0.98227699  0.54364355
   0.72558567  0.08103944  0.61663437
   0.18796857  0.24303587  0.60056355
   0.35446805  0.48738618  0.27144965
   0.25816528  0.46508405  0.57468882
   0.67210036  0.15169046  0.63827870
   0.06527126  0.19616555  0.61710385
Direct configuration=   180
   0.00058986  0.24767071  0.29147031
   0.49305682  0.74618241  0.41681489
   0.49287760  0.24680768  0.41657001
   0.00058986  0.74767011  0.29147031
   0.75058982  0.49766954  0.35292815
   0.74014450  0.99851545  0.48194935
   0.25059042  0.49766954  0.35292815
   0.23989317  0.99725680  0.48291138
   0.99618298  0.99740097  0.38536662
   0.51480552  0.49912326  0.51344919
   0.99557869  0.49257668  0.44950258
   0.50058925  0.99767067  0.32219910
   0.98408324  0.22484014  0.55268215
   0.98102294  0.73489357  0.54372353
   0.47592231  0.04707091  0.58166690
   0.99038892  0.22367097  0.48489650
   0.50058925  0.72426545  0.35464748
   0.50058925  0.27107537  0.35464748
   0.98856911  0.76399622  0.48536542
   0.77399447  0.49766954  0.29318964
   0.72319361  0.99783771  0.42032196
   0.48906062  0.22687155  0.47908818
   0.00058986  0.72426545  0.35120881
   0.00058986  0.27107537  0.35120881
   0.48993357  0.76903841  0.47874717
   0.72156498  0.49608267  0.41471440
   0.77399447  0.99767067  0.28975097
   0.26487751  0.49615401  0.41374430
   0.22718577  0.99767067  0.28975097
   0.26794860  0.99717825  0.41969019
   0.22718577  0.49766954  0.29318964
   0.76854851  0.48120700  0.55047824
   0.21238492  0.98088471  0.54350875
   0.23416393  0.50214576  0.54914449
   0.75068684  0.98227699  0.54364355
   0.72558567  0.08103944  0.61663437
   0.18796857  0.24303587  0.60056355
   0.35446805  0.48738618  0.27144965
   0.25816528  0.46508405  0.57468882
   0.67210036  0.15169046  0.63827870
   0.06527126  0.19616555  0.61710385
Direct configuration=   181
   0.00058986  0.24767071  0.29147031
   0.49305682  0.74618241  0.41681489
   0.49287760  0.24680768  0.41657001
   0.00058986  0.74767011  0.29147031
   0.75058982  0.49766954  0.35292815
   0.74014450  0.99851545  0.48194935
   0.25059042  0.49766954  0.35292815
   0.23989317  0.99725680  0.48291138
   0.99618298  0.99740097  0.38536662
   0.51480552  0.49912326  0.51344919
   0.99557869  0.49257668  0.44950258
   0.50058925  0.99767067  0.32219910
   0.98408324  0.22484014  0.55268215
   0.98102294  0.73489357  0.54372353
   0.47592231  0.04707091  0.58166690
   0.99038892  0.22367097  0.48489650
   0.50058925  0.72426545  0.35464748
   0.50058925  0.27107537  0.35464748
   0.98856911  0.76399622  0.48536542
   0.77399447  0.49766954  0.29318964
   0.72319361  0.99783771  0.42032196
   0.48906062  0.22687155  0.47908818
   0.00058986  0.72426545  0.35120881
   0.00058986  0.27107537  0.35120881
   0.48993357  0.76903841  0.47874717
   0.72156498  0.49608267  0.41471440
   0.77399447  0.99767067  0.28975097
   0.26487751  0.49615401  0.41374430
   0.22718577  0.99767067  0.28975097
   0.26794860  0.99717825  0.41969019
   0.22718577  0.49766954  0.29318964
   0.76854851  0.48120700  0.55047824
   0.21238492  0.98088471  0.54350875
   0.23416393  0.50214576  0.54914449
   0.75068684  0.98227699  0.54364355
   0.72558567  0.08103944  0.61663437
   0.18796857  0.24303587  0.60056355
   0.35446805  0.48738618  0.27144965
   0.25816528  0.46508405  0.57468882
   0.67210036  0.15169046  0.63827870
   0.06527126  0.19616555  0.61710385
Direct configuration=   182
   0.00058986  0.24767071  0.29147031
   0.49305682  0.74618241  0.41681489
   0.49287760  0.24680768  0.41657001
   0.00058986  0.74767011  0.29147031
   0.75058982  0.49766954  0.35292815
   0.74014450  0.99851545  0.48194935
   0.25059042  0.49766954  0.35292815
   0.23989317  0.99725680  0.48291138
   0.99618298  0.99740097  0.38536662
   0.51480552  0.49912326  0.51344919
   0.99557869  0.49257668  0.44950258
   0.50058925  0.99767067  0.32219910
   0.98408324  0.22484014  0.55268215
   0.98102294  0.73489357  0.54372353
   0.47592231  0.04707091  0.58166690
   0.99038892  0.22367097  0.48489650
   0.50058925  0.72426545  0.35464748
   0.50058925  0.27107537  0.35464748
   0.98856911  0.76399622  0.48536542
   0.77399447  0.49766954  0.29318964
   0.72319361  0.99783771  0.42032196
   0.48906062  0.22687155  0.47908818
   0.00058986  0.72426545  0.35120881
   0.00058986  0.27107537  0.35120881
   0.48993357  0.76903841  0.47874717
   0.72156498  0.49608267  0.41471440
   0.77399447  0.99767067  0.28975097
   0.26487751  0.49615401  0.41374430
   0.22718577  0.99767067  0.28975097
   0.26794860  0.99717825  0.41969019
   0.22718577  0.49766954  0.29318964
   0.76854851  0.48120700  0.55047824
   0.21238492  0.98088471  0.54350875
   0.23416393  0.50214576  0.54914449
   0.75068684  0.98227699  0.54364355
   0.72558567  0.08103944  0.61663437
   0.18796857  0.24303587  0.60056355
   0.35446805  0.48738618  0.27144965
   0.25816528  0.46508405  0.57468882
   0.67210036  0.15169046  0.63827870
   0.06527126  0.19616555  0.61710385
Direct configuration=   183
   0.00058986  0.24767071  0.29147031
   0.49305682  0.74618241  0.41681489
   0.49287760  0.24680768  0.41657001
   0.00058986  0.74767011  0.29147031
   0.75058982  0.49766954  0.35292815
   0.74014450  0.99851545  0.48194935
   0.25059042  0.49766954  0.35292815
   0.23989317  0.99725680  0.48291138
   0.99618298  0.99740097  0.38536662
   0.51480552  0.49912326  0.51344919
   0.99557869  0.49257668  0.44950258
   0.50058925  0.99767067  0.32219910
   0.98408324  0.22484014  0.55268215
   0.98102294  0.73489357  0.54372353
   0.47592231  0.04707091  0.58166690
   0.99038892  0.22367097  0.48489650
   0.50058925  0.72426545  0.35464748
   0.50058925  0.27107537  0.35464748
   0.98856911  0.76399622  0.48536542
   0.77399447  0.49766954  0.29318964
   0.72319361  0.99783771  0.42032196
   0.48906062  0.22687155  0.47908818
   0.00058986  0.72426545  0.35120881
   0.00058986  0.27107537  0.35120881
   0.48993357  0.76903841  0.47874717
   0.72156498  0.49608267  0.41471440
   0.77399447  0.99767067  0.28975097
   0.26487751  0.49615401  0.41374430
   0.22718577  0.99767067  0.28975097
   0.26794860  0.99717825  0.41969019
   0.22718577  0.49766954  0.29318964
   0.76854851  0.48120700  0.55047824
   0.21238492  0.98088471  0.54350875
   0.23416393  0.50214576  0.54914449
   0.75068684  0.98227699  0.54364355
   0.72558567  0.08103944  0.61663437
   0.18796857  0.24303587  0.60056355
   0.35446805  0.48738618  0.27144965
   0.25816528  0.46508405  0.57468882
   0.67210036  0.15169046  0.63827870
   0.06527126  0.19616555  0.61710385
Direct configuration=   184
   0.00058986  0.24767071  0.29147031
   0.49305682  0.74618241  0.41681489
   0.49287760  0.24680768  0.41657001
   0.00058986  0.74767011  0.29147031
   0.75058982  0.49766954  0.35292815
   0.74014450  0.99851545  0.48194935
   0.25059042  0.49766954  0.35292815
   0.23989317  0.99725680  0.48291138
   0.99618298  0.99740097  0.38536662
   0.51480552  0.49912326  0.51344919
   0.99557869  0.49257668  0.44950258
   0.50058925  0.99767067  0.32219910
   0.98408324  0.22484014  0.55268215
   0.98102294  0.73489357  0.54372353
   0.47592231  0.04707091  0.58166690
   0.99038892  0.22367097  0.48489650
   0.50058925  0.72426545  0.35464748
   0.50058925  0.27107537  0.35464748
   0.98856911  0.76399622  0.48536542
   0.77399447  0.49766954  0.29318964
   0.72319361  0.99783771  0.42032196
   0.48906062  0.22687155  0.47908818
   0.00058986  0.72426545  0.35120881
   0.00058986  0.27107537  0.35120881
   0.48993357  0.76903841  0.47874717
   0.72156498  0.49608267  0.41471440
   0.77399447  0.99767067  0.28975097
   0.26487751  0.49615401  0.41374430
   0.22718577  0.99767067  0.28975097
   0.26794860  0.99717825  0.41969019
   0.22718577  0.49766954  0.29318964
   0.76854851  0.48120700  0.55047824
   0.21238492  0.98088471  0.54350875
   0.23416393  0.50214576  0.54914449
   0.75068684  0.98227699  0.54364355
   0.72558567  0.08103944  0.61663437
   0.18796857  0.24303587  0.60056355
   0.35446805  0.48738618  0.27144965
   0.25816528  0.46508405  0.57468882
   0.67210036  0.15169046  0.63827870
   0.06527126  0.19616555  0.61710385
Direct configuration=   185
   0.00058986  0.24767071  0.29147031
   0.49305682  0.74618241  0.41681489
   0.49287760  0.24680768  0.41657001
   0.00058986  0.74767011  0.29147031
   0.75058982  0.49766954  0.35292815
   0.74014450  0.99851545  0.48194935
   0.25059042  0.49766954  0.35292815
   0.23989317  0.99725680  0.48291138
   0.99618298  0.99740097  0.38536662
   0.51480552  0.49912326  0.51344919
   0.99557869  0.49257668  0.44950258
   0.50058925  0.99767067  0.32219910
   0.98408324  0.22484014  0.55268215
   0.98102294  0.73489357  0.54372353
   0.47592231  0.04707091  0.58166690
   0.99038892  0.22367097  0.48489650
   0.50058925  0.72426545  0.35464748
   0.50058925  0.27107537  0.35464748
   0.98856911  0.76399622  0.48536542
   0.77399447  0.49766954  0.29318964
   0.72319361  0.99783771  0.42032196
   0.48906062  0.22687155  0.47908818
   0.00058986  0.72426545  0.35120881
   0.00058986  0.27107537  0.35120881
   0.48993357  0.76903841  0.47874717
   0.72156498  0.49608267  0.41471440
   0.77399447  0.99767067  0.28975097
   0.26487751  0.49615401  0.41374430
   0.22718577  0.99767067  0.28975097
   0.26794860  0.99717825  0.41969019
   0.22718577  0.49766954  0.29318964
   0.76854851  0.48120700  0.55047824
   0.21238492  0.98088471  0.54350875
   0.23416393  0.50214576  0.54914449
   0.75068684  0.98227699  0.54364355
   0.72558567  0.08103944  0.61663437
   0.18796857  0.24303587  0.60056355
   0.35446805  0.48738618  0.27144965
   0.25816528  0.46508405  0.57468882
   0.67210036  0.15169046  0.63827870
   0.06527126  0.19616555  0.61710385
Direct configuration=   186
   0.00058986  0.24767071  0.29147031
   0.49305682  0.74618241  0.41681489
   0.49287760  0.24680768  0.41657001
   0.00058986  0.74767011  0.29147031
   0.75058982  0.49766954  0.35292815
   0.74014450  0.99851545  0.48194935
   0.25059042  0.49766954  0.35292815
   0.23989317  0.99725680  0.48291138
   0.99618298  0.99740097  0.38536662
   0.51480552  0.49912326  0.51344919
   0.99557869  0.49257668  0.44950258
   0.50058925  0.99767067  0.32219910
   0.98408324  0.22484014  0.55268215
   0.98102294  0.73489357  0.54372353
   0.47592231  0.04707091  0.58166690
   0.99038892  0.22367097  0.48489650
   0.50058925  0.72426545  0.35464748
   0.50058925  0.27107537  0.35464748
   0.98856911  0.76399622  0.48536542
   0.77399447  0.49766954  0.29318964
   0.72319361  0.99783771  0.42032196
   0.48906062  0.22687155  0.47908818
   0.00058986  0.72426545  0.35120881
   0.00058986  0.27107537  0.35120881
   0.48993357  0.76903841  0.47874717
   0.72156498  0.49608267  0.41471440
   0.77399447  0.99767067  0.28975097
   0.26487751  0.49615401  0.41374430
   0.22718577  0.99767067  0.28975097
   0.26794860  0.99717825  0.41969019
   0.22718577  0.49766954  0.29318964
   0.76854851  0.48120700  0.55047824
   0.21238492  0.98088471  0.54350875
   0.23416393  0.50214576  0.54914449
   0.75068684  0.98227699  0.54364355
   0.72558567  0.08103944  0.61663437
   0.18796857  0.24303587  0.60056355
   0.35446805  0.48738618  0.27144965
   0.25816528  0.46508405  0.57468882
   0.67210036  0.15169046  0.63827870
   0.06527126  0.19616555  0.61710385
Direct configuration=   187
   0.00058986  0.24767071  0.29147031
   0.49305682  0.74618241  0.41681489
   0.49287760  0.24680768  0.41657001
   0.00058986  0.74767011  0.29147031
   0.75058982  0.49766954  0.35292815
   0.74014450  0.99851545  0.48194935
   0.25059042  0.49766954  0.35292815
   0.23989317  0.99725680  0.48291138
   0.99618298  0.99740097  0.38536662
   0.51480552  0.49912326  0.51344919
   0.99557869  0.49257668  0.44950258
   0.50058925  0.99767067  0.32219910
   0.98408324  0.22484014  0.55268215
   0.98102294  0.73489357  0.54372353
   0.47592231  0.04707091  0.58166690
   0.99038892  0.22367097  0.48489650
   0.50058925  0.72426545  0.35464748
   0.50058925  0.27107537  0.35464748
   0.98856911  0.76399622  0.48536542
   0.77399447  0.49766954  0.29318964
   0.72319361  0.99783771  0.42032196
   0.48906062  0.22687155  0.47908818
   0.00058986  0.72426545  0.35120881
   0.00058986  0.27107537  0.35120881
   0.48993357  0.76903841  0.47874717
   0.72156498  0.49608267  0.41471440
   0.77399447  0.99767067  0.28975097
   0.26487751  0.49615401  0.41374430
   0.22718577  0.99767067  0.28975097
   0.26794860  0.99717825  0.41969019
   0.22718577  0.49766954  0.29318964
   0.76854851  0.48120700  0.55047824
   0.21238492  0.98088471  0.54350875
   0.23416393  0.50214576  0.54914449
   0.75068684  0.98227699  0.54364355
   0.72558567  0.08103944  0.61663437
   0.18796857  0.24303587  0.60056355
   0.35446805  0.48738618  0.27144965
   0.25816528  0.46508405  0.57468882
   0.67210036  0.15169046  0.63827870
   0.06527126  0.19616555  0.61710385
Direct configuration=   188
   0.00058986  0.24767071  0.29147031
   0.49305682  0.74618241  0.41681489
   0.49287760  0.24680768  0.41657001
   0.00058986  0.74767011  0.29147031
   0.75058982  0.49766954  0.35292815
   0.74014450  0.99851545  0.48194935
   0.25059042  0.49766954  0.35292815
   0.23989317  0.99725680  0.48291138
   0.99618298  0.99740097  0.38536662
   0.51480552  0.49912326  0.51344919
   0.99557869  0.49257668  0.44950258
   0.50058925  0.99767067  0.32219910
   0.98408324  0.22484014  0.55268215
   0.98102294  0.73489357  0.54372353
   0.47592231  0.04707091  0.58166690
   0.99038892  0.22367097  0.48489650
   0.50058925  0.72426545  0.35464748
   0.50058925  0.27107537  0.35464748
   0.98856911  0.76399622  0.48536542
   0.77399447  0.49766954  0.29318964
   0.72319361  0.99783771  0.42032196
   0.48906062  0.22687155  0.47908818
   0.00058986  0.72426545  0.35120881
   0.00058986  0.27107537  0.35120881
   0.48993357  0.76903841  0.47874717
   0.72156498  0.49608267  0.41471440
   0.77399447  0.99767067  0.28975097
   0.26487751  0.49615401  0.41374430
   0.22718577  0.99767067  0.28975097
   0.26794860  0.99717825  0.41969019
   0.22718577  0.49766954  0.29318964
   0.76854851  0.48120700  0.55047824
   0.21238492  0.98088471  0.54350875
   0.23416393  0.50214576  0.54914449
   0.75068684  0.98227699  0.54364355
   0.72558567  0.08103944  0.61663437
   0.18796857  0.24303587  0.60056355
   0.35446805  0.48738618  0.27144965
   0.25816528  0.46508405  0.57468882
   0.67210036  0.15169046  0.63827870
   0.06527126  0.19616555  0.61710385
Direct configuration=   189
   0.00058986  0.24767071  0.29147031
   0.49305682  0.74618241  0.41681489
   0.49287760  0.24680768  0.41657001
   0.00058986  0.74767011  0.29147031
   0.75058982  0.49766954  0.35292815
   0.74014450  0.99851545  0.48194935
   0.25059042  0.49766954  0.35292815
   0.23989317  0.99725680  0.48291138
   0.99618298  0.99740097  0.38536662
   0.51480552  0.49912326  0.51344919
   0.99557869  0.49257668  0.44950258
   0.50058925  0.99767067  0.32219910
   0.98408324  0.22484014  0.55268215
   0.98102294  0.73489357  0.54372353
   0.47592231  0.04707091  0.58166690
   0.99038892  0.22367097  0.48489650
   0.50058925  0.72426545  0.35464748
   0.50058925  0.27107537  0.35464748
   0.98856911  0.76399622  0.48536542
   0.77399447  0.49766954  0.29318964
   0.72319361  0.99783771  0.42032196
   0.48906062  0.22687155  0.47908818
   0.00058986  0.72426545  0.35120881
   0.00058986  0.27107537  0.35120881
   0.48993357  0.76903841  0.47874717
   0.72156498  0.49608267  0.41471440
   0.77399447  0.99767067  0.28975097
   0.26487751  0.49615401  0.41374430
   0.22718577  0.99767067  0.28975097
   0.26794860  0.99717825  0.41969019
   0.22718577  0.49766954  0.29318964
   0.76854851  0.48120700  0.55047824
   0.21238492  0.98088471  0.54350875
   0.23416393  0.50214576  0.54914449
   0.75068684  0.98227699  0.54364355
   0.72558567  0.08103944  0.61663437
   0.18796857  0.24303587  0.60056355
   0.35446805  0.48738618  0.27144965
   0.25816528  0.46508405  0.57468882
   0.67210036  0.15169046  0.63827870
   0.06527126  0.19616555  0.61710385
Direct configuration=   190
   0.00058986  0.24767071  0.29147031
   0.49305682  0.74618241  0.41681489
   0.49287760  0.24680768  0.41657001
   0.00058986  0.74767011  0.29147031
   0.75058982  0.49766954  0.35292815
   0.74014450  0.99851545  0.48194935
   0.25059042  0.49766954  0.35292815
   0.23989317  0.99725680  0.48291138
   0.99618298  0.99740097  0.38536662
   0.51480552  0.49912326  0.51344919
   0.99557869  0.49257668  0.44950258
   0.50058925  0.99767067  0.32219910
   0.98408324  0.22484014  0.55268215
   0.98102294  0.73489357  0.54372353
   0.47592231  0.04707091  0.58166690
   0.99038892  0.22367097  0.48489650
   0.50058925  0.72426545  0.35464748
   0.50058925  0.27107537  0.35464748
   0.98856911  0.76399622  0.48536542
   0.77399447  0.49766954  0.29318964
   0.72319361  0.99783771  0.42032196
   0.48906062  0.22687155  0.47908818
   0.00058986  0.72426545  0.35120881
   0.00058986  0.27107537  0.35120881
   0.48993357  0.76903841  0.47874717
   0.72156498  0.49608267  0.41471440
   0.77399447  0.99767067  0.28975097
   0.26487751  0.49615401  0.41374430
   0.22718577  0.99767067  0.28975097
   0.26794860  0.99717825  0.41969019
   0.22718577  0.49766954  0.29318964
   0.76854851  0.48120700  0.55047824
   0.21238492  0.98088471  0.54350875
   0.23416393  0.50214576  0.54914449
   0.75068684  0.98227699  0.54364355
   0.72558567  0.08103944  0.61663437
   0.18796857  0.24303587  0.60056355
   0.35446805  0.48738618  0.27144965
   0.25816528  0.46508405  0.57468882
   0.67210036  0.15169046  0.63827870
   0.06527126  0.19616555  0.61710385
Direct configuration=   191
   0.00058986  0.24767071  0.29147031
   0.49305682  0.74618241  0.41681489
   0.49287760  0.24680768  0.41657001
   0.00058986  0.74767011  0.29147031
   0.75058982  0.49766954  0.35292815
   0.74014450  0.99851545  0.48194935
   0.25059042  0.49766954  0.35292815
   0.23989317  0.99725680  0.48291138
   0.99618298  0.99740097  0.38536662
   0.51480552  0.49912326  0.51344919
   0.99557869  0.49257668  0.44950258
   0.50058925  0.99767067  0.32219910
   0.98408324  0.22484014  0.55268215
   0.98102294  0.73489357  0.54372353
   0.47592231  0.04707091  0.58166690
   0.99038892  0.22367097  0.48489650
   0.50058925  0.72426545  0.35464748
   0.50058925  0.27107537  0.35464748
   0.98856911  0.76399622  0.48536542
   0.77399447  0.49766954  0.29318964
   0.72319361  0.99783771  0.42032196
   0.48906062  0.22687155  0.47908818
   0.00058986  0.72426545  0.35120881
   0.00058986  0.27107537  0.35120881
   0.48993357  0.76903841  0.47874717
   0.72156498  0.49608267  0.41471440
   0.77399447  0.99767067  0.28975097
   0.26487751  0.49615401  0.41374430
   0.22718577  0.99767067  0.28975097
   0.26794860  0.99717825  0.41969019
   0.22718577  0.49766954  0.29318964
   0.76854851  0.48120700  0.55047824
   0.21238492  0.98088471  0.54350875
   0.23416393  0.50214576  0.54914449
   0.75068684  0.98227699  0.54364355
   0.72558567  0.08103944  0.61663437
   0.18796857  0.24303587  0.60056355
   0.35446805  0.48738618  0.27144965
   0.25816528  0.46508405  0.57468882
   0.67210036  0.15169046  0.63827870
   0.06527126  0.19616555  0.61710385
Direct configuration=   192
   0.00058986  0.24767071  0.29147031
   0.49305682  0.74618241  0.41681489
   0.49287760  0.24680768  0.41657001
   0.00058986  0.74767011  0.29147031
   0.75058982  0.49766954  0.35292815
   0.74014450  0.99851545  0.48194935
   0.25059042  0.49766954  0.35292815
   0.23989317  0.99725680  0.48291138
   0.99618298  0.99740097  0.38536662
   0.51480552  0.49912326  0.51344919
   0.99557869  0.49257668  0.44950258
   0.50058925  0.99767067  0.32219910
   0.98408324  0.22484014  0.55268215
   0.98102294  0.73489357  0.54372353
   0.47592231  0.04707091  0.58166690
   0.99038892  0.22367097  0.48489650
   0.50058925  0.72426545  0.35464748
   0.50058925  0.27107537  0.35464748
   0.98856911  0.76399622  0.48536542
   0.77399447  0.49766954  0.29318964
   0.72319361  0.99783771  0.42032196
   0.48906062  0.22687155  0.47908818
   0.00058986  0.72426545  0.35120881
   0.00058986  0.27107537  0.35120881
   0.48993357  0.76903841  0.47874717
   0.72156498  0.49608267  0.41471440
   0.77399447  0.99767067  0.28975097
   0.26487751  0.49615401  0.41374430
   0.22718577  0.99767067  0.28975097
   0.26794860  0.99717825  0.41969019
   0.22718577  0.49766954  0.29318964
   0.76854851  0.48120700  0.55047824
   0.21238492  0.98088471  0.54350875
   0.23416393  0.50214576  0.54914449
   0.75068684  0.98227699  0.54364355
   0.72558567  0.08103944  0.61663437
   0.18796857  0.24303587  0.60056355
   0.35446805  0.48738618  0.27144965
   0.25816528  0.46508405  0.57468882
   0.67210036  0.15169046  0.63827870
   0.06527126  0.19616555  0.61710385
Direct configuration=   193
   0.00058986  0.24767071  0.29147031
   0.49305682  0.74618241  0.41681489
   0.49287760  0.24680768  0.41657001
   0.00058986  0.74767011  0.29147031
   0.75058982  0.49766954  0.35292815
   0.74014450  0.99851545  0.48194935
   0.25059042  0.49766954  0.35292815
   0.23989317  0.99725680  0.48291138
   0.99618298  0.99740097  0.38536662
   0.51480552  0.49912326  0.51344919
   0.99557869  0.49257668  0.44950258
   0.50058925  0.99767067  0.32219910
   0.98408324  0.22484014  0.55268215
   0.98102294  0.73489357  0.54372353
   0.47592231  0.04707091  0.58166690
   0.99038892  0.22367097  0.48489650
   0.50058925  0.72426545  0.35464748
   0.50058925  0.27107537  0.35464748
   0.98856911  0.76399622  0.48536542
   0.77399447  0.49766954  0.29318964
   0.72319361  0.99783771  0.42032196
   0.48906062  0.22687155  0.47908818
   0.00058986  0.72426545  0.35120881
   0.00058986  0.27107537  0.35120881
   0.48993357  0.76903841  0.47874717
   0.72156498  0.49608267  0.41471440
   0.77399447  0.99767067  0.28975097
   0.26487751  0.49615401  0.41374430
   0.22718577  0.99767067  0.28975097
   0.26794860  0.99717825  0.41969019
   0.22718577  0.49766954  0.29318964
   0.76854851  0.48120700  0.55047824
   0.21238492  0.98088471  0.54350875
   0.23416393  0.50214576  0.54914449
   0.75068684  0.98227699  0.54364355
   0.72558567  0.08103944  0.61663437
   0.18796857  0.24303587  0.60056355
   0.35446805  0.48738618  0.27144965
   0.25816528  0.46508405  0.57468882
   0.67210036  0.15169046  0.63827870
   0.06527126  0.19616555  0.61710385
Direct configuration=   194
   0.00058986  0.24767071  0.29147031
   0.49305682  0.74618241  0.41681489
   0.49287760  0.24680768  0.41657001
   0.00058986  0.74767011  0.29147031
   0.75058982  0.49766954  0.35292815
   0.74014450  0.99851545  0.48194935
   0.25059042  0.49766954  0.35292815
   0.23989317  0.99725680  0.48291138
   0.99618298  0.99740097  0.38536662
   0.51480552  0.49912326  0.51344919
   0.99557869  0.49257668  0.44950258
   0.50058925  0.99767067  0.32219910
   0.98408324  0.22484014  0.55268215
   0.98102294  0.73489357  0.54372353
   0.47592231  0.04707091  0.58166690
   0.99038892  0.22367097  0.48489650
   0.50058925  0.72426545  0.35464748
   0.50058925  0.27107537  0.35464748
   0.98856911  0.76399622  0.48536542
   0.77399447  0.49766954  0.29318964
   0.72319361  0.99783771  0.42032196
   0.48906062  0.22687155  0.47908818
   0.00058986  0.72426545  0.35120881
   0.00058986  0.27107537  0.35120881
   0.48993357  0.76903841  0.47874717
   0.72156498  0.49608267  0.41471440
   0.77399447  0.99767067  0.28975097
   0.26487751  0.49615401  0.41374430
   0.22718577  0.99767067  0.28975097
   0.26794860  0.99717825  0.41969019
   0.22718577  0.49766954  0.29318964
   0.76854851  0.48120700  0.55047824
   0.21238492  0.98088471  0.54350875
   0.23416393  0.50214576  0.54914449
   0.75068684  0.98227699  0.54364355
   0.72558567  0.08103944  0.61663437
   0.18796857  0.24303587  0.60056355
   0.35446805  0.48738618  0.27144965
   0.25816528  0.46508405  0.57468882
   0.67210036  0.15169046  0.63827870
   0.06527126  0.19616555  0.61710385
Direct configuration=   195
   0.00058986  0.24767071  0.29147031
   0.49305682  0.74618241  0.41681489
   0.49287760  0.24680768  0.41657001
   0.00058986  0.74767011  0.29147031
   0.75058982  0.49766954  0.35292815
   0.74014450  0.99851545  0.48194935
   0.25059042  0.49766954  0.35292815
   0.23989317  0.99725680  0.48291138
   0.99618298  0.99740097  0.38536662
   0.51480552  0.49912326  0.51344919
   0.99557869  0.49257668  0.44950258
   0.50058925  0.99767067  0.32219910
   0.98408324  0.22484014  0.55268215
   0.98102294  0.73489357  0.54372353
   0.47592231  0.04707091  0.58166690
   0.99038892  0.22367097  0.48489650
   0.50058925  0.72426545  0.35464748
   0.50058925  0.27107537  0.35464748
   0.98856911  0.76399622  0.48536542
   0.77399447  0.49766954  0.29318964
   0.72319361  0.99783771  0.42032196
   0.48906062  0.22687155  0.47908818
   0.00058986  0.72426545  0.35120881
   0.00058986  0.27107537  0.35120881
   0.48993357  0.76903841  0.47874717
   0.72156498  0.49608267  0.41471440
   0.77399447  0.99767067  0.28975097
   0.26487751  0.49615401  0.41374430
   0.22718577  0.99767067  0.28975097
   0.26794860  0.99717825  0.41969019
   0.22718577  0.49766954  0.29318964
   0.76854851  0.48120700  0.55047824
   0.21238492  0.98088471  0.54350875
   0.23416393  0.50214576  0.54914449
   0.75068684  0.98227699  0.54364355
   0.72558567  0.08103944  0.61663437
   0.18796857  0.24303587  0.60056355
   0.35446805  0.48738618  0.27144965
   0.25816528  0.46508405  0.57468882
   0.67210036  0.15169046  0.63827870
   0.06527126  0.19616555  0.61710385
Direct configuration=   196
   0.00058986  0.24767071  0.29147031
   0.49305682  0.74618241  0.41681489
   0.49287760  0.24680768  0.41657001
   0.00058986  0.74767011  0.29147031
   0.75058982  0.49766954  0.35292815
   0.74014450  0.99851545  0.48194935
   0.25059042  0.49766954  0.35292815
   0.23989317  0.99725680  0.48291138
   0.99618298  0.99740097  0.38536662
   0.51480552  0.49912326  0.51344919
   0.99557869  0.49257668  0.44950258
   0.50058925  0.99767067  0.32219910
   0.98408324  0.22484014  0.55268215
   0.98102294  0.73489357  0.54372353
   0.47592231  0.04707091  0.58166690
   0.99038892  0.22367097  0.48489650
   0.50058925  0.72426545  0.35464748
   0.50058925  0.27107537  0.35464748
   0.98856911  0.76399622  0.48536542
   0.77399447  0.49766954  0.29318964
   0.72319361  0.99783771  0.42032196
   0.48906062  0.22687155  0.47908818
   0.00058986  0.72426545  0.35120881
   0.00058986  0.27107537  0.35120881
   0.48993357  0.76903841  0.47874717
   0.72156498  0.49608267  0.41471440
   0.77399447  0.99767067  0.28975097
   0.26487751  0.49615401  0.41374430
   0.22718577  0.99767067  0.28975097
   0.26794860  0.99717825  0.41969019
   0.22718577  0.49766954  0.29318964
   0.76854851  0.48120700  0.55047824
   0.21238492  0.98088471  0.54350875
   0.23416393  0.50214576  0.54914449
   0.75068684  0.98227699  0.54364355
   0.72558567  0.08103944  0.61663437
   0.18796857  0.24303587  0.60056355
   0.35446805  0.48738618  0.27144965
   0.25816528  0.46508405  0.57468882
   0.67210036  0.15169046  0.63827870
   0.06527126  0.19616555  0.61710385
Direct configuration=   197
   0.00058986  0.24767071  0.29147031
   0.49305682  0.74618241  0.41681489
   0.49287760  0.24680768  0.41657001
   0.00058986  0.74767011  0.29147031
   0.75058982  0.49766954  0.35292815
   0.74014450  0.99851545  0.48194935
   0.25059042  0.49766954  0.35292815
   0.23989317  0.99725680  0.48291138
   0.99618298  0.99740097  0.38536662
   0.51480552  0.49912326  0.51344919
   0.99557869  0.49257668  0.44950258
   0.50058925  0.99767067  0.32219910
   0.98408324  0.22484014  0.55268215
   0.98102294  0.73489357  0.54372353
   0.47592231  0.04707091  0.58166690
   0.99038892  0.22367097  0.48489650
   0.50058925  0.72426545  0.35464748
   0.50058925  0.27107537  0.35464748
   0.98856911  0.76399622  0.48536542
   0.77399447  0.49766954  0.29318964
   0.72319361  0.99783771  0.42032196
   0.48906062  0.22687155  0.47908818
   0.00058986  0.72426545  0.35120881
   0.00058986  0.27107537  0.35120881
   0.48993357  0.76903841  0.47874717
   0.72156498  0.49608267  0.41471440
   0.77399447  0.99767067  0.28975097
   0.26487751  0.49615401  0.41374430
   0.22718577  0.99767067  0.28975097
   0.26794860  0.99717825  0.41969019
   0.22718577  0.49766954  0.29318964
   0.76854851  0.48120700  0.55047824
   0.21238492  0.98088471  0.54350875
   0.23416393  0.50214576  0.54914449
   0.75068684  0.98227699  0.54364355
   0.72558567  0.08103944  0.61663437
   0.18796857  0.24303587  0.60056355
   0.35446805  0.48738618  0.27144965
   0.25816528  0.46508405  0.57468882
   0.67210036  0.15169046  0.63827870
   0.06527126  0.19616555  0.61710385
Direct configuration=   198
   0.00058986  0.24767071  0.29147031
   0.49305682  0.74618241  0.41681489
   0.49287760  0.24680768  0.41657001
   0.00058986  0.74767011  0.29147031
   0.75058982  0.49766954  0.35292815
   0.74014450  0.99851545  0.48194935
   0.25059042  0.49766954  0.35292815
   0.23989317  0.99725680  0.48291138
   0.99618298  0.99740097  0.38536662
   0.51480552  0.49912326  0.51344919
   0.99557869  0.49257668  0.44950258
   0.50058925  0.99767067  0.32219910
   0.98408324  0.22484014  0.55268215
   0.98102294  0.73489357  0.54372353
   0.47592231  0.04707091  0.58166690
   0.99038892  0.22367097  0.48489650
   0.50058925  0.72426545  0.35464748
   0.50058925  0.27107537  0.35464748
   0.98856911  0.76399622  0.48536542
   0.77399447  0.49766954  0.29318964
   0.72319361  0.99783771  0.42032196
   0.48906062  0.22687155  0.47908818
   0.00058986  0.72426545  0.35120881
   0.00058986  0.27107537  0.35120881
   0.48993357  0.76903841  0.47874717
   0.72156498  0.49608267  0.41471440
   0.77399447  0.99767067  0.28975097
   0.26487751  0.49615401  0.41374430
   0.22718577  0.99767067  0.28975097
   0.26794860  0.99717825  0.41969019
   0.22718577  0.49766954  0.29318964
   0.76854851  0.48120700  0.55047824
   0.21238492  0.98088471  0.54350875
   0.23416393  0.50214576  0.54914449
   0.75068684  0.98227699  0.54364355
   0.72558567  0.08103944  0.61663437
   0.18796857  0.24303587  0.60056355
   0.35446805  0.48738618  0.27144965
   0.25816528  0.46508405  0.57468882
   0.67210036  0.15169046  0.63827870
   0.06527126  0.19616555  0.61710385
Direct configuration=   199
   0.00058986  0.24767071  0.29147031
   0.49305682  0.74618241  0.41681489
   0.49287760  0.24680768  0.41657001
   0.00058986  0.74767011  0.29147031
   0.75058982  0.49766954  0.35292815
   0.74014450  0.99851545  0.48194935
   0.25059042  0.49766954  0.35292815
   0.23989317  0.99725680  0.48291138
   0.99618298  0.99740097  0.38536662
   0.51480552  0.49912326  0.51344919
   0.99557869  0.49257668  0.44950258
   0.50058925  0.99767067  0.32219910
   0.98408324  0.22484014  0.55268215
   0.98102294  0.73489357  0.54372353
   0.47592231  0.04707091  0.58166690
   0.99038892  0.22367097  0.48489650
   0.50058925  0.72426545  0.35464748
   0.50058925  0.27107537  0.35464748
   0.98856911  0.76399622  0.48536542
   0.77399447  0.49766954  0.29318964
   0.72319361  0.99783771  0.42032196
   0.48906062  0.22687155  0.47908818
   0.00058986  0.72426545  0.35120881
   0.00058986  0.27107537  0.35120881
   0.48993357  0.76903841  0.47874717
   0.72156498  0.49608267  0.41471440
   0.77399447  0.99767067  0.28975097
   0.26487751  0.49615401  0.41374430
   0.22718577  0.99767067  0.28975097
   0.26794860  0.99717825  0.41969019
   0.22718577  0.49766954  0.29318964
   0.76854851  0.48120700  0.55047824
   0.21238492  0.98088471  0.54350875
   0.23416393  0.50214576  0.54914449
   0.75068684  0.98227699  0.54364355
   0.72558567  0.08103944  0.61663437
   0.18796857  0.24303587  0.60056355
   0.35446805  0.48738618  0.27144965
   0.25816528  0.46508405  0.57468882
   0.67210036  0.15169046  0.63827870
   0.06527126  0.19616555  0.61710385
Direct configuration=   200
   0.00058986  0.24767071  0.29147031
   0.49305682  0.74618241  0.41681489
   0.49287760  0.24680768  0.41657001
   0.00058986  0.74767011  0.29147031
   0.75058982  0.49766954  0.35292815
   0.74014450  0.99851545  0.48194935
   0.25059042  0.49766954  0.35292815
   0.23989317  0.99725680  0.48291138
   0.99618298  0.99740097  0.38536662
   0.51480552  0.49912326  0.51344919
   0.99557869  0.49257668  0.44950258
   0.50058925  0.99767067  0.32219910
   0.98408324  0.22484014  0.55268215
   0.98102294  0.73489357  0.54372353
   0.47592231  0.04707091  0.58166690
   0.99038892  0.22367097  0.48489650
   0.50058925  0.72426545  0.35464748
   0.50058925  0.27107537  0.35464748
   0.98856911  0.76399622  0.48536542
   0.77399447  0.49766954  0.29318964
   0.72319361  0.99783771  0.42032196
   0.48906062  0.22687155  0.47908818
   0.00058986  0.72426545  0.35120881
   0.00058986  0.27107537  0.35120881
   0.48993357  0.76903841  0.47874717
   0.72156498  0.49608267  0.41471440
   0.77399447  0.99767067  0.28975097
   0.26487751  0.49615401  0.41374430
   0.22718577  0.99767067  0.28975097
   0.26794860  0.99717825  0.41969019
   0.22718577  0.49766954  0.29318964
   0.76854851  0.48120700  0.55047824
   0.21238492  0.98088471  0.54350875
   0.23416393  0.50214576  0.54914449
   0.75068684  0.98227699  0.54364355
   0.72558567  0.08103944  0.61663437
   0.18796857  0.24303587  0.60056355
   0.35446805  0.48738618  0.27144965
   0.25816528  0.46508405  0.57468882
   0.67210036  0.15169046  0.63827870
   0.06527126  0.19616555  0.61710385
Direct configuration=   201
   0.00058986  0.24767071  0.29147031
   0.49305682  0.74618241  0.41681489
   0.49287760  0.24680768  0.41657001
   0.00058986  0.74767011  0.29147031
   0.75058982  0.49766954  0.35292815
   0.74014450  0.99851545  0.48194935
   0.25059042  0.49766954  0.35292815
   0.23989317  0.99725680  0.48291138
   0.99618298  0.99740097  0.38536662
   0.51480552  0.49912326  0.51344919
   0.99557869  0.49257668  0.44950258
   0.50058925  0.99767067  0.32219910
   0.98408324  0.22484014  0.55268215
   0.98102294  0.73489357  0.54372353
   0.47592231  0.04707091  0.58166690
   0.99038892  0.22367097  0.48489650
   0.50058925  0.72426545  0.35464748
   0.50058925  0.27107537  0.35464748
   0.98856911  0.76399622  0.48536542
   0.77399447  0.49766954  0.29318964
   0.72319361  0.99783771  0.42032196
   0.48906062  0.22687155  0.47908818
   0.00058986  0.72426545  0.35120881
   0.00058986  0.27107537  0.35120881
   0.48993357  0.76903841  0.47874717
   0.72156498  0.49608267  0.41471440
   0.77399447  0.99767067  0.28975097
   0.26487751  0.49615401  0.41374430
   0.22718577  0.99767067  0.28975097
   0.26794860  0.99717825  0.41969019
   0.22718577  0.49766954  0.29318964
   0.76854851  0.48120700  0.55047824
   0.21238492  0.98088471  0.54350875
   0.23416393  0.50214576  0.54914449
   0.75068684  0.98227699  0.54364355
   0.72558567  0.08103944  0.61663437
   0.18796857  0.24303587  0.60056355
   0.35446805  0.48738618  0.27144965
   0.25816528  0.46508405  0.57468882
   0.67210036  0.15169046  0.63827870
   0.06527126  0.19616555  0.61710385
Direct configuration=   202
   0.00058986  0.24767071  0.29147031
   0.49305682  0.74618241  0.41681489
   0.49287760  0.24680768  0.41657001
   0.00058986  0.74767011  0.29147031
   0.75058982  0.49766954  0.35292815
   0.74014450  0.99851545  0.48194935
   0.25059042  0.49766954  0.35292815
   0.23989317  0.99725680  0.48291138
   0.99618298  0.99740097  0.38536662
   0.51480552  0.49912326  0.51344919
   0.99557869  0.49257668  0.44950258
   0.50058925  0.99767067  0.32219910
   0.98408324  0.22484014  0.55268215
   0.98102294  0.73489357  0.54372353
   0.47592231  0.04707091  0.58166690
   0.99038892  0.22367097  0.48489650
   0.50058925  0.72426545  0.35464748
   0.50058925  0.27107537  0.35464748
   0.98856911  0.76399622  0.48536542
   0.77399447  0.49766954  0.29318964
   0.72319361  0.99783771  0.42032196
   0.48906062  0.22687155  0.47908818
   0.00058986  0.72426545  0.35120881
   0.00058986  0.27107537  0.35120881
   0.48993357  0.76903841  0.47874717
   0.72156498  0.49608267  0.41471440
   0.77399447  0.99767067  0.28975097
   0.26487751  0.49615401  0.41374430
   0.22718577  0.99767067  0.28975097
   0.26794860  0.99717825  0.41969019
   0.22718577  0.49766954  0.29318964
   0.76854851  0.48120700  0.55047824
   0.21238492  0.98088471  0.54350875
   0.23416393  0.50214576  0.54914449
   0.75068684  0.98227699  0.54364355
   0.72558567  0.08103944  0.61663437
   0.18796857  0.24303587  0.60056355
   0.35446805  0.48738618  0.27144965
   0.25816528  0.46508405  0.57468882
   0.67210036  0.15169046  0.63827870
   0.06527126  0.19616555  0.61710385
Direct configuration=   203
   0.00058986  0.24767071  0.29147031
   0.49305682  0.74618241  0.41681489
   0.49287760  0.24680768  0.41657001
   0.00058986  0.74767011  0.29147031
   0.75058982  0.49766954  0.35292815
   0.74014450  0.99851545  0.48194935
   0.25059042  0.49766954  0.35292815
   0.23989317  0.99725680  0.48291138
   0.99618298  0.99740097  0.38536662
   0.51480552  0.49912326  0.51344919
   0.99557869  0.49257668  0.44950258
   0.50058925  0.99767067  0.32219910
   0.98408324  0.22484014  0.55268215
   0.98102294  0.73489357  0.54372353
   0.47592231  0.04707091  0.58166690
   0.99038892  0.22367097  0.48489650
   0.50058925  0.72426545  0.35464748
   0.50058925  0.27107537  0.35464748
   0.98856911  0.76399622  0.48536542
   0.77399447  0.49766954  0.29318964
   0.72319361  0.99783771  0.42032196
   0.48906062  0.22687155  0.47908818
   0.00058986  0.72426545  0.35120881
   0.00058986  0.27107537  0.35120881
   0.48993357  0.76903841  0.47874717
   0.72156498  0.49608267  0.41471440
   0.77399447  0.99767067  0.28975097
   0.26487751  0.49615401  0.41374430
   0.22718577  0.99767067  0.28975097
   0.26794860  0.99717825  0.41969019
   0.22718577  0.49766954  0.29318964
   0.76854851  0.48120700  0.55047824
   0.21238492  0.98088471  0.54350875
   0.23416393  0.50214576  0.54914449
   0.75068684  0.98227699  0.54364355
   0.72558567  0.08103944  0.61663437
   0.18796857  0.24303587  0.60056355
   0.35446805  0.48738618  0.27144965
   0.25816528  0.46508405  0.57468882
   0.67210036  0.15169046  0.63827870
   0.06527126  0.19616555  0.61710385
Direct configuration=   204
   0.00058986  0.24767071  0.29147031
   0.49305682  0.74618241  0.41681489
   0.49287760  0.24680768  0.41657001
   0.00058986  0.74767011  0.29147031
   0.75058982  0.49766954  0.35292815
   0.74014450  0.99851545  0.48194935
   0.25059042  0.49766954  0.35292815
   0.23989317  0.99725680  0.48291138
   0.99618298  0.99740097  0.38536662
   0.51480552  0.49912326  0.51344919
   0.99557869  0.49257668  0.44950258
   0.50058925  0.99767067  0.32219910
   0.98408324  0.22484014  0.55268215
   0.98102294  0.73489357  0.54372353
   0.47592231  0.04707091  0.58166690
   0.99038892  0.22367097  0.48489650
   0.50058925  0.72426545  0.35464748
   0.50058925  0.27107537  0.35464748
   0.98856911  0.76399622  0.48536542
   0.77399447  0.49766954  0.29318964
   0.72319361  0.99783771  0.42032196
   0.48906062  0.22687155  0.47908818
   0.00058986  0.72426545  0.35120881
   0.00058986  0.27107537  0.35120881
   0.48993357  0.76903841  0.47874717
   0.72156498  0.49608267  0.41471440
   0.77399447  0.99767067  0.28975097
   0.26487751  0.49615401  0.41374430
   0.22718577  0.99767067  0.28975097
   0.26794860  0.99717825  0.41969019
   0.22718577  0.49766954  0.29318964
   0.76854851  0.48120700  0.55047824
   0.21238492  0.98088471  0.54350875
   0.23416393  0.50214576  0.54914449
   0.75068684  0.98227699  0.54364355
   0.72558567  0.08103944  0.61663437
   0.18796857  0.24303587  0.60056355
   0.35446805  0.48738618  0.27144965
   0.25816528  0.46508405  0.57468882
   0.67210036  0.15169046  0.63827870
   0.06527126  0.19616555  0.61710385
Direct configuration=   205
   0.00058986  0.24767071  0.29147031
   0.49305682  0.74618241  0.41681489
   0.49287760  0.24680768  0.41657001
   0.00058986  0.74767011  0.29147031
   0.75058982  0.49766954  0.35292815
   0.74014450  0.99851545  0.48194935
   0.25059042  0.49766954  0.35292815
   0.23989317  0.99725680  0.48291138
   0.99618298  0.99740097  0.38536662
   0.51480552  0.49912326  0.51344919
   0.99557869  0.49257668  0.44950258
   0.50058925  0.99767067  0.32219910
   0.98408324  0.22484014  0.55268215
   0.98102294  0.73489357  0.54372353
   0.47592231  0.04707091  0.58166690
   0.99038892  0.22367097  0.48489650
   0.50058925  0.72426545  0.35464748
   0.50058925  0.27107537  0.35464748
   0.98856911  0.76399622  0.48536542
   0.77399447  0.49766954  0.29318964
   0.72319361  0.99783771  0.42032196
   0.48906062  0.22687155  0.47908818
   0.00058986  0.72426545  0.35120881
   0.00058986  0.27107537  0.35120881
   0.48993357  0.76903841  0.47874717
   0.72156498  0.49608267  0.41471440
   0.77399447  0.99767067  0.28975097
   0.26487751  0.49615401  0.41374430
   0.22718577  0.99767067  0.28975097
   0.26794860  0.99717825  0.41969019
   0.22718577  0.49766954  0.29318964
   0.76854851  0.48120700  0.55047824
   0.21238492  0.98088471  0.54350875
   0.23416393  0.50214576  0.54914449
   0.75068684  0.98227699  0.54364355
   0.72558567  0.08103944  0.61663437
   0.18796857  0.24303587  0.60056355
   0.35446805  0.48738618  0.27144965
   0.25816528  0.46508405  0.57468882
   0.67210036  0.15169046  0.63827870
   0.06527126  0.19616555  0.61710385
Direct configuration=   206
   0.00058986  0.24767071  0.29147031
   0.49305682  0.74618241  0.41681489
   0.49287760  0.24680768  0.41657001
   0.00058986  0.74767011  0.29147031
   0.75058982  0.49766954  0.35292815
   0.74014450  0.99851545  0.48194935
   0.25059042  0.49766954  0.35292815
   0.23989317  0.99725680  0.48291138
   0.99618298  0.99740097  0.38536662
   0.51480552  0.49912326  0.51344919
   0.99557869  0.49257668  0.44950258
   0.50058925  0.99767067  0.32219910
   0.98408324  0.22484014  0.55268215
   0.98102294  0.73489357  0.54372353
   0.47592231  0.04707091  0.58166690
   0.99038892  0.22367097  0.48489650
   0.50058925  0.72426545  0.35464748
   0.50058925  0.27107537  0.35464748
   0.98856911  0.76399622  0.48536542
   0.77399447  0.49766954  0.29318964
   0.72319361  0.99783771  0.42032196
   0.48906062  0.22687155  0.47908818
   0.00058986  0.72426545  0.35120881
   0.00058986  0.27107537  0.35120881
   0.48993357  0.76903841  0.47874717
   0.72156498  0.49608267  0.41471440
   0.77399447  0.99767067  0.28975097
   0.26487751  0.49615401  0.41374430
   0.22718577  0.99767067  0.28975097
   0.26794860  0.99717825  0.41969019
   0.22718577  0.49766954  0.29318964
   0.76854851  0.48120700  0.55047824
   0.21238492  0.98088471  0.54350875
   0.23416393  0.50214576  0.54914449
   0.75068684  0.98227699  0.54364355
   0.72558567  0.08103944  0.61663437
   0.18796857  0.24303587  0.60056355
   0.35446805  0.48738618  0.27144965
   0.25816528  0.46508405  0.57468882
   0.67210036  0.15169046  0.63827870
   0.06527126  0.19616555  0.61710385
Direct configuration=   207
   0.00058986  0.24767071  0.29147031
   0.49305682  0.74618241  0.41681489
   0.49287760  0.24680768  0.41657001
   0.00058986  0.74767011  0.29147031
   0.75058982  0.49766954  0.35292815
   0.74014450  0.99851545  0.48194935
   0.25059042  0.49766954  0.35292815
   0.23989317  0.99725680  0.48291138
   0.99618298  0.99740097  0.38536662
   0.51480552  0.49912326  0.51344919
   0.99557869  0.49257668  0.44950258
   0.50058925  0.99767067  0.32219910
   0.98408324  0.22484014  0.55268215
   0.98102294  0.73489357  0.54372353
   0.47592231  0.04707091  0.58166690
   0.99038892  0.22367097  0.48489650
   0.50058925  0.72426545  0.35464748
   0.50058925  0.27107537  0.35464748
   0.98856911  0.76399622  0.48536542
   0.77399447  0.49766954  0.29318964
   0.72319361  0.99783771  0.42032196
   0.48906062  0.22687155  0.47908818
   0.00058986  0.72426545  0.35120881
   0.00058986  0.27107537  0.35120881
   0.48993357  0.76903841  0.47874717
   0.72156498  0.49608267  0.41471440
   0.77399447  0.99767067  0.28975097
   0.26487751  0.49615401  0.41374430
   0.22718577  0.99767067  0.28975097
   0.26794860  0.99717825  0.41969019
   0.22718577  0.49766954  0.29318964
   0.76854851  0.48120700  0.55047824
   0.21238492  0.98088471  0.54350875
   0.23416393  0.50214576  0.54914449
   0.75068684  0.98227699  0.54364355
   0.72558567  0.08103944  0.61663437
   0.18796857  0.24303587  0.60056355
   0.35446805  0.48738618  0.27144965
   0.25816528  0.46508405  0.57468882
   0.67210036  0.15169046  0.63827870
   0.06527126  0.19616555  0.61710385
Direct configuration=   208
   0.00058986  0.24767071  0.29147031
   0.49305682  0.74618241  0.41681489
   0.49287760  0.24680768  0.41657001
   0.00058986  0.74767011  0.29147031
   0.75058982  0.49766954  0.35292815
   0.74014450  0.99851545  0.48194935
   0.25059042  0.49766954  0.35292815
   0.23989317  0.99725680  0.48291138
   0.99618298  0.99740097  0.38536662
   0.51480552  0.49912326  0.51344919
   0.99557869  0.49257668  0.44950258
   0.50058925  0.99767067  0.32219910
   0.98408324  0.22484014  0.55268215
   0.98102294  0.73489357  0.54372353
   0.47592231  0.04707091  0.58166690
   0.99038892  0.22367097  0.48489650
   0.50058925  0.72426545  0.35464748
   0.50058925  0.27107537  0.35464748
   0.98856911  0.76399622  0.48536542
   0.77399447  0.49766954  0.29318964
   0.72319361  0.99783771  0.42032196
   0.48906062  0.22687155  0.47908818
   0.00058986  0.72426545  0.35120881
   0.00058986  0.27107537  0.35120881
   0.48993357  0.76903841  0.47874717
   0.72156498  0.49608267  0.41471440
   0.77399447  0.99767067  0.28975097
   0.26487751  0.49615401  0.41374430
   0.22718577  0.99767067  0.28975097
   0.26794860  0.99717825  0.41969019
   0.22718577  0.49766954  0.29318964
   0.76854851  0.48120700  0.55047824
   0.21238492  0.98088471  0.54350875
   0.23416393  0.50214576  0.54914449
   0.75068684  0.98227699  0.54364355
   0.72558567  0.08103944  0.61663437
   0.18796857  0.24303587  0.60056355
   0.35446805  0.48738618  0.27144965
   0.25816528  0.46508405  0.57468882
   0.67210036  0.15169046  0.63827870
   0.06527126  0.19616555  0.61710385
Direct configuration=   209
   0.00058986  0.24767071  0.29147031
   0.49305682  0.74618241  0.41681489
   0.49287760  0.24680768  0.41657001
   0.00058986  0.74767011  0.29147031
   0.75058982  0.49766954  0.35292815
   0.74014450  0.99851545  0.48194935
   0.25059042  0.49766954  0.35292815
   0.23989317  0.99725680  0.48291138
   0.99618298  0.99740097  0.38536662
   0.51480552  0.49912326  0.51344919
   0.99557869  0.49257668  0.44950258
   0.50058925  0.99767067  0.32219910
   0.98408324  0.22484014  0.55268215
   0.98102294  0.73489357  0.54372353
   0.47592231  0.04707091  0.58166690
   0.99038892  0.22367097  0.48489650
   0.50058925  0.72426545  0.35464748
   0.50058925  0.27107537  0.35464748
   0.98856911  0.76399622  0.48536542
   0.77399447  0.49766954  0.29318964
   0.72319361  0.99783771  0.42032196
   0.48906062  0.22687155  0.47908818
   0.00058986  0.72426545  0.35120881
   0.00058986  0.27107537  0.35120881
   0.48993357  0.76903841  0.47874717
   0.72156498  0.49608267  0.41471440
   0.77399447  0.99767067  0.28975097
   0.26487751  0.49615401  0.41374430
   0.22718577  0.99767067  0.28975097
   0.26794860  0.99717825  0.41969019
   0.22718577  0.49766954  0.29318964
   0.76854851  0.48120700  0.55047824
   0.21238492  0.98088471  0.54350875
   0.23416393  0.50214576  0.54914449
   0.75068684  0.98227699  0.54364355
   0.72558567  0.08103944  0.61663437
   0.18796857  0.24303587  0.60056355
   0.35446805  0.48738618  0.27144965
   0.25816528  0.46508405  0.57468882
   0.67210036  0.15169046  0.63827870
   0.06527126  0.19616555  0.61710385
Direct configuration=   210
   0.00058986  0.24767071  0.29147031
   0.49305682  0.74618241  0.41681489
   0.49287760  0.24680768  0.41657001
   0.00058986  0.74767011  0.29147031
   0.75058982  0.49766954  0.35292815
   0.74014450  0.99851545  0.48194935
   0.25059042  0.49766954  0.35292815
   0.23989317  0.99725680  0.48291138
   0.99618298  0.99740097  0.38536662
   0.51480552  0.49912326  0.51344919
   0.99557869  0.49257668  0.44950258
   0.50058925  0.99767067  0.32219910
   0.98408324  0.22484014  0.55268215
   0.98102294  0.73489357  0.54372353
   0.47592231  0.04707091  0.58166690
   0.99038892  0.22367097  0.48489650
   0.50058925  0.72426545  0.35464748
   0.50058925  0.27107537  0.35464748
   0.98856911  0.76399622  0.48536542
   0.77399447  0.49766954  0.29318964
   0.72319361  0.99783771  0.42032196
   0.48906062  0.22687155  0.47908818
   0.00058986  0.72426545  0.35120881
   0.00058986  0.27107537  0.35120881
   0.48993357  0.76903841  0.47874717
   0.72156498  0.49608267  0.41471440
   0.77399447  0.99767067  0.28975097
   0.26487751  0.49615401  0.41374430
   0.22718577  0.99767067  0.28975097
   0.26794860  0.99717825  0.41969019
   0.22718577  0.49766954  0.29318964
   0.76854851  0.48120700  0.55047824
   0.21238492  0.98088471  0.54350875
   0.23416393  0.50214576  0.54914449
   0.75068684  0.98227699  0.54364355
   0.72558567  0.08103944  0.61663437
   0.18796857  0.24303587  0.60056355
   0.35446805  0.48738618  0.27144965
   0.25816528  0.46508405  0.57468882
   0.67210036  0.15169046  0.63827870
   0.06527126  0.19616555  0.61710385
Direct configuration=   211
   0.00058986  0.24767071  0.29147031
   0.49305682  0.74618241  0.41681489
   0.49287760  0.24680768  0.41657001
   0.00058986  0.74767011  0.29147031
   0.75058982  0.49766954  0.35292815
   0.74014450  0.99851545  0.48194935
   0.25059042  0.49766954  0.35292815
   0.23989317  0.99725680  0.48291138
   0.99618298  0.99740097  0.38536662
   0.51480552  0.49912326  0.51344919
   0.99557869  0.49257668  0.44950258
   0.50058925  0.99767067  0.32219910
   0.98408324  0.22484014  0.55268215
   0.98102294  0.73489357  0.54372353
   0.47592231  0.04707091  0.58166690
   0.99038892  0.22367097  0.48489650
   0.50058925  0.72426545  0.35464748
   0.50058925  0.27107537  0.35464748
   0.98856911  0.76399622  0.48536542
   0.77399447  0.49766954  0.29318964
   0.72319361  0.99783771  0.42032196
   0.48906062  0.22687155  0.47908818
   0.00058986  0.72426545  0.35120881
   0.00058986  0.27107537  0.35120881
   0.48993357  0.76903841  0.47874717
   0.72156498  0.49608267  0.41471440
   0.77399447  0.99767067  0.28975097
   0.26487751  0.49615401  0.41374430
   0.22718577  0.99767067  0.28975097
   0.26794860  0.99717825  0.41969019
   0.22718577  0.49766954  0.29318964
   0.76854851  0.48120700  0.55047824
   0.21238492  0.98088471  0.54350875
   0.23416393  0.50214576  0.54914449
   0.75068684  0.98227699  0.54364355
   0.72558567  0.08103944  0.61663437
   0.18796857  0.24303587  0.60056355
   0.35446805  0.48738618  0.27144965
   0.25816528  0.46508405  0.57468882
   0.67210036  0.15169046  0.63827870
   0.06527126  0.19616555  0.61710385
Direct configuration=   212
   0.00058986  0.24767071  0.29147031
   0.49305682  0.74618241  0.41681489
   0.49287760  0.24680768  0.41657001
   0.00058986  0.74767011  0.29147031
   0.75058982  0.49766954  0.35292815
   0.74014450  0.99851545  0.48194935
   0.25059042  0.49766954  0.35292815
   0.23989317  0.99725680  0.48291138
   0.99618298  0.99740097  0.38536662
   0.51480552  0.49912326  0.51344919
   0.99557869  0.49257668  0.44950258
   0.50058925  0.99767067  0.32219910
   0.98408324  0.22484014  0.55268215
   0.98102294  0.73489357  0.54372353
   0.47592231  0.04707091  0.58166690
   0.99038892  0.22367097  0.48489650
   0.50058925  0.72426545  0.35464748
   0.50058925  0.27107537  0.35464748
   0.98856911  0.76399622  0.48536542
   0.77399447  0.49766954  0.29318964
   0.72319361  0.99783771  0.42032196
   0.48906062  0.22687155  0.47908818
   0.00058986  0.72426545  0.35120881
   0.00058986  0.27107537  0.35120881
   0.48993357  0.76903841  0.47874717
   0.72156498  0.49608267  0.41471440
   0.77399447  0.99767067  0.28975097
   0.26487751  0.49615401  0.41374430
   0.22718577  0.99767067  0.28975097
   0.26794860  0.99717825  0.41969019
   0.22718577  0.49766954  0.29318964
   0.76854851  0.48120700  0.55047824
   0.21238492  0.98088471  0.54350875
   0.23416393  0.50214576  0.54914449
   0.75068684  0.98227699  0.54364355
   0.72558567  0.08103944  0.61663437
   0.18796857  0.24303587  0.60056355
   0.35446805  0.48738618  0.27144965
   0.25816528  0.46508405  0.57468882
   0.67210036  0.15169046  0.63827870
   0.06527126  0.19616555  0.61710385
Direct configuration=   213
   0.00058986  0.24767071  0.29147031
   0.49305682  0.74618241  0.41681489
   0.49287760  0.24680768  0.41657001
   0.00058986  0.74767011  0.29147031
   0.75058982  0.49766954  0.35292815
   0.74014450  0.99851545  0.48194935
   0.25059042  0.49766954  0.35292815
   0.23989317  0.99725680  0.48291138
   0.99618298  0.99740097  0.38536662
   0.51480552  0.49912326  0.51344919
   0.99557869  0.49257668  0.44950258
   0.50058925  0.99767067  0.32219910
   0.98408324  0.22484014  0.55268215
   0.98102294  0.73489357  0.54372353
   0.47592231  0.04707091  0.58166690
   0.99038892  0.22367097  0.48489650
   0.50058925  0.72426545  0.35464748
   0.50058925  0.27107537  0.35464748
   0.98856911  0.76399622  0.48536542
   0.77399447  0.49766954  0.29318964
   0.72319361  0.99783771  0.42032196
   0.48906062  0.22687155  0.47908818
   0.00058986  0.72426545  0.35120881
   0.00058986  0.27107537  0.35120881
   0.48993357  0.76903841  0.47874717
   0.72156498  0.49608267  0.41471440
   0.77399447  0.99767067  0.28975097
   0.26487751  0.49615401  0.41374430
   0.22718577  0.99767067  0.28975097
   0.26794860  0.99717825  0.41969019
   0.22718577  0.49766954  0.29318964
   0.76854851  0.48120700  0.55047824
   0.21238492  0.98088471  0.54350875
   0.23416393  0.50214576  0.54914449
   0.75068684  0.98227699  0.54364355
   0.72558567  0.08103944  0.61663437
   0.18796857  0.24303587  0.60056355
   0.35446805  0.48738618  0.27144965
   0.25816528  0.46508405  0.57468882
   0.67210036  0.15169046  0.63827870
   0.06527126  0.19616555  0.61710385
Direct configuration=   214
   0.00058986  0.24767071  0.29147031
   0.49305682  0.74618241  0.41681489
   0.49287760  0.24680768  0.41657001
   0.00058986  0.74767011  0.29147031
   0.75058982  0.49766954  0.35292815
   0.74014450  0.99851545  0.48194935
   0.25059042  0.49766954  0.35292815
   0.23989317  0.99725680  0.48291138
   0.99618298  0.99740097  0.38536662
   0.51480552  0.49912326  0.51344919
   0.99557869  0.49257668  0.44950258
   0.50058925  0.99767067  0.32219910
   0.98408324  0.22484014  0.55268215
   0.98102294  0.73489357  0.54372353
   0.47592231  0.04707091  0.58166690
   0.99038892  0.22367097  0.48489650
   0.50058925  0.72426545  0.35464748
   0.50058925  0.27107537  0.35464748
   0.98856911  0.76399622  0.48536542
   0.77399447  0.49766954  0.29318964
   0.72319361  0.99783771  0.42032196
   0.48906062  0.22687155  0.47908818
   0.00058986  0.72426545  0.35120881
   0.00058986  0.27107537  0.35120881
   0.48993357  0.76903841  0.47874717
   0.72156498  0.49608267  0.41471440
   0.77399447  0.99767067  0.28975097
   0.26487751  0.49615401  0.41374430
   0.22718577  0.99767067  0.28975097
   0.26794860  0.99717825  0.41969019
   0.22718577  0.49766954  0.29318964
   0.76854851  0.48120700  0.55047824
   0.21238492  0.98088471  0.54350875
   0.23416393  0.50214576  0.54914449
   0.75068684  0.98227699  0.54364355
   0.72558567  0.08103944  0.61663437
   0.18796857  0.24303587  0.60056355
   0.35446805  0.48738618  0.27144965
   0.25816528  0.46508405  0.57468882
   0.67210036  0.15169046  0.63827870
   0.06527126  0.19616555  0.61710385
Direct configuration=   215
   0.00058986  0.24767071  0.29147031
   0.49305682  0.74618241  0.41681489
   0.49287760  0.24680768  0.41657001
   0.00058986  0.74767011  0.29147031
   0.75058982  0.49766954  0.35292815
   0.74014450  0.99851545  0.48194935
   0.25059042  0.49766954  0.35292815
   0.23989317  0.99725680  0.48291138
   0.99618298  0.99740097  0.38536662
   0.51480552  0.49912326  0.51344919
   0.99557869  0.49257668  0.44950258
   0.50058925  0.99767067  0.32219910
   0.98408324  0.22484014  0.55268215
   0.98102294  0.73489357  0.54372353
   0.47592231  0.04707091  0.58166690
   0.99038892  0.22367097  0.48489650
   0.50058925  0.72426545  0.35464748
   0.50058925  0.27107537  0.35464748
   0.98856911  0.76399622  0.48536542
   0.77399447  0.49766954  0.29318964
   0.72319361  0.99783771  0.42032196
   0.48906062  0.22687155  0.47908818
   0.00058986  0.72426545  0.35120881
   0.00058986  0.27107537  0.35120881
   0.48993357  0.76903841  0.47874717
   0.72156498  0.49608267  0.41471440
   0.77399447  0.99767067  0.28975097
   0.26487751  0.49615401  0.41374430
   0.22718577  0.99767067  0.28975097
   0.26794860  0.99717825  0.41969019
   0.22718577  0.49766954  0.29318964
   0.76854851  0.48120700  0.55047824
   0.21238492  0.98088471  0.54350875
   0.23416393  0.50214576  0.54914449
   0.75068684  0.98227699  0.54364355
   0.72558567  0.08103944  0.61663437
   0.18796857  0.24303587  0.60056355
   0.35446805  0.48738618  0.27144965
   0.25816528  0.46508405  0.57468882
   0.67210036  0.15169046  0.63827870
   0.06527126  0.19616555  0.61710385
Direct configuration=   216
   0.00058986  0.24767071  0.29147031
   0.49305682  0.74618241  0.41681489
   0.49287760  0.24680768  0.41657001
   0.00058986  0.74767011  0.29147031
   0.75058982  0.49766954  0.35292815
   0.74014450  0.99851545  0.48194935
   0.25059042  0.49766954  0.35292815
   0.23989317  0.99725680  0.48291138
   0.99618298  0.99740097  0.38536662
   0.51480552  0.49912326  0.51344919
   0.99557869  0.49257668  0.44950258
   0.50058925  0.99767067  0.32219910
   0.98408324  0.22484014  0.55268215
   0.98102294  0.73489357  0.54372353
   0.47592231  0.04707091  0.58166690
   0.99038892  0.22367097  0.48489650
   0.50058925  0.72426545  0.35464748
   0.50058925  0.27107537  0.35464748
   0.98856911  0.76399622  0.48536542
   0.77399447  0.49766954  0.29318964
   0.72319361  0.99783771  0.42032196
   0.48906062  0.22687155  0.47908818
   0.00058986  0.72426545  0.35120881
   0.00058986  0.27107537  0.35120881
   0.48993357  0.76903841  0.47874717
   0.72156498  0.49608267  0.41471440
   0.77399447  0.99767067  0.28975097
   0.26487751  0.49615401  0.41374430
   0.22718577  0.99767067  0.28975097
   0.26794860  0.99717825  0.41969019
   0.22718577  0.49766954  0.29318964
   0.76854851  0.48120700  0.55047824
   0.21238492  0.98088471  0.54350875
   0.23416393  0.50214576  0.54914449
   0.75068684  0.98227699  0.54364355
   0.72558567  0.08103944  0.61663437
   0.18796857  0.24303587  0.60056355
   0.35446805  0.48738618  0.27144965
   0.25816528  0.46508405  0.57468882
   0.67210036  0.15169046  0.63827870
   0.06527126  0.19616555  0.61710385
Direct configuration=   217
   0.00058986  0.24767071  0.29147031
   0.49305682  0.74618241  0.41681489
   0.49287760  0.24680768  0.41657001
   0.00058986  0.74767011  0.29147031
   0.75058982  0.49766954  0.35292815
   0.74014450  0.99851545  0.48194935
   0.25059042  0.49766954  0.35292815
   0.23989317  0.99725680  0.48291138
   0.99618298  0.99740097  0.38536662
   0.51480552  0.49912326  0.51344919
   0.99557869  0.49257668  0.44950258
   0.50058925  0.99767067  0.32219910
   0.98408324  0.22484014  0.55268215
   0.98102294  0.73489357  0.54372353
   0.47592231  0.04707091  0.58166690
   0.99038892  0.22367097  0.48489650
   0.50058925  0.72426545  0.35464748
   0.50058925  0.27107537  0.35464748
   0.98856911  0.76399622  0.48536542
   0.77399447  0.49766954  0.29318964
   0.72319361  0.99783771  0.42032196
   0.48906062  0.22687155  0.47908818
   0.00058986  0.72426545  0.35120881
   0.00058986  0.27107537  0.35120881
   0.48993357  0.76903841  0.47874717
   0.72156498  0.49608267  0.41471440
   0.77399447  0.99767067  0.28975097
   0.26487751  0.49615401  0.41374430
   0.22718577  0.99767067  0.28975097
   0.26794860  0.99717825  0.41969019
   0.22718577  0.49766954  0.29318964
   0.76854851  0.48120700  0.55047824
   0.21238492  0.98088471  0.54350875
   0.23416393  0.50214576  0.54914449
   0.75068684  0.98227699  0.54364355
   0.72558567  0.08103944  0.61663437
   0.18796857  0.24303587  0.60056355
   0.35446805  0.48738618  0.27144965
   0.25816528  0.46508405  0.57468882
   0.67210036  0.15169046  0.63827870
   0.06527126  0.19616555  0.61710385
Direct configuration=   218
   0.00058986  0.24767071  0.29147031
   0.49305682  0.74618241  0.41681489
   0.49287760  0.24680768  0.41657001
   0.00058986  0.74767011  0.29147031
   0.75058982  0.49766954  0.35292815
   0.74014450  0.99851545  0.48194935
   0.25059042  0.49766954  0.35292815
   0.23989317  0.99725680  0.48291138
   0.99618298  0.99740097  0.38536662
   0.51480552  0.49912326  0.51344919
   0.99557869  0.49257668  0.44950258
   0.50058925  0.99767067  0.32219910
   0.98408324  0.22484014  0.55268215
   0.98102294  0.73489357  0.54372353
   0.47592231  0.04707091  0.58166690
   0.99038892  0.22367097  0.48489650
   0.50058925  0.72426545  0.35464748
   0.50058925  0.27107537  0.35464748
   0.98856911  0.76399622  0.48536542
   0.77399447  0.49766954  0.29318964
   0.72319361  0.99783771  0.42032196
   0.48906062  0.22687155  0.47908818
   0.00058986  0.72426545  0.35120881
   0.00058986  0.27107537  0.35120881
   0.48993357  0.76903841  0.47874717
   0.72156498  0.49608267  0.41471440
   0.77399447  0.99767067  0.28975097
   0.26487751  0.49615401  0.41374430
   0.22718577  0.99767067  0.28975097
   0.26794860  0.99717825  0.41969019
   0.22718577  0.49766954  0.29318964
   0.76854851  0.48120700  0.55047824
   0.21238492  0.98088471  0.54350875
   0.23416393  0.50214576  0.54914449
   0.75068684  0.98227699  0.54364355
   0.72558567  0.08103944  0.61663437
   0.18796857  0.24303587  0.60056355
   0.35446805  0.48738618  0.27144965
   0.25816528  0.46508405  0.57468882
   0.67210036  0.15169046  0.63827870
   0.06527126  0.19616555  0.61710385
Direct configuration=   219
   0.00058986  0.24767071  0.29147031
   0.49305682  0.74618241  0.41681489
   0.49287760  0.24680768  0.41657001
   0.00058986  0.74767011  0.29147031
   0.75058982  0.49766954  0.35292815
   0.74014450  0.99851545  0.48194935
   0.25059042  0.49766954  0.35292815
   0.23989317  0.99725680  0.48291138
   0.99618298  0.99740097  0.38536662
   0.51480552  0.49912326  0.51344919
   0.99557869  0.49257668  0.44950258
   0.50058925  0.99767067  0.32219910
   0.98408324  0.22484014  0.55268215
   0.98102294  0.73489357  0.54372353
   0.47592231  0.04707091  0.58166690
   0.99038892  0.22367097  0.48489650
   0.50058925  0.72426545  0.35464748
   0.50058925  0.27107537  0.35464748
   0.98856911  0.76399622  0.48536542
   0.77399447  0.49766954  0.29318964
   0.72319361  0.99783771  0.42032196
   0.48906062  0.22687155  0.47908818
   0.00058986  0.72426545  0.35120881
   0.00058986  0.27107537  0.35120881
   0.48993357  0.76903841  0.47874717
   0.72156498  0.49608267  0.41471440
   0.77399447  0.99767067  0.28975097
   0.26487751  0.49615401  0.41374430
   0.22718577  0.99767067  0.28975097
   0.26794860  0.99717825  0.41969019
   0.22718577  0.49766954  0.29318964
   0.76854851  0.48120700  0.55047824
   0.21238492  0.98088471  0.54350875
   0.23416393  0.50214576  0.54914449
   0.75068684  0.98227699  0.54364355
   0.72558567  0.08103944  0.61663437
   0.18796857  0.24303587  0.60056355
   0.35446805  0.48738618  0.27144965
   0.25816528  0.46508405  0.57468882
   0.67210036  0.15169046  0.63827870
   0.06527126  0.19616555  0.61710385
Direct configuration=   220
   0.00058986  0.24767071  0.29147031
   0.49305682  0.74618241  0.41681489
   0.49287760  0.24680768  0.41657001
   0.00058986  0.74767011  0.29147031
   0.75058982  0.49766954  0.35292815
   0.74014450  0.99851545  0.48194935
   0.25059042  0.49766954  0.35292815
   0.23989317  0.99725680  0.48291138
   0.99618298  0.99740097  0.38536662
   0.51480552  0.49912326  0.51344919
   0.99557869  0.49257668  0.44950258
   0.50058925  0.99767067  0.32219910
   0.98408324  0.22484014  0.55268215
   0.98102294  0.73489357  0.54372353
   0.47592231  0.04707091  0.58166690
   0.99038892  0.22367097  0.48489650
   0.50058925  0.72426545  0.35464748
   0.50058925  0.27107537  0.35464748
   0.98856911  0.76399622  0.48536542
   0.77399447  0.49766954  0.29318964
   0.72319361  0.99783771  0.42032196
   0.48906062  0.22687155  0.47908818
   0.00058986  0.72426545  0.35120881
   0.00058986  0.27107537  0.35120881
   0.48993357  0.76903841  0.47874717
   0.72156498  0.49608267  0.41471440
   0.77399447  0.99767067  0.28975097
   0.26487751  0.49615401  0.41374430
   0.22718577  0.99767067  0.28975097
   0.26794860  0.99717825  0.41969019
   0.22718577  0.49766954  0.29318964
   0.76854851  0.48120700  0.55047824
   0.21238492  0.98088471  0.54350875
   0.23416393  0.50214576  0.54914449
   0.75068684  0.98227699  0.54364355
   0.72558567  0.08103944  0.61663437
   0.18796857  0.24303587  0.60056355
   0.35446805  0.48738618  0.27144965
   0.25816528  0.46508405  0.57468882
   0.67210036  0.15169046  0.63827870
   0.06527126  0.19616555  0.61710385
Direct configuration=   221
   0.00058986  0.24767071  0.29147031
   0.49305682  0.74618241  0.41681489
   0.49287760  0.24680768  0.41657001
   0.00058986  0.74767011  0.29147031
   0.75058982  0.49766954  0.35292815
   0.74014450  0.99851545  0.48194935
   0.25059042  0.49766954  0.35292815
   0.23989317  0.99725680  0.48291138
   0.99618298  0.99740097  0.38536662
   0.51480552  0.49912326  0.51344919
   0.99557869  0.49257668  0.44950258
   0.50058925  0.99767067  0.32219910
   0.98408324  0.22484014  0.55268215
   0.98102294  0.73489357  0.54372353
   0.47592231  0.04707091  0.58166690
   0.99038892  0.22367097  0.48489650
   0.50058925  0.72426545  0.35464748
   0.50058925  0.27107537  0.35464748
   0.98856911  0.76399622  0.48536542
   0.77399447  0.49766954  0.29318964
   0.72319361  0.99783771  0.42032196
   0.48906062  0.22687155  0.47908818
   0.00058986  0.72426545  0.35120881
   0.00058986  0.27107537  0.35120881
   0.48993357  0.76903841  0.47874717
   0.72156498  0.49608267  0.41471440
   0.77399447  0.99767067  0.28975097
   0.26487751  0.49615401  0.41374430
   0.22718577  0.99767067  0.28975097
   0.26794860  0.99717825  0.41969019
   0.22718577  0.49766954  0.29318964
   0.76854851  0.48120700  0.55047824
   0.21238492  0.98088471  0.54350875
   0.23416393  0.50214576  0.54914449
   0.75068684  0.98227699  0.54364355
   0.72558567  0.08103944  0.61663437
   0.18796857  0.24303587  0.60056355
   0.35446805  0.48738618  0.27144965
   0.25816528  0.46508405  0.57468882
   0.67210036  0.15169046  0.63827870
   0.06527126  0.19616555  0.61710385
Direct configuration=   222
   0.00058986  0.24767071  0.29147031
   0.49305682  0.74618241  0.41681489
   0.49287760  0.24680768  0.41657001
   0.00058986  0.74767011  0.29147031
   0.75058982  0.49766954  0.35292815
   0.74014450  0.99851545  0.48194935
   0.25059042  0.49766954  0.35292815
   0.23989317  0.99725680  0.48291138
   0.99618298  0.99740097  0.38536662
   0.51480552  0.49912326  0.51344919
   0.99557869  0.49257668  0.44950258
   0.50058925  0.99767067  0.32219910
   0.98408324  0.22484014  0.55268215
   0.98102294  0.73489357  0.54372353
   0.47592231  0.04707091  0.58166690
   0.99038892  0.22367097  0.48489650
   0.50058925  0.72426545  0.35464748
   0.50058925  0.27107537  0.35464748
   0.98856911  0.76399622  0.48536542
   0.77399447  0.49766954  0.29318964
   0.72319361  0.99783771  0.42032196
   0.48906062  0.22687155  0.47908818
   0.00058986  0.72426545  0.35120881
   0.00058986  0.27107537  0.35120881
   0.48993357  0.76903841  0.47874717
   0.72156498  0.49608267  0.41471440
   0.77399447  0.99767067  0.28975097
   0.26487751  0.49615401  0.41374430
   0.22718577  0.99767067  0.28975097
   0.26794860  0.99717825  0.41969019
   0.22718577  0.49766954  0.29318964
   0.76854851  0.48120700  0.55047824
   0.21238492  0.98088471  0.54350875
   0.23416393  0.50214576  0.54914449
   0.75068684  0.98227699  0.54364355
   0.72558567  0.08103944  0.61663437
   0.18796857  0.24303587  0.60056355
   0.35446805  0.48738618  0.27144965
   0.25816528  0.46508405  0.57468882
   0.67210036  0.15169046  0.63827870
   0.06527126  0.19616555  0.61710385
Direct configuration=   223
   0.00058986  0.24767071  0.29147031
   0.49305682  0.74618241  0.41681489
   0.49287760  0.24680768  0.41657001
   0.00058986  0.74767011  0.29147031
   0.75058982  0.49766954  0.35292815
   0.74014450  0.99851545  0.48194935
   0.25059042  0.49766954  0.35292815
   0.23989317  0.99725680  0.48291138
   0.99618298  0.99740097  0.38536662
   0.51480552  0.49912326  0.51344919
   0.99557869  0.49257668  0.44950258
   0.50058925  0.99767067  0.32219910
   0.98408324  0.22484014  0.55268215
   0.98102294  0.73489357  0.54372353
   0.47592231  0.04707091  0.58166690
   0.99038892  0.22367097  0.48489650
   0.50058925  0.72426545  0.35464748
   0.50058925  0.27107537  0.35464748
   0.98856911  0.76399622  0.48536542
   0.77399447  0.49766954  0.29318964
   0.72319361  0.99783771  0.42032196
   0.48906062  0.22687155  0.47908818
   0.00058986  0.72426545  0.35120881
   0.00058986  0.27107537  0.35120881
   0.48993357  0.76903841  0.47874717
   0.72156498  0.49608267  0.41471440
   0.77399447  0.99767067  0.28975097
   0.26487751  0.49615401  0.41374430
   0.22718577  0.99767067  0.28975097
   0.26794860  0.99717825  0.41969019
   0.22718577  0.49766954  0.29318964
   0.76854851  0.48120700  0.55047824
   0.21238492  0.98088471  0.54350875
   0.23416393  0.50214576  0.54914449
   0.75068684  0.98227699  0.54364355
   0.72558567  0.08103944  0.61663437
   0.18796857  0.24303587  0.60056355
   0.35446805  0.48738618  0.27144965
   0.25816528  0.46508405  0.57468882
   0.67210036  0.15169046  0.63827870
   0.06527126  0.19616555  0.61710385
Direct configuration=   224
   0.00058986  0.24767071  0.29147031
   0.49305682  0.74618241  0.41681489
   0.49287760  0.24680768  0.41657001
   0.00058986  0.74767011  0.29147031
   0.75058982  0.49766954  0.35292815
   0.74014450  0.99851545  0.48194935
   0.25059042  0.49766954  0.35292815
   0.23989317  0.99725680  0.48291138
   0.99618298  0.99740097  0.38536662
   0.51480552  0.49912326  0.51344919
   0.99557869  0.49257668  0.44950258
   0.50058925  0.99767067  0.32219910
   0.98408324  0.22484014  0.55268215
   0.98102294  0.73489357  0.54372353
   0.47592231  0.04707091  0.58166690
   0.99038892  0.22367097  0.48489650
   0.50058925  0.72426545  0.35464748
   0.50058925  0.27107537  0.35464748
   0.98856911  0.76399622  0.48536542
   0.77399447  0.49766954  0.29318964
   0.72319361  0.99783771  0.42032196
   0.48906062  0.22687155  0.47908818
   0.00058986  0.72426545  0.35120881
   0.00058986  0.27107537  0.35120881
   0.48993357  0.76903841  0.47874717
   0.72156498  0.49608267  0.41471440
   0.77399447  0.99767067  0.28975097
   0.26487751  0.49615401  0.41374430
   0.22718577  0.99767067  0.28975097
   0.26794860  0.99717825  0.41969019
   0.22718577  0.49766954  0.29318964
   0.76854851  0.48120700  0.55047824
   0.21238492  0.98088471  0.54350875
   0.23416393  0.50214576  0.54914449
   0.75068684  0.98227699  0.54364355
   0.72558567  0.08103944  0.61663437
   0.18796857  0.24303587  0.60056355
   0.35446805  0.48738618  0.27144965
   0.25816528  0.46508405  0.57468882
   0.67210036  0.15169046  0.63827870
   0.06527126  0.19616555  0.61710385
Direct configuration=   225
   0.00058986  0.24767071  0.29147031
   0.49305682  0.74618241  0.41681489
   0.49287760  0.24680768  0.41657001
   0.00058986  0.74767011  0.29147031
   0.75058982  0.49766954  0.35292815
   0.74014450  0.99851545  0.48194935
   0.25059042  0.49766954  0.35292815
   0.23989317  0.99725680  0.48291138
   0.99618298  0.99740097  0.38536662
   0.51480552  0.49912326  0.51344919
   0.99557869  0.49257668  0.44950258
   0.50058925  0.99767067  0.32219910
   0.98408324  0.22484014  0.55268215
   0.98102294  0.73489357  0.54372353
   0.47592231  0.04707091  0.58166690
   0.99038892  0.22367097  0.48489650
   0.50058925  0.72426545  0.35464748
   0.50058925  0.27107537  0.35464748
   0.98856911  0.76399622  0.48536542
   0.77399447  0.49766954  0.29318964
   0.72319361  0.99783771  0.42032196
   0.48906062  0.22687155  0.47908818
   0.00058986  0.72426545  0.35120881
   0.00058986  0.27107537  0.35120881
   0.48993357  0.76903841  0.47874717
   0.72156498  0.49608267  0.41471440
   0.77399447  0.99767067  0.28975097
   0.26487751  0.49615401  0.41374430
   0.22718577  0.99767067  0.28975097
   0.26794860  0.99717825  0.41969019
   0.22718577  0.49766954  0.29318964
   0.76854851  0.48120700  0.55047824
   0.21238492  0.98088471  0.54350875
   0.23416393  0.50214576  0.54914449
   0.75068684  0.98227699  0.54364355
   0.72558567  0.08103944  0.61663437
   0.18796857  0.24303587  0.60056355
   0.35446805  0.48738618  0.27144965
   0.25816528  0.46508405  0.57468882
   0.67210036  0.15169046  0.63827870
   0.06527126  0.19616555  0.61710385
Direct configuration=   226
   0.00058986  0.24767071  0.29147031
   0.49305682  0.74618241  0.41681489
   0.49287760  0.24680768  0.41657001
   0.00058986  0.74767011  0.29147031
   0.75058982  0.49766954  0.35292815
   0.74014450  0.99851545  0.48194935
   0.25059042  0.49766954  0.35292815
   0.23989317  0.99725680  0.48291138
   0.99618298  0.99740097  0.38536662
   0.51480552  0.49912326  0.51344919
   0.99557869  0.49257668  0.44950258
   0.50058925  0.99767067  0.32219910
   0.98408324  0.22484014  0.55268215
   0.98102294  0.73489357  0.54372353
   0.47592231  0.04707091  0.58166690
   0.99038892  0.22367097  0.48489650
   0.50058925  0.72426545  0.35464748
   0.50058925  0.27107537  0.35464748
   0.98856911  0.76399622  0.48536542
   0.77399447  0.49766954  0.29318964
   0.72319361  0.99783771  0.42032196
   0.48906062  0.22687155  0.47908818
   0.00058986  0.72426545  0.35120881
   0.00058986  0.27107537  0.35120881
   0.48993357  0.76903841  0.47874717
   0.72156498  0.49608267  0.41471440
   0.77399447  0.99767067  0.28975097
   0.26487751  0.49615401  0.41374430
   0.22718577  0.99767067  0.28975097
   0.26794860  0.99717825  0.41969019
   0.22718577  0.49766954  0.29318964
   0.76854851  0.48120700  0.55047824
   0.21238492  0.98088471  0.54350875
   0.23416393  0.50214576  0.54914449
   0.75068684  0.98227699  0.54364355
   0.72558567  0.08103944  0.61663437
   0.18796857  0.24303587  0.60056355
   0.35446805  0.48738618  0.27144965
   0.25816528  0.46508405  0.57468882
   0.67210036  0.15169046  0.63827870
   0.06527126  0.19616555  0.61710385
Direct configuration=   227
   0.00058986  0.24767071  0.29147031
   0.49305682  0.74618241  0.41681489
   0.49287760  0.24680768  0.41657001
   0.00058986  0.74767011  0.29147031
   0.75058982  0.49766954  0.35292815
   0.74014450  0.99851545  0.48194935
   0.25059042  0.49766954  0.35292815
   0.23989317  0.99725680  0.48291138
   0.99618298  0.99740097  0.38536662
   0.51480552  0.49912326  0.51344919
   0.99557869  0.49257668  0.44950258
   0.50058925  0.99767067  0.32219910
   0.98408324  0.22484014  0.55268215
   0.98102294  0.73489357  0.54372353
   0.47592231  0.04707091  0.58166690
   0.99038892  0.22367097  0.48489650
   0.50058925  0.72426545  0.35464748
   0.50058925  0.27107537  0.35464748
   0.98856911  0.76399622  0.48536542
   0.77399447  0.49766954  0.29318964
   0.72319361  0.99783771  0.42032196
   0.48906062  0.22687155  0.47908818
   0.00058986  0.72426545  0.35120881
   0.00058986  0.27107537  0.35120881
   0.48993357  0.76903841  0.47874717
   0.72156498  0.49608267  0.41471440
   0.77399447  0.99767067  0.28975097
   0.26487751  0.49615401  0.41374430
   0.22718577  0.99767067  0.28975097
   0.26794860  0.99717825  0.41969019
   0.22718577  0.49766954  0.29318964
   0.76854851  0.48120700  0.55047824
   0.21238492  0.98088471  0.54350875
   0.23416393  0.50214576  0.54914449
   0.75068684  0.98227699  0.54364355
   0.72558567  0.08103944  0.61663437
   0.18796857  0.24303587  0.60056355
   0.35446805  0.48738618  0.27144965
   0.25816528  0.46508405  0.57468882
   0.67210036  0.15169046  0.63827870
   0.06527126  0.19616555  0.61710385
Direct configuration=   228
   0.00058986  0.24767071  0.29147031
   0.49305682  0.74618241  0.41681489
   0.49287760  0.24680768  0.41657001
   0.00058986  0.74767011  0.29147031
   0.75058982  0.49766954  0.35292815
   0.74014450  0.99851545  0.48194935
   0.25059042  0.49766954  0.35292815
   0.23989317  0.99725680  0.48291138
   0.99618298  0.99740097  0.38536662
   0.51480552  0.49912326  0.51344919
   0.99557869  0.49257668  0.44950258
   0.50058925  0.99767067  0.32219910
   0.98408324  0.22484014  0.55268215
   0.98102294  0.73489357  0.54372353
   0.47592231  0.04707091  0.58166690
   0.99038892  0.22367097  0.48489650
   0.50058925  0.72426545  0.35464748
   0.50058925  0.27107537  0.35464748
   0.98856911  0.76399622  0.48536542
   0.77399447  0.49766954  0.29318964
   0.72319361  0.99783771  0.42032196
   0.48906062  0.22687155  0.47908818
   0.00058986  0.72426545  0.35120881
   0.00058986  0.27107537  0.35120881
   0.48993357  0.76903841  0.47874717
   0.72156498  0.49608267  0.41471440
   0.77399447  0.99767067  0.28975097
   0.26487751  0.49615401  0.41374430
   0.22718577  0.99767067  0.28975097
   0.26794860  0.99717825  0.41969019
   0.22718577  0.49766954  0.29318964
   0.76854851  0.48120700  0.55047824
   0.21238492  0.98088471  0.54350875
   0.23416393  0.50214576  0.54914449
   0.75068684  0.98227699  0.54364355
   0.72558567  0.08103944  0.61663437
   0.18796857  0.24303587  0.60056355
   0.35446805  0.48738618  0.27144965
   0.25816528  0.46508405  0.57468882
   0.67210036  0.15169046  0.63827870
   0.06527126  0.19616555  0.61710385
Direct configuration=   229
   0.00058986  0.24767071  0.29147031
   0.49305682  0.74618241  0.41681489
   0.49287760  0.24680768  0.41657001
   0.00058986  0.74767011  0.29147031
   0.75058982  0.49766954  0.35292815
   0.74014450  0.99851545  0.48194935
   0.25059042  0.49766954  0.35292815
   0.23989317  0.99725680  0.48291138
   0.99618298  0.99740097  0.38536662
   0.51480552  0.49912326  0.51344919
   0.99557869  0.49257668  0.44950258
   0.50058925  0.99767067  0.32219910
   0.98408324  0.22484014  0.55268215
   0.98102294  0.73489357  0.54372353
   0.47592231  0.04707091  0.58166690
   0.99038892  0.22367097  0.48489650
   0.50058925  0.72426545  0.35464748
   0.50058925  0.27107537  0.35464748
   0.98856911  0.76399622  0.48536542
   0.77399447  0.49766954  0.29318964
   0.72319361  0.99783771  0.42032196
   0.48906062  0.22687155  0.47908818
   0.00058986  0.72426545  0.35120881
   0.00058986  0.27107537  0.35120881
   0.48993357  0.76903841  0.47874717
   0.72156498  0.49608267  0.41471440
   0.77399447  0.99767067  0.28975097
   0.26487751  0.49615401  0.41374430
   0.22718577  0.99767067  0.28975097
   0.26794860  0.99717825  0.41969019
   0.22718577  0.49766954  0.29318964
   0.76854851  0.48120700  0.55047824
   0.21238492  0.98088471  0.54350875
   0.23416393  0.50214576  0.54914449
   0.75068684  0.98227699  0.54364355
   0.72558567  0.08103944  0.61663437
   0.18796857  0.24303587  0.60056355
   0.35446805  0.48738618  0.27144965
   0.25816528  0.46508405  0.57468882
   0.67210036  0.15169046  0.63827870
   0.06527126  0.19616555  0.61710385
Direct configuration=   230
   0.00058986  0.24767071  0.29147031
   0.49305682  0.74618241  0.41681489
   0.49287760  0.24680768  0.41657001
   0.00058986  0.74767011  0.29147031
   0.75058982  0.49766954  0.35292815
   0.74014450  0.99851545  0.48194935
   0.25059042  0.49766954  0.35292815
   0.23989317  0.99725680  0.48291138
   0.99618298  0.99740097  0.38536662
   0.51480552  0.49912326  0.51344919
   0.99557869  0.49257668  0.44950258
   0.50058925  0.99767067  0.32219910
   0.98408324  0.22484014  0.55268215
   0.98102294  0.73489357  0.54372353
   0.47592231  0.04707091  0.58166690
   0.99038892  0.22367097  0.48489650
   0.50058925  0.72426545  0.35464748
   0.50058925  0.27107537  0.35464748
   0.98856911  0.76399622  0.48536542
   0.77399447  0.49766954  0.29318964
   0.72319361  0.99783771  0.42032196
   0.48906062  0.22687155  0.47908818
   0.00058986  0.72426545  0.35120881
   0.00058986  0.27107537  0.35120881
   0.48993357  0.76903841  0.47874717
   0.72156498  0.49608267  0.41471440
   0.77399447  0.99767067  0.28975097
   0.26487751  0.49615401  0.41374430
   0.22718577  0.99767067  0.28975097
   0.26794860  0.99717825  0.41969019
   0.22718577  0.49766954  0.29318964
   0.76854851  0.48120700  0.55047824
   0.21238492  0.98088471  0.54350875
   0.23416393  0.50214576  0.54914449
   0.75068684  0.98227699  0.54364355
   0.72558567  0.08103944  0.61663437
   0.18796857  0.24303587  0.60056355
   0.35446805  0.48738618  0.27144965
   0.25816528  0.46508405  0.57468882
   0.67210036  0.15169046  0.63827870
   0.06527126  0.19616555  0.61710385
Direct configuration=   231
   0.00058986  0.24767071  0.29147031
   0.49305682  0.74618241  0.41681489
   0.49287760  0.24680768  0.41657001
   0.00058986  0.74767011  0.29147031
   0.75058982  0.49766954  0.35292815
   0.74014450  0.99851545  0.48194935
   0.25059042  0.49766954  0.35292815
   0.23989317  0.99725680  0.48291138
   0.99618298  0.99740097  0.38536662
   0.51480552  0.49912326  0.51344919
   0.99557869  0.49257668  0.44950258
   0.50058925  0.99767067  0.32219910
   0.98408324  0.22484014  0.55268215
   0.98102294  0.73489357  0.54372353
   0.47592231  0.04707091  0.58166690
   0.99038892  0.22367097  0.48489650
   0.50058925  0.72426545  0.35464748
   0.50058925  0.27107537  0.35464748
   0.98856911  0.76399622  0.48536542
   0.77399447  0.49766954  0.29318964
   0.72319361  0.99783771  0.42032196
   0.48906062  0.22687155  0.47908818
   0.00058986  0.72426545  0.35120881
   0.00058986  0.27107537  0.35120881
   0.48993357  0.76903841  0.47874717
   0.72156498  0.49608267  0.41471440
   0.77399447  0.99767067  0.28975097
   0.26487751  0.49615401  0.41374430
   0.22718577  0.99767067  0.28975097
   0.26794860  0.99717825  0.41969019
   0.22718577  0.49766954  0.29318964
   0.76854851  0.48120700  0.55047824
   0.21238492  0.98088471  0.54350875
   0.23416393  0.50214576  0.54914449
   0.75068684  0.98227699  0.54364355
   0.72558567  0.08103944  0.61663437
   0.18796857  0.24303587  0.60056355
   0.35446805  0.48738618  0.27144965
   0.25816528  0.46508405  0.57468882
   0.67210036  0.15169046  0.63827870
   0.06527126  0.19616555  0.61710385
Direct configuration=   232
   0.00058986  0.24767071  0.29147031
   0.49305682  0.74618241  0.41681489
   0.49287760  0.24680768  0.41657001
   0.00058986  0.74767011  0.29147031
   0.75058982  0.49766954  0.35292815
   0.74014450  0.99851545  0.48194935
   0.25059042  0.49766954  0.35292815
   0.23989317  0.99725680  0.48291138
   0.99618298  0.99740097  0.38536662
   0.51480552  0.49912326  0.51344919
   0.99557869  0.49257668  0.44950258
   0.50058925  0.99767067  0.32219910
   0.98408324  0.22484014  0.55268215
   0.98102294  0.73489357  0.54372353
   0.47592231  0.04707091  0.58166690
   0.99038892  0.22367097  0.48489650
   0.50058925  0.72426545  0.35464748
   0.50058925  0.27107537  0.35464748
   0.98856911  0.76399622  0.48536542
   0.77399447  0.49766954  0.29318964
   0.72319361  0.99783771  0.42032196
   0.48906062  0.22687155  0.47908818
   0.00058986  0.72426545  0.35120881
   0.00058986  0.27107537  0.35120881
   0.48993357  0.76903841  0.47874717
   0.72156498  0.49608267  0.41471440
   0.77399447  0.99767067  0.28975097
   0.26487751  0.49615401  0.41374430
   0.22718577  0.99767067  0.28975097
   0.26794860  0.99717825  0.41969019
   0.22718577  0.49766954  0.29318964
   0.76854851  0.48120700  0.55047824
   0.21238492  0.98088471  0.54350875
   0.23416393  0.50214576  0.54914449
   0.75068684  0.98227699  0.54364355
   0.72558567  0.08103944  0.61663437
   0.18796857  0.24303587  0.60056355
   0.35446805  0.48738618  0.27144965
   0.25816528  0.46508405  0.57468882
   0.67210036  0.15169046  0.63827870
   0.06527126  0.19616555  0.61710385
Direct configuration=   233
   0.00058986  0.24767071  0.29147031
   0.49305682  0.74618241  0.41681489
   0.49287760  0.24680768  0.41657001
   0.00058986  0.74767011  0.29147031
   0.75058982  0.49766954  0.35292815
   0.74014450  0.99851545  0.48194935
   0.25059042  0.49766954  0.35292815
   0.23989317  0.99725680  0.48291138
   0.99618298  0.99740097  0.38536662
   0.51480552  0.49912326  0.51344919
   0.99557869  0.49257668  0.44950258
   0.50058925  0.99767067  0.32219910
   0.98408324  0.22484014  0.55268215
   0.98102294  0.73489357  0.54372353
   0.47592231  0.04707091  0.58166690
   0.99038892  0.22367097  0.48489650
   0.50058925  0.72426545  0.35464748
   0.50058925  0.27107537  0.35464748
   0.98856911  0.76399622  0.48536542
   0.77399447  0.49766954  0.29318964
   0.72319361  0.99783771  0.42032196
   0.48906062  0.22687155  0.47908818
   0.00058986  0.72426545  0.35120881
   0.00058986  0.27107537  0.35120881
   0.48993357  0.76903841  0.47874717
   0.72156498  0.49608267  0.41471440
   0.77399447  0.99767067  0.28975097
   0.26487751  0.49615401  0.41374430
   0.22718577  0.99767067  0.28975097
   0.26794860  0.99717825  0.41969019
   0.22718577  0.49766954  0.29318964
   0.76854851  0.48120700  0.55047824
   0.21238492  0.98088471  0.54350875
   0.23416393  0.50214576  0.54914449
   0.75068684  0.98227699  0.54364355
   0.72558567  0.08103944  0.61663437
   0.18796857  0.24303587  0.60056355
   0.35446805  0.48738618  0.27144965
   0.25816528  0.46508405  0.57468882
   0.67210036  0.15169046  0.63827870
   0.06527126  0.19616555  0.61710385
Direct configuration=   234
   0.00058986  0.24767071  0.29147031
   0.49305682  0.74618241  0.41681489
   0.49287760  0.24680768  0.41657001
   0.00058986  0.74767011  0.29147031
   0.75058982  0.49766954  0.35292815
   0.74014450  0.99851545  0.48194935
   0.25059042  0.49766954  0.35292815
   0.23989317  0.99725680  0.48291138
   0.99618298  0.99740097  0.38536662
   0.51480552  0.49912326  0.51344919
   0.99557869  0.49257668  0.44950258
   0.50058925  0.99767067  0.32219910
   0.98408324  0.22484014  0.55268215
   0.98102294  0.73489357  0.54372353
   0.47592231  0.04707091  0.58166690
   0.99038892  0.22367097  0.48489650
   0.50058925  0.72426545  0.35464748
   0.50058925  0.27107537  0.35464748
   0.98856911  0.76399622  0.48536542
   0.77399447  0.49766954  0.29318964
   0.72319361  0.99783771  0.42032196
   0.48906062  0.22687155  0.47908818
   0.00058986  0.72426545  0.35120881
   0.00058986  0.27107537  0.35120881
   0.48993357  0.76903841  0.47874717
   0.72156498  0.49608267  0.41471440
   0.77399447  0.99767067  0.28975097
   0.26487751  0.49615401  0.41374430
   0.22718577  0.99767067  0.28975097
   0.26794860  0.99717825  0.41969019
   0.22718577  0.49766954  0.29318964
   0.76854851  0.48120700  0.55047824
   0.21238492  0.98088471  0.54350875
   0.23416393  0.50214576  0.54914449
   0.75068684  0.98227699  0.54364355
   0.72558567  0.08103944  0.61663437
   0.18796857  0.24303587  0.60056355
   0.35446805  0.48738618  0.27144965
   0.25816528  0.46508405  0.57468882
   0.67210036  0.15169046  0.63827870
   0.06527126  0.19616555  0.61710385
Direct configuration=   235
   0.00058986  0.24767071  0.29147031
   0.49305682  0.74618241  0.41681489
   0.49287760  0.24680768  0.41657001
   0.00058986  0.74767011  0.29147031
   0.75058982  0.49766954  0.35292815
   0.74014450  0.99851545  0.48194935
   0.25059042  0.49766954  0.35292815
   0.23989317  0.99725680  0.48291138
   0.99618298  0.99740097  0.38536662
   0.51480552  0.49912326  0.51344919
   0.99557869  0.49257668  0.44950258
   0.50058925  0.99767067  0.32219910
   0.98408324  0.22484014  0.55268215
   0.98102294  0.73489357  0.54372353
   0.47592231  0.04707091  0.58166690
   0.99038892  0.22367097  0.48489650
   0.50058925  0.72426545  0.35464748
   0.50058925  0.27107537  0.35464748
   0.98856911  0.76399622  0.48536542
   0.77399447  0.49766954  0.29318964
   0.72319361  0.99783771  0.42032196
   0.48906062  0.22687155  0.47908818
   0.00058986  0.72426545  0.35120881
   0.00058986  0.27107537  0.35120881
   0.48993357  0.76903841  0.47874717
   0.72156498  0.49608267  0.41471440
   0.77399447  0.99767067  0.28975097
   0.26487751  0.49615401  0.41374430
   0.22718577  0.99767067  0.28975097
   0.26794860  0.99717825  0.41969019
   0.22718577  0.49766954  0.29318964
   0.76854851  0.48120700  0.55047824
   0.21238492  0.98088471  0.54350875
   0.23416393  0.50214576  0.54914449
   0.75068684  0.98227699  0.54364355
   0.72558567  0.08103944  0.61663437
   0.18796857  0.24303587  0.60056355
   0.35446805  0.48738618  0.27144965
   0.25816528  0.46508405  0.57468882
   0.67210036  0.15169046  0.63827870
   0.06527126  0.19616555  0.61710385
Direct configuration=   236
   0.00058986  0.24767071  0.29147031
   0.49305682  0.74618241  0.41681489
   0.49287760  0.24680768  0.41657001
   0.00058986  0.74767011  0.29147031
   0.75058982  0.49766954  0.35292815
   0.74014450  0.99851545  0.48194935
   0.25059042  0.49766954  0.35292815
   0.23989317  0.99725680  0.48291138
   0.99618298  0.99740097  0.38536662
   0.51480552  0.49912326  0.51344919
   0.99557869  0.49257668  0.44950258
   0.50058925  0.99767067  0.32219910
   0.98408324  0.22484014  0.55268215
   0.98102294  0.73489357  0.54372353
   0.47592231  0.04707091  0.58166690
   0.99038892  0.22367097  0.48489650
   0.50058925  0.72426545  0.35464748
   0.50058925  0.27107537  0.35464748
   0.98856911  0.76399622  0.48536542
   0.77399447  0.49766954  0.29318964
   0.72319361  0.99783771  0.42032196
   0.48906062  0.22687155  0.47908818
   0.00058986  0.72426545  0.35120881
   0.00058986  0.27107537  0.35120881
   0.48993357  0.76903841  0.47874717
   0.72156498  0.49608267  0.41471440
   0.77399447  0.99767067  0.28975097
   0.26487751  0.49615401  0.41374430
   0.22718577  0.99767067  0.28975097
   0.26794860  0.99717825  0.41969019
   0.22718577  0.49766954  0.29318964
   0.76854851  0.48120700  0.55047824
   0.21238492  0.98088471  0.54350875
   0.23416393  0.50214576  0.54914449
   0.75068684  0.98227699  0.54364355
   0.72558567  0.08103944  0.61663437
   0.18796857  0.24303587  0.60056355
   0.35446805  0.48738618  0.27144965
   0.25816528  0.46508405  0.57468882
   0.67210036  0.15169046  0.63827870
   0.06527126  0.19616555  0.61710385
Direct configuration=   237
   0.00058986  0.24767071  0.29147031
   0.49305682  0.74618241  0.41681489
   0.49287760  0.24680768  0.41657001
   0.00058986  0.74767011  0.29147031
   0.75058982  0.49766954  0.35292815
   0.74014450  0.99851545  0.48194935
   0.25059042  0.49766954  0.35292815
   0.23989317  0.99725680  0.48291138
   0.99618298  0.99740097  0.38536662
   0.51480552  0.49912326  0.51344919
   0.99557869  0.49257668  0.44950258
   0.50058925  0.99767067  0.32219910
   0.98408324  0.22484014  0.55268215
   0.98102294  0.73489357  0.54372353
   0.47592231  0.04707091  0.58166690
   0.99038892  0.22367097  0.48489650
   0.50058925  0.72426545  0.35464748
   0.50058925  0.27107537  0.35464748
   0.98856911  0.76399622  0.48536542
   0.77399447  0.49766954  0.29318964
   0.72319361  0.99783771  0.42032196
   0.48906062  0.22687155  0.47908818
   0.00058986  0.72426545  0.35120881
   0.00058986  0.27107537  0.35120881
   0.48993357  0.76903841  0.47874717
   0.72156498  0.49608267  0.41471440
   0.77399447  0.99767067  0.28975097
   0.26487751  0.49615401  0.41374430
   0.22718577  0.99767067  0.28975097
   0.26794860  0.99717825  0.41969019
   0.22718577  0.49766954  0.29318964
   0.76854851  0.48120700  0.55047824
   0.21238492  0.98088471  0.54350875
   0.23416393  0.50214576  0.54914449
   0.75068684  0.98227699  0.54364355
   0.72558567  0.08103944  0.61663437
   0.18796857  0.24303587  0.60056355
   0.35446805  0.48738618  0.27144965
   0.25816528  0.46508405  0.57468882
   0.67210036  0.15169046  0.63827870
   0.06527126  0.19616555  0.61710385
Direct configuration=   238
   0.00058986  0.24767071  0.29147031
   0.49305682  0.74618241  0.41681489
   0.49287760  0.24680768  0.41657001
   0.00058986  0.74767011  0.29147031
   0.75058982  0.49766954  0.35292815
   0.74014450  0.99851545  0.48194935
   0.25059042  0.49766954  0.35292815
   0.23989317  0.99725680  0.48291138
   0.99618298  0.99740097  0.38536662
   0.51480552  0.49912326  0.51344919
   0.99557869  0.49257668  0.44950258
   0.50058925  0.99767067  0.32219910
   0.98408324  0.22484014  0.55268215
   0.98102294  0.73489357  0.54372353
   0.47592231  0.04707091  0.58166690
   0.99038892  0.22367097  0.48489650
   0.50058925  0.72426545  0.35464748
   0.50058925  0.27107537  0.35464748
   0.98856911  0.76399622  0.48536542
   0.77399447  0.49766954  0.29318964
   0.72319361  0.99783771  0.42032196
   0.48906062  0.22687155  0.47908818
   0.00058986  0.72426545  0.35120881
   0.00058986  0.27107537  0.35120881
   0.48993357  0.76903841  0.47874717
   0.72156498  0.49608267  0.41471440
   0.77399447  0.99767067  0.28975097
   0.26487751  0.49615401  0.41374430
   0.22718577  0.99767067  0.28975097
   0.26794860  0.99717825  0.41969019
   0.22718577  0.49766954  0.29318964
   0.76854851  0.48120700  0.55047824
   0.21238492  0.98088471  0.54350875
   0.23416393  0.50214576  0.54914449
   0.75068684  0.98227699  0.54364355
   0.72558567  0.08103944  0.61663437
   0.18796857  0.24303587  0.60056355
   0.35446805  0.48738618  0.27144965
   0.25816528  0.46508405  0.57468882
   0.67210036  0.15169046  0.63827870
   0.06527126  0.19616555  0.61710385
Direct configuration=   239
   0.00058986  0.24767071  0.29147031
   0.49305682  0.74618241  0.41681489
   0.49287760  0.24680768  0.41657001
   0.00058986  0.74767011  0.29147031
   0.75058982  0.49766954  0.35292815
   0.74014450  0.99851545  0.48194935
   0.25059042  0.49766954  0.35292815
   0.23989317  0.99725680  0.48291138
   0.99618298  0.99740097  0.38536662
   0.51480552  0.49912326  0.51344919
   0.99557869  0.49257668  0.44950258
   0.50058925  0.99767067  0.32219910
   0.98408324  0.22484014  0.55268215
   0.98102294  0.73489357  0.54372353
   0.47592231  0.04707091  0.58166690
   0.99038892  0.22367097  0.48489650
   0.50058925  0.72426545  0.35464748
   0.50058925  0.27107537  0.35464748
   0.98856911  0.76399622  0.48536542
   0.77399447  0.49766954  0.29318964
   0.72319361  0.99783771  0.42032196
   0.48906062  0.22687155  0.47908818
   0.00058986  0.72426545  0.35120881
   0.00058986  0.27107537  0.35120881
   0.48993357  0.76903841  0.47874717
   0.72156498  0.49608267  0.41471440
   0.77399447  0.99767067  0.28975097
   0.26487751  0.49615401  0.41374430
   0.22718577  0.99767067  0.28975097
   0.26794860  0.99717825  0.41969019
   0.22718577  0.49766954  0.29318964
   0.76854851  0.48120700  0.55047824
   0.21238492  0.98088471  0.54350875
   0.23416393  0.50214576  0.54914449
   0.75068684  0.98227699  0.54364355
   0.72558567  0.08103944  0.61663437
   0.18796857  0.24303587  0.60056355
   0.35446805  0.48738618  0.27144965
   0.25816528  0.46508405  0.57468882
   0.67210036  0.15169046  0.63827870
   0.06527126  0.19616555  0.61710385
Direct configuration=   240
   0.00058986  0.24767071  0.29147031
   0.49305682  0.74618241  0.41681489
   0.49287760  0.24680768  0.41657001
   0.00058986  0.74767011  0.29147031
   0.75058982  0.49766954  0.35292815
   0.74014450  0.99851545  0.48194935
   0.25059042  0.49766954  0.35292815
   0.23989317  0.99725680  0.48291138
   0.99618298  0.99740097  0.38536662
   0.51480552  0.49912326  0.51344919
   0.99557869  0.49257668  0.44950258
   0.50058925  0.99767067  0.32219910
   0.98408324  0.22484014  0.55268215
   0.98102294  0.73489357  0.54372353
   0.47592231  0.04707091  0.58166690
   0.99038892  0.22367097  0.48489650
   0.50058925  0.72426545  0.35464748
   0.50058925  0.27107537  0.35464748
   0.98856911  0.76399622  0.48536542
   0.77399447  0.49766954  0.29318964
   0.72319361  0.99783771  0.42032196
   0.48906062  0.22687155  0.47908818
   0.00058986  0.72426545  0.35120881
   0.00058986  0.27107537  0.35120881
   0.48993357  0.76903841  0.47874717
   0.72156498  0.49608267  0.41471440
   0.77399447  0.99767067  0.28975097
   0.26487751  0.49615401  0.41374430
   0.22718577  0.99767067  0.28975097
   0.26794860  0.99717825  0.41969019
   0.22718577  0.49766954  0.29318964
   0.76854851  0.48120700  0.55047824
   0.21238492  0.98088471  0.54350875
   0.23416393  0.50214576  0.54914449
   0.75068684  0.98227699  0.54364355
   0.72558567  0.08103944  0.61663437
   0.18796857  0.24303587  0.60056355
   0.35446805  0.48738618  0.27144965
   0.25816528  0.46508405  0.57468882
   0.67210036  0.15169046  0.63827870
   0.06527126  0.19616555  0.61710385
Direct configuration=   241
   0.00058986  0.24767071  0.29147031
   0.49305682  0.74618241  0.41681489
   0.49287760  0.24680768  0.41657001
   0.00058986  0.74767011  0.29147031
   0.75058982  0.49766954  0.35292815
   0.74014450  0.99851545  0.48194935
   0.25059042  0.49766954  0.35292815
   0.23989317  0.99725680  0.48291138
   0.99618298  0.99740097  0.38536662
   0.51480552  0.49912326  0.51344919
   0.99557869  0.49257668  0.44950258
   0.50058925  0.99767067  0.32219910
   0.98408324  0.22484014  0.55268215
   0.98102294  0.73489357  0.54372353
   0.47592231  0.04707091  0.58166690
   0.99038892  0.22367097  0.48489650
   0.50058925  0.72426545  0.35464748
   0.50058925  0.27107537  0.35464748
   0.98856911  0.76399622  0.48536542
   0.77399447  0.49766954  0.29318964
   0.72319361  0.99783771  0.42032196
   0.48906062  0.22687155  0.47908818
   0.00058986  0.72426545  0.35120881
   0.00058986  0.27107537  0.35120881
   0.48993357  0.76903841  0.47874717
   0.72156498  0.49608267  0.41471440
   0.77399447  0.99767067  0.28975097
   0.26487751  0.49615401  0.41374430
   0.22718577  0.99767067  0.28975097
   0.26794860  0.99717825  0.41969019
   0.22718577  0.49766954  0.29318964
   0.76854851  0.48120700  0.55047824
   0.21238492  0.98088471  0.54350875
   0.23416393  0.50214576  0.54914449
   0.75068684  0.98227699  0.54364355
   0.72558567  0.08103944  0.61663437
   0.18796857  0.24303587  0.60056355
   0.35446805  0.48738618  0.27144965
   0.25816528  0.46508405  0.57468882
   0.67210036  0.15169046  0.63827870
   0.06527126  0.19616555  0.61710385
Direct configuration=   242
   0.00058986  0.24767071  0.29147031
   0.49305682  0.74618241  0.41681489
   0.49287760  0.24680768  0.41657001
   0.00058986  0.74767011  0.29147031
   0.75058982  0.49766954  0.35292815
   0.74014450  0.99851545  0.48194935
   0.25059042  0.49766954  0.35292815
   0.23989317  0.99725680  0.48291138
   0.99618298  0.99740097  0.38536662
   0.51480552  0.49912326  0.51344919
   0.99557869  0.49257668  0.44950258
   0.50058925  0.99767067  0.32219910
   0.98408324  0.22484014  0.55268215
   0.98102294  0.73489357  0.54372353
   0.47592231  0.04707091  0.58166690
   0.99038892  0.22367097  0.48489650
   0.50058925  0.72426545  0.35464748
   0.50058925  0.27107537  0.35464748
   0.98856911  0.76399622  0.48536542
   0.77399447  0.49766954  0.29318964
   0.72319361  0.99783771  0.42032196
   0.48906062  0.22687155  0.47908818
   0.00058986  0.72426545  0.35120881
   0.00058986  0.27107537  0.35120881
   0.48993357  0.76903841  0.47874717
   0.72156498  0.49608267  0.41471440
   0.77399447  0.99767067  0.28975097
   0.26487751  0.49615401  0.41374430
   0.22718577  0.99767067  0.28975097
   0.26794860  0.99717825  0.41969019
   0.22718577  0.49766954  0.29318964
   0.76854851  0.48120700  0.55047824
   0.21238492  0.98088471  0.54350875
   0.23416393  0.50214576  0.54914449
   0.75068684  0.98227699  0.54364355
   0.72558567  0.08103944  0.61663437
   0.18796857  0.24303587  0.60056355
   0.35446805  0.48738618  0.27144965
   0.25816528  0.46508405  0.57468882
   0.67210036  0.15169046  0.63827870
   0.06527126  0.19616555  0.61710385
Direct configuration=   243
   0.00058986  0.24767071  0.29147031
   0.49305682  0.74618241  0.41681489
   0.49287760  0.24680768  0.41657001
   0.00058986  0.74767011  0.29147031
   0.75058982  0.49766954  0.35292815
   0.74014450  0.99851545  0.48194935
   0.25059042  0.49766954  0.35292815
   0.23989317  0.99725680  0.48291138
   0.99618298  0.99740097  0.38536662
   0.51480552  0.49912326  0.51344919
   0.99557869  0.49257668  0.44950258
   0.50058925  0.99767067  0.32219910
   0.98408324  0.22484014  0.55268215
   0.98102294  0.73489357  0.54372353
   0.47592231  0.04707091  0.58166690
   0.99038892  0.22367097  0.48489650
   0.50058925  0.72426545  0.35464748
   0.50058925  0.27107537  0.35464748
   0.98856911  0.76399622  0.48536542
   0.77399447  0.49766954  0.29318964
   0.72319361  0.99783771  0.42032196
   0.48906062  0.22687155  0.47908818
   0.00058986  0.72426545  0.35120881
   0.00058986  0.27107537  0.35120881
   0.48993357  0.76903841  0.47874717
   0.72156498  0.49608267  0.41471440
   0.77399447  0.99767067  0.28975097
   0.26487751  0.49615401  0.41374430
   0.22718577  0.99767067  0.28975097
   0.26794860  0.99717825  0.41969019
   0.22718577  0.49766954  0.29318964
   0.76854851  0.48120700  0.55047824
   0.21238492  0.98088471  0.54350875
   0.23416393  0.50214576  0.54914449
   0.75068684  0.98227699  0.54364355
   0.72558567  0.08103944  0.61663437
   0.18796857  0.24303587  0.60056355
   0.35446805  0.48738618  0.27144965
   0.25816528  0.46508405  0.57468882
   0.67210036  0.15169046  0.63827870
   0.06527126  0.19616555  0.61710385
Direct configuration=   244
   0.00058986  0.24767071  0.29147031
   0.49305682  0.74618241  0.41681489
   0.49287760  0.24680768  0.41657001
   0.00058986  0.74767011  0.29147031
   0.75058982  0.49766954  0.35292815
   0.74014450  0.99851545  0.48194935
   0.25059042  0.49766954  0.35292815
   0.23989317  0.99725680  0.48291138
   0.99618298  0.99740097  0.38536662
   0.51480552  0.49912326  0.51344919
   0.99557869  0.49257668  0.44950258
   0.50058925  0.99767067  0.32219910
   0.98408324  0.22484014  0.55268215
   0.98102294  0.73489357  0.54372353
   0.47592231  0.04707091  0.58166690
   0.99038892  0.22367097  0.48489650
   0.50058925  0.72426545  0.35464748
   0.50058925  0.27107537  0.35464748
   0.98856911  0.76399622  0.48536542
   0.77399447  0.49766954  0.29318964
   0.72319361  0.99783771  0.42032196
   0.48906062  0.22687155  0.47908818
   0.00058986  0.72426545  0.35120881
   0.00058986  0.27107537  0.35120881
   0.48993357  0.76903841  0.47874717
   0.72156498  0.49608267  0.41471440
   0.77399447  0.99767067  0.28975097
   0.26487751  0.49615401  0.41374430
   0.22718577  0.99767067  0.28975097
   0.26794860  0.99717825  0.41969019
   0.22718577  0.49766954  0.29318964
   0.76854851  0.48120700  0.55047824
   0.21238492  0.98088471  0.54350875
   0.23416393  0.50214576  0.54914449
   0.75068684  0.98227699  0.54364355
   0.72558567  0.08103944  0.61663437
   0.18796857  0.24303587  0.60056355
   0.35446805  0.48738618  0.27144965
   0.25816528  0.46508405  0.57468882
   0.67210036  0.15169046  0.63827870
   0.06527126  0.19616555  0.61710385
Direct configuration=   245
   0.00058986  0.24767071  0.29147031
   0.49305682  0.74618241  0.41681489
   0.49287760  0.24680768  0.41657001
   0.00058986  0.74767011  0.29147031
   0.75058982  0.49766954  0.35292815
   0.74014450  0.99851545  0.48194935
   0.25059042  0.49766954  0.35292815
   0.23989317  0.99725680  0.48291138
   0.99618298  0.99740097  0.38536662
   0.51480552  0.49912326  0.51344919
   0.99557869  0.49257668  0.44950258
   0.50058925  0.99767067  0.32219910
   0.98408324  0.22484014  0.55268215
   0.98102294  0.73489357  0.54372353
   0.47592231  0.04707091  0.58166690
   0.99038892  0.22367097  0.48489650
   0.50058925  0.72426545  0.35464748
   0.50058925  0.27107537  0.35464748
   0.98856911  0.76399622  0.48536542
   0.77399447  0.49766954  0.29318964
   0.72319361  0.99783771  0.42032196
   0.48906062  0.22687155  0.47908818
   0.00058986  0.72426545  0.35120881
   0.00058986  0.27107537  0.35120881
   0.48993357  0.76903841  0.47874717
   0.72156498  0.49608267  0.41471440
   0.77399447  0.99767067  0.28975097
   0.26487751  0.49615401  0.41374430
   0.22718577  0.99767067  0.28975097
   0.26794860  0.99717825  0.41969019
   0.22718577  0.49766954  0.29318964
   0.76854851  0.48120700  0.55047824
   0.21238492  0.98088471  0.54350875
   0.23416393  0.50214576  0.54914449
   0.75068684  0.98227699  0.54364355
   0.72558567  0.08103944  0.61663437
   0.18796857  0.24303587  0.60056355
   0.35446805  0.48738618  0.27144965
   0.25816528  0.46508405  0.57468882
   0.67210036  0.15169046  0.63827870
   0.06527126  0.19616555  0.61710385
Direct configuration=   246
   0.00058986  0.24767071  0.29147031
   0.49305682  0.74618241  0.41681489
   0.49287760  0.24680768  0.41657001
   0.00058986  0.74767011  0.29147031
   0.75058982  0.49766954  0.35292815
   0.74014450  0.99851545  0.48194935
   0.25059042  0.49766954  0.35292815
   0.23989317  0.99725680  0.48291138
   0.99618298  0.99740097  0.38536662
   0.51480552  0.49912326  0.51344919
   0.99557869  0.49257668  0.44950258
   0.50058925  0.99767067  0.32219910
   0.98408324  0.22484014  0.55268215
   0.98102294  0.73489357  0.54372353
   0.47592231  0.04707091  0.58166690
   0.99038892  0.22367097  0.48489650
   0.50058925  0.72426545  0.35464748
   0.50058925  0.27107537  0.35464748
   0.98856911  0.76399622  0.48536542
   0.77399447  0.49766954  0.29318964
   0.72319361  0.99783771  0.42032196
   0.48906062  0.22687155  0.47908818
   0.00058986  0.72426545  0.35120881
   0.00058986  0.27107537  0.35120881
   0.48993357  0.76903841  0.47874717
   0.72156498  0.49608267  0.41471440
   0.77399447  0.99767067  0.28975097
   0.26487751  0.49615401  0.41374430
   0.22718577  0.99767067  0.28975097
   0.26794860  0.99717825  0.41969019
   0.22718577  0.49766954  0.29318964
   0.76854851  0.48120700  0.55047824
   0.21238492  0.98088471  0.54350875
   0.23416393  0.50214576  0.54914449
   0.75068684  0.98227699  0.54364355
   0.72558567  0.08103944  0.61663437
   0.18796857  0.24303587  0.60056355
   0.35446805  0.48738618  0.27144965
   0.25816528  0.46508405  0.57468882
   0.67210036  0.15169046  0.63827870
   0.06527126  0.19616555  0.61710385
Direct configuration=   247
   0.00058986  0.24767071  0.29147031
   0.49305682  0.74618241  0.41681489
   0.49287760  0.24680768  0.41657001
   0.00058986  0.74767011  0.29147031
   0.75058982  0.49766954  0.35292815
   0.74014450  0.99851545  0.48194935
   0.25059042  0.49766954  0.35292815
   0.23989317  0.99725680  0.48291138
   0.99618298  0.99740097  0.38536662
   0.51480552  0.49912326  0.51344919
   0.99557869  0.49257668  0.44950258
   0.50058925  0.99767067  0.32219910
   0.98408324  0.22484014  0.55268215
   0.98102294  0.73489357  0.54372353
   0.47592231  0.04707091  0.58166690
   0.99038892  0.22367097  0.48489650
   0.50058925  0.72426545  0.35464748
   0.50058925  0.27107537  0.35464748
   0.98856911  0.76399622  0.48536542
   0.77399447  0.49766954  0.29318964
   0.72319361  0.99783771  0.42032196
   0.48906062  0.22687155  0.47908818
   0.00058986  0.72426545  0.35120881
   0.00058986  0.27107537  0.35120881
   0.48993357  0.76903841  0.47874717
   0.72156498  0.49608267  0.41471440
   0.77399447  0.99767067  0.28975097
   0.26487751  0.49615401  0.41374430
   0.22718577  0.99767067  0.28975097
   0.26794860  0.99717825  0.41969019
   0.22718577  0.49766954  0.29318964
   0.76854851  0.48120700  0.55047824
   0.21238492  0.98088471  0.54350875
   0.23416393  0.50214576  0.54914449
   0.75068684  0.98227699  0.54364355
   0.72558567  0.08103944  0.61663437
   0.18796857  0.24303587  0.60056355
   0.35446805  0.48738618  0.27144965
   0.25816528  0.46508405  0.57468882
   0.67210036  0.15169046  0.63827870
   0.06527126  0.19616555  0.61710385
Direct configuration=   248
   0.00058986  0.24767071  0.29147031
   0.49305682  0.74618241  0.41681489
   0.49287760  0.24680768  0.41657001
   0.00058986  0.74767011  0.29147031
   0.75058982  0.49766954  0.35292815
   0.74014450  0.99851545  0.48194935
   0.25059042  0.49766954  0.35292815
   0.23989317  0.99725680  0.48291138
   0.99618298  0.99740097  0.38536662
   0.51480552  0.49912326  0.51344919
   0.99557869  0.49257668  0.44950258
   0.50058925  0.99767067  0.32219910
   0.98408324  0.22484014  0.55268215
   0.98102294  0.73489357  0.54372353
   0.47592231  0.04707091  0.58166690
   0.99038892  0.22367097  0.48489650
   0.50058925  0.72426545  0.35464748
   0.50058925  0.27107537  0.35464748
   0.98856911  0.76399622  0.48536542
   0.77399447  0.49766954  0.29318964
   0.72319361  0.99783771  0.42032196
   0.48906062  0.22687155  0.47908818
   0.00058986  0.72426545  0.35120881
   0.00058986  0.27107537  0.35120881
   0.48993357  0.76903841  0.47874717
   0.72156498  0.49608267  0.41471440
   0.77399447  0.99767067  0.28975097
   0.26487751  0.49615401  0.41374430
   0.22718577  0.99767067  0.28975097
   0.26794860  0.99717825  0.41969019
   0.22718577  0.49766954  0.29318964
   0.76854851  0.48120700  0.55047824
   0.21238492  0.98088471  0.54350875
   0.23416393  0.50214576  0.54914449
   0.75068684  0.98227699  0.54364355
   0.72558567  0.08103944  0.61663437
   0.18796857  0.24303587  0.60056355
   0.35446805  0.48738618  0.27144965
   0.25816528  0.46508405  0.57468882
   0.67210036  0.15169046  0.63827870
   0.06527126  0.19616555  0.61710385
Direct configuration=   249
   0.00058986  0.24767071  0.29147031
   0.49305682  0.74618241  0.41681489
   0.49287760  0.24680768  0.41657001
   0.00058986  0.74767011  0.29147031
   0.75058982  0.49766954  0.35292815
   0.74014450  0.99851545  0.48194935
   0.25059042  0.49766954  0.35292815
   0.23989317  0.99725680  0.48291138
   0.99618298  0.99740097  0.38536662
   0.51480552  0.49912326  0.51344919
   0.99557869  0.49257668  0.44950258
   0.50058925  0.99767067  0.32219910
   0.98408324  0.22484014  0.55268215
   0.98102294  0.73489357  0.54372353
   0.47592231  0.04707091  0.58166690
   0.99038892  0.22367097  0.48489650
   0.50058925  0.72426545  0.35464748
   0.50058925  0.27107537  0.35464748
   0.98856911  0.76399622  0.48536542
   0.77399447  0.49766954  0.29318964
   0.72319361  0.99783771  0.42032196
   0.48906062  0.22687155  0.47908818
   0.00058986  0.72426545  0.35120881
   0.00058986  0.27107537  0.35120881
   0.48993357  0.76903841  0.47874717
   0.72156498  0.49608267  0.41471440
   0.77399447  0.99767067  0.28975097
   0.26487751  0.49615401  0.41374430
   0.22718577  0.99767067  0.28975097
   0.26794860  0.99717825  0.41969019
   0.22718577  0.49766954  0.29318964
   0.76854851  0.48120700  0.55047824
   0.21238492  0.98088471  0.54350875
   0.23416393  0.50214576  0.54914449
   0.75068684  0.98227699  0.54364355
   0.72558567  0.08103944  0.61663437
   0.18796857  0.24303587  0.60056355
   0.35446805  0.48738618  0.27144965
   0.25816528  0.46508405  0.57468882
   0.67210036  0.15169046  0.63827870
   0.06527126  0.19616555  0.61710385
Direct configuration=   250
   0.00058986  0.24767071  0.29147031
   0.49305682  0.74618241  0.41681489
   0.49287760  0.24680768  0.41657001
   0.00058986  0.74767011  0.29147031
   0.75058982  0.49766954  0.35292815
   0.74014450  0.99851545  0.48194935
   0.25059042  0.49766954  0.35292815
   0.23989317  0.99725680  0.48291138
   0.99618298  0.99740097  0.38536662
   0.51480552  0.49912326  0.51344919
   0.99557869  0.49257668  0.44950258
   0.50058925  0.99767067  0.32219910
   0.98408324  0.22484014  0.55268215
   0.98102294  0.73489357  0.54372353
   0.47592231  0.04707091  0.58166690
   0.99038892  0.22367097  0.48489650
   0.50058925  0.72426545  0.35464748
   0.50058925  0.27107537  0.35464748
   0.98856911  0.76399622  0.48536542
   0.77399447  0.49766954  0.29318964
   0.72319361  0.99783771  0.42032196
   0.48906062  0.22687155  0.47908818
   0.00058986  0.72426545  0.35120881
   0.00058986  0.27107537  0.35120881
   0.48993357  0.76903841  0.47874717
   0.72156498  0.49608267  0.41471440
   0.77399447  0.99767067  0.28975097
   0.26487751  0.49615401  0.41374430
   0.22718577  0.99767067  0.28975097
   0.26794860  0.99717825  0.41969019
   0.22718577  0.49766954  0.29318964
   0.76854851  0.48120700  0.55047824
   0.21238492  0.98088471  0.54350875
   0.23416393  0.50214576  0.54914449
   0.75068684  0.98227699  0.54364355
   0.72558567  0.08103944  0.61663437
   0.18796857  0.24303587  0.60056355
   0.35446805  0.48738618  0.27144965
   0.25816528  0.46508405  0.57468882
   0.67210036  0.15169046  0.63827870
   0.06527126  0.19616555  0.61710385
Direct configuration=   251
   0.00058986  0.24767071  0.29147031
   0.49305682  0.74618241  0.41681489
   0.49287760  0.24680768  0.41657001
   0.00058986  0.74767011  0.29147031
   0.75058982  0.49766954  0.35292815
   0.74014450  0.99851545  0.48194935
   0.25059042  0.49766954  0.35292815
   0.23989317  0.99725680  0.48291138
   0.99618298  0.99740097  0.38536662
   0.51480552  0.49912326  0.51344919
   0.99557869  0.49257668  0.44950258
   0.50058925  0.99767067  0.32219910
   0.98408324  0.22484014  0.55268215
   0.98102294  0.73489357  0.54372353
   0.47592231  0.04707091  0.58166690
   0.99038892  0.22367097  0.48489650
   0.50058925  0.72426545  0.35464748
   0.50058925  0.27107537  0.35464748
   0.98856911  0.76399622  0.48536542
   0.77399447  0.49766954  0.29318964
   0.72319361  0.99783771  0.42032196
   0.48906062  0.22687155  0.47908818
   0.00058986  0.72426545  0.35120881
   0.00058986  0.27107537  0.35120881
   0.48993357  0.76903841  0.47874717
   0.72156498  0.49608267  0.41471440
   0.77399447  0.99767067  0.28975097
   0.26487751  0.49615401  0.41374430
   0.22718577  0.99767067  0.28975097
   0.26794860  0.99717825  0.41969019
   0.22718577  0.49766954  0.29318964
   0.76854851  0.48120700  0.55047824
   0.21238492  0.98088471  0.54350875
   0.23416393  0.50214576  0.54914449
   0.75068684  0.98227699  0.54364355
   0.72558567  0.08103944  0.61663437
   0.18796857  0.24303587  0.60056355
   0.35446805  0.48738618  0.27144965
   0.25816528  0.46508405  0.57468882
   0.67210036  0.15169046  0.63827870
   0.06527126  0.19616555  0.61710385
Direct configuration=   252
   0.00058986  0.24767071  0.29147031
   0.49305682  0.74618241  0.41681489
   0.49287760  0.24680768  0.41657001
   0.00058986  0.74767011  0.29147031
   0.75058982  0.49766954  0.35292815
   0.74014450  0.99851545  0.48194935
   0.25059042  0.49766954  0.35292815
   0.23989317  0.99725680  0.48291138
   0.99618298  0.99740097  0.38536662
   0.51480552  0.49912326  0.51344919
   0.99557869  0.49257668  0.44950258
   0.50058925  0.99767067  0.32219910
   0.98408324  0.22484014  0.55268215
   0.98102294  0.73489357  0.54372353
   0.47592231  0.04707091  0.58166690
   0.99038892  0.22367097  0.48489650
   0.50058925  0.72426545  0.35464748
   0.50058925  0.27107537  0.35464748
   0.98856911  0.76399622  0.48536542
   0.77399447  0.49766954  0.29318964
   0.72319361  0.99783771  0.42032196
   0.48906062  0.22687155  0.47908818
   0.00058986  0.72426545  0.35120881
   0.00058986  0.27107537  0.35120881
   0.48993357  0.76903841  0.47874717
   0.72156498  0.49608267  0.41471440
   0.77399447  0.99767067  0.28975097
   0.26487751  0.49615401  0.41374430
   0.22718577  0.99767067  0.28975097
   0.26794860  0.99717825  0.41969019
   0.22718577  0.49766954  0.29318964
   0.76854851  0.48120700  0.55047824
   0.21238492  0.98088471  0.54350875
   0.23416393  0.50214576  0.54914449
   0.75068684  0.98227699  0.54364355
   0.72558567  0.08103944  0.61663437
   0.18796857  0.24303587  0.60056355
   0.35446805  0.48738618  0.27144965
   0.25816528  0.46508405  0.57468882
   0.67210036  0.15169046  0.63827870
   0.06527126  0.19616555  0.61710385
Direct configuration=   253
   0.00058986  0.24767071  0.29147031
   0.49305682  0.74618241  0.41681489
   0.49287760  0.24680768  0.41657001
   0.00058986  0.74767011  0.29147031
   0.75058982  0.49766954  0.35292815
   0.74014450  0.99851545  0.48194935
   0.25059042  0.49766954  0.35292815
   0.23989317  0.99725680  0.48291138
   0.99618298  0.99740097  0.38536662
   0.51480552  0.49912326  0.51344919
   0.99557869  0.49257668  0.44950258
   0.50058925  0.99767067  0.32219910
   0.98408324  0.22484014  0.55268215
   0.98102294  0.73489357  0.54372353
   0.47592231  0.04707091  0.58166690
   0.99038892  0.22367097  0.48489650
   0.50058925  0.72426545  0.35464748
   0.50058925  0.27107537  0.35464748
   0.98856911  0.76399622  0.48536542
   0.77399447  0.49766954  0.29318964
   0.72319361  0.99783771  0.42032196
   0.48906062  0.22687155  0.47908818
   0.00058986  0.72426545  0.35120881
   0.00058986  0.27107537  0.35120881
   0.48993357  0.76903841  0.47874717
   0.72156498  0.49608267  0.41471440
   0.77399447  0.99767067  0.28975097
   0.26487751  0.49615401  0.41374430
   0.22718577  0.99767067  0.28975097
   0.26794860  0.99717825  0.41969019
   0.22718577  0.49766954  0.29318964
   0.76854851  0.48120700  0.55047824
   0.21238492  0.98088471  0.54350875
   0.23416393  0.50214576  0.54914449
   0.75068684  0.98227699  0.54364355
   0.72558567  0.08103944  0.61663437
   0.18796857  0.24303587  0.60056355
   0.35446805  0.48738618  0.27144965
   0.25816528  0.46508405  0.57468882
   0.67210036  0.15169046  0.63827870
   0.06527126  0.19616555  0.61710385
Direct configuration=   254
   0.00058986  0.24767071  0.29147031
   0.49305682  0.74618241  0.41681489
   0.49287760  0.24680768  0.41657001
   0.00058986  0.74767011  0.29147031
   0.75058982  0.49766954  0.35292815
   0.74014450  0.99851545  0.48194935
   0.25059042  0.49766954  0.35292815
   0.23989317  0.99725680  0.48291138
   0.99618298  0.99740097  0.38536662
   0.51480552  0.49912326  0.51344919
   0.99557869  0.49257668  0.44950258
   0.50058925  0.99767067  0.32219910
   0.98408324  0.22484014  0.55268215
   0.98102294  0.73489357  0.54372353
   0.47592231  0.04707091  0.58166690
   0.99038892  0.22367097  0.48489650
   0.50058925  0.72426545  0.35464748
   0.50058925  0.27107537  0.35464748
   0.98856911  0.76399622  0.48536542
   0.77399447  0.49766954  0.29318964
   0.72319361  0.99783771  0.42032196
   0.48906062  0.22687155  0.47908818
   0.00058986  0.72426545  0.35120881
   0.00058986  0.27107537  0.35120881
   0.48993357  0.76903841  0.47874717
   0.72156498  0.49608267  0.41471440
   0.77399447  0.99767067  0.28975097
   0.26487751  0.49615401  0.41374430
   0.22718577  0.99767067  0.28975097
   0.26794860  0.99717825  0.41969019
   0.22718577  0.49766954  0.29318964
   0.76854851  0.48120700  0.55047824
   0.21238492  0.98088471  0.54350875
   0.23416393  0.50214576  0.54914449
   0.75068684  0.98227699  0.54364355
   0.72558567  0.08103944  0.61663437
   0.18796857  0.24303587  0.60056355
   0.35446805  0.48738618  0.27144965
   0.25816528  0.46508405  0.57468882
   0.67210036  0.15169046  0.63827870
   0.06527126  0.19616555  0.61710385
Direct configuration=   255
   0.00058986  0.24767071  0.29147031
   0.49305682  0.74618241  0.41681489
   0.49287760  0.24680768  0.41657001
   0.00058986  0.74767011  0.29147031
   0.75058982  0.49766954  0.35292815
   0.74014450  0.99851545  0.48194935
   0.25059042  0.49766954  0.35292815
   0.23989317  0.99725680  0.48291138
   0.99618298  0.99740097  0.38536662
   0.51480552  0.49912326  0.51344919
   0.99557869  0.49257668  0.44950258
   0.50058925  0.99767067  0.32219910
   0.98408324  0.22484014  0.55268215
   0.98102294  0.73489357  0.54372353
   0.47592231  0.04707091  0.58166690
   0.99038892  0.22367097  0.48489650
   0.50058925  0.72426545  0.35464748
   0.50058925  0.27107537  0.35464748
   0.98856911  0.76399622  0.48536542
   0.77399447  0.49766954  0.29318964
   0.72319361  0.99783771  0.42032196
   0.48906062  0.22687155  0.47908818
   0.00058986  0.72426545  0.35120881
   0.00058986  0.27107537  0.35120881
   0.48993357  0.76903841  0.47874717
   0.72156498  0.49608267  0.41471440
   0.77399447  0.99767067  0.28975097
   0.26487751  0.49615401  0.41374430
   0.22718577  0.99767067  0.28975097
   0.26794860  0.99717825  0.41969019
   0.22718577  0.49766954  0.29318964
   0.76854851  0.48120700  0.55047824
   0.21238492  0.98088471  0.54350875
   0.23416393  0.50214576  0.54914449
   0.75068684  0.98227699  0.54364355
   0.72558567  0.08103944  0.61663437
   0.18796857  0.24303587  0.60056355
   0.35446805  0.48738618  0.27144965
   0.25816528  0.46508405  0.57468882
   0.67210036  0.15169046  0.63827870
   0.06527126  0.19616555  0.61710385
Direct configuration=   256
   0.00058986  0.24767071  0.29147031
   0.49305682  0.74618241  0.41681489
   0.49287760  0.24680768  0.41657001
   0.00058986  0.74767011  0.29147031
   0.75058982  0.49766954  0.35292815
   0.74014450  0.99851545  0.48194935
   0.25059042  0.49766954  0.35292815
   0.23989317  0.99725680  0.48291138
   0.99618298  0.99740097  0.38536662
   0.51480552  0.49912326  0.51344919
   0.99557869  0.49257668  0.44950258
   0.50058925  0.99767067  0.32219910
   0.98408324  0.22484014  0.55268215
   0.98102294  0.73489357  0.54372353
   0.47592231  0.04707091  0.58166690
   0.99038892  0.22367097  0.48489650
   0.50058925  0.72426545  0.35464748
   0.50058925  0.27107537  0.35464748
   0.98856911  0.76399622  0.48536542
   0.77399447  0.49766954  0.29318964
   0.72319361  0.99783771  0.42032196
   0.48906062  0.22687155  0.47908818
   0.00058986  0.72426545  0.35120881
   0.00058986  0.27107537  0.35120881
   0.48993357  0.76903841  0.47874717
   0.72156498  0.49608267  0.41471440
   0.77399447  0.99767067  0.28975097
   0.26487751  0.49615401  0.41374430
   0.22718577  0.99767067  0.28975097
   0.26794860  0.99717825  0.41969019
   0.22718577  0.49766954  0.29318964
   0.76854851  0.48120700  0.55047824
   0.21238492  0.98088471  0.54350875
   0.23416393  0.50214576  0.54914449
   0.75068684  0.98227699  0.54364355
   0.72558567  0.08103944  0.61663437
   0.18796857  0.24303587  0.60056355
   0.35446805  0.48738618  0.27144965
   0.25816528  0.46508405  0.57468882
   0.67210036  0.15169046  0.63827870
   0.06527126  0.19616555  0.61710385
Direct configuration=   257
   0.00058986  0.24767071  0.29147031
   0.49305682  0.74618241  0.41681489
   0.49287760  0.24680768  0.41657001
   0.00058986  0.74767011  0.29147031
   0.75058982  0.49766954  0.35292815
   0.74014450  0.99851545  0.48194935
   0.25059042  0.49766954  0.35292815
   0.23989317  0.99725680  0.48291138
   0.99618298  0.99740097  0.38536662
   0.51480552  0.49912326  0.51344919
   0.99557869  0.49257668  0.44950258
   0.50058925  0.99767067  0.32219910
   0.98408324  0.22484014  0.55268215
   0.98102294  0.73489357  0.54372353
   0.47592231  0.04707091  0.58166690
   0.99038892  0.22367097  0.48489650
   0.50058925  0.72426545  0.35464748
   0.50058925  0.27107537  0.35464748
   0.98856911  0.76399622  0.48536542
   0.77399447  0.49766954  0.29318964
   0.72319361  0.99783771  0.42032196
   0.48906062  0.22687155  0.47908818
   0.00058986  0.72426545  0.35120881
   0.00058986  0.27107537  0.35120881
   0.48993357  0.76903841  0.47874717
   0.72156498  0.49608267  0.41471440
   0.77399447  0.99767067  0.28975097
   0.26487751  0.49615401  0.41374430
   0.22718577  0.99767067  0.28975097
   0.26794860  0.99717825  0.41969019
   0.22718577  0.49766954  0.29318964
   0.76854851  0.48120700  0.55047824
   0.21238492  0.98088471  0.54350875
   0.23416393  0.50214576  0.54914449
   0.75068684  0.98227699  0.54364355
   0.72558567  0.08103944  0.61663437
   0.18796857  0.24303587  0.60056355
   0.35446805  0.48738618  0.27144965
   0.25816528  0.46508405  0.57468882
   0.67210036  0.15169046  0.63827870
   0.06527126  0.19616555  0.61710385
Direct configuration=   258
   0.00058986  0.24767071  0.29147031
   0.49305682  0.74618241  0.41681489
   0.49287760  0.24680768  0.41657001
   0.00058986  0.74767011  0.29147031
   0.75058982  0.49766954  0.35292815
   0.74014450  0.99851545  0.48194935
   0.25059042  0.49766954  0.35292815
   0.23989317  0.99725680  0.48291138
   0.99618298  0.99740097  0.38536662
   0.51480552  0.49912326  0.51344919
   0.99557869  0.49257668  0.44950258
   0.50058925  0.99767067  0.32219910
   0.98408324  0.22484014  0.55268215
   0.98102294  0.73489357  0.54372353
   0.47592231  0.04707091  0.58166690
   0.99038892  0.22367097  0.48489650
   0.50058925  0.72426545  0.35464748
   0.50058925  0.27107537  0.35464748
   0.98856911  0.76399622  0.48536542
   0.77399447  0.49766954  0.29318964
   0.72319361  0.99783771  0.42032196
   0.48906062  0.22687155  0.47908818
   0.00058986  0.72426545  0.35120881
   0.00058986  0.27107537  0.35120881
   0.48993357  0.76903841  0.47874717
   0.72156498  0.49608267  0.41471440
   0.77399447  0.99767067  0.28975097
   0.26487751  0.49615401  0.41374430
   0.22718577  0.99767067  0.28975097
   0.26794860  0.99717825  0.41969019
   0.22718577  0.49766954  0.29318964
   0.76854851  0.48120700  0.55047824
   0.21238492  0.98088471  0.54350875
   0.23416393  0.50214576  0.54914449
   0.75068684  0.98227699  0.54364355
   0.72558567  0.08103944  0.61663437
   0.18796857  0.24303587  0.60056355
   0.35446805  0.48738618  0.27144965
   0.25816528  0.46508405  0.57468882
   0.67210036  0.15169046  0.63827870
   0.06527126  0.19616555  0.61710385
Direct configuration=   259
   0.00058986  0.24767071  0.29147031
   0.49305682  0.74618241  0.41681489
   0.49287760  0.24680768  0.41657001
   0.00058986  0.74767011  0.29147031
   0.75058982  0.49766954  0.35292815
   0.74014450  0.99851545  0.48194935
   0.25059042  0.49766954  0.35292815
   0.23989317  0.99725680  0.48291138
   0.99618298  0.99740097  0.38536662
   0.51480552  0.49912326  0.51344919
   0.99557869  0.49257668  0.44950258
   0.50058925  0.99767067  0.32219910
   0.98408324  0.22484014  0.55268215
   0.98102294  0.73489357  0.54372353
   0.47592231  0.04707091  0.58166690
   0.99038892  0.22367097  0.48489650
   0.50058925  0.72426545  0.35464748
   0.50058925  0.27107537  0.35464748
   0.98856911  0.76399622  0.48536542
   0.77399447  0.49766954  0.29318964
   0.72319361  0.99783771  0.42032196
   0.48906062  0.22687155  0.47908818
   0.00058986  0.72426545  0.35120881
   0.00058986  0.27107537  0.35120881
   0.48993357  0.76903841  0.47874717
   0.72156498  0.49608267  0.41471440
   0.77399447  0.99767067  0.28975097
   0.26487751  0.49615401  0.41374430
   0.22718577  0.99767067  0.28975097
   0.26794860  0.99717825  0.41969019
   0.22718577  0.49766954  0.29318964
   0.76854851  0.48120700  0.55047824
   0.21238492  0.98088471  0.54350875
   0.23416393  0.50214576  0.54914449
   0.75068684  0.98227699  0.54364355
   0.72558567  0.08103944  0.61663437
   0.18796857  0.24303587  0.60056355
   0.35446805  0.48738618  0.27144965
   0.25816528  0.46508405  0.57468882
   0.67210036  0.15169046  0.63827870
   0.06527126  0.19616555  0.61710385
Direct configuration=   260
   0.00058986  0.24767071  0.29147031
   0.49305682  0.74618241  0.41681489
   0.49287760  0.24680768  0.41657001
   0.00058986  0.74767011  0.29147031
   0.75058982  0.49766954  0.35292815
   0.74014450  0.99851545  0.48194935
   0.25059042  0.49766954  0.35292815
   0.23989317  0.99725680  0.48291138
   0.99618298  0.99740097  0.38536662
   0.51480552  0.49912326  0.51344919
   0.99557869  0.49257668  0.44950258
   0.50058925  0.99767067  0.32219910
   0.98408324  0.22484014  0.55268215
   0.98102294  0.73489357  0.54372353
   0.47592231  0.04707091  0.58166690
   0.99038892  0.22367097  0.48489650
   0.50058925  0.72426545  0.35464748
   0.50058925  0.27107537  0.35464748
   0.98856911  0.76399622  0.48536542
   0.77399447  0.49766954  0.29318964
   0.72319361  0.99783771  0.42032196
   0.48906062  0.22687155  0.47908818
   0.00058986  0.72426545  0.35120881
   0.00058986  0.27107537  0.35120881
   0.48993357  0.76903841  0.47874717
   0.72156498  0.49608267  0.41471440
   0.77399447  0.99767067  0.28975097
   0.26487751  0.49615401  0.41374430
   0.22718577  0.99767067  0.28975097
   0.26794860  0.99717825  0.41969019
   0.22718577  0.49766954  0.29318964
   0.76854851  0.48120700  0.55047824
   0.21238492  0.98088471  0.54350875
   0.23416393  0.50214576  0.54914449
   0.75068684  0.98227699  0.54364355
   0.72558567  0.08103944  0.61663437
   0.18796857  0.24303587  0.60056355
   0.35446805  0.48738618  0.27144965
   0.25816528  0.46508405  0.57468882
   0.67210036  0.15169046  0.63827870
   0.06527126  0.19616555  0.61710385
Direct configuration=   261
   0.00058986  0.24767071  0.29147031
   0.49305682  0.74618241  0.41681489
   0.49287760  0.24680768  0.41657001
   0.00058986  0.74767011  0.29147031
   0.75058982  0.49766954  0.35292815
   0.74014450  0.99851545  0.48194935
   0.25059042  0.49766954  0.35292815
   0.23989317  0.99725680  0.48291138
   0.99618298  0.99740097  0.38536662
   0.51480552  0.49912326  0.51344919
   0.99557869  0.49257668  0.44950258
   0.50058925  0.99767067  0.32219910
   0.98408324  0.22484014  0.55268215
   0.98102294  0.73489357  0.54372353
   0.47592231  0.04707091  0.58166690
   0.99038892  0.22367097  0.48489650
   0.50058925  0.72426545  0.35464748
   0.50058925  0.27107537  0.35464748
   0.98856911  0.76399622  0.48536542
   0.77399447  0.49766954  0.29318964
   0.72319361  0.99783771  0.42032196
   0.48906062  0.22687155  0.47908818
   0.00058986  0.72426545  0.35120881
   0.00058986  0.27107537  0.35120881
   0.48993357  0.76903841  0.47874717
   0.72156498  0.49608267  0.41471440
   0.77399447  0.99767067  0.28975097
   0.26487751  0.49615401  0.41374430
   0.22718577  0.99767067  0.28975097
   0.26794860  0.99717825  0.41969019
   0.22718577  0.49766954  0.29318964
   0.76854851  0.48120700  0.55047824
   0.21238492  0.98088471  0.54350875
   0.23416393  0.50214576  0.54914449
   0.75068684  0.98227699  0.54364355
   0.72558567  0.08103944  0.61663437
   0.18796857  0.24303587  0.60056355
   0.35446805  0.48738618  0.27144965
   0.25816528  0.46508405  0.57468882
   0.67210036  0.15169046  0.63827870
   0.06527126  0.19616555  0.61710385
Direct configuration=   262
   0.00058986  0.24767071  0.29147031
   0.49305682  0.74618241  0.41681489
   0.49287760  0.24680768  0.41657001
   0.00058986  0.74767011  0.29147031
   0.75058982  0.49766954  0.35292815
   0.74014450  0.99851545  0.48194935
   0.25059042  0.49766954  0.35292815
   0.23989317  0.99725680  0.48291138
   0.99618298  0.99740097  0.38536662
   0.51480552  0.49912326  0.51344919
   0.99557869  0.49257668  0.44950258
   0.50058925  0.99767067  0.32219910
   0.98408324  0.22484014  0.55268215
   0.98102294  0.73489357  0.54372353
   0.47592231  0.04707091  0.58166690
   0.99038892  0.22367097  0.48489650
   0.50058925  0.72426545  0.35464748
   0.50058925  0.27107537  0.35464748
   0.98856911  0.76399622  0.48536542
   0.77399447  0.49766954  0.29318964
   0.72319361  0.99783771  0.42032196
   0.48906062  0.22687155  0.47908818
   0.00058986  0.72426545  0.35120881
   0.00058986  0.27107537  0.35120881
   0.48993357  0.76903841  0.47874717
   0.72156498  0.49608267  0.41471440
   0.77399447  0.99767067  0.28975097
   0.26487751  0.49615401  0.41374430
   0.22718577  0.99767067  0.28975097
   0.26794860  0.99717825  0.41969019
   0.22718577  0.49766954  0.29318964
   0.76854851  0.48120700  0.55047824
   0.21238492  0.98088471  0.54350875
   0.23416393  0.50214576  0.54914449
   0.75068684  0.98227699  0.54364355
   0.72558567  0.08103944  0.61663437
   0.18796857  0.24303587  0.60056355
   0.35446805  0.48738618  0.27144965
   0.25816528  0.46508405  0.57468882
   0.67210036  0.15169046  0.63827870
   0.06527126  0.19616555  0.61710385
Direct configuration=   263
   0.00058986  0.24767071  0.29147031
   0.49305682  0.74618241  0.41681489
   0.49287760  0.24680768  0.41657001
   0.00058986  0.74767011  0.29147031
   0.75058982  0.49766954  0.35292815
   0.74014450  0.99851545  0.48194935
   0.25059042  0.49766954  0.35292815
   0.23989317  0.99725680  0.48291138
   0.99618298  0.99740097  0.38536662
   0.51480552  0.49912326  0.51344919
   0.99557869  0.49257668  0.44950258
   0.50058925  0.99767067  0.32219910
   0.98408324  0.22484014  0.55268215
   0.98102294  0.73489357  0.54372353
   0.47592231  0.04707091  0.58166690
   0.99038892  0.22367097  0.48489650
   0.50058925  0.72426545  0.35464748
   0.50058925  0.27107537  0.35464748
   0.98856911  0.76399622  0.48536542
   0.77399447  0.49766954  0.29318964
   0.72319361  0.99783771  0.42032196
   0.48906062  0.22687155  0.47908818
   0.00058986  0.72426545  0.35120881
   0.00058986  0.27107537  0.35120881
   0.48993357  0.76903841  0.47874717
   0.72156498  0.49608267  0.41471440
   0.77399447  0.99767067  0.28975097
   0.26487751  0.49615401  0.41374430
   0.22718577  0.99767067  0.28975097
   0.26794860  0.99717825  0.41969019
   0.22718577  0.49766954  0.29318964
   0.76854851  0.48120700  0.55047824
   0.21238492  0.98088471  0.54350875
   0.23416393  0.50214576  0.54914449
   0.75068684  0.98227699  0.54364355
   0.72558567  0.08103944  0.61663437
   0.18796857  0.24303587  0.60056355
   0.35446805  0.48738618  0.27144965
   0.25816528  0.46508405  0.57468882
   0.67210036  0.15169046  0.63827870
   0.06527126  0.19616555  0.61710385
Direct configuration=   264
   0.00058986  0.24767071  0.29147031
   0.49305682  0.74618241  0.41681489
   0.49287760  0.24680768  0.41657001
   0.00058986  0.74767011  0.29147031
   0.75058982  0.49766954  0.35292815
   0.74014450  0.99851545  0.48194935
   0.25059042  0.49766954  0.35292815
   0.23989317  0.99725680  0.48291138
   0.99618298  0.99740097  0.38536662
   0.51480552  0.49912326  0.51344919
   0.99557869  0.49257668  0.44950258
   0.50058925  0.99767067  0.32219910
   0.98408324  0.22484014  0.55268215
   0.98102294  0.73489357  0.54372353
   0.47592231  0.04707091  0.58166690
   0.99038892  0.22367097  0.48489650
   0.50058925  0.72426545  0.35464748
   0.50058925  0.27107537  0.35464748
   0.98856911  0.76399622  0.48536542
   0.77399447  0.49766954  0.29318964
   0.72319361  0.99783771  0.42032196
   0.48906062  0.22687155  0.47908818
   0.00058986  0.72426545  0.35120881
   0.00058986  0.27107537  0.35120881
   0.48993357  0.76903841  0.47874717
   0.72156498  0.49608267  0.41471440
   0.77399447  0.99767067  0.28975097
   0.26487751  0.49615401  0.41374430
   0.22718577  0.99767067  0.28975097
   0.26794860  0.99717825  0.41969019
   0.22718577  0.49766954  0.29318964
   0.76854851  0.48120700  0.55047824
   0.21238492  0.98088471  0.54350875
   0.23416393  0.50214576  0.54914449
   0.75068684  0.98227699  0.54364355
   0.72558567  0.08103944  0.61663437
   0.18796857  0.24303587  0.60056355
   0.35446805  0.48738618  0.27144965
   0.25816528  0.46508405  0.57468882
   0.67210036  0.15169046  0.63827870
   0.06527126  0.19616555  0.61710385
Direct configuration=   265
   0.00058986  0.24767071  0.29147031
   0.49305682  0.74618241  0.41681489
   0.49287760  0.24680768  0.41657001
   0.00058986  0.74767011  0.29147031
   0.75058982  0.49766954  0.35292815
   0.74014450  0.99851545  0.48194935
   0.25059042  0.49766954  0.35292815
   0.23989317  0.99725680  0.48291138
   0.99618298  0.99740097  0.38536662
   0.51480552  0.49912326  0.51344919
   0.99557869  0.49257668  0.44950258
   0.50058925  0.99767067  0.32219910
   0.98408324  0.22484014  0.55268215
   0.98102294  0.73489357  0.54372353
   0.47592231  0.04707091  0.58166690
   0.99038892  0.22367097  0.48489650
   0.50058925  0.72426545  0.35464748
   0.50058925  0.27107537  0.35464748
   0.98856911  0.76399622  0.48536542
   0.77399447  0.49766954  0.29318964
   0.72319361  0.99783771  0.42032196
   0.48906062  0.22687155  0.47908818
   0.00058986  0.72426545  0.35120881
   0.00058986  0.27107537  0.35120881
   0.48993357  0.76903841  0.47874717
   0.72156498  0.49608267  0.41471440
   0.77399447  0.99767067  0.28975097
   0.26487751  0.49615401  0.41374430
   0.22718577  0.99767067  0.28975097
   0.26794860  0.99717825  0.41969019
   0.22718577  0.49766954  0.29318964
   0.76854851  0.48120700  0.55047824
   0.21238492  0.98088471  0.54350875
   0.23416393  0.50214576  0.54914449
   0.75068684  0.98227699  0.54364355
   0.72558567  0.08103944  0.61663437
   0.18796857  0.24303587  0.60056355
   0.35446805  0.48738618  0.27144965
   0.25816528  0.46508405  0.57468882
   0.67210036  0.15169046  0.63827870
   0.06527126  0.19616555  0.61710385
Direct configuration=   266
   0.00058986  0.24767071  0.29147031
   0.49305682  0.74618241  0.41681489
   0.49287760  0.24680768  0.41657001
   0.00058986  0.74767011  0.29147031
   0.75058982  0.49766954  0.35292815
   0.74014450  0.99851545  0.48194935
   0.25059042  0.49766954  0.35292815
   0.23989317  0.99725680  0.48291138
   0.99618298  0.99740097  0.38536662
   0.51480552  0.49912326  0.51344919
   0.99557869  0.49257668  0.44950258
   0.50058925  0.99767067  0.32219910
   0.98408324  0.22484014  0.55268215
   0.98102294  0.73489357  0.54372353
   0.47592231  0.04707091  0.58166690
   0.99038892  0.22367097  0.48489650
   0.50058925  0.72426545  0.35464748
   0.50058925  0.27107537  0.35464748
   0.98856911  0.76399622  0.48536542
   0.77399447  0.49766954  0.29318964
   0.72319361  0.99783771  0.42032196
   0.48906062  0.22687155  0.47908818
   0.00058986  0.72426545  0.35120881
   0.00058986  0.27107537  0.35120881
   0.48993357  0.76903841  0.47874717
   0.72156498  0.49608267  0.41471440
   0.77399447  0.99767067  0.28975097
   0.26487751  0.49615401  0.41374430
   0.22718577  0.99767067  0.28975097
   0.26794860  0.99717825  0.41969019
   0.22718577  0.49766954  0.29318964
   0.76854851  0.48120700  0.55047824
   0.21238492  0.98088471  0.54350875
   0.23416393  0.50214576  0.54914449
   0.75068684  0.98227699  0.54364355
   0.72558567  0.08103944  0.61663437
   0.18796857  0.24303587  0.60056355
   0.35446805  0.48738618  0.27144965
   0.25816528  0.46508405  0.57468882
   0.67210036  0.15169046  0.63827870
   0.06527126  0.19616555  0.61710385
Direct configuration=   267
   0.00058986  0.24767071  0.29147031
   0.49305682  0.74618241  0.41681489
   0.49287760  0.24680768  0.41657001
   0.00058986  0.74767011  0.29147031
   0.75058982  0.49766954  0.35292815
   0.74014450  0.99851545  0.48194935
   0.25059042  0.49766954  0.35292815
   0.23989317  0.99725680  0.48291138
   0.99618298  0.99740097  0.38536662
   0.51480552  0.49912326  0.51344919
   0.99557869  0.49257668  0.44950258
   0.50058925  0.99767067  0.32219910
   0.98408324  0.22484014  0.55268215
   0.98102294  0.73489357  0.54372353
   0.47592231  0.04707091  0.58166690
   0.99038892  0.22367097  0.48489650
   0.50058925  0.72426545  0.35464748
   0.50058925  0.27107537  0.35464748
   0.98856911  0.76399622  0.48536542
   0.77399447  0.49766954  0.29318964
   0.72319361  0.99783771  0.42032196
   0.48906062  0.22687155  0.47908818
   0.00058986  0.72426545  0.35120881
   0.00058986  0.27107537  0.35120881
   0.48993357  0.76903841  0.47874717
   0.72156498  0.49608267  0.41471440
   0.77399447  0.99767067  0.28975097
   0.26487751  0.49615401  0.41374430
   0.22718577  0.99767067  0.28975097
   0.26794860  0.99717825  0.41969019
   0.22718577  0.49766954  0.29318964
   0.76854851  0.48120700  0.55047824
   0.21238492  0.98088471  0.54350875
   0.23416393  0.50214576  0.54914449
   0.75068684  0.98227699  0.54364355
   0.72558567  0.08103944  0.61663437
   0.18796857  0.24303587  0.60056355
   0.35446805  0.48738618  0.27144965
   0.25816528  0.46508405  0.57468882
   0.67210036  0.15169046  0.63827870
   0.06527126  0.19616555  0.61710385
Direct configuration=   268
   0.00058986  0.24767071  0.29147031
   0.49305682  0.74618241  0.41681489
   0.49287760  0.24680768  0.41657001
   0.00058986  0.74767011  0.29147031
   0.75058982  0.49766954  0.35292815
   0.74014450  0.99851545  0.48194935
   0.25059042  0.49766954  0.35292815
   0.23989317  0.99725680  0.48291138
   0.99618298  0.99740097  0.38536662
   0.51480552  0.49912326  0.51344919
   0.99557869  0.49257668  0.44950258
   0.50058925  0.99767067  0.32219910
   0.98408324  0.22484014  0.55268215
   0.98102294  0.73489357  0.54372353
   0.47592231  0.04707091  0.58166690
   0.99038892  0.22367097  0.48489650
   0.50058925  0.72426545  0.35464748
   0.50058925  0.27107537  0.35464748
   0.98856911  0.76399622  0.48536542
   0.77399447  0.49766954  0.29318964
   0.72319361  0.99783771  0.42032196
   0.48906062  0.22687155  0.47908818
   0.00058986  0.72426545  0.35120881
   0.00058986  0.27107537  0.35120881
   0.48993357  0.76903841  0.47874717
   0.72156498  0.49608267  0.41471440
   0.77399447  0.99767067  0.28975097
   0.26487751  0.49615401  0.41374430
   0.22718577  0.99767067  0.28975097
   0.26794860  0.99717825  0.41969019
   0.22718577  0.49766954  0.29318964
   0.76854851  0.48120700  0.55047824
   0.21238492  0.98088471  0.54350875
   0.23416393  0.50214576  0.54914449
   0.75068684  0.98227699  0.54364355
   0.72558567  0.08103944  0.61663437
   0.18796857  0.24303587  0.60056355
   0.35446805  0.48738618  0.27144965
   0.25816528  0.46508405  0.57468882
   0.67210036  0.15169046  0.63827870
   0.06527126  0.19616555  0.61710385
Direct configuration=   269
   0.00058986  0.24767071  0.29147031
   0.49305682  0.74618241  0.41681489
   0.49287760  0.24680768  0.41657001
   0.00058986  0.74767011  0.29147031
   0.75058982  0.49766954  0.35292815
   0.74014450  0.99851545  0.48194935
   0.25059042  0.49766954  0.35292815
   0.23989317  0.99725680  0.48291138
   0.99618298  0.99740097  0.38536662
   0.51480552  0.49912326  0.51344919
   0.99557869  0.49257668  0.44950258
   0.50058925  0.99767067  0.32219910
   0.98408324  0.22484014  0.55268215
   0.98102294  0.73489357  0.54372353
   0.47592231  0.04707091  0.58166690
   0.99038892  0.22367097  0.48489650
   0.50058925  0.72426545  0.35464748
   0.50058925  0.27107537  0.35464748
   0.98856911  0.76399622  0.48536542
   0.77399447  0.49766954  0.29318964
   0.72319361  0.99783771  0.42032196
   0.48906062  0.22687155  0.47908818
   0.00058986  0.72426545  0.35120881
   0.00058986  0.27107537  0.35120881
   0.48993357  0.76903841  0.47874717
   0.72156498  0.49608267  0.41471440
   0.77399447  0.99767067  0.28975097
   0.26487751  0.49615401  0.41374430
   0.22718577  0.99767067  0.28975097
   0.26794860  0.99717825  0.41969019
   0.22718577  0.49766954  0.29318964
   0.76854851  0.48120700  0.55047824
   0.21238492  0.98088471  0.54350875
   0.23416393  0.50214576  0.54914449
   0.75068684  0.98227699  0.54364355
   0.72558567  0.08103944  0.61663437
   0.18796857  0.24303587  0.60056355
   0.35446805  0.48738618  0.27144965
   0.25816528  0.46508405  0.57468882
   0.67210036  0.15169046  0.63827870
   0.06527126  0.19616555  0.61710385
Direct configuration=   270
   0.00058986  0.24767071  0.29147031
   0.49305682  0.74618241  0.41681489
   0.49287760  0.24680768  0.41657001
   0.00058986  0.74767011  0.29147031
   0.75058982  0.49766954  0.35292815
   0.74014450  0.99851545  0.48194935
   0.25059042  0.49766954  0.35292815
   0.23989317  0.99725680  0.48291138
   0.99618298  0.99740097  0.38536662
   0.51480552  0.49912326  0.51344919
   0.99557869  0.49257668  0.44950258
   0.50058925  0.99767067  0.32219910
   0.98408324  0.22484014  0.55268215
   0.98102294  0.73489357  0.54372353
   0.47592231  0.04707091  0.58166690
   0.99038892  0.22367097  0.48489650
   0.50058925  0.72426545  0.35464748
   0.50058925  0.27107537  0.35464748
   0.98856911  0.76399622  0.48536542
   0.77399447  0.49766954  0.29318964
   0.72319361  0.99783771  0.42032196
   0.48906062  0.22687155  0.47908818
   0.00058986  0.72426545  0.35120881
   0.00058986  0.27107537  0.35120881
   0.48993357  0.76903841  0.47874717
   0.72156498  0.49608267  0.41471440
   0.77399447  0.99767067  0.28975097
   0.26487751  0.49615401  0.41374430
   0.22718577  0.99767067  0.28975097
   0.26794860  0.99717825  0.41969019
   0.22718577  0.49766954  0.29318964
   0.76854851  0.48120700  0.55047824
   0.21238492  0.98088471  0.54350875
   0.23416393  0.50214576  0.54914449
   0.75068684  0.98227699  0.54364355
   0.72558567  0.08103944  0.61663437
   0.18796857  0.24303587  0.60056355
   0.35446805  0.48738618  0.27144965
   0.25816528  0.46508405  0.57468882
   0.67210036  0.15169046  0.63827870
   0.06527126  0.19616555  0.61710385
Direct configuration=   271
   0.00058986  0.24767071  0.29147031
   0.49305682  0.74618241  0.41681489
   0.49287760  0.24680768  0.41657001
   0.00058986  0.74767011  0.29147031
   0.75058982  0.49766954  0.35292815
   0.74014450  0.99851545  0.48194935
   0.25059042  0.49766954  0.35292815
   0.23989317  0.99725680  0.48291138
   0.99618298  0.99740097  0.38536662
   0.51480552  0.49912326  0.51344919
   0.99557869  0.49257668  0.44950258
   0.50058925  0.99767067  0.32219910
   0.98408324  0.22484014  0.55268215
   0.98102294  0.73489357  0.54372353
   0.47592231  0.04707091  0.58166690
   0.99038892  0.22367097  0.48489650
   0.50058925  0.72426545  0.35464748
   0.50058925  0.27107537  0.35464748
   0.98856911  0.76399622  0.48536542
   0.77399447  0.49766954  0.29318964
   0.72319361  0.99783771  0.42032196
   0.48906062  0.22687155  0.47908818
   0.00058986  0.72426545  0.35120881
   0.00058986  0.27107537  0.35120881
   0.48993357  0.76903841  0.47874717
   0.72156498  0.49608267  0.41471440
   0.77399447  0.99767067  0.28975097
   0.26487751  0.49615401  0.41374430
   0.22718577  0.99767067  0.28975097
   0.26794860  0.99717825  0.41969019
   0.22718577  0.49766954  0.29318964
   0.76854851  0.48120700  0.55047824
   0.21238492  0.98088471  0.54350875
   0.23416393  0.50214576  0.54914449
   0.75068684  0.98227699  0.54364355
   0.72558567  0.08103944  0.61663437
   0.18796857  0.24303587  0.60056355
   0.35446805  0.48738618  0.27144965
   0.25816528  0.46508405  0.57468882
   0.67210036  0.15169046  0.63827870
   0.06527126  0.19616555  0.61710385
Direct configuration=   272
   0.00058986  0.24767071  0.29147031
   0.49305682  0.74618241  0.41681489
   0.49287760  0.24680768  0.41657001
   0.00058986  0.74767011  0.29147031
   0.75058982  0.49766954  0.35292815
   0.74014450  0.99851545  0.48194935
   0.25059042  0.49766954  0.35292815
   0.23989317  0.99725680  0.48291138
   0.99618298  0.99740097  0.38536662
   0.51480552  0.49912326  0.51344919
   0.99557869  0.49257668  0.44950258
   0.50058925  0.99767067  0.32219910
   0.98408324  0.22484014  0.55268215
   0.98102294  0.73489357  0.54372353
   0.47592231  0.04707091  0.58166690
   0.99038892  0.22367097  0.48489650
   0.50058925  0.72426545  0.35464748
   0.50058925  0.27107537  0.35464748
   0.98856911  0.76399622  0.48536542
   0.77399447  0.49766954  0.29318964
   0.72319361  0.99783771  0.42032196
   0.48906062  0.22687155  0.47908818
   0.00058986  0.72426545  0.35120881
   0.00058986  0.27107537  0.35120881
   0.48993357  0.76903841  0.47874717
   0.72156498  0.49608267  0.41471440
   0.77399447  0.99767067  0.28975097
   0.26487751  0.49615401  0.41374430
   0.22718577  0.99767067  0.28975097
   0.26794860  0.99717825  0.41969019
   0.22718577  0.49766954  0.29318964
   0.76854851  0.48120700  0.55047824
   0.21238492  0.98088471  0.54350875
   0.23416393  0.50214576  0.54914449
   0.75068684  0.98227699  0.54364355
   0.72558567  0.08103944  0.61663437
   0.18796857  0.24303587  0.60056355
   0.35446805  0.48738618  0.27144965
   0.25816528  0.46508405  0.57468882
   0.67210036  0.15169046  0.63827870
   0.06527126  0.19616555  0.61710385
Direct configuration=   273
   0.00058986  0.24767071  0.29147031
   0.49305682  0.74618241  0.41681489
   0.49287760  0.24680768  0.41657001
   0.00058986  0.74767011  0.29147031
   0.75058982  0.49766954  0.35292815
   0.74014450  0.99851545  0.48194935
   0.25059042  0.49766954  0.35292815
   0.23989317  0.99725680  0.48291138
   0.99618298  0.99740097  0.38536662
   0.51480552  0.49912326  0.51344919
   0.99557869  0.49257668  0.44950258
   0.50058925  0.99767067  0.32219910
   0.98408324  0.22484014  0.55268215
   0.98102294  0.73489357  0.54372353
   0.47592231  0.04707091  0.58166690
   0.99038892  0.22367097  0.48489650
   0.50058925  0.72426545  0.35464748
   0.50058925  0.27107537  0.35464748
   0.98856911  0.76399622  0.48536542
   0.77399447  0.49766954  0.29318964
   0.72319361  0.99783771  0.42032196
   0.48906062  0.22687155  0.47908818
   0.00058986  0.72426545  0.35120881
   0.00058986  0.27107537  0.35120881
   0.48993357  0.76903841  0.47874717
   0.72156498  0.49608267  0.41471440
   0.77399447  0.99767067  0.28975097
   0.26487751  0.49615401  0.41374430
   0.22718577  0.99767067  0.28975097
   0.26794860  0.99717825  0.41969019
   0.22718577  0.49766954  0.29318964
   0.76854851  0.48120700  0.55047824
   0.21238492  0.98088471  0.54350875
   0.23416393  0.50214576  0.54914449
   0.75068684  0.98227699  0.54364355
   0.72558567  0.08103944  0.61663437
   0.18796857  0.24303587  0.60056355
   0.35446805  0.48738618  0.27144965
   0.25816528  0.46508405  0.57468882
   0.67210036  0.15169046  0.63827870
   0.06527126  0.19616555  0.61710385
Direct configuration=   274
   0.00058986  0.24767071  0.29147031
   0.49305682  0.74618241  0.41681489
   0.49287760  0.24680768  0.41657001
   0.00058986  0.74767011  0.29147031
   0.75058982  0.49766954  0.35292815
   0.74014450  0.99851545  0.48194935
   0.25059042  0.49766954  0.35292815
   0.23989317  0.99725680  0.48291138
   0.99618298  0.99740097  0.38536662
   0.51480552  0.49912326  0.51344919
   0.99557869  0.49257668  0.44950258
   0.50058925  0.99767067  0.32219910
   0.98408324  0.22484014  0.55268215
   0.98102294  0.73489357  0.54372353
   0.47592231  0.04707091  0.58166690
   0.99038892  0.22367097  0.48489650
   0.50058925  0.72426545  0.35464748
   0.50058925  0.27107537  0.35464748
   0.98856911  0.76399622  0.48536542
   0.77399447  0.49766954  0.29318964
   0.72319361  0.99783771  0.42032196
   0.48906062  0.22687155  0.47908818
   0.00058986  0.72426545  0.35120881
   0.00058986  0.27107537  0.35120881
   0.48993357  0.76903841  0.47874717
   0.72156498  0.49608267  0.41471440
   0.77399447  0.99767067  0.28975097
   0.26487751  0.49615401  0.41374430
   0.22718577  0.99767067  0.28975097
   0.26794860  0.99717825  0.41969019
   0.22718577  0.49766954  0.29318964
   0.76854851  0.48120700  0.55047824
   0.21238492  0.98088471  0.54350875
   0.23416393  0.50214576  0.54914449
   0.75068684  0.98227699  0.54364355
   0.72558567  0.08103944  0.61663437
   0.18796857  0.24303587  0.60056355
   0.35446805  0.48738618  0.27144965
   0.25816528  0.46508405  0.57468882
   0.67210036  0.15169046  0.63827870
   0.06527126  0.19616555  0.61710385
Direct configuration=   275
   0.00058986  0.24767071  0.29147031
   0.49305682  0.74618241  0.41681489
   0.49287760  0.24680768  0.41657001
   0.00058986  0.74767011  0.29147031
   0.75058982  0.49766954  0.35292815
   0.74014450  0.99851545  0.48194935
   0.25059042  0.49766954  0.35292815
   0.23989317  0.99725680  0.48291138
   0.99618298  0.99740097  0.38536662
   0.51480552  0.49912326  0.51344919
   0.99557869  0.49257668  0.44950258
   0.50058925  0.99767067  0.32219910
   0.98408324  0.22484014  0.55268215
   0.98102294  0.73489357  0.54372353
   0.47592231  0.04707091  0.58166690
   0.99038892  0.22367097  0.48489650
   0.50058925  0.72426545  0.35464748
   0.50058925  0.27107537  0.35464748
   0.98856911  0.76399622  0.48536542
   0.77399447  0.49766954  0.29318964
   0.72319361  0.99783771  0.42032196
   0.48906062  0.22687155  0.47908818
   0.00058986  0.72426545  0.35120881
   0.00058986  0.27107537  0.35120881
   0.48993357  0.76903841  0.47874717
   0.72156498  0.49608267  0.41471440
   0.77399447  0.99767067  0.28975097
   0.26487751  0.49615401  0.41374430
   0.22718577  0.99767067  0.28975097
   0.26794860  0.99717825  0.41969019
   0.22718577  0.49766954  0.29318964
   0.76854851  0.48120700  0.55047824
   0.21238492  0.98088471  0.54350875
   0.23416393  0.50214576  0.54914449
   0.75068684  0.98227699  0.54364355
   0.72558567  0.08103944  0.61663437
   0.18796857  0.24303587  0.60056355
   0.35446805  0.48738618  0.27144965
   0.25816528  0.46508405  0.57468882
   0.67210036  0.15169046  0.63827870
   0.06527126  0.19616555  0.61710385
Direct configuration=   276
   0.00058986  0.24767071  0.29147031
   0.49305682  0.74618241  0.41681489
   0.49287760  0.24680768  0.41657001
   0.00058986  0.74767011  0.29147031
   0.75058982  0.49766954  0.35292815
   0.74014450  0.99851545  0.48194935
   0.25059042  0.49766954  0.35292815
   0.23989317  0.99725680  0.48291138
   0.99618298  0.99740097  0.38536662
   0.51480552  0.49912326  0.51344919
   0.99557869  0.49257668  0.44950258
   0.50058925  0.99767067  0.32219910
   0.98408324  0.22484014  0.55268215
   0.98102294  0.73489357  0.54372353
   0.47592231  0.04707091  0.58166690
   0.99038892  0.22367097  0.48489650
   0.50058925  0.72426545  0.35464748
   0.50058925  0.27107537  0.35464748
   0.98856911  0.76399622  0.48536542
   0.77399447  0.49766954  0.29318964
   0.72319361  0.99783771  0.42032196
   0.48906062  0.22687155  0.47908818
   0.00058986  0.72426545  0.35120881
   0.00058986  0.27107537  0.35120881
   0.48993357  0.76903841  0.47874717
   0.72156498  0.49608267  0.41471440
   0.77399447  0.99767067  0.28975097
   0.26487751  0.49615401  0.41374430
   0.22718577  0.99767067  0.28975097
   0.26794860  0.99717825  0.41969019
   0.22718577  0.49766954  0.29318964
   0.76854851  0.48120700  0.55047824
   0.21238492  0.98088471  0.54350875
   0.23416393  0.50214576  0.54914449
   0.75068684  0.98227699  0.54364355
   0.72558567  0.08103944  0.61663437
   0.18796857  0.24303587  0.60056355
   0.35446805  0.48738618  0.27144965
   0.25816528  0.46508405  0.57468882
   0.67210036  0.15169046  0.63827870
   0.06527126  0.19616555  0.61710385
Direct configuration=   277
   0.00058986  0.24767071  0.29147031
   0.49305682  0.74618241  0.41681489
   0.49287760  0.24680768  0.41657001
   0.00058986  0.74767011  0.29147031
   0.75058982  0.49766954  0.35292815
   0.74014450  0.99851545  0.48194935
   0.25059042  0.49766954  0.35292815
   0.23989317  0.99725680  0.48291138
   0.99618298  0.99740097  0.38536662
   0.51480552  0.49912326  0.51344919
   0.99557869  0.49257668  0.44950258
   0.50058925  0.99767067  0.32219910
   0.98408324  0.22484014  0.55268215
   0.98102294  0.73489357  0.54372353
   0.47592231  0.04707091  0.58166690
   0.99038892  0.22367097  0.48489650
   0.50058925  0.72426545  0.35464748
   0.50058925  0.27107537  0.35464748
   0.98856911  0.76399622  0.48536542
   0.77399447  0.49766954  0.29318964
   0.72319361  0.99783771  0.42032196
   0.48906062  0.22687155  0.47908818
   0.00058986  0.72426545  0.35120881
   0.00058986  0.27107537  0.35120881
   0.48993357  0.76903841  0.47874717
   0.72156498  0.49608267  0.41471440
   0.77399447  0.99767067  0.28975097
   0.26487751  0.49615401  0.41374430
   0.22718577  0.99767067  0.28975097
   0.26794860  0.99717825  0.41969019
   0.22718577  0.49766954  0.29318964
   0.76854851  0.48120700  0.55047824
   0.21238492  0.98088471  0.54350875
   0.23416393  0.50214576  0.54914449
   0.75068684  0.98227699  0.54364355
   0.72558567  0.08103944  0.61663437
   0.18796857  0.24303587  0.60056355
   0.35446805  0.48738618  0.27144965
   0.25816528  0.46508405  0.57468882
   0.67210036  0.15169046  0.63827870
   0.06527126  0.19616555  0.61710385
Direct configuration=   278
   0.00058986  0.24767071  0.29147031
   0.49305682  0.74618241  0.41681489
   0.49287760  0.24680768  0.41657001
   0.00058986  0.74767011  0.29147031
   0.75058982  0.49766954  0.35292815
   0.74014450  0.99851545  0.48194935
   0.25059042  0.49766954  0.35292815
   0.23989317  0.99725680  0.48291138
   0.99618298  0.99740097  0.38536662
   0.51480552  0.49912326  0.51344919
   0.99557869  0.49257668  0.44950258
   0.50058925  0.99767067  0.32219910
   0.98408324  0.22484014  0.55268215
   0.98102294  0.73489357  0.54372353
   0.47592231  0.04707091  0.58166690
   0.99038892  0.22367097  0.48489650
   0.50058925  0.72426545  0.35464748
   0.50058925  0.27107537  0.35464748
   0.98856911  0.76399622  0.48536542
   0.77399447  0.49766954  0.29318964
   0.72319361  0.99783771  0.42032196
   0.48906062  0.22687155  0.47908818
   0.00058986  0.72426545  0.35120881
   0.00058986  0.27107537  0.35120881
   0.48993357  0.76903841  0.47874717
   0.72156498  0.49608267  0.41471440
   0.77399447  0.99767067  0.28975097
   0.26487751  0.49615401  0.41374430
   0.22718577  0.99767067  0.28975097
   0.26794860  0.99717825  0.41969019
   0.22718577  0.49766954  0.29318964
   0.76854851  0.48120700  0.55047824
   0.21238492  0.98088471  0.54350875
   0.23416393  0.50214576  0.54914449
   0.75068684  0.98227699  0.54364355
   0.72558567  0.08103944  0.61663437
   0.18796857  0.24303587  0.60056355
   0.35446805  0.48738618  0.27144965
   0.25816528  0.46508405  0.57468882
   0.67210036  0.15169046  0.63827870
   0.06527126  0.19616555  0.61710385
Direct configuration=   279
   0.00058986  0.24767071  0.29147031
   0.49305682  0.74618241  0.41681489
   0.49287760  0.24680768  0.41657001
   0.00058986  0.74767011  0.29147031
   0.75058982  0.49766954  0.35292815
   0.74014450  0.99851545  0.48194935
   0.25059042  0.49766954  0.35292815
   0.23989317  0.99725680  0.48291138
   0.99618298  0.99740097  0.38536662
   0.51480552  0.49912326  0.51344919
   0.99557869  0.49257668  0.44950258
   0.50058925  0.99767067  0.32219910
   0.98408324  0.22484014  0.55268215
   0.98102294  0.73489357  0.54372353
   0.47592231  0.04707091  0.58166690
   0.99038892  0.22367097  0.48489650
   0.50058925  0.72426545  0.35464748
   0.50058925  0.27107537  0.35464748
   0.98856911  0.76399622  0.48536542
   0.77399447  0.49766954  0.29318964
   0.72319361  0.99783771  0.42032196
   0.48906062  0.22687155  0.47908818
   0.00058986  0.72426545  0.35120881
   0.00058986  0.27107537  0.35120881
   0.48993357  0.76903841  0.47874717
   0.72156498  0.49608267  0.41471440
   0.77399447  0.99767067  0.28975097
   0.26487751  0.49615401  0.41374430
   0.22718577  0.99767067  0.28975097
   0.26794860  0.99717825  0.41969019
   0.22718577  0.49766954  0.29318964
   0.76854851  0.48120700  0.55047824
   0.21238492  0.98088471  0.54350875
   0.23416393  0.50214576  0.54914449
   0.75068684  0.98227699  0.54364355
   0.72558567  0.08103944  0.61663437
   0.18796857  0.24303587  0.60056355
   0.35446805  0.48738618  0.27144965
   0.25816528  0.46508405  0.57468882
   0.67210036  0.15169046  0.63827870
   0.06527126  0.19616555  0.61710385
Direct configuration=   280
   0.00058986  0.24767071  0.29147031
   0.49305682  0.74618241  0.41681489
   0.49287760  0.24680768  0.41657001
   0.00058986  0.74767011  0.29147031
   0.75058982  0.49766954  0.35292815
   0.74014450  0.99851545  0.48194935
   0.25059042  0.49766954  0.35292815
   0.23989317  0.99725680  0.48291138
   0.99618298  0.99740097  0.38536662
   0.51480552  0.49912326  0.51344919
   0.99557869  0.49257668  0.44950258
   0.50058925  0.99767067  0.32219910
   0.98408324  0.22484014  0.55268215
   0.98102294  0.73489357  0.54372353
   0.47592231  0.04707091  0.58166690
   0.99038892  0.22367097  0.48489650
   0.50058925  0.72426545  0.35464748
   0.50058925  0.27107537  0.35464748
   0.98856911  0.76399622  0.48536542
   0.77399447  0.49766954  0.29318964
   0.72319361  0.99783771  0.42032196
   0.48906062  0.22687155  0.47908818
   0.00058986  0.72426545  0.35120881
   0.00058986  0.27107537  0.35120881
   0.48993357  0.76903841  0.47874717
   0.72156498  0.49608267  0.41471440
   0.77399447  0.99767067  0.28975097
   0.26487751  0.49615401  0.41374430
   0.22718577  0.99767067  0.28975097
   0.26794860  0.99717825  0.41969019
   0.22718577  0.49766954  0.29318964
   0.76854851  0.48120700  0.55047824
   0.21238492  0.98088471  0.54350875
   0.23416393  0.50214576  0.54914449
   0.75068684  0.98227699  0.54364355
   0.72558567  0.08103944  0.61663437
   0.18796857  0.24303587  0.60056355
   0.35446805  0.48738618  0.27144965
   0.25816528  0.46508405  0.57468882
   0.67210036  0.15169046  0.63827870
   0.06527126  0.19616555  0.61710385
Direct configuration=   281
   0.00058986  0.24767071  0.29147031
   0.49305682  0.74618241  0.41681489
   0.49287760  0.24680768  0.41657001
   0.00058986  0.74767011  0.29147031
   0.75058982  0.49766954  0.35292815
   0.74014450  0.99851545  0.48194935
   0.25059042  0.49766954  0.35292815
   0.23989317  0.99725680  0.48291138
   0.99618298  0.99740097  0.38536662
   0.51480552  0.49912326  0.51344919
   0.99557869  0.49257668  0.44950258
   0.50058925  0.99767067  0.32219910
   0.98408324  0.22484014  0.55268215
   0.98102294  0.73489357  0.54372353
   0.47592231  0.04707091  0.58166690
   0.99038892  0.22367097  0.48489650
   0.50058925  0.72426545  0.35464748
   0.50058925  0.27107537  0.35464748
   0.98856911  0.76399622  0.48536542
   0.77399447  0.49766954  0.29318964
   0.72319361  0.99783771  0.42032196
   0.48906062  0.22687155  0.47908818
   0.00058986  0.72426545  0.35120881
   0.00058986  0.27107537  0.35120881
   0.48993357  0.76903841  0.47874717
   0.72156498  0.49608267  0.41471440
   0.77399447  0.99767067  0.28975097
   0.26487751  0.49615401  0.41374430
   0.22718577  0.99767067  0.28975097
   0.26794860  0.99717825  0.41969019
   0.22718577  0.49766954  0.29318964
   0.76854851  0.48120700  0.55047824
   0.21238492  0.98088471  0.54350875
   0.23416393  0.50214576  0.54914449
   0.75068684  0.98227699  0.54364355
   0.72558567  0.08103944  0.61663437
   0.18796857  0.24303587  0.60056355
   0.35446805  0.48738618  0.27144965
   0.25816528  0.46508405  0.57468882
   0.67210036  0.15169046  0.63827870
   0.06527126  0.19616555  0.61710385
Direct configuration=   282
   0.00058986  0.24767071  0.29147031
   0.49305682  0.74618241  0.41681489
   0.49287760  0.24680768  0.41657001
   0.00058986  0.74767011  0.29147031
   0.75058982  0.49766954  0.35292815
   0.74014450  0.99851545  0.48194935
   0.25059042  0.49766954  0.35292815
   0.23989317  0.99725680  0.48291138
   0.99618298  0.99740097  0.38536662
   0.51480552  0.49912326  0.51344919
   0.99557869  0.49257668  0.44950258
   0.50058925  0.99767067  0.32219910
   0.98408324  0.22484014  0.55268215
   0.98102294  0.73489357  0.54372353
   0.47592231  0.04707091  0.58166690
   0.99038892  0.22367097  0.48489650
   0.50058925  0.72426545  0.35464748
   0.50058925  0.27107537  0.35464748
   0.98856911  0.76399622  0.48536542
   0.77399447  0.49766954  0.29318964
   0.72319361  0.99783771  0.42032196
   0.48906062  0.22687155  0.47908818
   0.00058986  0.72426545  0.35120881
   0.00058986  0.27107537  0.35120881
   0.48993357  0.76903841  0.47874717
   0.72156498  0.49608267  0.41471440
   0.77399447  0.99767067  0.28975097
   0.26487751  0.49615401  0.41374430
   0.22718577  0.99767067  0.28975097
   0.26794860  0.99717825  0.41969019
   0.22718577  0.49766954  0.29318964
   0.76854851  0.48120700  0.55047824
   0.21238492  0.98088471  0.54350875
   0.23416393  0.50214576  0.54914449
   0.75068684  0.98227699  0.54364355
   0.72558567  0.08103944  0.61663437
   0.18796857  0.24303587  0.60056355
   0.35446805  0.48738618  0.27144965
   0.25816528  0.46508405  0.57468882
   0.67210036  0.15169046  0.63827870
   0.06527126  0.19616555  0.61710385
Direct configuration=   283
   0.00058986  0.24767071  0.29147031
   0.49305682  0.74618241  0.41681489
   0.49287760  0.24680768  0.41657001
   0.00058986  0.74767011  0.29147031
   0.75058982  0.49766954  0.35292815
   0.74014450  0.99851545  0.48194935
   0.25059042  0.49766954  0.35292815
   0.23989317  0.99725680  0.48291138
   0.99618298  0.99740097  0.38536662
   0.51480552  0.49912326  0.51344919
   0.99557869  0.49257668  0.44950258
   0.50058925  0.99767067  0.32219910
   0.98408324  0.22484014  0.55268215
   0.98102294  0.73489357  0.54372353
   0.47592231  0.04707091  0.58166690
   0.99038892  0.22367097  0.48489650
   0.50058925  0.72426545  0.35464748
   0.50058925  0.27107537  0.35464748
   0.98856911  0.76399622  0.48536542
   0.77399447  0.49766954  0.29318964
   0.72319361  0.99783771  0.42032196
   0.48906062  0.22687155  0.47908818
   0.00058986  0.72426545  0.35120881
   0.00058986  0.27107537  0.35120881
   0.48993357  0.76903841  0.47874717
   0.72156498  0.49608267  0.41471440
   0.77399447  0.99767067  0.28975097
   0.26487751  0.49615401  0.41374430
   0.22718577  0.99767067  0.28975097
   0.26794860  0.99717825  0.41969019
   0.22718577  0.49766954  0.29318964
   0.76854851  0.48120700  0.55047824
   0.21238492  0.98088471  0.54350875
   0.23416393  0.50214576  0.54914449
   0.75068684  0.98227699  0.54364355
   0.72558567  0.08103944  0.61663437
   0.18796857  0.24303587  0.60056355
   0.35446805  0.48738618  0.27144965
   0.25816528  0.46508405  0.57468882
   0.67210036  0.15169046  0.63827870
   0.06527126  0.19616555  0.61710385
Direct configuration=   284
   0.00058986  0.24767071  0.29147031
   0.49305682  0.74618241  0.41681489
   0.49287760  0.24680768  0.41657001
   0.00058986  0.74767011  0.29147031
   0.75058982  0.49766954  0.35292815
   0.74014450  0.99851545  0.48194935
   0.25059042  0.49766954  0.35292815
   0.23989317  0.99725680  0.48291138
   0.99618298  0.99740097  0.38536662
   0.51480552  0.49912326  0.51344919
   0.99557869  0.49257668  0.44950258
   0.50058925  0.99767067  0.32219910
   0.98408324  0.22484014  0.55268215
   0.98102294  0.73489357  0.54372353
   0.47592231  0.04707091  0.58166690
   0.99038892  0.22367097  0.48489650
   0.50058925  0.72426545  0.35464748
   0.50058925  0.27107537  0.35464748
   0.98856911  0.76399622  0.48536542
   0.77399447  0.49766954  0.29318964
   0.72319361  0.99783771  0.42032196
   0.48906062  0.22687155  0.47908818
   0.00058986  0.72426545  0.35120881
   0.00058986  0.27107537  0.35120881
   0.48993357  0.76903841  0.47874717
   0.72156498  0.49608267  0.41471440
   0.77399447  0.99767067  0.28975097
   0.26487751  0.49615401  0.41374430
   0.22718577  0.99767067  0.28975097
   0.26794860  0.99717825  0.41969019
   0.22718577  0.49766954  0.29318964
   0.76854851  0.48120700  0.55047824
   0.21238492  0.98088471  0.54350875
   0.23416393  0.50214576  0.54914449
   0.75068684  0.98227699  0.54364355
   0.72558567  0.08103944  0.61663437
   0.18796857  0.24303587  0.60056355
   0.35446805  0.48738618  0.27144965
   0.25816528  0.46508405  0.57468882
   0.67210036  0.15169046  0.63827870
   0.06527126  0.19616555  0.61710385
Direct configuration=   285
   0.00058986  0.24767071  0.29147031
   0.49305682  0.74618241  0.41681489
   0.49287760  0.24680768  0.41657001
   0.00058986  0.74767011  0.29147031
   0.75058982  0.49766954  0.35292815
   0.74014450  0.99851545  0.48194935
   0.25059042  0.49766954  0.35292815
   0.23989317  0.99725680  0.48291138
   0.99618298  0.99740097  0.38536662
   0.51480552  0.49912326  0.51344919
   0.99557869  0.49257668  0.44950258
   0.50058925  0.99767067  0.32219910
   0.98408324  0.22484014  0.55268215
   0.98102294  0.73489357  0.54372353
   0.47592231  0.04707091  0.58166690
   0.99038892  0.22367097  0.48489650
   0.50058925  0.72426545  0.35464748
   0.50058925  0.27107537  0.35464748
   0.98856911  0.76399622  0.48536542
   0.77399447  0.49766954  0.29318964
   0.72319361  0.99783771  0.42032196
   0.48906062  0.22687155  0.47908818
   0.00058986  0.72426545  0.35120881
   0.00058986  0.27107537  0.35120881
   0.48993357  0.76903841  0.47874717
   0.72156498  0.49608267  0.41471440
   0.77399447  0.99767067  0.28975097
   0.26487751  0.49615401  0.41374430
   0.22718577  0.99767067  0.28975097
   0.26794860  0.99717825  0.41969019
   0.22718577  0.49766954  0.29318964
   0.76854851  0.48120700  0.55047824
   0.21238492  0.98088471  0.54350875
   0.23416393  0.50214576  0.54914449
   0.75068684  0.98227699  0.54364355
   0.72558567  0.08103944  0.61663437
   0.18796857  0.24303587  0.60056355
   0.35446805  0.48738618  0.27144965
   0.25816528  0.46508405  0.57468882
   0.67210036  0.15169046  0.63827870
   0.06527126  0.19616555  0.61710385
Direct configuration=   286
   0.00058986  0.24767071  0.29147031
   0.49305682  0.74618241  0.41681489
   0.49287760  0.24680768  0.41657001
   0.00058986  0.74767011  0.29147031
   0.75058982  0.49766954  0.35292815
   0.74014450  0.99851545  0.48194935
   0.25059042  0.49766954  0.35292815
   0.23989317  0.99725680  0.48291138
   0.99618298  0.99740097  0.38536662
   0.51480552  0.49912326  0.51344919
   0.99557869  0.49257668  0.44950258
   0.50058925  0.99767067  0.32219910
   0.98408324  0.22484014  0.55268215
   0.98102294  0.73489357  0.54372353
   0.47592231  0.04707091  0.58166690
   0.99038892  0.22367097  0.48489650
   0.50058925  0.72426545  0.35464748
   0.50058925  0.27107537  0.35464748
   0.98856911  0.76399622  0.48536542
   0.77399447  0.49766954  0.29318964
   0.72319361  0.99783771  0.42032196
   0.48906062  0.22687155  0.47908818
   0.00058986  0.72426545  0.35120881
   0.00058986  0.27107537  0.35120881
   0.48993357  0.76903841  0.47874717
   0.72156498  0.49608267  0.41471440
   0.77399447  0.99767067  0.28975097
   0.26487751  0.49615401  0.41374430
   0.22718577  0.99767067  0.28975097
   0.26794860  0.99717825  0.41969019
   0.22718577  0.49766954  0.29318964
   0.76854851  0.48120700  0.55047824
   0.21238492  0.98088471  0.54350875
   0.23416393  0.50214576  0.54914449
   0.75068684  0.98227699  0.54364355
   0.72558567  0.08103944  0.61663437
   0.18796857  0.24303587  0.60056355
   0.35446805  0.48738618  0.27144965
   0.25816528  0.46508405  0.57468882
   0.67210036  0.15169046  0.63827870
   0.06527126  0.19616555  0.61710385
Direct configuration=   287
   0.00058986  0.24767071  0.29147031
   0.49305682  0.74618241  0.41681489
   0.49287760  0.24680768  0.41657001
   0.00058986  0.74767011  0.29147031
   0.75058982  0.49766954  0.35292815
   0.74014450  0.99851545  0.48194935
   0.25059042  0.49766954  0.35292815
   0.23989317  0.99725680  0.48291138
   0.99618298  0.99740097  0.38536662
   0.51480552  0.49912326  0.51344919
   0.99557869  0.49257668  0.44950258
   0.50058925  0.99767067  0.32219910
   0.98408324  0.22484014  0.55268215
   0.98102294  0.73489357  0.54372353
   0.47592231  0.04707091  0.58166690
   0.99038892  0.22367097  0.48489650
   0.50058925  0.72426545  0.35464748
   0.50058925  0.27107537  0.35464748
   0.98856911  0.76399622  0.48536542
   0.77399447  0.49766954  0.29318964
   0.72319361  0.99783771  0.42032196
   0.48906062  0.22687155  0.47908818
   0.00058986  0.72426545  0.35120881
   0.00058986  0.27107537  0.35120881
   0.48993357  0.76903841  0.47874717
   0.72156498  0.49608267  0.41471440
   0.77399447  0.99767067  0.28975097
   0.26487751  0.49615401  0.41374430
   0.22718577  0.99767067  0.28975097
   0.26794860  0.99717825  0.41969019
   0.22718577  0.49766954  0.29318964
   0.76854851  0.48120700  0.55047824
   0.21238492  0.98088471  0.54350875
   0.23416393  0.50214576  0.54914449
   0.75068684  0.98227699  0.54364355
   0.72558567  0.08103944  0.61663437
   0.18796857  0.24303587  0.60056355
   0.35446805  0.48738618  0.27144965
   0.25816528  0.46508405  0.57468882
   0.67210036  0.15169046  0.63827870
   0.06527126  0.19616555  0.61710385
Direct configuration=   288
   0.00058986  0.24767071  0.29147031
   0.49305682  0.74618241  0.41681489
   0.49287760  0.24680768  0.41657001
   0.00058986  0.74767011  0.29147031
   0.75058982  0.49766954  0.35292815
   0.74014450  0.99851545  0.48194935
   0.25059042  0.49766954  0.35292815
   0.23989317  0.99725680  0.48291138
   0.99618298  0.99740097  0.38536662
   0.51480552  0.49912326  0.51344919
   0.99557869  0.49257668  0.44950258
   0.50058925  0.99767067  0.32219910
   0.98408324  0.22484014  0.55268215
   0.98102294  0.73489357  0.54372353
   0.47592231  0.04707091  0.58166690
   0.99038892  0.22367097  0.48489650
   0.50058925  0.72426545  0.35464748
   0.50058925  0.27107537  0.35464748
   0.98856911  0.76399622  0.48536542
   0.77399447  0.49766954  0.29318964
   0.72319361  0.99783771  0.42032196
   0.48906062  0.22687155  0.47908818
   0.00058986  0.72426545  0.35120881
   0.00058986  0.27107537  0.35120881
   0.48993357  0.76903841  0.47874717
   0.72156498  0.49608267  0.41471440
   0.77399447  0.99767067  0.28975097
   0.26487751  0.49615401  0.41374430
   0.22718577  0.99767067  0.28975097
   0.26794860  0.99717825  0.41969019
   0.22718577  0.49766954  0.29318964
   0.76854851  0.48120700  0.55047824
   0.21238492  0.98088471  0.54350875
   0.23416393  0.50214576  0.54914449
   0.75068684  0.98227699  0.54364355
   0.72558567  0.08103944  0.61663437
   0.18796857  0.24303587  0.60056355
   0.35446805  0.48738618  0.27144965
   0.25816528  0.46508405  0.57468882
   0.67210036  0.15169046  0.63827870
   0.06527126  0.19616555  0.61710385
Direct configuration=   289
   0.00058986  0.24767071  0.29147031
   0.49305682  0.74618241  0.41681489
   0.49287760  0.24680768  0.41657001
   0.00058986  0.74767011  0.29147031
   0.75058982  0.49766954  0.35292815
   0.74014450  0.99851545  0.48194935
   0.25059042  0.49766954  0.35292815
   0.23989317  0.99725680  0.48291138
   0.99618298  0.99740097  0.38536662
   0.51480552  0.49912326  0.51344919
   0.99557869  0.49257668  0.44950258
   0.50058925  0.99767067  0.32219910
   0.98408324  0.22484014  0.55268215
   0.98102294  0.73489357  0.54372353
   0.47592231  0.04707091  0.58166690
   0.99038892  0.22367097  0.48489650
   0.50058925  0.72426545  0.35464748
   0.50058925  0.27107537  0.35464748
   0.98856911  0.76399622  0.48536542
   0.77399447  0.49766954  0.29318964
   0.72319361  0.99783771  0.42032196
   0.48906062  0.22687155  0.47908818
   0.00058986  0.72426545  0.35120881
   0.00058986  0.27107537  0.35120881
   0.48993357  0.76903841  0.47874717
   0.72156498  0.49608267  0.41471440
   0.77399447  0.99767067  0.28975097
   0.26487751  0.49615401  0.41374430
   0.22718577  0.99767067  0.28975097
   0.26794860  0.99717825  0.41969019
   0.22718577  0.49766954  0.29318964
   0.76854851  0.48120700  0.55047824
   0.21238492  0.98088471  0.54350875
   0.23416393  0.50214576  0.54914449
   0.75068684  0.98227699  0.54364355
   0.72558567  0.08103944  0.61663437
   0.18796857  0.24303587  0.60056355
   0.35446805  0.48738618  0.27144965
   0.25816528  0.46508405  0.57468882
   0.67210036  0.15169046  0.63827870
   0.06527126  0.19616555  0.61710385
Direct configuration=   290
   0.00058986  0.24767071  0.29147031
   0.49305682  0.74618241  0.41681489
   0.49287760  0.24680768  0.41657001
   0.00058986  0.74767011  0.29147031
   0.75058982  0.49766954  0.35292815
   0.74014450  0.99851545  0.48194935
   0.25059042  0.49766954  0.35292815
   0.23989317  0.99725680  0.48291138
   0.99618298  0.99740097  0.38536662
   0.51480552  0.49912326  0.51344919
   0.99557869  0.49257668  0.44950258
   0.50058925  0.99767067  0.32219910
   0.98408324  0.22484014  0.55268215
   0.98102294  0.73489357  0.54372353
   0.47592231  0.04707091  0.58166690
   0.99038892  0.22367097  0.48489650
   0.50058925  0.72426545  0.35464748
   0.50058925  0.27107537  0.35464748
   0.98856911  0.76399622  0.48536542
   0.77399447  0.49766954  0.29318964
   0.72319361  0.99783771  0.42032196
   0.48906062  0.22687155  0.47908818
   0.00058986  0.72426545  0.35120881
   0.00058986  0.27107537  0.35120881
   0.48993357  0.76903841  0.47874717
   0.72156498  0.49608267  0.41471440
   0.77399447  0.99767067  0.28975097
   0.26487751  0.49615401  0.41374430
   0.22718577  0.99767067  0.28975097
   0.26794860  0.99717825  0.41969019
   0.22718577  0.49766954  0.29318964
   0.76854851  0.48120700  0.55047824
   0.21238492  0.98088471  0.54350875
   0.23416393  0.50214576  0.54914449
   0.75068684  0.98227699  0.54364355
   0.72558567  0.08103944  0.61663437
   0.18796857  0.24303587  0.60056355
   0.35446805  0.48738618  0.27144965
   0.25816528  0.46508405  0.57468882
   0.67210036  0.15169046  0.63827870
   0.06527126  0.19616555  0.61710385
Direct configuration=   291
   0.00058986  0.24767071  0.29147031
   0.49305682  0.74618241  0.41681489
   0.49287760  0.24680768  0.41657001
   0.00058986  0.74767011  0.29147031
   0.75058982  0.49766954  0.35292815
   0.74014450  0.99851545  0.48194935
   0.25059042  0.49766954  0.35292815
   0.23989317  0.99725680  0.48291138
   0.99618298  0.99740097  0.38536662
   0.51480552  0.49912326  0.51344919
   0.99557869  0.49257668  0.44950258
   0.50058925  0.99767067  0.32219910
   0.98408324  0.22484014  0.55268215
   0.98102294  0.73489357  0.54372353
   0.47592231  0.04707091  0.58166690
   0.99038892  0.22367097  0.48489650
   0.50058925  0.72426545  0.35464748
   0.50058925  0.27107537  0.35464748
   0.98856911  0.76399622  0.48536542
   0.77399447  0.49766954  0.29318964
   0.72319361  0.99783771  0.42032196
   0.48906062  0.22687155  0.47908818
   0.00058986  0.72426545  0.35120881
   0.00058986  0.27107537  0.35120881
   0.48993357  0.76903841  0.47874717
   0.72156498  0.49608267  0.41471440
   0.77399447  0.99767067  0.28975097
   0.26487751  0.49615401  0.41374430
   0.22718577  0.99767067  0.28975097
   0.26794860  0.99717825  0.41969019
   0.22718577  0.49766954  0.29318964
   0.76854851  0.48120700  0.55047824
   0.21238492  0.98088471  0.54350875
   0.23416393  0.50214576  0.54914449
   0.75068684  0.98227699  0.54364355
   0.72558567  0.08103944  0.61663437
   0.18796857  0.24303587  0.60056355
   0.35446805  0.48738618  0.27144965
   0.25816528  0.46508405  0.57468882
   0.67210036  0.15169046  0.63827870
   0.06527126  0.19616555  0.61710385
Direct configuration=   292
   0.00058986  0.24767071  0.29147031
   0.49305682  0.74618241  0.41681489
   0.49287760  0.24680768  0.41657001
   0.00058986  0.74767011  0.29147031
   0.75058982  0.49766954  0.35292815
   0.74014450  0.99851545  0.48194935
   0.25059042  0.49766954  0.35292815
   0.23989317  0.99725680  0.48291138
   0.99618298  0.99740097  0.38536662
   0.51480552  0.49912326  0.51344919
   0.99557869  0.49257668  0.44950258
   0.50058925  0.99767067  0.32219910
   0.98408324  0.22484014  0.55268215
   0.98102294  0.73489357  0.54372353
   0.47592231  0.04707091  0.58166690
   0.99038892  0.22367097  0.48489650
   0.50058925  0.72426545  0.35464748
   0.50058925  0.27107537  0.35464748
   0.98856911  0.76399622  0.48536542
   0.77399447  0.49766954  0.29318964
   0.72319361  0.99783771  0.42032196
   0.48906062  0.22687155  0.47908818
   0.00058986  0.72426545  0.35120881
   0.00058986  0.27107537  0.35120881
   0.48993357  0.76903841  0.47874717
   0.72156498  0.49608267  0.41471440
   0.77399447  0.99767067  0.28975097
   0.26487751  0.49615401  0.41374430
   0.22718577  0.99767067  0.28975097
   0.26794860  0.99717825  0.41969019
   0.22718577  0.49766954  0.29318964
   0.76854851  0.48120700  0.55047824
   0.21238492  0.98088471  0.54350875
   0.23416393  0.50214576  0.54914449
   0.75068684  0.98227699  0.54364355
   0.72558567  0.08103944  0.61663437
   0.18796857  0.24303587  0.60056355
   0.35446805  0.48738618  0.27144965
   0.25816528  0.46508405  0.57468882
   0.67210036  0.15169046  0.63827870
   0.06527126  0.19616555  0.61710385
Direct configuration=   293
   0.00058986  0.24767071  0.29147031
   0.49305682  0.74618241  0.41681489
   0.49287760  0.24680768  0.41657001
   0.00058986  0.74767011  0.29147031
   0.75058982  0.49766954  0.35292815
   0.74014450  0.99851545  0.48194935
   0.25059042  0.49766954  0.35292815
   0.23989317  0.99725680  0.48291138
   0.99618298  0.99740097  0.38536662
   0.51480552  0.49912326  0.51344919
   0.99557869  0.49257668  0.44950258
   0.50058925  0.99767067  0.32219910
   0.98408324  0.22484014  0.55268215
   0.98102294  0.73489357  0.54372353
   0.47592231  0.04707091  0.58166690
   0.99038892  0.22367097  0.48489650
   0.50058925  0.72426545  0.35464748
   0.50058925  0.27107537  0.35464748
   0.98856911  0.76399622  0.48536542
   0.77399447  0.49766954  0.29318964
   0.72319361  0.99783771  0.42032196
   0.48906062  0.22687155  0.47908818
   0.00058986  0.72426545  0.35120881
   0.00058986  0.27107537  0.35120881
   0.48993357  0.76903841  0.47874717
   0.72156498  0.49608267  0.41471440
   0.77399447  0.99767067  0.28975097
   0.26487751  0.49615401  0.41374430
   0.22718577  0.99767067  0.28975097
   0.26794860  0.99717825  0.41969019
   0.22718577  0.49766954  0.29318964
   0.76854851  0.48120700  0.55047824
   0.21238492  0.98088471  0.54350875
   0.23416393  0.50214576  0.54914449
   0.75068684  0.98227699  0.54364355
   0.72558567  0.08103944  0.61663437
   0.18796857  0.24303587  0.60056355
   0.35446805  0.48738618  0.27144965
   0.25816528  0.46508405  0.57468882
   0.67210036  0.15169046  0.63827870
   0.06527126  0.19616555  0.61710385
Direct configuration=   294
   0.00058986  0.24767071  0.29147031
   0.49305682  0.74618241  0.41681489
   0.49287760  0.24680768  0.41657001
   0.00058986  0.74767011  0.29147031
   0.75058982  0.49766954  0.35292815
   0.74014450  0.99851545  0.48194935
   0.25059042  0.49766954  0.35292815
   0.23989317  0.99725680  0.48291138
   0.99618298  0.99740097  0.38536662
   0.51480552  0.49912326  0.51344919
   0.99557869  0.49257668  0.44950258
   0.50058925  0.99767067  0.32219910
   0.98408324  0.22484014  0.55268215
   0.98102294  0.73489357  0.54372353
   0.47592231  0.04707091  0.58166690
   0.99038892  0.22367097  0.48489650
   0.50058925  0.72426545  0.35464748
   0.50058925  0.27107537  0.35464748
   0.98856911  0.76399622  0.48536542
   0.77399447  0.49766954  0.29318964
   0.72319361  0.99783771  0.42032196
   0.48906062  0.22687155  0.47908818
   0.00058986  0.72426545  0.35120881
   0.00058986  0.27107537  0.35120881
   0.48993357  0.76903841  0.47874717
   0.72156498  0.49608267  0.41471440
   0.77399447  0.99767067  0.28975097
   0.26487751  0.49615401  0.41374430
   0.22718577  0.99767067  0.28975097
   0.26794860  0.99717825  0.41969019
   0.22718577  0.49766954  0.29318964
   0.76854851  0.48120700  0.55047824
   0.21238492  0.98088471  0.54350875
   0.23416393  0.50214576  0.54914449
   0.75068684  0.98227699  0.54364355
   0.72558567  0.08103944  0.61663437
   0.18796857  0.24303587  0.60056355
   0.35446805  0.48738618  0.27144965
   0.25816528  0.46508405  0.57468882
   0.67210036  0.15169046  0.63827870
   0.06527126  0.19616555  0.61710385
Direct configuration=   295
   0.00058986  0.24767071  0.29147031
   0.49305682  0.74618241  0.41681489
   0.49287760  0.24680768  0.41657001
   0.00058986  0.74767011  0.29147031
   0.75058982  0.49766954  0.35292815
   0.74014450  0.99851545  0.48194935
   0.25059042  0.49766954  0.35292815
   0.23989317  0.99725680  0.48291138
   0.99618298  0.99740097  0.38536662
   0.51480552  0.49912326  0.51344919
   0.99557869  0.49257668  0.44950258
   0.50058925  0.99767067  0.32219910
   0.98408324  0.22484014  0.55268215
   0.98102294  0.73489357  0.54372353
   0.47592231  0.04707091  0.58166690
   0.99038892  0.22367097  0.48489650
   0.50058925  0.72426545  0.35464748
   0.50058925  0.27107537  0.35464748
   0.98856911  0.76399622  0.48536542
   0.77399447  0.49766954  0.29318964
   0.72319361  0.99783771  0.42032196
   0.48906062  0.22687155  0.47908818
   0.00058986  0.72426545  0.35120881
   0.00058986  0.27107537  0.35120881
   0.48993357  0.76903841  0.47874717
   0.72156498  0.49608267  0.41471440
   0.77399447  0.99767067  0.28975097
   0.26487751  0.49615401  0.41374430
   0.22718577  0.99767067  0.28975097
   0.26794860  0.99717825  0.41969019
   0.22718577  0.49766954  0.29318964
   0.76854851  0.48120700  0.55047824
   0.21238492  0.98088471  0.54350875
   0.23416393  0.50214576  0.54914449
   0.75068684  0.98227699  0.54364355
   0.72558567  0.08103944  0.61663437
   0.18796857  0.24303587  0.60056355
   0.35446805  0.48738618  0.27144965
   0.25816528  0.46508405  0.57468882
   0.67210036  0.15169046  0.63827870
   0.06527126  0.19616555  0.61710385
Direct configuration=   296
   0.00058986  0.24767071  0.29147031
   0.49305682  0.74618241  0.41681489
   0.49287760  0.24680768  0.41657001
   0.00058986  0.74767011  0.29147031
   0.75058982  0.49766954  0.35292815
   0.74014450  0.99851545  0.48194935
   0.25059042  0.49766954  0.35292815
   0.23989317  0.99725680  0.48291138
   0.99618298  0.99740097  0.38536662
   0.51480552  0.49912326  0.51344919
   0.99557869  0.49257668  0.44950258
   0.50058925  0.99767067  0.32219910
   0.98408324  0.22484014  0.55268215
   0.98102294  0.73489357  0.54372353
   0.47592231  0.04707091  0.58166690
   0.99038892  0.22367097  0.48489650
   0.50058925  0.72426545  0.35464748
   0.50058925  0.27107537  0.35464748
   0.98856911  0.76399622  0.48536542
   0.77399447  0.49766954  0.29318964
   0.72319361  0.99783771  0.42032196
   0.48906062  0.22687155  0.47908818
   0.00058986  0.72426545  0.35120881
   0.00058986  0.27107537  0.35120881
   0.48993357  0.76903841  0.47874717
   0.72156498  0.49608267  0.41471440
   0.77399447  0.99767067  0.28975097
   0.26487751  0.49615401  0.41374430
   0.22718577  0.99767067  0.28975097
   0.26794860  0.99717825  0.41969019
   0.22718577  0.49766954  0.29318964
   0.76854851  0.48120700  0.55047824
   0.21238492  0.98088471  0.54350875
   0.23416393  0.50214576  0.54914449
   0.75068684  0.98227699  0.54364355
   0.72558567  0.08103944  0.61663437
   0.18796857  0.24303587  0.60056355
   0.35446805  0.48738618  0.27144965
   0.25816528  0.46508405  0.57468882
   0.67210036  0.15169046  0.63827870
   0.06527126  0.19616555  0.61710385
Direct configuration=   297
   0.00058986  0.24767071  0.29147031
   0.49305682  0.74618241  0.41681489
   0.49287760  0.24680768  0.41657001
   0.00058986  0.74767011  0.29147031
   0.75058982  0.49766954  0.35292815
   0.74014450  0.99851545  0.48194935
   0.25059042  0.49766954  0.35292815
   0.23989317  0.99725680  0.48291138
   0.99618298  0.99740097  0.38536662
   0.51480552  0.49912326  0.51344919
   0.99557869  0.49257668  0.44950258
   0.50058925  0.99767067  0.32219910
   0.98408324  0.22484014  0.55268215
   0.98102294  0.73489357  0.54372353
   0.47592231  0.04707091  0.58166690
   0.99038892  0.22367097  0.48489650
   0.50058925  0.72426545  0.35464748
   0.50058925  0.27107537  0.35464748
   0.98856911  0.76399622  0.48536542
   0.77399447  0.49766954  0.29318964
   0.72319361  0.99783771  0.42032196
   0.48906062  0.22687155  0.47908818
   0.00058986  0.72426545  0.35120881
   0.00058986  0.27107537  0.35120881
   0.48993357  0.76903841  0.47874717
   0.72156498  0.49608267  0.41471440
   0.77399447  0.99767067  0.28975097
   0.26487751  0.49615401  0.41374430
   0.22718577  0.99767067  0.28975097
   0.26794860  0.99717825  0.41969019
   0.22718577  0.49766954  0.29318964
   0.76854851  0.48120700  0.55047824
   0.21238492  0.98088471  0.54350875
   0.23416393  0.50214576  0.54914449
   0.75068684  0.98227699  0.54364355
   0.72558567  0.08103944  0.61663437
   0.18796857  0.24303587  0.60056355
   0.35446805  0.48738618  0.27144965
   0.25816528  0.46508405  0.57468882
   0.67210036  0.15169046  0.63827870
   0.06527126  0.19616555  0.61710385
Direct configuration=   298
   0.00058986  0.24767071  0.29147031
   0.49305682  0.74618241  0.41681489
   0.49287760  0.24680768  0.41657001
   0.00058986  0.74767011  0.29147031
   0.75058982  0.49766954  0.35292815
   0.74014450  0.99851545  0.48194935
   0.25059042  0.49766954  0.35292815
   0.23989317  0.99725680  0.48291138
   0.99618298  0.99740097  0.38536662
   0.51480552  0.49912326  0.51344919
   0.99557869  0.49257668  0.44950258
   0.50058925  0.99767067  0.32219910
   0.98408324  0.22484014  0.55268215
   0.98102294  0.73489357  0.54372353
   0.47592231  0.04707091  0.58166690
   0.99038892  0.22367097  0.48489650
   0.50058925  0.72426545  0.35464748
   0.50058925  0.27107537  0.35464748
   0.98856911  0.76399622  0.48536542
   0.77399447  0.49766954  0.29318964
   0.72319361  0.99783771  0.42032196
   0.48906062  0.22687155  0.47908818
   0.00058986  0.72426545  0.35120881
   0.00058986  0.27107537  0.35120881
   0.48993357  0.76903841  0.47874717
   0.72156498  0.49608267  0.41471440
   0.77399447  0.99767067  0.28975097
   0.26487751  0.49615401  0.41374430
   0.22718577  0.99767067  0.28975097
   0.26794860  0.99717825  0.41969019
   0.22718577  0.49766954  0.29318964
   0.76854851  0.48120700  0.55047824
   0.21238492  0.98088471  0.54350875
   0.23416393  0.50214576  0.54914449
   0.75068684  0.98227699  0.54364355
   0.72558567  0.08103944  0.61663437
   0.18796857  0.24303587  0.60056355
   0.35446805  0.48738618  0.27144965
   0.25816528  0.46508405  0.57468882
   0.67210036  0.15169046  0.63827870
   0.06527126  0.19616555  0.61710385
Direct configuration=   299
   0.00058986  0.24767071  0.29147031
   0.49305682  0.74618241  0.41681489
   0.49287760  0.24680768  0.41657001
   0.00058986  0.74767011  0.29147031
   0.75058982  0.49766954  0.35292815
   0.74014450  0.99851545  0.48194935
   0.25059042  0.49766954  0.35292815
   0.23989317  0.99725680  0.48291138
   0.99618298  0.99740097  0.38536662
   0.51480552  0.49912326  0.51344919
   0.99557869  0.49257668  0.44950258
   0.50058925  0.99767067  0.32219910
   0.98408324  0.22484014  0.55268215
   0.98102294  0.73489357  0.54372353
   0.47592231  0.04707091  0.58166690
   0.99038892  0.22367097  0.48489650
   0.50058925  0.72426545  0.35464748
   0.50058925  0.27107537  0.35464748
   0.98856911  0.76399622  0.48536542
   0.77399447  0.49766954  0.29318964
   0.72319361  0.99783771  0.42032196
   0.48906062  0.22687155  0.47908818
   0.00058986  0.72426545  0.35120881
   0.00058986  0.27107537  0.35120881
   0.48993357  0.76903841  0.47874717
   0.72156498  0.49608267  0.41471440
   0.77399447  0.99767067  0.28975097
   0.26487751  0.49615401  0.41374430
   0.22718577  0.99767067  0.28975097
   0.26794860  0.99717825  0.41969019
   0.22718577  0.49766954  0.29318964
   0.76854851  0.48120700  0.55047824
   0.21238492  0.98088471  0.54350875
   0.23416393  0.50214576  0.54914449
   0.75068684  0.98227699  0.54364355
   0.72558567  0.08103944  0.61663437
   0.18796857  0.24303587  0.60056355
   0.35446805  0.48738618  0.27144965
   0.25816528  0.46508405  0.57468882
   0.67210036  0.15169046  0.63827870
   0.06527126  0.19616555  0.61710385
Direct configuration=   300
   0.00058986  0.24767071  0.29147031
   0.49305682  0.74618241  0.41681489
   0.49287760  0.24680768  0.41657001
   0.00058986  0.74767011  0.29147031
   0.75058982  0.49766954  0.35292815
   0.74014450  0.99851545  0.48194935
   0.25059042  0.49766954  0.35292815
   0.23989317  0.99725680  0.48291138
   0.99618298  0.99740097  0.38536662
   0.51480552  0.49912326  0.51344919
   0.99557869  0.49257668  0.44950258
   0.50058925  0.99767067  0.32219910
   0.98408324  0.22484014  0.55268215
   0.98102294  0.73489357  0.54372353
   0.47592231  0.04707091  0.58166690
   0.99038892  0.22367097  0.48489650
   0.50058925  0.72426545  0.35464748
   0.50058925  0.27107537  0.35464748
   0.98856911  0.76399622  0.48536542
   0.77399447  0.49766954  0.29318964
   0.72319361  0.99783771  0.42032196
   0.48906062  0.22687155  0.47908818
   0.00058986  0.72426545  0.35120881
   0.00058986  0.27107537  0.35120881
   0.48993357  0.76903841  0.47874717
   0.72156498  0.49608267  0.41471440
   0.77399447  0.99767067  0.28975097
   0.26487751  0.49615401  0.41374430
   0.22718577  0.99767067  0.28975097
   0.26794860  0.99717825  0.41969019
   0.22718577  0.49766954  0.29318964
   0.76854851  0.48120700  0.55047824
   0.21238492  0.98088471  0.54350875
   0.23416393  0.50214576  0.54914449
   0.75068684  0.98227699  0.54364355
   0.72558567  0.08103944  0.61663437
   0.18796857  0.24303587  0.60056355
   0.35446805  0.48738618  0.27144965
   0.25816528  0.46508405  0.57468882
   0.67210036  0.15169046  0.63827870
   0.06527126  0.19616555  0.61710385
Direct configuration=   301
   0.00058986  0.24767071  0.29147031
   0.49305682  0.74618241  0.41681489
   0.49287760  0.24680768  0.41657001
   0.00058986  0.74767011  0.29147031
   0.75058982  0.49766954  0.35292815
   0.74014450  0.99851545  0.48194935
   0.25059042  0.49766954  0.35292815
   0.23989317  0.99725680  0.48291138
   0.99618298  0.99740097  0.38536662
   0.51480552  0.49912326  0.51344919
   0.99557869  0.49257668  0.44950258
   0.50058925  0.99767067  0.32219910
   0.98408324  0.22484014  0.55268215
   0.98102294  0.73489357  0.54372353
   0.47592231  0.04707091  0.58166690
   0.99038892  0.22367097  0.48489650
   0.50058925  0.72426545  0.35464748
   0.50058925  0.27107537  0.35464748
   0.98856911  0.76399622  0.48536542
   0.77399447  0.49766954  0.29318964
   0.72319361  0.99783771  0.42032196
   0.48906062  0.22687155  0.47908818
   0.00058986  0.72426545  0.35120881
   0.00058986  0.27107537  0.35120881
   0.48993357  0.76903841  0.47874717
   0.72156498  0.49608267  0.41471440
   0.77399447  0.99767067  0.28975097
   0.26487751  0.49615401  0.41374430
   0.22718577  0.99767067  0.28975097
   0.26794860  0.99717825  0.41969019
   0.22718577  0.49766954  0.29318964
   0.76854851  0.48120700  0.55047824
   0.21238492  0.98088471  0.54350875
   0.23416393  0.50214576  0.54914449
   0.75068684  0.98227699  0.54364355
   0.72558567  0.08103944  0.61663437
   0.18796857  0.24303587  0.60056355
   0.35446805  0.48738618  0.27144965
   0.25816528  0.46508405  0.57468882
   0.67210036  0.15169046  0.63827870
   0.06527126  0.19616555  0.61710385
Direct configuration=   302
   0.00058986  0.24767071  0.29147031
   0.49305682  0.74618241  0.41681489
   0.49287760  0.24680768  0.41657001
   0.00058986  0.74767011  0.29147031
   0.75058982  0.49766954  0.35292815
   0.74014450  0.99851545  0.48194935
   0.25059042  0.49766954  0.35292815
   0.23989317  0.99725680  0.48291138
   0.99618298  0.99740097  0.38536662
   0.51480552  0.49912326  0.51344919
   0.99557869  0.49257668  0.44950258
   0.50058925  0.99767067  0.32219910
   0.98408324  0.22484014  0.55268215
   0.98102294  0.73489357  0.54372353
   0.47592231  0.04707091  0.58166690
   0.99038892  0.22367097  0.48489650
   0.50058925  0.72426545  0.35464748
   0.50058925  0.27107537  0.35464748
   0.98856911  0.76399622  0.48536542
   0.77399447  0.49766954  0.29318964
   0.72319361  0.99783771  0.42032196
   0.48906062  0.22687155  0.47908818
   0.00058986  0.72426545  0.35120881
   0.00058986  0.27107537  0.35120881
   0.48993357  0.76903841  0.47874717
   0.72156498  0.49608267  0.41471440
   0.77399447  0.99767067  0.28975097
   0.26487751  0.49615401  0.41374430
   0.22718577  0.99767067  0.28975097
   0.26794860  0.99717825  0.41969019
   0.22718577  0.49766954  0.29318964
   0.76854851  0.48120700  0.55047824
   0.21238492  0.98088471  0.54350875
   0.23416393  0.50214576  0.54914449
   0.75068684  0.98227699  0.54364355
   0.72558567  0.08103944  0.61663437
   0.18796857  0.24303587  0.60056355
   0.35446805  0.48738618  0.27144965
   0.25816528  0.46508405  0.57468882
   0.67210036  0.15169046  0.63827870
   0.06527126  0.19616555  0.61710385
Direct configuration=   303
   0.00058986  0.24767071  0.29147031
   0.49305682  0.74618241  0.41681489
   0.49287760  0.24680768  0.41657001
   0.00058986  0.74767011  0.29147031
   0.75058982  0.49766954  0.35292815
   0.74014450  0.99851545  0.48194935
   0.25059042  0.49766954  0.35292815
   0.23989317  0.99725680  0.48291138
   0.99618298  0.99740097  0.38536662
   0.51480552  0.49912326  0.51344919
   0.99557869  0.49257668  0.44950258
   0.50058925  0.99767067  0.32219910
   0.98408324  0.22484014  0.55268215
   0.98102294  0.73489357  0.54372353
   0.47592231  0.04707091  0.58166690
   0.99038892  0.22367097  0.48489650
   0.50058925  0.72426545  0.35464748
   0.50058925  0.27107537  0.35464748
   0.98856911  0.76399622  0.48536542
   0.77399447  0.49766954  0.29318964
   0.72319361  0.99783771  0.42032196
   0.48906062  0.22687155  0.47908818
   0.00058986  0.72426545  0.35120881
   0.00058986  0.27107537  0.35120881
   0.48993357  0.76903841  0.47874717
   0.72156498  0.49608267  0.41471440
   0.77399447  0.99767067  0.28975097
   0.26487751  0.49615401  0.41374430
   0.22718577  0.99767067  0.28975097
   0.26794860  0.99717825  0.41969019
   0.22718577  0.49766954  0.29318964
   0.76854851  0.48120700  0.55047824
   0.21238492  0.98088471  0.54350875
   0.23416393  0.50214576  0.54914449
   0.75068684  0.98227699  0.54364355
   0.72558567  0.08103944  0.61663437
   0.18796857  0.24303587  0.60056355
   0.35446805  0.48738618  0.27144965
   0.25816528  0.46508405  0.57468882
   0.67210036  0.15169046  0.63827870
   0.06527126  0.19616555  0.61710385
Direct configuration=   304
   0.00058986  0.24767071  0.29147031
   0.49305682  0.74618241  0.41681489
   0.49287760  0.24680768  0.41657001
   0.00058986  0.74767011  0.29147031
   0.75058982  0.49766954  0.35292815
   0.74014450  0.99851545  0.48194935
   0.25059042  0.49766954  0.35292815
   0.23989317  0.99725680  0.48291138
   0.99618298  0.99740097  0.38536662
   0.51480552  0.49912326  0.51344919
   0.99557869  0.49257668  0.44950258
   0.50058925  0.99767067  0.32219910
   0.98408324  0.22484014  0.55268215
   0.98102294  0.73489357  0.54372353
   0.47592231  0.04707091  0.58166690
   0.99038892  0.22367097  0.48489650
   0.50058925  0.72426545  0.35464748
   0.50058925  0.27107537  0.35464748
   0.98856911  0.76399622  0.48536542
   0.77399447  0.49766954  0.29318964
   0.72319361  0.99783771  0.42032196
   0.48906062  0.22687155  0.47908818
   0.00058986  0.72426545  0.35120881
   0.00058986  0.27107537  0.35120881
   0.48993357  0.76903841  0.47874717
   0.72156498  0.49608267  0.41471440
   0.77399447  0.99767067  0.28975097
   0.26487751  0.49615401  0.41374430
   0.22718577  0.99767067  0.28975097
   0.26794860  0.99717825  0.41969019
   0.22718577  0.49766954  0.29318964
   0.76854851  0.48120700  0.55047824
   0.21238492  0.98088471  0.54350875
   0.23416393  0.50214576  0.54914449
   0.75068684  0.98227699  0.54364355
   0.72558567  0.08103944  0.61663437
   0.18796857  0.24303587  0.60056355
   0.35446805  0.48738618  0.27144965
   0.25816528  0.46508405  0.57468882
   0.67210036  0.15169046  0.63827870
   0.06527126  0.19616555  0.61710385
Direct configuration=   305
   0.00058986  0.24767071  0.29147031
   0.49305682  0.74618241  0.41681489
   0.49287760  0.24680768  0.41657001
   0.00058986  0.74767011  0.29147031
   0.75058982  0.49766954  0.35292815
   0.74014450  0.99851545  0.48194935
   0.25059042  0.49766954  0.35292815
   0.23989317  0.99725680  0.48291138
   0.99618298  0.99740097  0.38536662
   0.51480552  0.49912326  0.51344919
   0.99557869  0.49257668  0.44950258
   0.50058925  0.99767067  0.32219910
   0.98408324  0.22484014  0.55268215
   0.98102294  0.73489357  0.54372353
   0.47592231  0.04707091  0.58166690
   0.99038892  0.22367097  0.48489650
   0.50058925  0.72426545  0.35464748
   0.50058925  0.27107537  0.35464748
   0.98856911  0.76399622  0.48536542
   0.77399447  0.49766954  0.29318964
   0.72319361  0.99783771  0.42032196
   0.48906062  0.22687155  0.47908818
   0.00058986  0.72426545  0.35120881
   0.00058986  0.27107537  0.35120881
   0.48993357  0.76903841  0.47874717
   0.72156498  0.49608267  0.41471440
   0.77399447  0.99767067  0.28975097
   0.26487751  0.49615401  0.41374430
   0.22718577  0.99767067  0.28975097
   0.26794860  0.99717825  0.41969019
   0.22718577  0.49766954  0.29318964
   0.76854851  0.48120700  0.55047824
   0.21238492  0.98088471  0.54350875
   0.23416393  0.50214576  0.54914449
   0.75068684  0.98227699  0.54364355
   0.72558567  0.08103944  0.61663437
   0.18796857  0.24303587  0.60056355
   0.35446805  0.48738618  0.27144965
   0.25816528  0.46508405  0.57468882
   0.67210036  0.15169046  0.63827870
   0.06527126  0.19616555  0.61710385
Direct configuration=   306
   0.00058986  0.24767071  0.29147031
   0.49305682  0.74618241  0.41681489
   0.49287760  0.24680768  0.41657001
   0.00058986  0.74767011  0.29147031
   0.75058982  0.49766954  0.35292815
   0.74014450  0.99851545  0.48194935
   0.25059042  0.49766954  0.35292815
   0.23989317  0.99725680  0.48291138
   0.99618298  0.99740097  0.38536662
   0.51480552  0.49912326  0.51344919
   0.99557869  0.49257668  0.44950258
   0.50058925  0.99767067  0.32219910
   0.98408324  0.22484014  0.55268215
   0.98102294  0.73489357  0.54372353
   0.47592231  0.04707091  0.58166690
   0.99038892  0.22367097  0.48489650
   0.50058925  0.72426545  0.35464748
   0.50058925  0.27107537  0.35464748
   0.98856911  0.76399622  0.48536542
   0.77399447  0.49766954  0.29318964
   0.72319361  0.99783771  0.42032196
   0.48906062  0.22687155  0.47908818
   0.00058986  0.72426545  0.35120881
   0.00058986  0.27107537  0.35120881
   0.48993357  0.76903841  0.47874717
   0.72156498  0.49608267  0.41471440
   0.77399447  0.99767067  0.28975097
   0.26487751  0.49615401  0.41374430
   0.22718577  0.99767067  0.28975097
   0.26794860  0.99717825  0.41969019
   0.22718577  0.49766954  0.29318964
   0.76854851  0.48120700  0.55047824
   0.21238492  0.98088471  0.54350875
   0.23416393  0.50214576  0.54914449
   0.75068684  0.98227699  0.54364355
   0.72558567  0.08103944  0.61663437
   0.18796857  0.24303587  0.60056355
   0.35446805  0.48738618  0.27144965
   0.25816528  0.46508405  0.57468882
   0.67210036  0.15169046  0.63827870
   0.06527126  0.19616555  0.61710385
Direct configuration=   307
   0.00058986  0.24767071  0.29147031
   0.49305682  0.74618241  0.41681489
   0.49287760  0.24680768  0.41657001
   0.00058986  0.74767011  0.29147031
   0.75058982  0.49766954  0.35292815
   0.74014450  0.99851545  0.48194935
   0.25059042  0.49766954  0.35292815
   0.23989317  0.99725680  0.48291138
   0.99618298  0.99740097  0.38536662
   0.51480552  0.49912326  0.51344919
   0.99557869  0.49257668  0.44950258
   0.50058925  0.99767067  0.32219910
   0.98408324  0.22484014  0.55268215
   0.98102294  0.73489357  0.54372353
   0.47592231  0.04707091  0.58166690
   0.99038892  0.22367097  0.48489650
   0.50058925  0.72426545  0.35464748
   0.50058925  0.27107537  0.35464748
   0.98856911  0.76399622  0.48536542
   0.77399447  0.49766954  0.29318964
   0.72319361  0.99783771  0.42032196
   0.48906062  0.22687155  0.47908818
   0.00058986  0.72426545  0.35120881
   0.00058986  0.27107537  0.35120881
   0.48993357  0.76903841  0.47874717
   0.72156498  0.49608267  0.41471440
   0.77399447  0.99767067  0.28975097
   0.26487751  0.49615401  0.41374430
   0.22718577  0.99767067  0.28975097
   0.26794860  0.99717825  0.41969019
   0.22718577  0.49766954  0.29318964
   0.76854851  0.48120700  0.55047824
   0.21238492  0.98088471  0.54350875
   0.23416393  0.50214576  0.54914449
   0.75068684  0.98227699  0.54364355
   0.72558567  0.08103944  0.61663437
   0.18796857  0.24303587  0.60056355
   0.35446805  0.48738618  0.27144965
   0.25816528  0.46508405  0.57468882
   0.67210036  0.15169046  0.63827870
   0.06527126  0.19616555  0.61710385
Direct configuration=   308
   0.00058986  0.24767071  0.29147031
   0.49305682  0.74618241  0.41681489
   0.49287760  0.24680768  0.41657001
   0.00058986  0.74767011  0.29147031
   0.75058982  0.49766954  0.35292815
   0.74014450  0.99851545  0.48194935
   0.25059042  0.49766954  0.35292815
   0.23989317  0.99725680  0.48291138
   0.99618298  0.99740097  0.38536662
   0.51480552  0.49912326  0.51344919
   0.99557869  0.49257668  0.44950258
   0.50058925  0.99767067  0.32219910
   0.98408324  0.22484014  0.55268215
   0.98102294  0.73489357  0.54372353
   0.47592231  0.04707091  0.58166690
   0.99038892  0.22367097  0.48489650
   0.50058925  0.72426545  0.35464748
   0.50058925  0.27107537  0.35464748
   0.98856911  0.76399622  0.48536542
   0.77399447  0.49766954  0.29318964
   0.72319361  0.99783771  0.42032196
   0.48906062  0.22687155  0.47908818
   0.00058986  0.72426545  0.35120881
   0.00058986  0.27107537  0.35120881
   0.48993357  0.76903841  0.47874717
   0.72156498  0.49608267  0.41471440
   0.77399447  0.99767067  0.28975097
   0.26487751  0.49615401  0.41374430
   0.22718577  0.99767067  0.28975097
   0.26794860  0.99717825  0.41969019
   0.22718577  0.49766954  0.29318964
   0.76854851  0.48120700  0.55047824
   0.21238492  0.98088471  0.54350875
   0.23416393  0.50214576  0.54914449
   0.75068684  0.98227699  0.54364355
   0.72558567  0.08103944  0.61663437
   0.18796857  0.24303587  0.60056355
   0.35446805  0.48738618  0.27144965
   0.25816528  0.46508405  0.57468882
   0.67210036  0.15169046  0.63827870
   0.06527126  0.19616555  0.61710385
Direct configuration=   309
   0.00058986  0.24767071  0.29147031
   0.49305682  0.74618241  0.41681489
   0.49287760  0.24680768  0.41657001
   0.00058986  0.74767011  0.29147031
   0.75058982  0.49766954  0.35292815
   0.74014450  0.99851545  0.48194935
   0.25059042  0.49766954  0.35292815
   0.23989317  0.99725680  0.48291138
   0.99618298  0.99740097  0.38536662
   0.51480552  0.49912326  0.51344919
   0.99557869  0.49257668  0.44950258
   0.50058925  0.99767067  0.32219910
   0.98408324  0.22484014  0.55268215
   0.98102294  0.73489357  0.54372353
   0.47592231  0.04707091  0.58166690
   0.99038892  0.22367097  0.48489650
   0.50058925  0.72426545  0.35464748
   0.50058925  0.27107537  0.35464748
   0.98856911  0.76399622  0.48536542
   0.77399447  0.49766954  0.29318964
   0.72319361  0.99783771  0.42032196
   0.48906062  0.22687155  0.47908818
   0.00058986  0.72426545  0.35120881
   0.00058986  0.27107537  0.35120881
   0.48993357  0.76903841  0.47874717
   0.72156498  0.49608267  0.41471440
   0.77399447  0.99767067  0.28975097
   0.26487751  0.49615401  0.41374430
   0.22718577  0.99767067  0.28975097
   0.26794860  0.99717825  0.41969019
   0.22718577  0.49766954  0.29318964
   0.76854851  0.48120700  0.55047824
   0.21238492  0.98088471  0.54350875
   0.23416393  0.50214576  0.54914449
   0.75068684  0.98227699  0.54364355
   0.72558567  0.08103944  0.61663437
   0.18796857  0.24303587  0.60056355
   0.35446805  0.48738618  0.27144965
   0.25816528  0.46508405  0.57468882
   0.67210036  0.15169046  0.63827870
   0.06527126  0.19616555  0.61710385
Direct configuration=   310
   0.00058986  0.24767071  0.29147031
   0.49305682  0.74618241  0.41681489
   0.49287760  0.24680768  0.41657001
   0.00058986  0.74767011  0.29147031
   0.75058982  0.49766954  0.35292815
   0.74014450  0.99851545  0.48194935
   0.25059042  0.49766954  0.35292815
   0.23989317  0.99725680  0.48291138
   0.99618298  0.99740097  0.38536662
   0.51480552  0.49912326  0.51344919
   0.99557869  0.49257668  0.44950258
   0.50058925  0.99767067  0.32219910
   0.98408324  0.22484014  0.55268215
   0.98102294  0.73489357  0.54372353
   0.47592231  0.04707091  0.58166690
   0.99038892  0.22367097  0.48489650
   0.50058925  0.72426545  0.35464748
   0.50058925  0.27107537  0.35464748
   0.98856911  0.76399622  0.48536542
   0.77399447  0.49766954  0.29318964
   0.72319361  0.99783771  0.42032196
   0.48906062  0.22687155  0.47908818
   0.00058986  0.72426545  0.35120881
   0.00058986  0.27107537  0.35120881
   0.48993357  0.76903841  0.47874717
   0.72156498  0.49608267  0.41471440
   0.77399447  0.99767067  0.28975097
   0.26487751  0.49615401  0.41374430
   0.22718577  0.99767067  0.28975097
   0.26794860  0.99717825  0.41969019
   0.22718577  0.49766954  0.29318964
   0.76854851  0.48120700  0.55047824
   0.21238492  0.98088471  0.54350875
   0.23416393  0.50214576  0.54914449
   0.75068684  0.98227699  0.54364355
   0.72558567  0.08103944  0.61663437
   0.18796857  0.24303587  0.60056355
   0.35446805  0.48738618  0.27144965
   0.25816528  0.46508405  0.57468882
   0.67210036  0.15169046  0.63827870
   0.06527126  0.19616555  0.61710385
Direct configuration=   311
   0.00058986  0.24767071  0.29147031
   0.49305682  0.74618241  0.41681489
   0.49287760  0.24680768  0.41657001
   0.00058986  0.74767011  0.29147031
   0.75058982  0.49766954  0.35292815
   0.74014450  0.99851545  0.48194935
   0.25059042  0.49766954  0.35292815
   0.23989317  0.99725680  0.48291138
   0.99618298  0.99740097  0.38536662
   0.51480552  0.49912326  0.51344919
   0.99557869  0.49257668  0.44950258
   0.50058925  0.99767067  0.32219910
   0.98408324  0.22484014  0.55268215
   0.98102294  0.73489357  0.54372353
   0.47592231  0.04707091  0.58166690
   0.99038892  0.22367097  0.48489650
   0.50058925  0.72426545  0.35464748
   0.50058925  0.27107537  0.35464748
   0.98856911  0.76399622  0.48536542
   0.77399447  0.49766954  0.29318964
   0.72319361  0.99783771  0.42032196
   0.48906062  0.22687155  0.47908818
   0.00058986  0.72426545  0.35120881
   0.00058986  0.27107537  0.35120881
   0.48993357  0.76903841  0.47874717
   0.72156498  0.49608267  0.41471440
   0.77399447  0.99767067  0.28975097
   0.26487751  0.49615401  0.41374430
   0.22718577  0.99767067  0.28975097
   0.26794860  0.99717825  0.41969019
   0.22718577  0.49766954  0.29318964
   0.76854851  0.48120700  0.55047824
   0.21238492  0.98088471  0.54350875
   0.23416393  0.50214576  0.54914449
   0.75068684  0.98227699  0.54364355
   0.72558567  0.08103944  0.61663437
   0.18796857  0.24303587  0.60056355
   0.35446805  0.48738618  0.27144965
   0.25816528  0.46508405  0.57468882
   0.67210036  0.15169046  0.63827870
   0.06527126  0.19616555  0.61710385
Direct configuration=   312
   0.00058986  0.24767071  0.29147031
   0.49305682  0.74618241  0.41681489
   0.49287760  0.24680768  0.41657001
   0.00058986  0.74767011  0.29147031
   0.75058982  0.49766954  0.35292815
   0.74014450  0.99851545  0.48194935
   0.25059042  0.49766954  0.35292815
   0.23989317  0.99725680  0.48291138
   0.99618298  0.99740097  0.38536662
   0.51480552  0.49912326  0.51344919
   0.99557869  0.49257668  0.44950258
   0.50058925  0.99767067  0.32219910
   0.98408324  0.22484014  0.55268215
   0.98102294  0.73489357  0.54372353
   0.47592231  0.04707091  0.58166690
   0.99038892  0.22367097  0.48489650
   0.50058925  0.72426545  0.35464748
   0.50058925  0.27107537  0.35464748
   0.98856911  0.76399622  0.48536542
   0.77399447  0.49766954  0.29318964
   0.72319361  0.99783771  0.42032196
   0.48906062  0.22687155  0.47908818
   0.00058986  0.72426545  0.35120881
   0.00058986  0.27107537  0.35120881
   0.48993357  0.76903841  0.47874717
   0.72156498  0.49608267  0.41471440
   0.77399447  0.99767067  0.28975097
   0.26487751  0.49615401  0.41374430
   0.22718577  0.99767067  0.28975097
   0.26794860  0.99717825  0.41969019
   0.22718577  0.49766954  0.29318964
   0.76854851  0.48120700  0.55047824
   0.21238492  0.98088471  0.54350875
   0.23416393  0.50214576  0.54914449
   0.75068684  0.98227699  0.54364355
   0.72558567  0.08103944  0.61663437
   0.18796857  0.24303587  0.60056355
   0.35446805  0.48738618  0.27144965
   0.25816528  0.46508405  0.57468882
   0.67210036  0.15169046  0.63827870
   0.06527126  0.19616555  0.61710385
Direct configuration=   313
   0.00058986  0.24767071  0.29147031
   0.49305682  0.74618241  0.41681489
   0.49287760  0.24680768  0.41657001
   0.00058986  0.74767011  0.29147031
   0.75058982  0.49766954  0.35292815
   0.74014450  0.99851545  0.48194935
   0.25059042  0.49766954  0.35292815
   0.23989317  0.99725680  0.48291138
   0.99618298  0.99740097  0.38536662
   0.51480552  0.49912326  0.51344919
   0.99557869  0.49257668  0.44950258
   0.50058925  0.99767067  0.32219910
   0.98408324  0.22484014  0.55268215
   0.98102294  0.73489357  0.54372353
   0.47592231  0.04707091  0.58166690
   0.99038892  0.22367097  0.48489650
   0.50058925  0.72426545  0.35464748
   0.50058925  0.27107537  0.35464748
   0.98856911  0.76399622  0.48536542
   0.77399447  0.49766954  0.29318964
   0.72319361  0.99783771  0.42032196
   0.48906062  0.22687155  0.47908818
   0.00058986  0.72426545  0.35120881
   0.00058986  0.27107537  0.35120881
   0.48993357  0.76903841  0.47874717
   0.72156498  0.49608267  0.41471440
   0.77399447  0.99767067  0.28975097
   0.26487751  0.49615401  0.41374430
   0.22718577  0.99767067  0.28975097
   0.26794860  0.99717825  0.41969019
   0.22718577  0.49766954  0.29318964
   0.76854851  0.48120700  0.55047824
   0.21238492  0.98088471  0.54350875
   0.23416393  0.50214576  0.54914449
   0.75068684  0.98227699  0.54364355
   0.72558567  0.08103944  0.61663437
   0.18796857  0.24303587  0.60056355
   0.35446805  0.48738618  0.27144965
   0.25816528  0.46508405  0.57468882
   0.67210036  0.15169046  0.63827870
   0.06527126  0.19616555  0.61710385
Direct configuration=   314
   0.00058986  0.24767071  0.29147031
   0.49305682  0.74618241  0.41681489
   0.49287760  0.24680768  0.41657001
   0.00058986  0.74767011  0.29147031
   0.75058982  0.49766954  0.35292815
   0.74014450  0.99851545  0.48194935
   0.25059042  0.49766954  0.35292815
   0.23989317  0.99725680  0.48291138
   0.99618298  0.99740097  0.38536662
   0.51480552  0.49912326  0.51344919
   0.99557869  0.49257668  0.44950258
   0.50058925  0.99767067  0.32219910
   0.98408324  0.22484014  0.55268215
   0.98102294  0.73489357  0.54372353
   0.47592231  0.04707091  0.58166690
   0.99038892  0.22367097  0.48489650
   0.50058925  0.72426545  0.35464748
   0.50058925  0.27107537  0.35464748
   0.98856911  0.76399622  0.48536542
   0.77399447  0.49766954  0.29318964
   0.72319361  0.99783771  0.42032196
   0.48906062  0.22687155  0.47908818
   0.00058986  0.72426545  0.35120881
   0.00058986  0.27107537  0.35120881
   0.48993357  0.76903841  0.47874717
   0.72156498  0.49608267  0.41471440
   0.77399447  0.99767067  0.28975097
   0.26487751  0.49615401  0.41374430
   0.22718577  0.99767067  0.28975097
   0.26794860  0.99717825  0.41969019
   0.22718577  0.49766954  0.29318964
   0.76854851  0.48120700  0.55047824
   0.21238492  0.98088471  0.54350875
   0.23416393  0.50214576  0.54914449
   0.75068684  0.98227699  0.54364355
   0.72558567  0.08103944  0.61663437
   0.18796857  0.24303587  0.60056355
   0.35446805  0.48738618  0.27144965
   0.25816528  0.46508405  0.57468882
   0.67210036  0.15169046  0.63827870
   0.06527126  0.19616555  0.61710385
Direct configuration=   315
   0.00058986  0.24767071  0.29147031
   0.49305682  0.74618241  0.41681489
   0.49287760  0.24680768  0.41657001
   0.00058986  0.74767011  0.29147031
   0.75058982  0.49766954  0.35292815
   0.74014450  0.99851545  0.48194935
   0.25059042  0.49766954  0.35292815
   0.23989317  0.99725680  0.48291138
   0.99618298  0.99740097  0.38536662
   0.51480552  0.49912326  0.51344919
   0.99557869  0.49257668  0.44950258
   0.50058925  0.99767067  0.32219910
   0.98408324  0.22484014  0.55268215
   0.98102294  0.73489357  0.54372353
   0.47592231  0.04707091  0.58166690
   0.99038892  0.22367097  0.48489650
   0.50058925  0.72426545  0.35464748
   0.50058925  0.27107537  0.35464748
   0.98856911  0.76399622  0.48536542
   0.77399447  0.49766954  0.29318964
   0.72319361  0.99783771  0.42032196
   0.48906062  0.22687155  0.47908818
   0.00058986  0.72426545  0.35120881
   0.00058986  0.27107537  0.35120881
   0.48993357  0.76903841  0.47874717
   0.72156498  0.49608267  0.41471440
   0.77399447  0.99767067  0.28975097
   0.26487751  0.49615401  0.41374430
   0.22718577  0.99767067  0.28975097
   0.26794860  0.99717825  0.41969019
   0.22718577  0.49766954  0.29318964
   0.76854851  0.48120700  0.55047824
   0.21238492  0.98088471  0.54350875
   0.23416393  0.50214576  0.54914449
   0.75068684  0.98227699  0.54364355
   0.72558567  0.08103944  0.61663437
   0.18796857  0.24303587  0.60056355
   0.35446805  0.48738618  0.27144965
   0.25816528  0.46508405  0.57468882
   0.67210036  0.15169046  0.63827870
   0.06527126  0.19616555  0.61710385
Direct configuration=   316
   0.00058986  0.24767071  0.29147031
   0.49305682  0.74618241  0.41681489
   0.49287760  0.24680768  0.41657001
   0.00058986  0.74767011  0.29147031
   0.75058982  0.49766954  0.35292815
   0.74014450  0.99851545  0.48194935
   0.25059042  0.49766954  0.35292815
   0.23989317  0.99725680  0.48291138
   0.99618298  0.99740097  0.38536662
   0.51480552  0.49912326  0.51344919
   0.99557869  0.49257668  0.44950258
   0.50058925  0.99767067  0.32219910
   0.98408324  0.22484014  0.55268215
   0.98102294  0.73489357  0.54372353
   0.47592231  0.04707091  0.58166690
   0.99038892  0.22367097  0.48489650
   0.50058925  0.72426545  0.35464748
   0.50058925  0.27107537  0.35464748
   0.98856911  0.76399622  0.48536542
   0.77399447  0.49766954  0.29318964
   0.72319361  0.99783771  0.42032196
   0.48906062  0.22687155  0.47908818
   0.00058986  0.72426545  0.35120881
   0.00058986  0.27107537  0.35120881
   0.48993357  0.76903841  0.47874717
   0.72156498  0.49608267  0.41471440
   0.77399447  0.99767067  0.28975097
   0.26487751  0.49615401  0.41374430
   0.22718577  0.99767067  0.28975097
   0.26794860  0.99717825  0.41969019
   0.22718577  0.49766954  0.29318964
   0.76854851  0.48120700  0.55047824
   0.21238492  0.98088471  0.54350875
   0.23416393  0.50214576  0.54914449
   0.75068684  0.98227699  0.54364355
   0.72558567  0.08103944  0.61663437
   0.18796857  0.24303587  0.60056355
   0.35446805  0.48738618  0.27144965
   0.25816528  0.46508405  0.57468882
   0.67210036  0.15169046  0.63827870
   0.06527126  0.19616555  0.61710385
Direct configuration=   317
   0.00058986  0.24767071  0.29147031
   0.49305682  0.74618241  0.41681489
   0.49287760  0.24680768  0.41657001
   0.00058986  0.74767011  0.29147031
   0.75058982  0.49766954  0.35292815
   0.74014450  0.99851545  0.48194935
   0.25059042  0.49766954  0.35292815
   0.23989317  0.99725680  0.48291138
   0.99618298  0.99740097  0.38536662
   0.51480552  0.49912326  0.51344919
   0.99557869  0.49257668  0.44950258
   0.50058925  0.99767067  0.32219910
   0.98408324  0.22484014  0.55268215
   0.98102294  0.73489357  0.54372353
   0.47592231  0.04707091  0.58166690
   0.99038892  0.22367097  0.48489650
   0.50058925  0.72426545  0.35464748
   0.50058925  0.27107537  0.35464748
   0.98856911  0.76399622  0.48536542
   0.77399447  0.49766954  0.29318964
   0.72319361  0.99783771  0.42032196
   0.48906062  0.22687155  0.47908818
   0.00058986  0.72426545  0.35120881
   0.00058986  0.27107537  0.35120881
   0.48993357  0.76903841  0.47874717
   0.72156498  0.49608267  0.41471440
   0.77399447  0.99767067  0.28975097
   0.26487751  0.49615401  0.41374430
   0.22718577  0.99767067  0.28975097
   0.26794860  0.99717825  0.41969019
   0.22718577  0.49766954  0.29318964
   0.76854851  0.48120700  0.55047824
   0.21238492  0.98088471  0.54350875
   0.23416393  0.50214576  0.54914449
   0.75068684  0.98227699  0.54364355
   0.72558567  0.08103944  0.61663437
   0.18796857  0.24303587  0.60056355
   0.35446805  0.48738618  0.27144965
   0.25816528  0.46508405  0.57468882
   0.67210036  0.15169046  0.63827870
   0.06527126  0.19616555  0.61710385
Direct configuration=   318
   0.00058986  0.24767071  0.29147031
   0.49305682  0.74618241  0.41681489
   0.49287760  0.24680768  0.41657001
   0.00058986  0.74767011  0.29147031
   0.75058982  0.49766954  0.35292815
   0.74014450  0.99851545  0.48194935
   0.25059042  0.49766954  0.35292815
   0.23989317  0.99725680  0.48291138
   0.99618298  0.99740097  0.38536662
   0.51480552  0.49912326  0.51344919
   0.99557869  0.49257668  0.44950258
   0.50058925  0.99767067  0.32219910
   0.98408324  0.22484014  0.55268215
   0.98102294  0.73489357  0.54372353
   0.47592231  0.04707091  0.58166690
   0.99038892  0.22367097  0.48489650
   0.50058925  0.72426545  0.35464748
   0.50058925  0.27107537  0.35464748
   0.98856911  0.76399622  0.48536542
   0.77399447  0.49766954  0.29318964
   0.72319361  0.99783771  0.42032196
   0.48906062  0.22687155  0.47908818
   0.00058986  0.72426545  0.35120881
   0.00058986  0.27107537  0.35120881
   0.48993357  0.76903841  0.47874717
   0.72156498  0.49608267  0.41471440
   0.77399447  0.99767067  0.28975097
   0.26487751  0.49615401  0.41374430
   0.22718577  0.99767067  0.28975097
   0.26794860  0.99717825  0.41969019
   0.22718577  0.49766954  0.29318964
   0.76854851  0.48120700  0.55047824
   0.21238492  0.98088471  0.54350875
   0.23416393  0.50214576  0.54914449
   0.75068684  0.98227699  0.54364355
   0.72558567  0.08103944  0.61663437
   0.18796857  0.24303587  0.60056355
   0.35446805  0.48738618  0.27144965
   0.25816528  0.46508405  0.57468882
   0.67210036  0.15169046  0.63827870
   0.06527126  0.19616555  0.61710385
Direct configuration=   319
   0.00058986  0.24767071  0.29147031
   0.49305682  0.74618241  0.41681489
   0.49287760  0.24680768  0.41657001
   0.00058986  0.74767011  0.29147031
   0.75058982  0.49766954  0.35292815
   0.74014450  0.99851545  0.48194935
   0.25059042  0.49766954  0.35292815
   0.23989317  0.99725680  0.48291138
   0.99618298  0.99740097  0.38536662
   0.51480552  0.49912326  0.51344919
   0.99557869  0.49257668  0.44950258
   0.50058925  0.99767067  0.32219910
   0.98408324  0.22484014  0.55268215
   0.98102294  0.73489357  0.54372353
   0.47592231  0.04707091  0.58166690
   0.99038892  0.22367097  0.48489650
   0.50058925  0.72426545  0.35464748
   0.50058925  0.27107537  0.35464748
   0.98856911  0.76399622  0.48536542
   0.77399447  0.49766954  0.29318964
   0.72319361  0.99783771  0.42032196
   0.48906062  0.22687155  0.47908818
   0.00058986  0.72426545  0.35120881
   0.00058986  0.27107537  0.35120881
   0.48993357  0.76903841  0.47874717
   0.72156498  0.49608267  0.41471440
   0.77399447  0.99767067  0.28975097
   0.26487751  0.49615401  0.41374430
   0.22718577  0.99767067  0.28975097
   0.26794860  0.99717825  0.41969019
   0.22718577  0.49766954  0.29318964
   0.76854851  0.48120700  0.55047824
   0.21238492  0.98088471  0.54350875
   0.23416393  0.50214576  0.54914449
   0.75068684  0.98227699  0.54364355
   0.72558567  0.08103944  0.61663437
   0.18796857  0.24303587  0.60056355
   0.35446805  0.48738618  0.27144965
   0.25816528  0.46508405  0.57468882
   0.67210036  0.15169046  0.63827870
   0.06527126  0.19616555  0.61710385
Direct configuration=   320
   0.00058986  0.24767071  0.29147031
   0.49305682  0.74618241  0.41681489
   0.49287760  0.24680768  0.41657001
   0.00058986  0.74767011  0.29147031
   0.75058982  0.49766954  0.35292815
   0.74014450  0.99851545  0.48194935
   0.25059042  0.49766954  0.35292815
   0.23989317  0.99725680  0.48291138
   0.99618298  0.99740097  0.38536662
   0.51480552  0.49912326  0.51344919
   0.99557869  0.49257668  0.44950258
   0.50058925  0.99767067  0.32219910
   0.98408324  0.22484014  0.55268215
   0.98102294  0.73489357  0.54372353
   0.47592231  0.04707091  0.58166690
   0.99038892  0.22367097  0.48489650
   0.50058925  0.72426545  0.35464748
   0.50058925  0.27107537  0.35464748
   0.98856911  0.76399622  0.48536542
   0.77399447  0.49766954  0.29318964
   0.72319361  0.99783771  0.42032196
   0.48906062  0.22687155  0.47908818
   0.00058986  0.72426545  0.35120881
   0.00058986  0.27107537  0.35120881
   0.48993357  0.76903841  0.47874717
   0.72156498  0.49608267  0.41471440
   0.77399447  0.99767067  0.28975097
   0.26487751  0.49615401  0.41374430
   0.22718577  0.99767067  0.28975097
   0.26794860  0.99717825  0.41969019
   0.22718577  0.49766954  0.29318964
   0.76854851  0.48120700  0.55047824
   0.21238492  0.98088471  0.54350875
   0.23416393  0.50214576  0.54914449
   0.75068684  0.98227699  0.54364355
   0.72558567  0.08103944  0.61663437
   0.18796857  0.24303587  0.60056355
   0.35446805  0.48738618  0.27144965
   0.25816528  0.46508405  0.57468882
   0.67210036  0.15169046  0.63827870
   0.06527126  0.19616555  0.61710385
Direct configuration=   321
   0.00058986  0.24767071  0.29147031
   0.49305682  0.74618241  0.41681489
   0.49287760  0.24680768  0.41657001
   0.00058986  0.74767011  0.29147031
   0.75058982  0.49766954  0.35292815
   0.74014450  0.99851545  0.48194935
   0.25059042  0.49766954  0.35292815
   0.23989317  0.99725680  0.48291138
   0.99618298  0.99740097  0.38536662
   0.51480552  0.49912326  0.51344919
   0.99557869  0.49257668  0.44950258
   0.50058925  0.99767067  0.32219910
   0.98408324  0.22484014  0.55268215
   0.98102294  0.73489357  0.54372353
   0.47592231  0.04707091  0.58166690
   0.99038892  0.22367097  0.48489650
   0.50058925  0.72426545  0.35464748
   0.50058925  0.27107537  0.35464748
   0.98856911  0.76399622  0.48536542
   0.77399447  0.49766954  0.29318964
   0.72319361  0.99783771  0.42032196
   0.48906062  0.22687155  0.47908818
   0.00058986  0.72426545  0.35120881
   0.00058986  0.27107537  0.35120881
   0.48993357  0.76903841  0.47874717
   0.72156498  0.49608267  0.41471440
   0.77399447  0.99767067  0.28975097
   0.26487751  0.49615401  0.41374430
   0.22718577  0.99767067  0.28975097
   0.26794860  0.99717825  0.41969019
   0.22718577  0.49766954  0.29318964
   0.76854851  0.48120700  0.55047824
   0.21238492  0.98088471  0.54350875
   0.23416393  0.50214576  0.54914449
   0.75068684  0.98227699  0.54364355
   0.72558567  0.08103944  0.61663437
   0.18796857  0.24303587  0.60056355
   0.35446805  0.48738618  0.27144965
   0.25816528  0.46508405  0.57468882
   0.67210036  0.15169046  0.63827870
   0.06527126  0.19616555  0.61710385
Direct configuration=   322
   0.00058986  0.24767071  0.29147031
   0.49305682  0.74618241  0.41681489
   0.49287760  0.24680768  0.41657001
   0.00058986  0.74767011  0.29147031
   0.75058982  0.49766954  0.35292815
   0.74014450  0.99851545  0.48194935
   0.25059042  0.49766954  0.35292815
   0.23989317  0.99725680  0.48291138
   0.99618298  0.99740097  0.38536662
   0.51480552  0.49912326  0.51344919
   0.99557869  0.49257668  0.44950258
   0.50058925  0.99767067  0.32219910
   0.98408324  0.22484014  0.55268215
   0.98102294  0.73489357  0.54372353
   0.47592231  0.04707091  0.58166690
   0.99038892  0.22367097  0.48489650
   0.50058925  0.72426545  0.35464748
   0.50058925  0.27107537  0.35464748
   0.98856911  0.76399622  0.48536542
   0.77399447  0.49766954  0.29318964
   0.72319361  0.99783771  0.42032196
   0.48906062  0.22687155  0.47908818
   0.00058986  0.72426545  0.35120881
   0.00058986  0.27107537  0.35120881
   0.48993357  0.76903841  0.47874717
   0.72156498  0.49608267  0.41471440
   0.77399447  0.99767067  0.28975097
   0.26487751  0.49615401  0.41374430
   0.22718577  0.99767067  0.28975097
   0.26794860  0.99717825  0.41969019
   0.22718577  0.49766954  0.29318964
   0.76854851  0.48120700  0.55047824
   0.21238492  0.98088471  0.54350875
   0.23416393  0.50214576  0.54914449
   0.75068684  0.98227699  0.54364355
   0.72558567  0.08103944  0.61663437
   0.18796857  0.24303587  0.60056355
   0.35446805  0.48738618  0.27144965
   0.25816528  0.46508405  0.57468882
   0.67210036  0.15169046  0.63827870
   0.06527126  0.19616555  0.61710385
Direct configuration=   323
   0.00058986  0.24767071  0.29147031
   0.49305682  0.74618241  0.41681489
   0.49287760  0.24680768  0.41657001
   0.00058986  0.74767011  0.29147031
   0.75058982  0.49766954  0.35292815
   0.74014450  0.99851545  0.48194935
   0.25059042  0.49766954  0.35292815
   0.23989317  0.99725680  0.48291138
   0.99618298  0.99740097  0.38536662
   0.51480552  0.49912326  0.51344919
   0.99557869  0.49257668  0.44950258
   0.50058925  0.99767067  0.32219910
   0.98408324  0.22484014  0.55268215
   0.98102294  0.73489357  0.54372353
   0.47592231  0.04707091  0.58166690
   0.99038892  0.22367097  0.48489650
   0.50058925  0.72426545  0.35464748
   0.50058925  0.27107537  0.35464748
   0.98856911  0.76399622  0.48536542
   0.77399447  0.49766954  0.29318964
   0.72319361  0.99783771  0.42032196
   0.48906062  0.22687155  0.47908818
   0.00058986  0.72426545  0.35120881
   0.00058986  0.27107537  0.35120881
   0.48993357  0.76903841  0.47874717
   0.72156498  0.49608267  0.41471440
   0.77399447  0.99767067  0.28975097
   0.26487751  0.49615401  0.41374430
   0.22718577  0.99767067  0.28975097
   0.26794860  0.99717825  0.41969019
   0.22718577  0.49766954  0.29318964
   0.76854851  0.48120700  0.55047824
   0.21238492  0.98088471  0.54350875
   0.23416393  0.50214576  0.54914449
   0.75068684  0.98227699  0.54364355
   0.72558567  0.08103944  0.61663437
   0.18796857  0.24303587  0.60056355
   0.35446805  0.48738618  0.27144965
   0.25816528  0.46508405  0.57468882
   0.67210036  0.15169046  0.63827870
   0.06527126  0.19616555  0.61710385
Direct configuration=   324
   0.00058986  0.24767071  0.29147031
   0.49305682  0.74618241  0.41681489
   0.49287760  0.24680768  0.41657001
   0.00058986  0.74767011  0.29147031
   0.75058982  0.49766954  0.35292815
   0.74014450  0.99851545  0.48194935
   0.25059042  0.49766954  0.35292815
   0.23989317  0.99725680  0.48291138
   0.99618298  0.99740097  0.38536662
   0.51480552  0.49912326  0.51344919
   0.99557869  0.49257668  0.44950258
   0.50058925  0.99767067  0.32219910
   0.98408324  0.22484014  0.55268215
   0.98102294  0.73489357  0.54372353
   0.47592231  0.04707091  0.58166690
   0.99038892  0.22367097  0.48489650
   0.50058925  0.72426545  0.35464748
   0.50058925  0.27107537  0.35464748
   0.98856911  0.76399622  0.48536542
   0.77399447  0.49766954  0.29318964
   0.72319361  0.99783771  0.42032196
   0.48906062  0.22687155  0.47908818
   0.00058986  0.72426545  0.35120881
   0.00058986  0.27107537  0.35120881
   0.48993357  0.76903841  0.47874717
   0.72156498  0.49608267  0.41471440
   0.77399447  0.99767067  0.28975097
   0.26487751  0.49615401  0.41374430
   0.22718577  0.99767067  0.28975097
   0.26794860  0.99717825  0.41969019
   0.22718577  0.49766954  0.29318964
   0.76854851  0.48120700  0.55047824
   0.21238492  0.98088471  0.54350875
   0.23416393  0.50214576  0.54914449
   0.75068684  0.98227699  0.54364355
   0.72558567  0.08103944  0.61663437
   0.18796857  0.24303587  0.60056355
   0.35446805  0.48738618  0.27144965
   0.25816528  0.46508405  0.57468882
   0.67210036  0.15169046  0.63827870
   0.06527126  0.19616555  0.61710385
Direct configuration=   325
   0.00058986  0.24767071  0.29147031
   0.49305682  0.74618241  0.41681489
   0.49287760  0.24680768  0.41657001
   0.00058986  0.74767011  0.29147031
   0.75058982  0.49766954  0.35292815
   0.74014450  0.99851545  0.48194935
   0.25059042  0.49766954  0.35292815
   0.23989317  0.99725680  0.48291138
   0.99618298  0.99740097  0.38536662
   0.51480552  0.49912326  0.51344919
   0.99557869  0.49257668  0.44950258
   0.50058925  0.99767067  0.32219910
   0.98408324  0.22484014  0.55268215
   0.98102294  0.73489357  0.54372353
   0.47592231  0.04707091  0.58166690
   0.99038892  0.22367097  0.48489650
   0.50058925  0.72426545  0.35464748
   0.50058925  0.27107537  0.35464748
   0.98856911  0.76399622  0.48536542
   0.77399447  0.49766954  0.29318964
   0.72319361  0.99783771  0.42032196
   0.48906062  0.22687155  0.47908818
   0.00058986  0.72426545  0.35120881
   0.00058986  0.27107537  0.35120881
   0.48993357  0.76903841  0.47874717
   0.72156498  0.49608267  0.41471440
   0.77399447  0.99767067  0.28975097
   0.26487751  0.49615401  0.41374430
   0.22718577  0.99767067  0.28975097
   0.26794860  0.99717825  0.41969019
   0.22718577  0.49766954  0.29318964
   0.76854851  0.48120700  0.55047824
   0.21238492  0.98088471  0.54350875
   0.23416393  0.50214576  0.54914449
   0.75068684  0.98227699  0.54364355
   0.72558567  0.08103944  0.61663437
   0.18796857  0.24303587  0.60056355
   0.35446805  0.48738618  0.27144965
   0.25816528  0.46508405  0.57468882
   0.67210036  0.15169046  0.63827870
   0.06527126  0.19616555  0.61710385
Direct configuration=   326
   0.00058986  0.24767071  0.29147031
   0.49305682  0.74618241  0.41681489
   0.49287760  0.24680768  0.41657001
   0.00058986  0.74767011  0.29147031
   0.75058982  0.49766954  0.35292815
   0.74014450  0.99851545  0.48194935
   0.25059042  0.49766954  0.35292815
   0.23989317  0.99725680  0.48291138
   0.99618298  0.99740097  0.38536662
   0.51480552  0.49912326  0.51344919
   0.99557869  0.49257668  0.44950258
   0.50058925  0.99767067  0.32219910
   0.98408324  0.22484014  0.55268215
   0.98102294  0.73489357  0.54372353
   0.47592231  0.04707091  0.58166690
   0.99038892  0.22367097  0.48489650
   0.50058925  0.72426545  0.35464748
   0.50058925  0.27107537  0.35464748
   0.98856911  0.76399622  0.48536542
   0.77399447  0.49766954  0.29318964
   0.72319361  0.99783771  0.42032196
   0.48906062  0.22687155  0.47908818
   0.00058986  0.72426545  0.35120881
   0.00058986  0.27107537  0.35120881
   0.48993357  0.76903841  0.47874717
   0.72156498  0.49608267  0.41471440
   0.77399447  0.99767067  0.28975097
   0.26487751  0.49615401  0.41374430
   0.22718577  0.99767067  0.28975097
   0.26794860  0.99717825  0.41969019
   0.22718577  0.49766954  0.29318964
   0.76854851  0.48120700  0.55047824
   0.21238492  0.98088471  0.54350875
   0.23416393  0.50214576  0.54914449
   0.75068684  0.98227699  0.54364355
   0.72558567  0.08103944  0.61663437
   0.18796857  0.24303587  0.60056355
   0.35446805  0.48738618  0.27144965
   0.25816528  0.46508405  0.57468882
   0.67210036  0.15169046  0.63827870
   0.06527126  0.19616555  0.61710385
Direct configuration=   327
   0.00058986  0.24767071  0.29147031
   0.49305682  0.74618241  0.41681489
   0.49287760  0.24680768  0.41657001
   0.00058986  0.74767011  0.29147031
   0.75058982  0.49766954  0.35292815
   0.74014450  0.99851545  0.48194935
   0.25059042  0.49766954  0.35292815
   0.23989317  0.99725680  0.48291138
   0.99618298  0.99740097  0.38536662
   0.51480552  0.49912326  0.51344919
   0.99557869  0.49257668  0.44950258
   0.50058925  0.99767067  0.32219910
   0.98408324  0.22484014  0.55268215
   0.98102294  0.73489357  0.54372353
   0.47592231  0.04707091  0.58166690
   0.99038892  0.22367097  0.48489650
   0.50058925  0.72426545  0.35464748
   0.50058925  0.27107537  0.35464748
   0.98856911  0.76399622  0.48536542
   0.77399447  0.49766954  0.29318964
   0.72319361  0.99783771  0.42032196
   0.48906062  0.22687155  0.47908818
   0.00058986  0.72426545  0.35120881
   0.00058986  0.27107537  0.35120881
   0.48993357  0.76903841  0.47874717
   0.72156498  0.49608267  0.41471440
   0.77399447  0.99767067  0.28975097
   0.26487751  0.49615401  0.41374430
   0.22718577  0.99767067  0.28975097
   0.26794860  0.99717825  0.41969019
   0.22718577  0.49766954  0.29318964
   0.76854851  0.48120700  0.55047824
   0.21238492  0.98088471  0.54350875
   0.23416393  0.50214576  0.54914449
   0.75068684  0.98227699  0.54364355
   0.72558567  0.08103944  0.61663437
   0.18796857  0.24303587  0.60056355
   0.35446805  0.48738618  0.27144965
   0.25816528  0.46508405  0.57468882
   0.67210036  0.15169046  0.63827870
   0.06527126  0.19616555  0.61710385
Direct configuration=   328
   0.00058986  0.24767071  0.29147031
   0.49305682  0.74618241  0.41681489
   0.49287760  0.24680768  0.41657001
   0.00058986  0.74767011  0.29147031
   0.75058982  0.49766954  0.35292815
   0.74014450  0.99851545  0.48194935
   0.25059042  0.49766954  0.35292815
   0.23989317  0.99725680  0.48291138
   0.99618298  0.99740097  0.38536662
   0.51480552  0.49912326  0.51344919
   0.99557869  0.49257668  0.44950258
   0.50058925  0.99767067  0.32219910
   0.98408324  0.22484014  0.55268215
   0.98102294  0.73489357  0.54372353
   0.47592231  0.04707091  0.58166690
   0.99038892  0.22367097  0.48489650
   0.50058925  0.72426545  0.35464748
   0.50058925  0.27107537  0.35464748
   0.98856911  0.76399622  0.48536542
   0.77399447  0.49766954  0.29318964
   0.72319361  0.99783771  0.42032196
   0.48906062  0.22687155  0.47908818
   0.00058986  0.72426545  0.35120881
   0.00058986  0.27107537  0.35120881
   0.48993357  0.76903841  0.47874717
   0.72156498  0.49608267  0.41471440
   0.77399447  0.99767067  0.28975097
   0.26487751  0.49615401  0.41374430
   0.22718577  0.99767067  0.28975097
   0.26794860  0.99717825  0.41969019
   0.22718577  0.49766954  0.29318964
   0.76854851  0.48120700  0.55047824
   0.21238492  0.98088471  0.54350875
   0.23416393  0.50214576  0.54914449
   0.75068684  0.98227699  0.54364355
   0.72558567  0.08103944  0.61663437
   0.18796857  0.24303587  0.60056355
   0.35446805  0.48738618  0.27144965
   0.25816528  0.46508405  0.57468882
   0.67210036  0.15169046  0.63827870
   0.06527126  0.19616555  0.61710385
Direct configuration=   329
   0.00058986  0.24767071  0.29147031
   0.49305682  0.74618241  0.41681489
   0.49287760  0.24680768  0.41657001
   0.00058986  0.74767011  0.29147031
   0.75058982  0.49766954  0.35292815
   0.74014450  0.99851545  0.48194935
   0.25059042  0.49766954  0.35292815
   0.23989317  0.99725680  0.48291138
   0.99618298  0.99740097  0.38536662
   0.51480552  0.49912326  0.51344919
   0.99557869  0.49257668  0.44950258
   0.50058925  0.99767067  0.32219910
   0.98408324  0.22484014  0.55268215
   0.98102294  0.73489357  0.54372353
   0.47592231  0.04707091  0.58166690
   0.99038892  0.22367097  0.48489650
   0.50058925  0.72426545  0.35464748
   0.50058925  0.27107537  0.35464748
   0.98856911  0.76399622  0.48536542
   0.77399447  0.49766954  0.29318964
   0.72319361  0.99783771  0.42032196
   0.48906062  0.22687155  0.47908818
   0.00058986  0.72426545  0.35120881
   0.00058986  0.27107537  0.35120881
   0.48993357  0.76903841  0.47874717
   0.72156498  0.49608267  0.41471440
   0.77399447  0.99767067  0.28975097
   0.26487751  0.49615401  0.41374430
   0.22718577  0.99767067  0.28975097
   0.26794860  0.99717825  0.41969019
   0.22718577  0.49766954  0.29318964
   0.76854851  0.48120700  0.55047824
   0.21238492  0.98088471  0.54350875
   0.23416393  0.50214576  0.54914449
   0.75068684  0.98227699  0.54364355
   0.72558567  0.08103944  0.61663437
   0.18796857  0.24303587  0.60056355
   0.35446805  0.48738618  0.27144965
   0.25816528  0.46508405  0.57468882
   0.67210036  0.15169046  0.63827870
   0.06527126  0.19616555  0.61710385
Direct configuration=   330
   0.00058986  0.24767071  0.29147031
   0.49305682  0.74618241  0.41681489
   0.49287760  0.24680768  0.41657001
   0.00058986  0.74767011  0.29147031
   0.75058982  0.49766954  0.35292815
   0.74014450  0.99851545  0.48194935
   0.25059042  0.49766954  0.35292815
   0.23989317  0.99725680  0.48291138
   0.99618298  0.99740097  0.38536662
   0.51480552  0.49912326  0.51344919
   0.99557869  0.49257668  0.44950258
   0.50058925  0.99767067  0.32219910
   0.98408324  0.22484014  0.55268215
   0.98102294  0.73489357  0.54372353
   0.47592231  0.04707091  0.58166690
   0.99038892  0.22367097  0.48489650
   0.50058925  0.72426545  0.35464748
   0.50058925  0.27107537  0.35464748
   0.98856911  0.76399622  0.48536542
   0.77399447  0.49766954  0.29318964
   0.72319361  0.99783771  0.42032196
   0.48906062  0.22687155  0.47908818
   0.00058986  0.72426545  0.35120881
   0.00058986  0.27107537  0.35120881
   0.48993357  0.76903841  0.47874717
   0.72156498  0.49608267  0.41471440
   0.77399447  0.99767067  0.28975097
   0.26487751  0.49615401  0.41374430
   0.22718577  0.99767067  0.28975097
   0.26794860  0.99717825  0.41969019
   0.22718577  0.49766954  0.29318964
   0.76854851  0.48120700  0.55047824
   0.21238492  0.98088471  0.54350875
   0.23416393  0.50214576  0.54914449
   0.75068684  0.98227699  0.54364355
   0.72558567  0.08103944  0.61663437
   0.18796857  0.24303587  0.60056355
   0.35446805  0.48738618  0.27144965
   0.25816528  0.46508405  0.57468882
   0.67210036  0.15169046  0.63827870
   0.06527126  0.19616555  0.61710385
Direct configuration=   331
   0.00058986  0.24767071  0.29147031
   0.49305682  0.74618241  0.41681489
   0.49287760  0.24680768  0.41657001
   0.00058986  0.74767011  0.29147031
   0.75058982  0.49766954  0.35292815
   0.74014450  0.99851545  0.48194935
   0.25059042  0.49766954  0.35292815
   0.23989317  0.99725680  0.48291138
   0.99618298  0.99740097  0.38536662
   0.51480552  0.49912326  0.51344919
   0.99557869  0.49257668  0.44950258
   0.50058925  0.99767067  0.32219910
   0.98408324  0.22484014  0.55268215
   0.98102294  0.73489357  0.54372353
   0.47592231  0.04707091  0.58166690
   0.99038892  0.22367097  0.48489650
   0.50058925  0.72426545  0.35464748
   0.50058925  0.27107537  0.35464748
   0.98856911  0.76399622  0.48536542
   0.77399447  0.49766954  0.29318964
   0.72319361  0.99783771  0.42032196
   0.48906062  0.22687155  0.47908818
   0.00058986  0.72426545  0.35120881
   0.00058986  0.27107537  0.35120881
   0.48993357  0.76903841  0.47874717
   0.72156498  0.49608267  0.41471440
   0.77399447  0.99767067  0.28975097
   0.26487751  0.49615401  0.41374430
   0.22718577  0.99767067  0.28975097
   0.26794860  0.99717825  0.41969019
   0.22718577  0.49766954  0.29318964
   0.76854851  0.48120700  0.55047824
   0.21238492  0.98088471  0.54350875
   0.23416393  0.50214576  0.54914449
   0.75068684  0.98227699  0.54364355
   0.72558567  0.08103944  0.61663437
   0.18796857  0.24303587  0.60056355
   0.35446805  0.48738618  0.27144965
   0.25816528  0.46508405  0.57468882
   0.67210036  0.15169046  0.63827870
   0.06527126  0.19616555  0.61710385
Direct configuration=   332
   0.00058986  0.24767071  0.29147031
   0.49305682  0.74618241  0.41681489
   0.49287760  0.24680768  0.41657001
   0.00058986  0.74767011  0.29147031
   0.75058982  0.49766954  0.35292815
   0.74014450  0.99851545  0.48194935
   0.25059042  0.49766954  0.35292815
   0.23989317  0.99725680  0.48291138
   0.99618298  0.99740097  0.38536662
   0.51480552  0.49912326  0.51344919
   0.99557869  0.49257668  0.44950258
   0.50058925  0.99767067  0.32219910
   0.98408324  0.22484014  0.55268215
   0.98102294  0.73489357  0.54372353
   0.47592231  0.04707091  0.58166690
   0.99038892  0.22367097  0.48489650
   0.50058925  0.72426545  0.35464748
   0.50058925  0.27107537  0.35464748
   0.98856911  0.76399622  0.48536542
   0.77399447  0.49766954  0.29318964
   0.72319361  0.99783771  0.42032196
   0.48906062  0.22687155  0.47908818
   0.00058986  0.72426545  0.35120881
   0.00058986  0.27107537  0.35120881
   0.48993357  0.76903841  0.47874717
   0.72156498  0.49608267  0.41471440
   0.77399447  0.99767067  0.28975097
   0.26487751  0.49615401  0.41374430
   0.22718577  0.99767067  0.28975097
   0.26794860  0.99717825  0.41969019
   0.22718577  0.49766954  0.29318964
   0.76854851  0.48120700  0.55047824
   0.21238492  0.98088471  0.54350875
   0.23416393  0.50214576  0.54914449
   0.75068684  0.98227699  0.54364355
   0.72558567  0.08103944  0.61663437
   0.18796857  0.24303587  0.60056355
   0.35446805  0.48738618  0.27144965
   0.25816528  0.46508405  0.57468882
   0.67210036  0.15169046  0.63827870
   0.06527126  0.19616555  0.61710385
Direct configuration=   333
   0.00058986  0.24767071  0.29147031
   0.49305682  0.74618241  0.41681489
   0.49287760  0.24680768  0.41657001
   0.00058986  0.74767011  0.29147031
   0.75058982  0.49766954  0.35292815
   0.74014450  0.99851545  0.48194935
   0.25059042  0.49766954  0.35292815
   0.23989317  0.99725680  0.48291138
   0.99618298  0.99740097  0.38536662
   0.51480552  0.49912326  0.51344919
   0.99557869  0.49257668  0.44950258
   0.50058925  0.99767067  0.32219910
   0.98408324  0.22484014  0.55268215
   0.98102294  0.73489357  0.54372353
   0.47592231  0.04707091  0.58166690
   0.99038892  0.22367097  0.48489650
   0.50058925  0.72426545  0.35464748
   0.50058925  0.27107537  0.35464748
   0.98856911  0.76399622  0.48536542
   0.77399447  0.49766954  0.29318964
   0.72319361  0.99783771  0.42032196
   0.48906062  0.22687155  0.47908818
   0.00058986  0.72426545  0.35120881
   0.00058986  0.27107537  0.35120881
   0.48993357  0.76903841  0.47874717
   0.72156498  0.49608267  0.41471440
   0.77399447  0.99767067  0.28975097
   0.26487751  0.49615401  0.41374430
   0.22718577  0.99767067  0.28975097
   0.26794860  0.99717825  0.41969019
   0.22718577  0.49766954  0.29318964
   0.76854851  0.48120700  0.55047824
   0.21238492  0.98088471  0.54350875
   0.23416393  0.50214576  0.54914449
   0.75068684  0.98227699  0.54364355
   0.72558567  0.08103944  0.61663437
   0.18796857  0.24303587  0.60056355
   0.35446805  0.48738618  0.27144965
   0.25816528  0.46508405  0.57468882
   0.67210036  0.15169046  0.63827870
   0.06527126  0.19616555  0.61710385
Direct configuration=   334
   0.00058986  0.24767071  0.29147031
   0.49305682  0.74618241  0.41681489
   0.49287760  0.24680768  0.41657001
   0.00058986  0.74767011  0.29147031
   0.75058982  0.49766954  0.35292815
   0.74014450  0.99851545  0.48194935
   0.25059042  0.49766954  0.35292815
   0.23989317  0.99725680  0.48291138
   0.99618298  0.99740097  0.38536662
   0.51480552  0.49912326  0.51344919
   0.99557869  0.49257668  0.44950258
   0.50058925  0.99767067  0.32219910
   0.98408324  0.22484014  0.55268215
   0.98102294  0.73489357  0.54372353
   0.47592231  0.04707091  0.58166690
   0.99038892  0.22367097  0.48489650
   0.50058925  0.72426545  0.35464748
   0.50058925  0.27107537  0.35464748
   0.98856911  0.76399622  0.48536542
   0.77399447  0.49766954  0.29318964
   0.72319361  0.99783771  0.42032196
   0.48906062  0.22687155  0.47908818
   0.00058986  0.72426545  0.35120881
   0.00058986  0.27107537  0.35120881
   0.48993357  0.76903841  0.47874717
   0.72156498  0.49608267  0.41471440
   0.77399447  0.99767067  0.28975097
   0.26487751  0.49615401  0.41374430
   0.22718577  0.99767067  0.28975097
   0.26794860  0.99717825  0.41969019
   0.22718577  0.49766954  0.29318964
   0.76854851  0.48120700  0.55047824
   0.21238492  0.98088471  0.54350875
   0.23416393  0.50214576  0.54914449
   0.75068684  0.98227699  0.54364355
   0.72558567  0.08103944  0.61663437
   0.18796857  0.24303587  0.60056355
   0.35446805  0.48738618  0.27144965
   0.25816528  0.46508405  0.57468882
   0.67210036  0.15169046  0.63827870
   0.06527126  0.19616555  0.61710385
Direct configuration=   335
   0.00058986  0.24767071  0.29147031
   0.49305682  0.74618241  0.41681489
   0.49287760  0.24680768  0.41657001
   0.00058986  0.74767011  0.29147031
   0.75058982  0.49766954  0.35292815
   0.74014450  0.99851545  0.48194935
   0.25059042  0.49766954  0.35292815
   0.23989317  0.99725680  0.48291138
   0.99618298  0.99740097  0.38536662
   0.51480552  0.49912326  0.51344919
   0.99557869  0.49257668  0.44950258
   0.50058925  0.99767067  0.32219910
   0.98408324  0.22484014  0.55268215
   0.98102294  0.73489357  0.54372353
   0.47592231  0.04707091  0.58166690
   0.99038892  0.22367097  0.48489650
   0.50058925  0.72426545  0.35464748
   0.50058925  0.27107537  0.35464748
   0.98856911  0.76399622  0.48536542
   0.77399447  0.49766954  0.29318964
   0.72319361  0.99783771  0.42032196
   0.48906062  0.22687155  0.47908818
   0.00058986  0.72426545  0.35120881
   0.00058986  0.27107537  0.35120881
   0.48993357  0.76903841  0.47874717
   0.72156498  0.49608267  0.41471440
   0.77399447  0.99767067  0.28975097
   0.26487751  0.49615401  0.41374430
   0.22718577  0.99767067  0.28975097
   0.26794860  0.99717825  0.41969019
   0.22718577  0.49766954  0.29318964
   0.76854851  0.48120700  0.55047824
   0.21238492  0.98088471  0.54350875
   0.23416393  0.50214576  0.54914449
   0.75068684  0.98227699  0.54364355
   0.72558567  0.08103944  0.61663437
   0.18796857  0.24303587  0.60056355
   0.35446805  0.48738618  0.27144965
   0.25816528  0.46508405  0.57468882
   0.67210036  0.15169046  0.63827870
   0.06527126  0.19616555  0.61710385
Direct configuration=   336
   0.00058986  0.24767071  0.29147031
   0.49305682  0.74618241  0.41681489
   0.49287760  0.24680768  0.41657001
   0.00058986  0.74767011  0.29147031
   0.75058982  0.49766954  0.35292815
   0.74014450  0.99851545  0.48194935
   0.25059042  0.49766954  0.35292815
   0.23989317  0.99725680  0.48291138
   0.99618298  0.99740097  0.38536662
   0.51480552  0.49912326  0.51344919
   0.99557869  0.49257668  0.44950258
   0.50058925  0.99767067  0.32219910
   0.98408324  0.22484014  0.55268215
   0.98102294  0.73489357  0.54372353
   0.47592231  0.04707091  0.58166690
   0.99038892  0.22367097  0.48489650
   0.50058925  0.72426545  0.35464748
   0.50058925  0.27107537  0.35464748
   0.98856911  0.76399622  0.48536542
   0.77399447  0.49766954  0.29318964
   0.72319361  0.99783771  0.42032196
   0.48906062  0.22687155  0.47908818
   0.00058986  0.72426545  0.35120881
   0.00058986  0.27107537  0.35120881
   0.48993357  0.76903841  0.47874717
   0.72156498  0.49608267  0.41471440
   0.77399447  0.99767067  0.28975097
   0.26487751  0.49615401  0.41374430
   0.22718577  0.99767067  0.28975097
   0.26794860  0.99717825  0.41969019
   0.22718577  0.49766954  0.29318964
   0.76854851  0.48120700  0.55047824
   0.21238492  0.98088471  0.54350875
   0.23416393  0.50214576  0.54914449
   0.75068684  0.98227699  0.54364355
   0.72558567  0.08103944  0.61663437
   0.18796857  0.24303587  0.60056355
   0.35446805  0.48738618  0.27144965
   0.25816528  0.46508405  0.57468882
   0.67210036  0.15169046  0.63827870
   0.06527126  0.19616555  0.61710385
Direct configuration=   337
   0.00058986  0.24767071  0.29147031
   0.49305682  0.74618241  0.41681489
   0.49287760  0.24680768  0.41657001
   0.00058986  0.74767011  0.29147031
   0.75058982  0.49766954  0.35292815
   0.74014450  0.99851545  0.48194935
   0.25059042  0.49766954  0.35292815
   0.23989317  0.99725680  0.48291138
   0.99618298  0.99740097  0.38536662
   0.51480552  0.49912326  0.51344919
   0.99557869  0.49257668  0.44950258
   0.50058925  0.99767067  0.32219910
   0.98408324  0.22484014  0.55268215
   0.98102294  0.73489357  0.54372353
   0.47592231  0.04707091  0.58166690
   0.99038892  0.22367097  0.48489650
   0.50058925  0.72426545  0.35464748
   0.50058925  0.27107537  0.35464748
   0.98856911  0.76399622  0.48536542
   0.77399447  0.49766954  0.29318964
   0.72319361  0.99783771  0.42032196
   0.48906062  0.22687155  0.47908818
   0.00058986  0.72426545  0.35120881
   0.00058986  0.27107537  0.35120881
   0.48993357  0.76903841  0.47874717
   0.72156498  0.49608267  0.41471440
   0.77399447  0.99767067  0.28975097
   0.26487751  0.49615401  0.41374430
   0.22718577  0.99767067  0.28975097
   0.26794860  0.99717825  0.41969019
   0.22718577  0.49766954  0.29318964
   0.76854851  0.48120700  0.55047824
   0.21238492  0.98088471  0.54350875
   0.23416393  0.50214576  0.54914449
   0.75068684  0.98227699  0.54364355
   0.72558567  0.08103944  0.61663437
   0.18796857  0.24303587  0.60056355
   0.35446805  0.48738618  0.27144965
   0.25816528  0.46508405  0.57468882
   0.67210036  0.15169046  0.63827870
   0.06527126  0.19616555  0.61710385
Direct configuration=   338
   0.00058986  0.24767071  0.29147031
   0.49305682  0.74618241  0.41681489
   0.49287760  0.24680768  0.41657001
   0.00058986  0.74767011  0.29147031
   0.75058982  0.49766954  0.35292815
   0.74014450  0.99851545  0.48194935
   0.25059042  0.49766954  0.35292815
   0.23989317  0.99725680  0.48291138
   0.99618298  0.99740097  0.38536662
   0.51480552  0.49912326  0.51344919
   0.99557869  0.49257668  0.44950258
   0.50058925  0.99767067  0.32219910
   0.98408324  0.22484014  0.55268215
   0.98102294  0.73489357  0.54372353
   0.47592231  0.04707091  0.58166690
   0.99038892  0.22367097  0.48489650
   0.50058925  0.72426545  0.35464748
   0.50058925  0.27107537  0.35464748
   0.98856911  0.76399622  0.48536542
   0.77399447  0.49766954  0.29318964
   0.72319361  0.99783771  0.42032196
   0.48906062  0.22687155  0.47908818
   0.00058986  0.72426545  0.35120881
   0.00058986  0.27107537  0.35120881
   0.48993357  0.76903841  0.47874717
   0.72156498  0.49608267  0.41471440
   0.77399447  0.99767067  0.28975097
   0.26487751  0.49615401  0.41374430
   0.22718577  0.99767067  0.28975097
   0.26794860  0.99717825  0.41969019
   0.22718577  0.49766954  0.29318964
   0.76854851  0.48120700  0.55047824
   0.21238492  0.98088471  0.54350875
   0.23416393  0.50214576  0.54914449
   0.75068684  0.98227699  0.54364355
   0.72558567  0.08103944  0.61663437
   0.18796857  0.24303587  0.60056355
   0.35446805  0.48738618  0.27144965
   0.25816528  0.46508405  0.57468882
   0.67210036  0.15169046  0.63827870
   0.06527126  0.19616555  0.61710385
Direct configuration=   339
   0.00058986  0.24767071  0.29147031
   0.49305682  0.74618241  0.41681489
   0.49287760  0.24680768  0.41657001
   0.00058986  0.74767011  0.29147031
   0.75058982  0.49766954  0.35292815
   0.74014450  0.99851545  0.48194935
   0.25059042  0.49766954  0.35292815
   0.23989317  0.99725680  0.48291138
   0.99618298  0.99740097  0.38536662
   0.51480552  0.49912326  0.51344919
   0.99557869  0.49257668  0.44950258
   0.50058925  0.99767067  0.32219910
   0.98408324  0.22484014  0.55268215
   0.98102294  0.73489357  0.54372353
   0.47592231  0.04707091  0.58166690
   0.99038892  0.22367097  0.48489650
   0.50058925  0.72426545  0.35464748
   0.50058925  0.27107537  0.35464748
   0.98856911  0.76399622  0.48536542
   0.77399447  0.49766954  0.29318964
   0.72319361  0.99783771  0.42032196
   0.48906062  0.22687155  0.47908818
   0.00058986  0.72426545  0.35120881
   0.00058986  0.27107537  0.35120881
   0.48993357  0.76903841  0.47874717
   0.72156498  0.49608267  0.41471440
   0.77399447  0.99767067  0.28975097
   0.26487751  0.49615401  0.41374430
   0.22718577  0.99767067  0.28975097
   0.26794860  0.99717825  0.41969019
   0.22718577  0.49766954  0.29318964
   0.76854851  0.48120700  0.55047824
   0.21238492  0.98088471  0.54350875
   0.23416393  0.50214576  0.54914449
   0.75068684  0.98227699  0.54364355
   0.72558567  0.08103944  0.61663437
   0.18796857  0.24303587  0.60056355
   0.35446805  0.48738618  0.27144965
   0.25816528  0.46508405  0.57468882
   0.67210036  0.15169046  0.63827870
   0.06527126  0.19616555  0.61710385
Direct configuration=   340
   0.00058986  0.24767071  0.29147031
   0.49305682  0.74618241  0.41681489
   0.49287760  0.24680768  0.41657001
   0.00058986  0.74767011  0.29147031
   0.75058982  0.49766954  0.35292815
   0.74014450  0.99851545  0.48194935
   0.25059042  0.49766954  0.35292815
   0.23989317  0.99725680  0.48291138
   0.99618298  0.99740097  0.38536662
   0.51480552  0.49912326  0.51344919
   0.99557869  0.49257668  0.44950258
   0.50058925  0.99767067  0.32219910
   0.98408324  0.22484014  0.55268215
   0.98102294  0.73489357  0.54372353
   0.47592231  0.04707091  0.58166690
   0.99038892  0.22367097  0.48489650
   0.50058925  0.72426545  0.35464748
   0.50058925  0.27107537  0.35464748
   0.98856911  0.76399622  0.48536542
   0.77399447  0.49766954  0.29318964
   0.72319361  0.99783771  0.42032196
   0.48906062  0.22687155  0.47908818
   0.00058986  0.72426545  0.35120881
   0.00058986  0.27107537  0.35120881
   0.48993357  0.76903841  0.47874717
   0.72156498  0.49608267  0.41471440
   0.77399447  0.99767067  0.28975097
   0.26487751  0.49615401  0.41374430
   0.22718577  0.99767067  0.28975097
   0.26794860  0.99717825  0.41969019
   0.22718577  0.49766954  0.29318964
   0.76854851  0.48120700  0.55047824
   0.21238492  0.98088471  0.54350875
   0.23416393  0.50214576  0.54914449
   0.75068684  0.98227699  0.54364355
   0.72558567  0.08103944  0.61663437
   0.18796857  0.24303587  0.60056355
   0.35446805  0.48738618  0.27144965
   0.25816528  0.46508405  0.57468882
   0.67210036  0.15169046  0.63827870
   0.06527126  0.19616555  0.61710385
Direct configuration=   341
   0.00058986  0.24767071  0.29147031
   0.49305682  0.74618241  0.41681489
   0.49287760  0.24680768  0.41657001
   0.00058986  0.74767011  0.29147031
   0.75058982  0.49766954  0.35292815
   0.74014450  0.99851545  0.48194935
   0.25059042  0.49766954  0.35292815
   0.23989317  0.99725680  0.48291138
   0.99618298  0.99740097  0.38536662
   0.51480552  0.49912326  0.51344919
   0.99557869  0.49257668  0.44950258
   0.50058925  0.99767067  0.32219910
   0.98408324  0.22484014  0.55268215
   0.98102294  0.73489357  0.54372353
   0.47592231  0.04707091  0.58166690
   0.99038892  0.22367097  0.48489650
   0.50058925  0.72426545  0.35464748
   0.50058925  0.27107537  0.35464748
   0.98856911  0.76399622  0.48536542
   0.77399447  0.49766954  0.29318964
   0.72319361  0.99783771  0.42032196
   0.48906062  0.22687155  0.47908818
   0.00058986  0.72426545  0.35120881
   0.00058986  0.27107537  0.35120881
   0.48993357  0.76903841  0.47874717
   0.72156498  0.49608267  0.41471440
   0.77399447  0.99767067  0.28975097
   0.26487751  0.49615401  0.41374430
   0.22718577  0.99767067  0.28975097
   0.26794860  0.99717825  0.41969019
   0.22718577  0.49766954  0.29318964
   0.76854851  0.48120700  0.55047824
   0.21238492  0.98088471  0.54350875
   0.23416393  0.50214576  0.54914449
   0.75068684  0.98227699  0.54364355
   0.72558567  0.08103944  0.61663437
   0.18796857  0.24303587  0.60056355
   0.35446805  0.48738618  0.27144965
   0.25816528  0.46508405  0.57468882
   0.67210036  0.15169046  0.63827870
   0.06527126  0.19616555  0.61710385
Direct configuration=   342
   0.00058986  0.24767071  0.29147031
   0.49305682  0.74618241  0.41681489
   0.49287760  0.24680768  0.41657001
   0.00058986  0.74767011  0.29147031
   0.75058982  0.49766954  0.35292815
   0.74014450  0.99851545  0.48194935
   0.25059042  0.49766954  0.35292815
   0.23989317  0.99725680  0.48291138
   0.99618298  0.99740097  0.38536662
   0.51480552  0.49912326  0.51344919
   0.99557869  0.49257668  0.44950258
   0.50058925  0.99767067  0.32219910
   0.98408324  0.22484014  0.55268215
   0.98102294  0.73489357  0.54372353
   0.47592231  0.04707091  0.58166690
   0.99038892  0.22367097  0.48489650
   0.50058925  0.72426545  0.35464748
   0.50058925  0.27107537  0.35464748
   0.98856911  0.76399622  0.48536542
   0.77399447  0.49766954  0.29318964
   0.72319361  0.99783771  0.42032196
   0.48906062  0.22687155  0.47908818
   0.00058986  0.72426545  0.35120881
   0.00058986  0.27107537  0.35120881
   0.48993357  0.76903841  0.47874717
   0.72156498  0.49608267  0.41471440
   0.77399447  0.99767067  0.28975097
   0.26487751  0.49615401  0.41374430
   0.22718577  0.99767067  0.28975097
   0.26794860  0.99717825  0.41969019
   0.22718577  0.49766954  0.29318964
   0.76854851  0.48120700  0.55047824
   0.21238492  0.98088471  0.54350875
   0.23416393  0.50214576  0.54914449
   0.75068684  0.98227699  0.54364355
   0.72558567  0.08103944  0.61663437
   0.18796857  0.24303587  0.60056355
   0.35446805  0.48738618  0.27144965
   0.25816528  0.46508405  0.57468882
   0.67210036  0.15169046  0.63827870
   0.06527126  0.19616555  0.61710385
Direct configuration=   343
   0.00058986  0.24767071  0.29147031
   0.49305682  0.74618241  0.41681489
   0.49287760  0.24680768  0.41657001
   0.00058986  0.74767011  0.29147031
   0.75058982  0.49766954  0.35292815
   0.74014450  0.99851545  0.48194935
   0.25059042  0.49766954  0.35292815
   0.23989317  0.99725680  0.48291138
   0.99618298  0.99740097  0.38536662
   0.51480552  0.49912326  0.51344919
   0.99557869  0.49257668  0.44950258
   0.50058925  0.99767067  0.32219910
   0.98408324  0.22484014  0.55268215
   0.98102294  0.73489357  0.54372353
   0.47592231  0.04707091  0.58166690
   0.99038892  0.22367097  0.48489650
   0.50058925  0.72426545  0.35464748
   0.50058925  0.27107537  0.35464748
   0.98856911  0.76399622  0.48536542
   0.77399447  0.49766954  0.29318964
   0.72319361  0.99783771  0.42032196
   0.48906062  0.22687155  0.47908818
   0.00058986  0.72426545  0.35120881
   0.00058986  0.27107537  0.35120881
   0.48993357  0.76903841  0.47874717
   0.72156498  0.49608267  0.41471440
   0.77399447  0.99767067  0.28975097
   0.26487751  0.49615401  0.41374430
   0.22718577  0.99767067  0.28975097
   0.26794860  0.99717825  0.41969019
   0.22718577  0.49766954  0.29318964
   0.76854851  0.48120700  0.55047824
   0.21238492  0.98088471  0.54350875
   0.23416393  0.50214576  0.54914449
   0.75068684  0.98227699  0.54364355
   0.72558567  0.08103944  0.61663437
   0.18796857  0.24303587  0.60056355
   0.35446805  0.48738618  0.27144965
   0.25816528  0.46508405  0.57468882
   0.67210036  0.15169046  0.63827870
   0.06527126  0.19616555  0.61710385
Direct configuration=   344
   0.00058986  0.24767071  0.29147031
   0.49305682  0.74618241  0.41681489
   0.49287760  0.24680768  0.41657001
   0.00058986  0.74767011  0.29147031
   0.75058982  0.49766954  0.35292815
   0.74014450  0.99851545  0.48194935
   0.25059042  0.49766954  0.35292815
   0.23989317  0.99725680  0.48291138
   0.99618298  0.99740097  0.38536662
   0.51480552  0.49912326  0.51344919
   0.99557869  0.49257668  0.44950258
   0.50058925  0.99767067  0.32219910
   0.98408324  0.22484014  0.55268215
   0.98102294  0.73489357  0.54372353
   0.47592231  0.04707091  0.58166690
   0.99038892  0.22367097  0.48489650
   0.50058925  0.72426545  0.35464748
   0.50058925  0.27107537  0.35464748
   0.98856911  0.76399622  0.48536542
   0.77399447  0.49766954  0.29318964
   0.72319361  0.99783771  0.42032196
   0.48906062  0.22687155  0.47908818
   0.00058986  0.72426545  0.35120881
   0.00058986  0.27107537  0.35120881
   0.48993357  0.76903841  0.47874717
   0.72156498  0.49608267  0.41471440
   0.77399447  0.99767067  0.28975097
   0.26487751  0.49615401  0.41374430
   0.22718577  0.99767067  0.28975097
   0.26794860  0.99717825  0.41969019
   0.22718577  0.49766954  0.29318964
   0.76854851  0.48120700  0.55047824
   0.21238492  0.98088471  0.54350875
   0.23416393  0.50214576  0.54914449
   0.75068684  0.98227699  0.54364355
   0.72558567  0.08103944  0.61663437
   0.18796857  0.24303587  0.60056355
   0.35446805  0.48738618  0.27144965
   0.25816528  0.46508405  0.57468882
   0.67210036  0.15169046  0.63827870
   0.06527126  0.19616555  0.61710385
Direct configuration=   345
   0.00058986  0.24767071  0.29147031
   0.49305682  0.74618241  0.41681489
   0.49287760  0.24680768  0.41657001
   0.00058986  0.74767011  0.29147031
   0.75058982  0.49766954  0.35292815
   0.74014450  0.99851545  0.48194935
   0.25059042  0.49766954  0.35292815
   0.23989317  0.99725680  0.48291138
   0.99618298  0.99740097  0.38536662
   0.51480552  0.49912326  0.51344919
   0.99557869  0.49257668  0.44950258
   0.50058925  0.99767067  0.32219910
   0.98408324  0.22484014  0.55268215
   0.98102294  0.73489357  0.54372353
   0.47592231  0.04707091  0.58166690
   0.99038892  0.22367097  0.48489650
   0.50058925  0.72426545  0.35464748
   0.50058925  0.27107537  0.35464748
   0.98856911  0.76399622  0.48536542
   0.77399447  0.49766954  0.29318964
   0.72319361  0.99783771  0.42032196
   0.48906062  0.22687155  0.47908818
   0.00058986  0.72426545  0.35120881
   0.00058986  0.27107537  0.35120881
   0.48993357  0.76903841  0.47874717
   0.72156498  0.49608267  0.41471440
   0.77399447  0.99767067  0.28975097
   0.26487751  0.49615401  0.41374430
   0.22718577  0.99767067  0.28975097
   0.26794860  0.99717825  0.41969019
   0.22718577  0.49766954  0.29318964
   0.76854851  0.48120700  0.55047824
   0.21238492  0.98088471  0.54350875
   0.23416393  0.50214576  0.54914449
   0.75068684  0.98227699  0.54364355
   0.72558567  0.08103944  0.61663437
   0.18796857  0.24303587  0.60056355
   0.35446805  0.48738618  0.27144965
   0.25816528  0.46508405  0.57468882
   0.67210036  0.15169046  0.63827870
   0.06527126  0.19616555  0.61710385
Direct configuration=   346
   0.00058986  0.24767071  0.29147031
   0.49305682  0.74618241  0.41681489
   0.49287760  0.24680768  0.41657001
   0.00058986  0.74767011  0.29147031
   0.75058982  0.49766954  0.35292815
   0.74014450  0.99851545  0.48194935
   0.25059042  0.49766954  0.35292815
   0.23989317  0.99725680  0.48291138
   0.99618298  0.99740097  0.38536662
   0.51480552  0.49912326  0.51344919
   0.99557869  0.49257668  0.44950258
   0.50058925  0.99767067  0.32219910
   0.98408324  0.22484014  0.55268215
   0.98102294  0.73489357  0.54372353
   0.47592231  0.04707091  0.58166690
   0.99038892  0.22367097  0.48489650
   0.50058925  0.72426545  0.35464748
   0.50058925  0.27107537  0.35464748
   0.98856911  0.76399622  0.48536542
   0.77399447  0.49766954  0.29318964
   0.72319361  0.99783771  0.42032196
   0.48906062  0.22687155  0.47908818
   0.00058986  0.72426545  0.35120881
   0.00058986  0.27107537  0.35120881
   0.48993357  0.76903841  0.47874717
   0.72156498  0.49608267  0.41471440
   0.77399447  0.99767067  0.28975097
   0.26487751  0.49615401  0.41374430
   0.22718577  0.99767067  0.28975097
   0.26794860  0.99717825  0.41969019
   0.22718577  0.49766954  0.29318964
   0.76854851  0.48120700  0.55047824
   0.21238492  0.98088471  0.54350875
   0.23416393  0.50214576  0.54914449
   0.75068684  0.98227699  0.54364355
   0.72558567  0.08103944  0.61663437
   0.18796857  0.24303587  0.60056355
   0.35446805  0.48738618  0.27144965
   0.25816528  0.46508405  0.57468882
   0.67210036  0.15169046  0.63827870
   0.06527126  0.19616555  0.61710385
Direct configuration=   347
   0.00058986  0.24767071  0.29147031
   0.49305682  0.74618241  0.41681489
   0.49287760  0.24680768  0.41657001
   0.00058986  0.74767011  0.29147031
   0.75058982  0.49766954  0.35292815
   0.74014450  0.99851545  0.48194935
   0.25059042  0.49766954  0.35292815
   0.23989317  0.99725680  0.48291138
   0.99618298  0.99740097  0.38536662
   0.51480552  0.49912326  0.51344919
   0.99557869  0.49257668  0.44950258
   0.50058925  0.99767067  0.32219910
   0.98408324  0.22484014  0.55268215
   0.98102294  0.73489357  0.54372353
   0.47592231  0.04707091  0.58166690
   0.99038892  0.22367097  0.48489650
   0.50058925  0.72426545  0.35464748
   0.50058925  0.27107537  0.35464748
   0.98856911  0.76399622  0.48536542
   0.77399447  0.49766954  0.29318964
   0.72319361  0.99783771  0.42032196
   0.48906062  0.22687155  0.47908818
   0.00058986  0.72426545  0.35120881
   0.00058986  0.27107537  0.35120881
   0.48993357  0.76903841  0.47874717
   0.72156498  0.49608267  0.41471440
   0.77399447  0.99767067  0.28975097
   0.26487751  0.49615401  0.41374430
   0.22718577  0.99767067  0.28975097
   0.26794860  0.99717825  0.41969019
   0.22718577  0.49766954  0.29318964
   0.76854851  0.48120700  0.55047824
   0.21238492  0.98088471  0.54350875
   0.23416393  0.50214576  0.54914449
   0.75068684  0.98227699  0.54364355
   0.72558567  0.08103944  0.61663437
   0.18796857  0.24303587  0.60056355
   0.35446805  0.48738618  0.27144965
   0.25816528  0.46508405  0.57468882
   0.67210036  0.15169046  0.63827870
   0.06527126  0.19616555  0.61710385
Direct configuration=   348
   0.00058986  0.24767071  0.29147031
   0.49305682  0.74618241  0.41681489
   0.49287760  0.24680768  0.41657001
   0.00058986  0.74767011  0.29147031
   0.75058982  0.49766954  0.35292815
   0.74014450  0.99851545  0.48194935
   0.25059042  0.49766954  0.35292815
   0.23989317  0.99725680  0.48291138
   0.99618298  0.99740097  0.38536662
   0.51480552  0.49912326  0.51344919
   0.99557869  0.49257668  0.44950258
   0.50058925  0.99767067  0.32219910
   0.98408324  0.22484014  0.55268215
   0.98102294  0.73489357  0.54372353
   0.47592231  0.04707091  0.58166690
   0.99038892  0.22367097  0.48489650
   0.50058925  0.72426545  0.35464748
   0.50058925  0.27107537  0.35464748
   0.98856911  0.76399622  0.48536542
   0.77399447  0.49766954  0.29318964
   0.72319361  0.99783771  0.42032196
   0.48906062  0.22687155  0.47908818
   0.00058986  0.72426545  0.35120881
   0.00058986  0.27107537  0.35120881
   0.48993357  0.76903841  0.47874717
   0.72156498  0.49608267  0.41471440
   0.77399447  0.99767067  0.28975097
   0.26487751  0.49615401  0.41374430
   0.22718577  0.99767067  0.28975097
   0.26794860  0.99717825  0.41969019
   0.22718577  0.49766954  0.29318964
   0.76854851  0.48120700  0.55047824
   0.21238492  0.98088471  0.54350875
   0.23416393  0.50214576  0.54914449
   0.75068684  0.98227699  0.54364355
   0.72558567  0.08103944  0.61663437
   0.18796857  0.24303587  0.60056355
   0.35446805  0.48738618  0.27144965
   0.25816528  0.46508405  0.57468882
   0.67210036  0.15169046  0.63827870
   0.06527126  0.19616555  0.61710385
Direct configuration=   349
   0.00058986  0.24767071  0.29147031
   0.49305682  0.74618241  0.41681489
   0.49287760  0.24680768  0.41657001
   0.00058986  0.74767011  0.29147031
   0.75058982  0.49766954  0.35292815
   0.74014450  0.99851545  0.48194935
   0.25059042  0.49766954  0.35292815
   0.23989317  0.99725680  0.48291138
   0.99618298  0.99740097  0.38536662
   0.51480552  0.49912326  0.51344919
   0.99557869  0.49257668  0.44950258
   0.50058925  0.99767067  0.32219910
   0.98408324  0.22484014  0.55268215
   0.98102294  0.73489357  0.54372353
   0.47592231  0.04707091  0.58166690
   0.99038892  0.22367097  0.48489650
   0.50058925  0.72426545  0.35464748
   0.50058925  0.27107537  0.35464748
   0.98856911  0.76399622  0.48536542
   0.77399447  0.49766954  0.29318964
   0.72319361  0.99783771  0.42032196
   0.48906062  0.22687155  0.47908818
   0.00058986  0.72426545  0.35120881
   0.00058986  0.27107537  0.35120881
   0.48993357  0.76903841  0.47874717
   0.72156498  0.49608267  0.41471440
   0.77399447  0.99767067  0.28975097
   0.26487751  0.49615401  0.41374430
   0.22718577  0.99767067  0.28975097
   0.26794860  0.99717825  0.41969019
   0.22718577  0.49766954  0.29318964
   0.76854851  0.48120700  0.55047824
   0.21238492  0.98088471  0.54350875
   0.23416393  0.50214576  0.54914449
   0.75068684  0.98227699  0.54364355
   0.72558567  0.08103944  0.61663437
   0.18796857  0.24303587  0.60056355
   0.35446805  0.48738618  0.27144965
   0.25816528  0.46508405  0.57468882
   0.67210036  0.15169046  0.63827870
   0.06527126  0.19616555  0.61710385
Direct configuration=   350
   0.00058986  0.24767071  0.29147031
   0.49305682  0.74618241  0.41681489
   0.49287760  0.24680768  0.41657001
   0.00058986  0.74767011  0.29147031
   0.75058982  0.49766954  0.35292815
   0.74014450  0.99851545  0.48194935
   0.25059042  0.49766954  0.35292815
   0.23989317  0.99725680  0.48291138
   0.99618298  0.99740097  0.38536662
   0.51480552  0.49912326  0.51344919
   0.99557869  0.49257668  0.44950258
   0.50058925  0.99767067  0.32219910
   0.98408324  0.22484014  0.55268215
   0.98102294  0.73489357  0.54372353
   0.47592231  0.04707091  0.58166690
   0.99038892  0.22367097  0.48489650
   0.50058925  0.72426545  0.35464748
   0.50058925  0.27107537  0.35464748
   0.98856911  0.76399622  0.48536542
   0.77399447  0.49766954  0.29318964
   0.72319361  0.99783771  0.42032196
   0.48906062  0.22687155  0.47908818
   0.00058986  0.72426545  0.35120881
   0.00058986  0.27107537  0.35120881
   0.48993357  0.76903841  0.47874717
   0.72156498  0.49608267  0.41471440
   0.77399447  0.99767067  0.28975097
   0.26487751  0.49615401  0.41374430
   0.22718577  0.99767067  0.28975097
   0.26794860  0.99717825  0.41969019
   0.22718577  0.49766954  0.29318964
   0.76854851  0.48120700  0.55047824
   0.21238492  0.98088471  0.54350875
   0.23416393  0.50214576  0.54914449
   0.75068684  0.98227699  0.54364355
   0.72558567  0.08103944  0.61663437
   0.18796857  0.24303587  0.60056355
   0.35446805  0.48738618  0.27144965
   0.25816528  0.46508405  0.57468882
   0.67210036  0.15169046  0.63827870
   0.06527126  0.19616555  0.61710385
Direct configuration=   351
   0.00058986  0.24767071  0.29147031
   0.49305682  0.74618241  0.41681489
   0.49287760  0.24680768  0.41657001
   0.00058986  0.74767011  0.29147031
   0.75058982  0.49766954  0.35292815
   0.74014450  0.99851545  0.48194935
   0.25059042  0.49766954  0.35292815
   0.23989317  0.99725680  0.48291138
   0.99618298  0.99740097  0.38536662
   0.51480552  0.49912326  0.51344919
   0.99557869  0.49257668  0.44950258
   0.50058925  0.99767067  0.32219910
   0.98408324  0.22484014  0.55268215
   0.98102294  0.73489357  0.54372353
   0.47592231  0.04707091  0.58166690
   0.99038892  0.22367097  0.48489650
   0.50058925  0.72426545  0.35464748
   0.50058925  0.27107537  0.35464748
   0.98856911  0.76399622  0.48536542
   0.77399447  0.49766954  0.29318964
   0.72319361  0.99783771  0.42032196
   0.48906062  0.22687155  0.47908818
   0.00058986  0.72426545  0.35120881
   0.00058986  0.27107537  0.35120881
   0.48993357  0.76903841  0.47874717
   0.72156498  0.49608267  0.41471440
   0.77399447  0.99767067  0.28975097
   0.26487751  0.49615401  0.41374430
   0.22718577  0.99767067  0.28975097
   0.26794860  0.99717825  0.41969019
   0.22718577  0.49766954  0.29318964
   0.76854851  0.48120700  0.55047824
   0.21238492  0.98088471  0.54350875
   0.23416393  0.50214576  0.54914449
   0.75068684  0.98227699  0.54364355
   0.72558567  0.08103944  0.61663437
   0.18796857  0.24303587  0.60056355
   0.35446805  0.48738618  0.27144965
   0.25816528  0.46508405  0.57468882
   0.67210036  0.15169046  0.63827870
   0.06527126  0.19616555  0.61710385
Direct configuration=   352
   0.00058986  0.24767071  0.29147031
   0.49305682  0.74618241  0.41681489
   0.49287760  0.24680768  0.41657001
   0.00058986  0.74767011  0.29147031
   0.75058982  0.49766954  0.35292815
   0.74014450  0.99851545  0.48194935
   0.25059042  0.49766954  0.35292815
   0.23989317  0.99725680  0.48291138
   0.99618298  0.99740097  0.38536662
   0.51480552  0.49912326  0.51344919
   0.99557869  0.49257668  0.44950258
   0.50058925  0.99767067  0.32219910
   0.98408324  0.22484014  0.55268215
   0.98102294  0.73489357  0.54372353
   0.47592231  0.04707091  0.58166690
   0.99038892  0.22367097  0.48489650
   0.50058925  0.72426545  0.35464748
   0.50058925  0.27107537  0.35464748
   0.98856911  0.76399622  0.48536542
   0.77399447  0.49766954  0.29318964
   0.72319361  0.99783771  0.42032196
   0.48906062  0.22687155  0.47908818
   0.00058986  0.72426545  0.35120881
   0.00058986  0.27107537  0.35120881
   0.48993357  0.76903841  0.47874717
   0.72156498  0.49608267  0.41471440
   0.77399447  0.99767067  0.28975097
   0.26487751  0.49615401  0.41374430
   0.22718577  0.99767067  0.28975097
   0.26794860  0.99717825  0.41969019
   0.22718577  0.49766954  0.29318964
   0.76854851  0.48120700  0.55047824
   0.21238492  0.98088471  0.54350875
   0.23416393  0.50214576  0.54914449
   0.75068684  0.98227699  0.54364355
   0.72558567  0.08103944  0.61663437
   0.18796857  0.24303587  0.60056355
   0.35446805  0.48738618  0.27144965
   0.25816528  0.46508405  0.57468882
   0.67210036  0.15169046  0.63827870
   0.06527126  0.19616555  0.61710385
Direct configuration=   353
   0.00058986  0.24767071  0.29147031
   0.49305682  0.74618241  0.41681489
   0.49287760  0.24680768  0.41657001
   0.00058986  0.74767011  0.29147031
   0.75058982  0.49766954  0.35292815
   0.74014450  0.99851545  0.48194935
   0.25059042  0.49766954  0.35292815
   0.23989317  0.99725680  0.48291138
   0.99618298  0.99740097  0.38536662
   0.51480552  0.49912326  0.51344919
   0.99557869  0.49257668  0.44950258
   0.50058925  0.99767067  0.32219910
   0.98408324  0.22484014  0.55268215
   0.98102294  0.73489357  0.54372353
   0.47592231  0.04707091  0.58166690
   0.99038892  0.22367097  0.48489650
   0.50058925  0.72426545  0.35464748
   0.50058925  0.27107537  0.35464748
   0.98856911  0.76399622  0.48536542
   0.77399447  0.49766954  0.29318964
   0.72319361  0.99783771  0.42032196
   0.48906062  0.22687155  0.47908818
   0.00058986  0.72426545  0.35120881
   0.00058986  0.27107537  0.35120881
   0.48993357  0.76903841  0.47874717
   0.72156498  0.49608267  0.41471440
   0.77399447  0.99767067  0.28975097
   0.26487751  0.49615401  0.41374430
   0.22718577  0.99767067  0.28975097
   0.26794860  0.99717825  0.41969019
   0.22718577  0.49766954  0.29318964
   0.76854851  0.48120700  0.55047824
   0.21238492  0.98088471  0.54350875
   0.23416393  0.50214576  0.54914449
   0.75068684  0.98227699  0.54364355
   0.72558567  0.08103944  0.61663437
   0.18796857  0.24303587  0.60056355
   0.35446805  0.48738618  0.27144965
   0.25816528  0.46508405  0.57468882
   0.67210036  0.15169046  0.63827870
   0.06527126  0.19616555  0.61710385
Direct configuration=   354
   0.00058986  0.24767071  0.29147031
   0.49305682  0.74618241  0.41681489
   0.49287760  0.24680768  0.41657001
   0.00058986  0.74767011  0.29147031
   0.75058982  0.49766954  0.35292815
   0.74014450  0.99851545  0.48194935
   0.25059042  0.49766954  0.35292815
   0.23989317  0.99725680  0.48291138
   0.99618298  0.99740097  0.38536662
   0.51480552  0.49912326  0.51344919
   0.99557869  0.49257668  0.44950258
   0.50058925  0.99767067  0.32219910
   0.98408324  0.22484014  0.55268215
   0.98102294  0.73489357  0.54372353
   0.47592231  0.04707091  0.58166690
   0.99038892  0.22367097  0.48489650
   0.50058925  0.72426545  0.35464748
   0.50058925  0.27107537  0.35464748
   0.98856911  0.76399622  0.48536542
   0.77399447  0.49766954  0.29318964
   0.72319361  0.99783771  0.42032196
   0.48906062  0.22687155  0.47908818
   0.00058986  0.72426545  0.35120881
   0.00058986  0.27107537  0.35120881
   0.48993357  0.76903841  0.47874717
   0.72156498  0.49608267  0.41471440
   0.77399447  0.99767067  0.28975097
   0.26487751  0.49615401  0.41374430
   0.22718577  0.99767067  0.28975097
   0.26794860  0.99717825  0.41969019
   0.22718577  0.49766954  0.29318964
   0.76854851  0.48120700  0.55047824
   0.21238492  0.98088471  0.54350875
   0.23416393  0.50214576  0.54914449
   0.75068684  0.98227699  0.54364355
   0.72558567  0.08103944  0.61663437
   0.18796857  0.24303587  0.60056355
   0.35446805  0.48738618  0.27144965
   0.25816528  0.46508405  0.57468882
   0.67210036  0.15169046  0.63827870
   0.06527126  0.19616555  0.61710385
Direct configuration=   355
   0.00058986  0.24767071  0.29147031
   0.49305682  0.74618241  0.41681489
   0.49287760  0.24680768  0.41657001
   0.00058986  0.74767011  0.29147031
   0.75058982  0.49766954  0.35292815
   0.74014450  0.99851545  0.48194935
   0.25059042  0.49766954  0.35292815
   0.23989317  0.99725680  0.48291138
   0.99618298  0.99740097  0.38536662
   0.51480552  0.49912326  0.51344919
   0.99557869  0.49257668  0.44950258
   0.50058925  0.99767067  0.32219910
   0.98408324  0.22484014  0.55268215
   0.98102294  0.73489357  0.54372353
   0.47592231  0.04707091  0.58166690
   0.99038892  0.22367097  0.48489650
   0.50058925  0.72426545  0.35464748
   0.50058925  0.27107537  0.35464748
   0.98856911  0.76399622  0.48536542
   0.77399447  0.49766954  0.29318964
   0.72319361  0.99783771  0.42032196
   0.48906062  0.22687155  0.47908818
   0.00058986  0.72426545  0.35120881
   0.00058986  0.27107537  0.35120881
   0.48993357  0.76903841  0.47874717
   0.72156498  0.49608267  0.41471440
   0.77399447  0.99767067  0.28975097
   0.26487751  0.49615401  0.41374430
   0.22718577  0.99767067  0.28975097
   0.26794860  0.99717825  0.41969019
   0.22718577  0.49766954  0.29318964
   0.76854851  0.48120700  0.55047824
   0.21238492  0.98088471  0.54350875
   0.23416393  0.50214576  0.54914449
   0.75068684  0.98227699  0.54364355
   0.72558567  0.08103944  0.61663437
   0.18796857  0.24303587  0.60056355
   0.35446805  0.48738618  0.27144965
   0.25816528  0.46508405  0.57468882
   0.67210036  0.15169046  0.63827870
   0.06527126  0.19616555  0.61710385
Direct configuration=   356
   0.00058986  0.24767071  0.29147031
   0.49305682  0.74618241  0.41681489
   0.49287760  0.24680768  0.41657001
   0.00058986  0.74767011  0.29147031
   0.75058982  0.49766954  0.35292815
   0.74014450  0.99851545  0.48194935
   0.25059042  0.49766954  0.35292815
   0.23989317  0.99725680  0.48291138
   0.99618298  0.99740097  0.38536662
   0.51480552  0.49912326  0.51344919
   0.99557869  0.49257668  0.44950258
   0.50058925  0.99767067  0.32219910
   0.98408324  0.22484014  0.55268215
   0.98102294  0.73489357  0.54372353
   0.47592231  0.04707091  0.58166690
   0.99038892  0.22367097  0.48489650
   0.50058925  0.72426545  0.35464748
   0.50058925  0.27107537  0.35464748
   0.98856911  0.76399622  0.48536542
   0.77399447  0.49766954  0.29318964
   0.72319361  0.99783771  0.42032196
   0.48906062  0.22687155  0.47908818
   0.00058986  0.72426545  0.35120881
   0.00058986  0.27107537  0.35120881
   0.48993357  0.76903841  0.47874717
   0.72156498  0.49608267  0.41471440
   0.77399447  0.99767067  0.28975097
   0.26487751  0.49615401  0.41374430
   0.22718577  0.99767067  0.28975097
   0.26794860  0.99717825  0.41969019
   0.22718577  0.49766954  0.29318964
   0.76854851  0.48120700  0.55047824
   0.21238492  0.98088471  0.54350875
   0.23416393  0.50214576  0.54914449
   0.75068684  0.98227699  0.54364355
   0.72558567  0.08103944  0.61663437
   0.18796857  0.24303587  0.60056355
   0.35446805  0.48738618  0.27144965
   0.25816528  0.46508405  0.57468882
   0.67210036  0.15169046  0.63827870
   0.06527126  0.19616555  0.61710385
Direct configuration=   357
   0.00058986  0.24767071  0.29147031
   0.49305682  0.74618241  0.41681489
   0.49287760  0.24680768  0.41657001
   0.00058986  0.74767011  0.29147031
   0.75058982  0.49766954  0.35292815
   0.74014450  0.99851545  0.48194935
   0.25059042  0.49766954  0.35292815
   0.23989317  0.99725680  0.48291138
   0.99618298  0.99740097  0.38536662
   0.51480552  0.49912326  0.51344919
   0.99557869  0.49257668  0.44950258
   0.50058925  0.99767067  0.32219910
   0.98408324  0.22484014  0.55268215
   0.98102294  0.73489357  0.54372353
   0.47592231  0.04707091  0.58166690
   0.99038892  0.22367097  0.48489650
   0.50058925  0.72426545  0.35464748
   0.50058925  0.27107537  0.35464748
   0.98856911  0.76399622  0.48536542
   0.77399447  0.49766954  0.29318964
   0.72319361  0.99783771  0.42032196
   0.48906062  0.22687155  0.47908818
   0.00058986  0.72426545  0.35120881
   0.00058986  0.27107537  0.35120881
   0.48993357  0.76903841  0.47874717
   0.72156498  0.49608267  0.41471440
   0.77399447  0.99767067  0.28975097
   0.26487751  0.49615401  0.41374430
   0.22718577  0.99767067  0.28975097
   0.26794860  0.99717825  0.41969019
   0.22718577  0.49766954  0.29318964
   0.76854851  0.48120700  0.55047824
   0.21238492  0.98088471  0.54350875
   0.23416393  0.50214576  0.54914449
   0.75068684  0.98227699  0.54364355
   0.72558567  0.08103944  0.61663437
   0.18796857  0.24303587  0.60056355
   0.35446805  0.48738618  0.27144965
   0.25816528  0.46508405  0.57468882
   0.67210036  0.15169046  0.63827870
   0.06527126  0.19616555  0.61710385
Direct configuration=   358
   0.00058986  0.24767071  0.29147031
   0.49305682  0.74618241  0.41681489
   0.49287760  0.24680768  0.41657001
   0.00058986  0.74767011  0.29147031
   0.75058982  0.49766954  0.35292815
   0.74014450  0.99851545  0.48194935
   0.25059042  0.49766954  0.35292815
   0.23989317  0.99725680  0.48291138
   0.99618298  0.99740097  0.38536662
   0.51480552  0.49912326  0.51344919
   0.99557869  0.49257668  0.44950258
   0.50058925  0.99767067  0.32219910
   0.98408324  0.22484014  0.55268215
   0.98102294  0.73489357  0.54372353
   0.47592231  0.04707091  0.58166690
   0.99038892  0.22367097  0.48489650
   0.50058925  0.72426545  0.35464748
   0.50058925  0.27107537  0.35464748
   0.98856911  0.76399622  0.48536542
   0.77399447  0.49766954  0.29318964
   0.72319361  0.99783771  0.42032196
   0.48906062  0.22687155  0.47908818
   0.00058986  0.72426545  0.35120881
   0.00058986  0.27107537  0.35120881
   0.48993357  0.76903841  0.47874717
   0.72156498  0.49608267  0.41471440
   0.77399447  0.99767067  0.28975097
   0.26487751  0.49615401  0.41374430
   0.22718577  0.99767067  0.28975097
   0.26794860  0.99717825  0.41969019
   0.22718577  0.49766954  0.29318964
   0.76854851  0.48120700  0.55047824
   0.21238492  0.98088471  0.54350875
   0.23416393  0.50214576  0.54914449
   0.75068684  0.98227699  0.54364355
   0.72558567  0.08103944  0.61663437
   0.18796857  0.24303587  0.60056355
   0.35446805  0.48738618  0.27144965
   0.25816528  0.46508405  0.57468882
   0.67210036  0.15169046  0.63827870
   0.06527126  0.19616555  0.61710385
Direct configuration=   359
   0.00058986  0.24767071  0.29147031
   0.49305682  0.74618241  0.41681489
   0.49287760  0.24680768  0.41657001
   0.00058986  0.74767011  0.29147031
   0.75058982  0.49766954  0.35292815
   0.74014450  0.99851545  0.48194935
   0.25059042  0.49766954  0.35292815
   0.23989317  0.99725680  0.48291138
   0.99618298  0.99740097  0.38536662
   0.51480552  0.49912326  0.51344919
   0.99557869  0.49257668  0.44950258
   0.50058925  0.99767067  0.32219910
   0.98408324  0.22484014  0.55268215
   0.98102294  0.73489357  0.54372353
   0.47592231  0.04707091  0.58166690
   0.99038892  0.22367097  0.48489650
   0.50058925  0.72426545  0.35464748
   0.50058925  0.27107537  0.35464748
   0.98856911  0.76399622  0.48536542
   0.77399447  0.49766954  0.29318964
   0.72319361  0.99783771  0.42032196
   0.48906062  0.22687155  0.47908818
   0.00058986  0.72426545  0.35120881
   0.00058986  0.27107537  0.35120881
   0.48993357  0.76903841  0.47874717
   0.72156498  0.49608267  0.41471440
   0.77399447  0.99767067  0.28975097
   0.26487751  0.49615401  0.41374430
   0.22718577  0.99767067  0.28975097
   0.26794860  0.99717825  0.41969019
   0.22718577  0.49766954  0.29318964
   0.76854851  0.48120700  0.55047824
   0.21238492  0.98088471  0.54350875
   0.23416393  0.50214576  0.54914449
   0.75068684  0.98227699  0.54364355
   0.72558567  0.08103944  0.61663437
   0.18796857  0.24303587  0.60056355
   0.35446805  0.48738618  0.27144965
   0.25816528  0.46508405  0.57468882
   0.67210036  0.15169046  0.63827870
   0.06527126  0.19616555  0.61710385
Direct configuration=   360
   0.00058986  0.24767071  0.29147031
   0.49305682  0.74618241  0.41681489
   0.49287760  0.24680768  0.41657001
   0.00058986  0.74767011  0.29147031
   0.75058982  0.49766954  0.35292815
   0.74014450  0.99851545  0.48194935
   0.25059042  0.49766954  0.35292815
   0.23989317  0.99725680  0.48291138
   0.99618298  0.99740097  0.38536662
   0.51480552  0.49912326  0.51344919
   0.99557869  0.49257668  0.44950258
   0.50058925  0.99767067  0.32219910
   0.98408324  0.22484014  0.55268215
   0.98102294  0.73489357  0.54372353
   0.47592231  0.04707091  0.58166690
   0.99038892  0.22367097  0.48489650
   0.50058925  0.72426545  0.35464748
   0.50058925  0.27107537  0.35464748
   0.98856911  0.76399622  0.48536542
   0.77399447  0.49766954  0.29318964
   0.72319361  0.99783771  0.42032196
   0.48906062  0.22687155  0.47908818
   0.00058986  0.72426545  0.35120881
   0.00058986  0.27107537  0.35120881
   0.48993357  0.76903841  0.47874717
   0.72156498  0.49608267  0.41471440
   0.77399447  0.99767067  0.28975097
   0.26487751  0.49615401  0.41374430
   0.22718577  0.99767067  0.28975097
   0.26794860  0.99717825  0.41969019
   0.22718577  0.49766954  0.29318964
   0.76854851  0.48120700  0.55047824
   0.21238492  0.98088471  0.54350875
   0.23416393  0.50214576  0.54914449
   0.75068684  0.98227699  0.54364355
   0.72558567  0.08103944  0.61663437
   0.18796857  0.24303587  0.60056355
   0.35446805  0.48738618  0.27144965
   0.25816528  0.46508405  0.57468882
   0.67210036  0.15169046  0.63827870
   0.06527126  0.19616555  0.61710385
Direct configuration=   361
   0.00058986  0.24767071  0.29147031
   0.49305682  0.74618241  0.41681489
   0.49287760  0.24680768  0.41657001
   0.00058986  0.74767011  0.29147031
   0.75058982  0.49766954  0.35292815
   0.74014450  0.99851545  0.48194935
   0.25059042  0.49766954  0.35292815
   0.23989317  0.99725680  0.48291138
   0.99618298  0.99740097  0.38536662
   0.51480552  0.49912326  0.51344919
   0.99557869  0.49257668  0.44950258
   0.50058925  0.99767067  0.32219910
   0.98408324  0.22484014  0.55268215
   0.98102294  0.73489357  0.54372353
   0.47592231  0.04707091  0.58166690
   0.99038892  0.22367097  0.48489650
   0.50058925  0.72426545  0.35464748
   0.50058925  0.27107537  0.35464748
   0.98856911  0.76399622  0.48536542
   0.77399447  0.49766954  0.29318964
   0.72319361  0.99783771  0.42032196
   0.48906062  0.22687155  0.47908818
   0.00058986  0.72426545  0.35120881
   0.00058986  0.27107537  0.35120881
   0.48993357  0.76903841  0.47874717
   0.72156498  0.49608267  0.41471440
   0.77399447  0.99767067  0.28975097
   0.26487751  0.49615401  0.41374430
   0.22718577  0.99767067  0.28975097
   0.26794860  0.99717825  0.41969019
   0.22718577  0.49766954  0.29318964
   0.76854851  0.48120700  0.55047824
   0.21238492  0.98088471  0.54350875
   0.23416393  0.50214576  0.54914449
   0.75068684  0.98227699  0.54364355
   0.72558567  0.08103944  0.61663437
   0.18796857  0.24303587  0.60056355
   0.35446805  0.48738618  0.27144965
   0.25816528  0.46508405  0.57468882
   0.67210036  0.15169046  0.63827870
   0.06527126  0.19616555  0.61710385
Direct configuration=   362
   0.00058986  0.24767071  0.29147031
   0.49305682  0.74618241  0.41681489
   0.49287760  0.24680768  0.41657001
   0.00058986  0.74767011  0.29147031
   0.75058982  0.49766954  0.35292815
   0.74014450  0.99851545  0.48194935
   0.25059042  0.49766954  0.35292815
   0.23989317  0.99725680  0.48291138
   0.99618298  0.99740097  0.38536662
   0.51480552  0.49912326  0.51344919
   0.99557869  0.49257668  0.44950258
   0.50058925  0.99767067  0.32219910
   0.98408324  0.22484014  0.55268215
   0.98102294  0.73489357  0.54372353
   0.47592231  0.04707091  0.58166690
   0.99038892  0.22367097  0.48489650
   0.50058925  0.72426545  0.35464748
   0.50058925  0.27107537  0.35464748
   0.98856911  0.76399622  0.48536542
   0.77399447  0.49766954  0.29318964
   0.72319361  0.99783771  0.42032196
   0.48906062  0.22687155  0.47908818
   0.00058986  0.72426545  0.35120881
   0.00058986  0.27107537  0.35120881
   0.48993357  0.76903841  0.47874717
   0.72156498  0.49608267  0.41471440
   0.77399447  0.99767067  0.28975097
   0.26487751  0.49615401  0.41374430
   0.22718577  0.99767067  0.28975097
   0.26794860  0.99717825  0.41969019
   0.22718577  0.49766954  0.29318964
   0.76854851  0.48120700  0.55047824
   0.21238492  0.98088471  0.54350875
   0.23416393  0.50214576  0.54914449
   0.75068684  0.98227699  0.54364355
   0.72558567  0.08103944  0.61663437
   0.18796857  0.24303587  0.60056355
   0.35446805  0.48738618  0.27144965
   0.25816528  0.46508405  0.57468882
   0.67210036  0.15169046  0.63827870
   0.06527126  0.19616555  0.61710385
Direct configuration=   363
   0.00058986  0.24767071  0.29147031
   0.49305682  0.74618241  0.41681489
   0.49287760  0.24680768  0.41657001
   0.00058986  0.74767011  0.29147031
   0.75058982  0.49766954  0.35292815
   0.74014450  0.99851545  0.48194935
   0.25059042  0.49766954  0.35292815
   0.23989317  0.99725680  0.48291138
   0.99618298  0.99740097  0.38536662
   0.51480552  0.49912326  0.51344919
   0.99557869  0.49257668  0.44950258
   0.50058925  0.99767067  0.32219910
   0.98408324  0.22484014  0.55268215
   0.98102294  0.73489357  0.54372353
   0.47592231  0.04707091  0.58166690
   0.99038892  0.22367097  0.48489650
   0.50058925  0.72426545  0.35464748
   0.50058925  0.27107537  0.35464748
   0.98856911  0.76399622  0.48536542
   0.77399447  0.49766954  0.29318964
   0.72319361  0.99783771  0.42032196
   0.48906062  0.22687155  0.47908818
   0.00058986  0.72426545  0.35120881
   0.00058986  0.27107537  0.35120881
   0.48993357  0.76903841  0.47874717
   0.72156498  0.49608267  0.41471440
   0.77399447  0.99767067  0.28975097
   0.26487751  0.49615401  0.41374430
   0.22718577  0.99767067  0.28975097
   0.26794860  0.99717825  0.41969019
   0.22718577  0.49766954  0.29318964
   0.76854851  0.48120700  0.55047824
   0.21238492  0.98088471  0.54350875
   0.23416393  0.50214576  0.54914449
   0.75068684  0.98227699  0.54364355
   0.72558567  0.08103944  0.61663437
   0.18796857  0.24303587  0.60056355
   0.35446805  0.48738618  0.27144965
   0.25816528  0.46508405  0.57468882
   0.67210036  0.15169046  0.63827870
   0.06527126  0.19616555  0.61710385
Direct configuration=   364
   0.00058986  0.24767071  0.29147031
   0.49305682  0.74618241  0.41681489
   0.49287760  0.24680768  0.41657001
   0.00058986  0.74767011  0.29147031
   0.75058982  0.49766954  0.35292815
   0.74014450  0.99851545  0.48194935
   0.25059042  0.49766954  0.35292815
   0.23989317  0.99725680  0.48291138
   0.99618298  0.99740097  0.38536662
   0.51480552  0.49912326  0.51344919
   0.99557869  0.49257668  0.44950258
   0.50058925  0.99767067  0.32219910
   0.98408324  0.22484014  0.55268215
   0.98102294  0.73489357  0.54372353
   0.47592231  0.04707091  0.58166690
   0.99038892  0.22367097  0.48489650
   0.50058925  0.72426545  0.35464748
   0.50058925  0.27107537  0.35464748
   0.98856911  0.76399622  0.48536542
   0.77399447  0.49766954  0.29318964
   0.72319361  0.99783771  0.42032196
   0.48906062  0.22687155  0.47908818
   0.00058986  0.72426545  0.35120881
   0.00058986  0.27107537  0.35120881
   0.48993357  0.76903841  0.47874717
   0.72156498  0.49608267  0.41471440
   0.77399447  0.99767067  0.28975097
   0.26487751  0.49615401  0.41374430
   0.22718577  0.99767067  0.28975097
   0.26794860  0.99717825  0.41969019
   0.22718577  0.49766954  0.29318964
   0.76854851  0.48120700  0.55047824
   0.21238492  0.98088471  0.54350875
   0.23416393  0.50214576  0.54914449
   0.75068684  0.98227699  0.54364355
   0.72558567  0.08103944  0.61663437
   0.18796857  0.24303587  0.60056355
   0.35446805  0.48738618  0.27144965
   0.25816528  0.46508405  0.57468882
   0.67210036  0.15169046  0.63827870
   0.06527126  0.19616555  0.61710385
Direct configuration=   365
   0.00058986  0.24767071  0.29147031
   0.49305682  0.74618241  0.41681489
   0.49287760  0.24680768  0.41657001
   0.00058986  0.74767011  0.29147031
   0.75058982  0.49766954  0.35292815
   0.74014450  0.99851545  0.48194935
   0.25059042  0.49766954  0.35292815
   0.23989317  0.99725680  0.48291138
   0.99618298  0.99740097  0.38536662
   0.51480552  0.49912326  0.51344919
   0.99557869  0.49257668  0.44950258
   0.50058925  0.99767067  0.32219910
   0.98408324  0.22484014  0.55268215
   0.98102294  0.73489357  0.54372353
   0.47592231  0.04707091  0.58166690
   0.99038892  0.22367097  0.48489650
   0.50058925  0.72426545  0.35464748
   0.50058925  0.27107537  0.35464748
   0.98856911  0.76399622  0.48536542
   0.77399447  0.49766954  0.29318964
   0.72319361  0.99783771  0.42032196
   0.48906062  0.22687155  0.47908818
   0.00058986  0.72426545  0.35120881
   0.00058986  0.27107537  0.35120881
   0.48993357  0.76903841  0.47874717
   0.72156498  0.49608267  0.41471440
   0.77399447  0.99767067  0.28975097
   0.26487751  0.49615401  0.41374430
   0.22718577  0.99767067  0.28975097
   0.26794860  0.99717825  0.41969019
   0.22718577  0.49766954  0.29318964
   0.76854851  0.48120700  0.55047824
   0.21238492  0.98088471  0.54350875
   0.23416393  0.50214576  0.54914449
   0.75068684  0.98227699  0.54364355
   0.72558567  0.08103944  0.61663437
   0.18796857  0.24303587  0.60056355
   0.35446805  0.48738618  0.27144965
   0.25816528  0.46508405  0.57468882
   0.67210036  0.15169046  0.63827870
   0.06527126  0.19616555  0.61710385
Direct configuration=   366
   0.00058986  0.24767071  0.29147031
   0.49305682  0.74618241  0.41681489
   0.49287760  0.24680768  0.41657001
   0.00058986  0.74767011  0.29147031
   0.75058982  0.49766954  0.35292815
   0.74014450  0.99851545  0.48194935
   0.25059042  0.49766954  0.35292815
   0.23989317  0.99725680  0.48291138
   0.99618298  0.99740097  0.38536662
   0.51480552  0.49912326  0.51344919
   0.99557869  0.49257668  0.44950258
   0.50058925  0.99767067  0.32219910
   0.98408324  0.22484014  0.55268215
   0.98102294  0.73489357  0.54372353
   0.47592231  0.04707091  0.58166690
   0.99038892  0.22367097  0.48489650
   0.50058925  0.72426545  0.35464748
   0.50058925  0.27107537  0.35464748
   0.98856911  0.76399622  0.48536542
   0.77399447  0.49766954  0.29318964
   0.72319361  0.99783771  0.42032196
   0.48906062  0.22687155  0.47908818
   0.00058986  0.72426545  0.35120881
   0.00058986  0.27107537  0.35120881
   0.48993357  0.76903841  0.47874717
   0.72156498  0.49608267  0.41471440
   0.77399447  0.99767067  0.28975097
   0.26487751  0.49615401  0.41374430
   0.22718577  0.99767067  0.28975097
   0.26794860  0.99717825  0.41969019
   0.22718577  0.49766954  0.29318964
   0.76854851  0.48120700  0.55047824
   0.21238492  0.98088471  0.54350875
   0.23416393  0.50214576  0.54914449
   0.75068684  0.98227699  0.54364355
   0.72558567  0.08103944  0.61663437
   0.18796857  0.24303587  0.60056355
   0.35446805  0.48738618  0.27144965
   0.25816528  0.46508405  0.57468882
   0.67210036  0.15169046  0.63827870
   0.06527126  0.19616555  0.61710385
Direct configuration=   367
   0.00058986  0.24767071  0.29147031
   0.49305682  0.74618241  0.41681489
   0.49287760  0.24680768  0.41657001
   0.00058986  0.74767011  0.29147031
   0.75058982  0.49766954  0.35292815
   0.74014450  0.99851545  0.48194935
   0.25059042  0.49766954  0.35292815
   0.23989317  0.99725680  0.48291138
   0.99618298  0.99740097  0.38536662
   0.51480552  0.49912326  0.51344919
   0.99557869  0.49257668  0.44950258
   0.50058925  0.99767067  0.32219910
   0.98408324  0.22484014  0.55268215
   0.98102294  0.73489357  0.54372353
   0.47592231  0.04707091  0.58166690
   0.99038892  0.22367097  0.48489650
   0.50058925  0.72426545  0.35464748
   0.50058925  0.27107537  0.35464748
   0.98856911  0.76399622  0.48536542
   0.77399447  0.49766954  0.29318964
   0.72319361  0.99783771  0.42032196
   0.48906062  0.22687155  0.47908818
   0.00058986  0.72426545  0.35120881
   0.00058986  0.27107537  0.35120881
   0.48993357  0.76903841  0.47874717
   0.72156498  0.49608267  0.41471440
   0.77399447  0.99767067  0.28975097
   0.26487751  0.49615401  0.41374430
   0.22718577  0.99767067  0.28975097
   0.26794860  0.99717825  0.41969019
   0.22718577  0.49766954  0.29318964
   0.76854851  0.48120700  0.55047824
   0.21238492  0.98088471  0.54350875
   0.23416393  0.50214576  0.54914449
   0.75068684  0.98227699  0.54364355
   0.72558567  0.08103944  0.61663437
   0.18796857  0.24303587  0.60056355
   0.35446805  0.48738618  0.27144965
   0.25816528  0.46508405  0.57468882
   0.67210036  0.15169046  0.63827870
   0.06527126  0.19616555  0.61710385
Direct configuration=   368
   0.00058986  0.24767071  0.29147031
   0.49305682  0.74618241  0.41681489
   0.49287760  0.24680768  0.41657001
   0.00058986  0.74767011  0.29147031
   0.75058982  0.49766954  0.35292815
   0.74014450  0.99851545  0.48194935
   0.25059042  0.49766954  0.35292815
   0.23989317  0.99725680  0.48291138
   0.99618298  0.99740097  0.38536662
   0.51480552  0.49912326  0.51344919
   0.99557869  0.49257668  0.44950258
   0.50058925  0.99767067  0.32219910
   0.98408324  0.22484014  0.55268215
   0.98102294  0.73489357  0.54372353
   0.47592231  0.04707091  0.58166690
   0.99038892  0.22367097  0.48489650
   0.50058925  0.72426545  0.35464748
   0.50058925  0.27107537  0.35464748
   0.98856911  0.76399622  0.48536542
   0.77399447  0.49766954  0.29318964
   0.72319361  0.99783771  0.42032196
   0.48906062  0.22687155  0.47908818
   0.00058986  0.72426545  0.35120881
   0.00058986  0.27107537  0.35120881
   0.48993357  0.76903841  0.47874717
   0.72156498  0.49608267  0.41471440
   0.77399447  0.99767067  0.28975097
   0.26487751  0.49615401  0.41374430
   0.22718577  0.99767067  0.28975097
   0.26794860  0.99717825  0.41969019
   0.22718577  0.49766954  0.29318964
   0.76854851  0.48120700  0.55047824
   0.21238492  0.98088471  0.54350875
   0.23416393  0.50214576  0.54914449
   0.75068684  0.98227699  0.54364355
   0.72558567  0.08103944  0.61663437
   0.18796857  0.24303587  0.60056355
   0.35446805  0.48738618  0.27144965
   0.25816528  0.46508405  0.57468882
   0.67210036  0.15169046  0.63827870
   0.06527126  0.19616555  0.61710385
Direct configuration=   369
   0.00058986  0.24767071  0.29147031
   0.49305682  0.74618241  0.41681489
   0.49287760  0.24680768  0.41657001
   0.00058986  0.74767011  0.29147031
   0.75058982  0.49766954  0.35292815
   0.74014450  0.99851545  0.48194935
   0.25059042  0.49766954  0.35292815
   0.23989317  0.99725680  0.48291138
   0.99618298  0.99740097  0.38536662
   0.51480552  0.49912326  0.51344919
   0.99557869  0.49257668  0.44950258
   0.50058925  0.99767067  0.32219910
   0.98408324  0.22484014  0.55268215
   0.98102294  0.73489357  0.54372353
   0.47592231  0.04707091  0.58166690
   0.99038892  0.22367097  0.48489650
   0.50058925  0.72426545  0.35464748
   0.50058925  0.27107537  0.35464748
   0.98856911  0.76399622  0.48536542
   0.77399447  0.49766954  0.29318964
   0.72319361  0.99783771  0.42032196
   0.48906062  0.22687155  0.47908818
   0.00058986  0.72426545  0.35120881
   0.00058986  0.27107537  0.35120881
   0.48993357  0.76903841  0.47874717
   0.72156498  0.49608267  0.41471440
   0.77399447  0.99767067  0.28975097
   0.26487751  0.49615401  0.41374430
   0.22718577  0.99767067  0.28975097
   0.26794860  0.99717825  0.41969019
   0.22718577  0.49766954  0.29318964
   0.76854851  0.48120700  0.55047824
   0.21238492  0.98088471  0.54350875
   0.23416393  0.50214576  0.54914449
   0.75068684  0.98227699  0.54364355
   0.72558567  0.08103944  0.61663437
   0.18796857  0.24303587  0.60056355
   0.35446805  0.48738618  0.27144965
   0.25816528  0.46508405  0.57468882
   0.67210036  0.15169046  0.63827870
   0.06527126  0.19616555  0.61710385
Direct configuration=   370
   0.00058986  0.24767071  0.29147031
   0.49305682  0.74618241  0.41681489
   0.49287760  0.24680768  0.41657001
   0.00058986  0.74767011  0.29147031
   0.75058982  0.49766954  0.35292815
   0.74014450  0.99851545  0.48194935
   0.25059042  0.49766954  0.35292815
   0.23989317  0.99725680  0.48291138
   0.99618298  0.99740097  0.38536662
   0.51480552  0.49912326  0.51344919
   0.99557869  0.49257668  0.44950258
   0.50058925  0.99767067  0.32219910
   0.98408324  0.22484014  0.55268215
   0.98102294  0.73489357  0.54372353
   0.47592231  0.04707091  0.58166690
   0.99038892  0.22367097  0.48489650
   0.50058925  0.72426545  0.35464748
   0.50058925  0.27107537  0.35464748
   0.98856911  0.76399622  0.48536542
   0.77399447  0.49766954  0.29318964
   0.72319361  0.99783771  0.42032196
   0.48906062  0.22687155  0.47908818
   0.00058986  0.72426545  0.35120881
   0.00058986  0.27107537  0.35120881
   0.48993357  0.76903841  0.47874717
   0.72156498  0.49608267  0.41471440
   0.77399447  0.99767067  0.28975097
   0.26487751  0.49615401  0.41374430
   0.22718577  0.99767067  0.28975097
   0.26794860  0.99717825  0.41969019
   0.22718577  0.49766954  0.29318964
   0.76854851  0.48120700  0.55047824
   0.21238492  0.98088471  0.54350875
   0.23416393  0.50214576  0.54914449
   0.75068684  0.98227699  0.54364355
   0.72558567  0.08103944  0.61663437
   0.18796857  0.24303587  0.60056355
   0.35446805  0.48738618  0.27144965
   0.25816528  0.46508405  0.57468882
   0.67210036  0.15169046  0.63827870
   0.06527126  0.19616555  0.61710385
Direct configuration=   371
   0.00058986  0.24767071  0.29147031
   0.49305682  0.74618241  0.41681489
   0.49287760  0.24680768  0.41657001
   0.00058986  0.74767011  0.29147031
   0.75058982  0.49766954  0.35292815
   0.74014450  0.99851545  0.48194935
   0.25059042  0.49766954  0.35292815
   0.23989317  0.99725680  0.48291138
   0.99618298  0.99740097  0.38536662
   0.51480552  0.49912326  0.51344919
   0.99557869  0.49257668  0.44950258
   0.50058925  0.99767067  0.32219910
   0.98408324  0.22484014  0.55268215
   0.98102294  0.73489357  0.54372353
   0.47592231  0.04707091  0.58166690
   0.99038892  0.22367097  0.48489650
   0.50058925  0.72426545  0.35464748
   0.50058925  0.27107537  0.35464748
   0.98856911  0.76399622  0.48536542
   0.77399447  0.49766954  0.29318964
   0.72319361  0.99783771  0.42032196
   0.48906062  0.22687155  0.47908818
   0.00058986  0.72426545  0.35120881
   0.00058986  0.27107537  0.35120881
   0.48993357  0.76903841  0.47874717
   0.72156498  0.49608267  0.41471440
   0.77399447  0.99767067  0.28975097
   0.26487751  0.49615401  0.41374430
   0.22718577  0.99767067  0.28975097
   0.26794860  0.99717825  0.41969019
   0.22718577  0.49766954  0.29318964
   0.76854851  0.48120700  0.55047824
   0.21238492  0.98088471  0.54350875
   0.23416393  0.50214576  0.54914449
   0.75068684  0.98227699  0.54364355
   0.72558567  0.08103944  0.61663437
   0.18796857  0.24303587  0.60056355
   0.35446805  0.48738618  0.27144965
   0.25816528  0.46508405  0.57468882
   0.67210036  0.15169046  0.63827870
   0.06527126  0.19616555  0.61710385
Direct configuration=   372
   0.00058986  0.24767071  0.29147031
   0.49305682  0.74618241  0.41681489
   0.49287760  0.24680768  0.41657001
   0.00058986  0.74767011  0.29147031
   0.75058982  0.49766954  0.35292815
   0.74014450  0.99851545  0.48194935
   0.25059042  0.49766954  0.35292815
   0.23989317  0.99725680  0.48291138
   0.99618298  0.99740097  0.38536662
   0.51480552  0.49912326  0.51344919
   0.99557869  0.49257668  0.44950258
   0.50058925  0.99767067  0.32219910
   0.98408324  0.22484014  0.55268215
   0.98102294  0.73489357  0.54372353
   0.47592231  0.04707091  0.58166690
   0.99038892  0.22367097  0.48489650
   0.50058925  0.72426545  0.35464748
   0.50058925  0.27107537  0.35464748
   0.98856911  0.76399622  0.48536542
   0.77399447  0.49766954  0.29318964
   0.72319361  0.99783771  0.42032196
   0.48906062  0.22687155  0.47908818
   0.00058986  0.72426545  0.35120881
   0.00058986  0.27107537  0.35120881
   0.48993357  0.76903841  0.47874717
   0.72156498  0.49608267  0.41471440
   0.77399447  0.99767067  0.28975097
   0.26487751  0.49615401  0.41374430
   0.22718577  0.99767067  0.28975097
   0.26794860  0.99717825  0.41969019
   0.22718577  0.49766954  0.29318964
   0.76854851  0.48120700  0.55047824
   0.21238492  0.98088471  0.54350875
   0.23416393  0.50214576  0.54914449
   0.75068684  0.98227699  0.54364355
   0.72558567  0.08103944  0.61663437
   0.18796857  0.24303587  0.60056355
   0.35446805  0.48738618  0.27144965
   0.25816528  0.46508405  0.57468882
   0.67210036  0.15169046  0.63827870
   0.06527126  0.19616555  0.61710385
Direct configuration=   373
   0.00058986  0.24767071  0.29147031
   0.49305682  0.74618241  0.41681489
   0.49287760  0.24680768  0.41657001
   0.00058986  0.74767011  0.29147031
   0.75058982  0.49766954  0.35292815
   0.74014450  0.99851545  0.48194935
   0.25059042  0.49766954  0.35292815
   0.23989317  0.99725680  0.48291138
   0.99618298  0.99740097  0.38536662
   0.51480552  0.49912326  0.51344919
   0.99557869  0.49257668  0.44950258
   0.50058925  0.99767067  0.32219910
   0.98408324  0.22484014  0.55268215
   0.98102294  0.73489357  0.54372353
   0.47592231  0.04707091  0.58166690
   0.99038892  0.22367097  0.48489650
   0.50058925  0.72426545  0.35464748
   0.50058925  0.27107537  0.35464748
   0.98856911  0.76399622  0.48536542
   0.77399447  0.49766954  0.29318964
   0.72319361  0.99783771  0.42032196
   0.48906062  0.22687155  0.47908818
   0.00058986  0.72426545  0.35120881
   0.00058986  0.27107537  0.35120881
   0.48993357  0.76903841  0.47874717
   0.72156498  0.49608267  0.41471440
   0.77399447  0.99767067  0.28975097
   0.26487751  0.49615401  0.41374430
   0.22718577  0.99767067  0.28975097
   0.26794860  0.99717825  0.41969019
   0.22718577  0.49766954  0.29318964
   0.76854851  0.48120700  0.55047824
   0.21238492  0.98088471  0.54350875
   0.23416393  0.50214576  0.54914449
   0.75068684  0.98227699  0.54364355
   0.72558567  0.08103944  0.61663437
   0.18796857  0.24303587  0.60056355
   0.35446805  0.48738618  0.27144965
   0.25816528  0.46508405  0.57468882
   0.67210036  0.15169046  0.63827870
   0.06527126  0.19616555  0.61710385
Direct configuration=   374
   0.00058986  0.24767071  0.29147031
   0.49305682  0.74618241  0.41681489
   0.49287760  0.24680768  0.41657001
   0.00058986  0.74767011  0.29147031
   0.75058982  0.49766954  0.35292815
   0.74014450  0.99851545  0.48194935
   0.25059042  0.49766954  0.35292815
   0.23989317  0.99725680  0.48291138
   0.99618298  0.99740097  0.38536662
   0.51480552  0.49912326  0.51344919
   0.99557869  0.49257668  0.44950258
   0.50058925  0.99767067  0.32219910
   0.98408324  0.22484014  0.55268215
   0.98102294  0.73489357  0.54372353
   0.47592231  0.04707091  0.58166690
   0.99038892  0.22367097  0.48489650
   0.50058925  0.72426545  0.35464748
   0.50058925  0.27107537  0.35464748
   0.98856911  0.76399622  0.48536542
   0.77399447  0.49766954  0.29318964
   0.72319361  0.99783771  0.42032196
   0.48906062  0.22687155  0.47908818
   0.00058986  0.72426545  0.35120881
   0.00058986  0.27107537  0.35120881
   0.48993357  0.76903841  0.47874717
   0.72156498  0.49608267  0.41471440
   0.77399447  0.99767067  0.28975097
   0.26487751  0.49615401  0.41374430
   0.22718577  0.99767067  0.28975097
   0.26794860  0.99717825  0.41969019
   0.22718577  0.49766954  0.29318964
   0.76854851  0.48120700  0.55047824
   0.21238492  0.98088471  0.54350875
   0.23416393  0.50214576  0.54914449
   0.75068684  0.98227699  0.54364355
   0.72558567  0.08103944  0.61663437
   0.18796857  0.24303587  0.60056355
   0.35446805  0.48738618  0.27144965
   0.25816528  0.46508405  0.57468882
   0.67210036  0.15169046  0.63827870
   0.06527126  0.19616555  0.61710385
Direct configuration=   375
   0.00058986  0.24767071  0.29147031
   0.49305682  0.74618241  0.41681489
   0.49287760  0.24680768  0.41657001
   0.00058986  0.74767011  0.29147031
   0.75058982  0.49766954  0.35292815
   0.74014450  0.99851545  0.48194935
   0.25059042  0.49766954  0.35292815
   0.23989317  0.99725680  0.48291138
   0.99618298  0.99740097  0.38536662
   0.51480552  0.49912326  0.51344919
   0.99557869  0.49257668  0.44950258
   0.50058925  0.99767067  0.32219910
   0.98408324  0.22484014  0.55268215
   0.98102294  0.73489357  0.54372353
   0.47592231  0.04707091  0.58166690
   0.99038892  0.22367097  0.48489650
   0.50058925  0.72426545  0.35464748
   0.50058925  0.27107537  0.35464748
   0.98856911  0.76399622  0.48536542
   0.77399447  0.49766954  0.29318964
   0.72319361  0.99783771  0.42032196
   0.48906062  0.22687155  0.47908818
   0.00058986  0.72426545  0.35120881
   0.00058986  0.27107537  0.35120881
   0.48993357  0.76903841  0.47874717
   0.72156498  0.49608267  0.41471440
   0.77399447  0.99767067  0.28975097
   0.26487751  0.49615401  0.41374430
   0.22718577  0.99767067  0.28975097
   0.26794860  0.99717825  0.41969019
   0.22718577  0.49766954  0.29318964
   0.76854851  0.48120700  0.55047824
   0.21238492  0.98088471  0.54350875
   0.23416393  0.50214576  0.54914449
   0.75068684  0.98227699  0.54364355
   0.72558567  0.08103944  0.61663437
   0.18796857  0.24303587  0.60056355
   0.35446805  0.48738618  0.27144965
   0.25816528  0.46508405  0.57468882
   0.67210036  0.15169046  0.63827870
   0.06527126  0.19616555  0.61710385
Direct configuration=   376
   0.00058986  0.24767071  0.29147031
   0.49305682  0.74618241  0.41681489
   0.49287760  0.24680768  0.41657001
   0.00058986  0.74767011  0.29147031
   0.75058982  0.49766954  0.35292815
   0.74014450  0.99851545  0.48194935
   0.25059042  0.49766954  0.35292815
   0.23989317  0.99725680  0.48291138
   0.99618298  0.99740097  0.38536662
   0.51480552  0.49912326  0.51344919
   0.99557869  0.49257668  0.44950258
   0.50058925  0.99767067  0.32219910
   0.98408324  0.22484014  0.55268215
   0.98102294  0.73489357  0.54372353
   0.47592231  0.04707091  0.58166690
   0.99038892  0.22367097  0.48489650
   0.50058925  0.72426545  0.35464748
   0.50058925  0.27107537  0.35464748
   0.98856911  0.76399622  0.48536542
   0.77399447  0.49766954  0.29318964
   0.72319361  0.99783771  0.42032196
   0.48906062  0.22687155  0.47908818
   0.00058986  0.72426545  0.35120881
   0.00058986  0.27107537  0.35120881
   0.48993357  0.76903841  0.47874717
   0.72156498  0.49608267  0.41471440
   0.77399447  0.99767067  0.28975097
   0.26487751  0.49615401  0.41374430
   0.22718577  0.99767067  0.28975097
   0.26794860  0.99717825  0.41969019
   0.22718577  0.49766954  0.29318964
   0.76854851  0.48120700  0.55047824
   0.21238492  0.98088471  0.54350875
   0.23416393  0.50214576  0.54914449
   0.75068684  0.98227699  0.54364355
   0.72558567  0.08103944  0.61663437
   0.18796857  0.24303587  0.60056355
   0.35446805  0.48738618  0.27144965
   0.25816528  0.46508405  0.57468882
   0.67210036  0.15169046  0.63827870
   0.06527126  0.19616555  0.61710385
Direct configuration=   377
   0.00058986  0.24767071  0.29147031
   0.49305682  0.74618241  0.41681489
   0.49287760  0.24680768  0.41657001
   0.00058986  0.74767011  0.29147031
   0.75058982  0.49766954  0.35292815
   0.74014450  0.99851545  0.48194935
   0.25059042  0.49766954  0.35292815
   0.23989317  0.99725680  0.48291138
   0.99618298  0.99740097  0.38536662
   0.51480552  0.49912326  0.51344919
   0.99557869  0.49257668  0.44950258
   0.50058925  0.99767067  0.32219910
   0.98408324  0.22484014  0.55268215
   0.98102294  0.73489357  0.54372353
   0.47592231  0.04707091  0.58166690
   0.99038892  0.22367097  0.48489650
   0.50058925  0.72426545  0.35464748
   0.50058925  0.27107537  0.35464748
   0.98856911  0.76399622  0.48536542
   0.77399447  0.49766954  0.29318964
   0.72319361  0.99783771  0.42032196
   0.48906062  0.22687155  0.47908818
   0.00058986  0.72426545  0.35120881
   0.00058986  0.27107537  0.35120881
   0.48993357  0.76903841  0.47874717
   0.72156498  0.49608267  0.41471440
   0.77399447  0.99767067  0.28975097
   0.26487751  0.49615401  0.41374430
   0.22718577  0.99767067  0.28975097
   0.26794860  0.99717825  0.41969019
   0.22718577  0.49766954  0.29318964
   0.76854851  0.48120700  0.55047824
   0.21238492  0.98088471  0.54350875
   0.23416393  0.50214576  0.54914449
   0.75068684  0.98227699  0.54364355
   0.72558567  0.08103944  0.61663437
   0.18796857  0.24303587  0.60056355
   0.35446805  0.48738618  0.27144965
   0.25816528  0.46508405  0.57468882
   0.67210036  0.15169046  0.63827870
   0.06527126  0.19616555  0.61710385
Direct configuration=   378
   0.00058986  0.24767071  0.29147031
   0.49305682  0.74618241  0.41681489
   0.49287760  0.24680768  0.41657001
   0.00058986  0.74767011  0.29147031
   0.75058982  0.49766954  0.35292815
   0.74014450  0.99851545  0.48194935
   0.25059042  0.49766954  0.35292815
   0.23989317  0.99725680  0.48291138
   0.99618298  0.99740097  0.38536662
   0.51480552  0.49912326  0.51344919
   0.99557869  0.49257668  0.44950258
   0.50058925  0.99767067  0.32219910
   0.98408324  0.22484014  0.55268215
   0.98102294  0.73489357  0.54372353
   0.47592231  0.04707091  0.58166690
   0.99038892  0.22367097  0.48489650
   0.50058925  0.72426545  0.35464748
   0.50058925  0.27107537  0.35464748
   0.98856911  0.76399622  0.48536542
   0.77399447  0.49766954  0.29318964
   0.72319361  0.99783771  0.42032196
   0.48906062  0.22687155  0.47908818
   0.00058986  0.72426545  0.35120881
   0.00058986  0.27107537  0.35120881
   0.48993357  0.76903841  0.47874717
   0.72156498  0.49608267  0.41471440
   0.77399447  0.99767067  0.28975097
   0.26487751  0.49615401  0.41374430
   0.22718577  0.99767067  0.28975097
   0.26794860  0.99717825  0.41969019
   0.22718577  0.49766954  0.29318964
   0.76854851  0.48120700  0.55047824
   0.21238492  0.98088471  0.54350875
   0.23416393  0.50214576  0.54914449
   0.75068684  0.98227699  0.54364355
   0.72558567  0.08103944  0.61663437
   0.18796857  0.24303587  0.60056355
   0.35446805  0.48738618  0.27144965
   0.25816528  0.46508405  0.57468882
   0.67210036  0.15169046  0.63827870
   0.06527126  0.19616555  0.61710385
Direct configuration=   379
   0.00058986  0.24767071  0.29147031
   0.49305682  0.74618241  0.41681489
   0.49287760  0.24680768  0.41657001
   0.00058986  0.74767011  0.29147031
   0.75058982  0.49766954  0.35292815
   0.74014450  0.99851545  0.48194935
   0.25059042  0.49766954  0.35292815
   0.23989317  0.99725680  0.48291138
   0.99618298  0.99740097  0.38536662
   0.51480552  0.49912326  0.51344919
   0.99557869  0.49257668  0.44950258
   0.50058925  0.99767067  0.32219910
   0.98408324  0.22484014  0.55268215
   0.98102294  0.73489357  0.54372353
   0.47592231  0.04707091  0.58166690
   0.99038892  0.22367097  0.48489650
   0.50058925  0.72426545  0.35464748
   0.50058925  0.27107537  0.35464748
   0.98856911  0.76399622  0.48536542
   0.77399447  0.49766954  0.29318964
   0.72319361  0.99783771  0.42032196
   0.48906062  0.22687155  0.47908818
   0.00058986  0.72426545  0.35120881
   0.00058986  0.27107537  0.35120881
   0.48993357  0.76903841  0.47874717
   0.72156498  0.49608267  0.41471440
   0.77399447  0.99767067  0.28975097
   0.26487751  0.49615401  0.41374430
   0.22718577  0.99767067  0.28975097
   0.26794860  0.99717825  0.41969019
   0.22718577  0.49766954  0.29318964
   0.76854851  0.48120700  0.55047824
   0.21238492  0.98088471  0.54350875
   0.23416393  0.50214576  0.54914449
   0.75068684  0.98227699  0.54364355
   0.72558567  0.08103944  0.61663437
   0.18796857  0.24303587  0.60056355
   0.35446805  0.48738618  0.27144965
   0.25816528  0.46508405  0.57468882
   0.67210036  0.15169046  0.63827870
   0.06527126  0.19616555  0.61710385
Direct configuration=   380
   0.00058986  0.24767071  0.29147031
   0.49305682  0.74618241  0.41681489
   0.49287760  0.24680768  0.41657001
   0.00058986  0.74767011  0.29147031
   0.75058982  0.49766954  0.35292815
   0.74014450  0.99851545  0.48194935
   0.25059042  0.49766954  0.35292815
   0.23989317  0.99725680  0.48291138
   0.99618298  0.99740097  0.38536662
   0.51480552  0.49912326  0.51344919
   0.99557869  0.49257668  0.44950258
   0.50058925  0.99767067  0.32219910
   0.98408324  0.22484014  0.55268215
   0.98102294  0.73489357  0.54372353
   0.47592231  0.04707091  0.58166690
   0.99038892  0.22367097  0.48489650
   0.50058925  0.72426545  0.35464748
   0.50058925  0.27107537  0.35464748
   0.98856911  0.76399622  0.48536542
   0.77399447  0.49766954  0.29318964
   0.72319361  0.99783771  0.42032196
   0.48906062  0.22687155  0.47908818
   0.00058986  0.72426545  0.35120881
   0.00058986  0.27107537  0.35120881
   0.48993357  0.76903841  0.47874717
   0.72156498  0.49608267  0.41471440
   0.77399447  0.99767067  0.28975097
   0.26487751  0.49615401  0.41374430
   0.22718577  0.99767067  0.28975097
   0.26794860  0.99717825  0.41969019
   0.22718577  0.49766954  0.29318964
   0.76854851  0.48120700  0.55047824
   0.21238492  0.98088471  0.54350875
   0.23416393  0.50214576  0.54914449
   0.75068684  0.98227699  0.54364355
   0.72558567  0.08103944  0.61663437
   0.18796857  0.24303587  0.60056355
   0.35446805  0.48738618  0.27144965
   0.25816528  0.46508405  0.57468882
   0.67210036  0.15169046  0.63827870
   0.06527126  0.19616555  0.61710385
Direct configuration=   381
   0.00058986  0.24767071  0.29147031
   0.49305682  0.74618241  0.41681489
   0.49287760  0.24680768  0.41657001
   0.00058986  0.74767011  0.29147031
   0.75058982  0.49766954  0.35292815
   0.74014450  0.99851545  0.48194935
   0.25059042  0.49766954  0.35292815
   0.23989317  0.99725680  0.48291138
   0.99618298  0.99740097  0.38536662
   0.51480552  0.49912326  0.51344919
   0.99557869  0.49257668  0.44950258
   0.50058925  0.99767067  0.32219910
   0.98408324  0.22484014  0.55268215
   0.98102294  0.73489357  0.54372353
   0.47592231  0.04707091  0.58166690
   0.99038892  0.22367097  0.48489650
   0.50058925  0.72426545  0.35464748
   0.50058925  0.27107537  0.35464748
   0.98856911  0.76399622  0.48536542
   0.77399447  0.49766954  0.29318964
   0.72319361  0.99783771  0.42032196
   0.48906062  0.22687155  0.47908818
   0.00058986  0.72426545  0.35120881
   0.00058986  0.27107537  0.35120881
   0.48993357  0.76903841  0.47874717
   0.72156498  0.49608267  0.41471440
   0.77399447  0.99767067  0.28975097
   0.26487751  0.49615401  0.41374430
   0.22718577  0.99767067  0.28975097
   0.26794860  0.99717825  0.41969019
   0.22718577  0.49766954  0.29318964
   0.76854851  0.48120700  0.55047824
   0.21238492  0.98088471  0.54350875
   0.23416393  0.50214576  0.54914449
   0.75068684  0.98227699  0.54364355
   0.72558567  0.08103944  0.61663437
   0.18796857  0.24303587  0.60056355
   0.35446805  0.48738618  0.27144965
   0.25816528  0.46508405  0.57468882
   0.67210036  0.15169046  0.63827870
   0.06527126  0.19616555  0.61710385
Direct configuration=   382
   0.00058986  0.24767071  0.29147031
   0.49305682  0.74618241  0.41681489
   0.49287760  0.24680768  0.41657001
   0.00058986  0.74767011  0.29147031
   0.75058982  0.49766954  0.35292815
   0.74014450  0.99851545  0.48194935
   0.25059042  0.49766954  0.35292815
   0.23989317  0.99725680  0.48291138
   0.99618298  0.99740097  0.38536662
   0.51480552  0.49912326  0.51344919
   0.99557869  0.49257668  0.44950258
   0.50058925  0.99767067  0.32219910
   0.98408324  0.22484014  0.55268215
   0.98102294  0.73489357  0.54372353
   0.47592231  0.04707091  0.58166690
   0.99038892  0.22367097  0.48489650
   0.50058925  0.72426545  0.35464748
   0.50058925  0.27107537  0.35464748
   0.98856911  0.76399622  0.48536542
   0.77399447  0.49766954  0.29318964
   0.72319361  0.99783771  0.42032196
   0.48906062  0.22687155  0.47908818
   0.00058986  0.72426545  0.35120881
   0.00058986  0.27107537  0.35120881
   0.48993357  0.76903841  0.47874717
   0.72156498  0.49608267  0.41471440
   0.77399447  0.99767067  0.28975097
   0.26487751  0.49615401  0.41374430
   0.22718577  0.99767067  0.28975097
   0.26794860  0.99717825  0.41969019
   0.22718577  0.49766954  0.29318964
   0.76854851  0.48120700  0.55047824
   0.21238492  0.98088471  0.54350875
   0.23416393  0.50214576  0.54914449
   0.75068684  0.98227699  0.54364355
   0.72558567  0.08103944  0.61663437
   0.18796857  0.24303587  0.60056355
   0.35446805  0.48738618  0.27144965
   0.25816528  0.46508405  0.57468882
   0.67210036  0.15169046  0.63827870
   0.06527126  0.19616555  0.61710385
Direct configuration=   383
   0.00058986  0.24767071  0.29147031
   0.49305682  0.74618241  0.41681489
   0.49287760  0.24680768  0.41657001
   0.00058986  0.74767011  0.29147031
   0.75058982  0.49766954  0.35292815
   0.74014450  0.99851545  0.48194935
   0.25059042  0.49766954  0.35292815
   0.23989317  0.99725680  0.48291138
   0.99618298  0.99740097  0.38536662
   0.51480552  0.49912326  0.51344919
   0.99557869  0.49257668  0.44950258
   0.50058925  0.99767067  0.32219910
   0.98408324  0.22484014  0.55268215
   0.98102294  0.73489357  0.54372353
   0.47592231  0.04707091  0.58166690
   0.99038892  0.22367097  0.48489650
   0.50058925  0.72426545  0.35464748
   0.50058925  0.27107537  0.35464748
   0.98856911  0.76399622  0.48536542
   0.77399447  0.49766954  0.29318964
   0.72319361  0.99783771  0.42032196
   0.48906062  0.22687155  0.47908818
   0.00058986  0.72426545  0.35120881
   0.00058986  0.27107537  0.35120881
   0.48993357  0.76903841  0.47874717
   0.72156498  0.49608267  0.41471440
   0.77399447  0.99767067  0.28975097
   0.26487751  0.49615401  0.41374430
   0.22718577  0.99767067  0.28975097
   0.26794860  0.99717825  0.41969019
   0.22718577  0.49766954  0.29318964
   0.76854851  0.48120700  0.55047824
   0.21238492  0.98088471  0.54350875
   0.23416393  0.50214576  0.54914449
   0.75068684  0.98227699  0.54364355
   0.72558567  0.08103944  0.61663437
   0.18796857  0.24303587  0.60056355
   0.35446805  0.48738618  0.27144965
   0.25816528  0.46508405  0.57468882
   0.67210036  0.15169046  0.63827870
   0.06527126  0.19616555  0.61710385
Direct configuration=   384
   0.00058986  0.24767071  0.29147031
   0.49305682  0.74618241  0.41681489
   0.49287760  0.24680768  0.41657001
   0.00058986  0.74767011  0.29147031
   0.75058982  0.49766954  0.35292815
   0.74014450  0.99851545  0.48194935
   0.25059042  0.49766954  0.35292815
   0.23989317  0.99725680  0.48291138
   0.99618298  0.99740097  0.38536662
   0.51480552  0.49912326  0.51344919
   0.99557869  0.49257668  0.44950258
   0.50058925  0.99767067  0.32219910
   0.98408324  0.22484014  0.55268215
   0.98102294  0.73489357  0.54372353
   0.47592231  0.04707091  0.58166690
   0.99038892  0.22367097  0.48489650
   0.50058925  0.72426545  0.35464748
   0.50058925  0.27107537  0.35464748
   0.98856911  0.76399622  0.48536542
   0.77399447  0.49766954  0.29318964
   0.72319361  0.99783771  0.42032196
   0.48906062  0.22687155  0.47908818
   0.00058986  0.72426545  0.35120881
   0.00058986  0.27107537  0.35120881
   0.48993357  0.76903841  0.47874717
   0.72156498  0.49608267  0.41471440
   0.77399447  0.99767067  0.28975097
   0.26487751  0.49615401  0.41374430
   0.22718577  0.99767067  0.28975097
   0.26794860  0.99717825  0.41969019
   0.22718577  0.49766954  0.29318964
   0.76854851  0.48120700  0.55047824
   0.21238492  0.98088471  0.54350875
   0.23416393  0.50214576  0.54914449
   0.75068684  0.98227699  0.54364355
   0.72558567  0.08103944  0.61663437
   0.18796857  0.24303587  0.60056355
   0.35446805  0.48738618  0.27144965
   0.25816528  0.46508405  0.57468882
   0.67210036  0.15169046  0.63827870
   0.06527126  0.19616555  0.61710385
Direct configuration=   385
   0.00058986  0.24767071  0.29147031
   0.49305682  0.74618241  0.41681489
   0.49287760  0.24680768  0.41657001
   0.00058986  0.74767011  0.29147031
   0.75058982  0.49766954  0.35292815
   0.74014450  0.99851545  0.48194935
   0.25059042  0.49766954  0.35292815
   0.23989317  0.99725680  0.48291138
   0.99618298  0.99740097  0.38536662
   0.51480552  0.49912326  0.51344919
   0.99557869  0.49257668  0.44950258
   0.50058925  0.99767067  0.32219910
   0.98408324  0.22484014  0.55268215
   0.98102294  0.73489357  0.54372353
   0.47592231  0.04707091  0.58166690
   0.99038892  0.22367097  0.48489650
   0.50058925  0.72426545  0.35464748
   0.50058925  0.27107537  0.35464748
   0.98856911  0.76399622  0.48536542
   0.77399447  0.49766954  0.29318964
   0.72319361  0.99783771  0.42032196
   0.48906062  0.22687155  0.47908818
   0.00058986  0.72426545  0.35120881
   0.00058986  0.27107537  0.35120881
   0.48993357  0.76903841  0.47874717
   0.72156498  0.49608267  0.41471440
   0.77399447  0.99767067  0.28975097
   0.26487751  0.49615401  0.41374430
   0.22718577  0.99767067  0.28975097
   0.26794860  0.99717825  0.41969019
   0.22718577  0.49766954  0.29318964
   0.76854851  0.48120700  0.55047824
   0.21238492  0.98088471  0.54350875
   0.23416393  0.50214576  0.54914449
   0.75068684  0.98227699  0.54364355
   0.72558567  0.08103944  0.61663437
   0.18796857  0.24303587  0.60056355
   0.35446805  0.48738618  0.27144965
   0.25816528  0.46508405  0.57468882
   0.67210036  0.15169046  0.63827870
   0.06527126  0.19616555  0.61710385
Direct configuration=   386
   0.00058986  0.24767071  0.29147031
   0.49305682  0.74618241  0.41681489
   0.49287760  0.24680768  0.41657001
   0.00058986  0.74767011  0.29147031
   0.75058982  0.49766954  0.35292815
   0.74014450  0.99851545  0.48194935
   0.25059042  0.49766954  0.35292815
   0.23989317  0.99725680  0.48291138
   0.99618298  0.99740097  0.38536662
   0.51480552  0.49912326  0.51344919
   0.99557869  0.49257668  0.44950258
   0.50058925  0.99767067  0.32219910
   0.98408324  0.22484014  0.55268215
   0.98102294  0.73489357  0.54372353
   0.47592231  0.04707091  0.58166690
   0.99038892  0.22367097  0.48489650
   0.50058925  0.72426545  0.35464748
   0.50058925  0.27107537  0.35464748
   0.98856911  0.76399622  0.48536542
   0.77399447  0.49766954  0.29318964
   0.72319361  0.99783771  0.42032196
   0.48906062  0.22687155  0.47908818
   0.00058986  0.72426545  0.35120881
   0.00058986  0.27107537  0.35120881
   0.48993357  0.76903841  0.47874717
   0.72156498  0.49608267  0.41471440
   0.77399447  0.99767067  0.28975097
   0.26487751  0.49615401  0.41374430
   0.22718577  0.99767067  0.28975097
   0.26794860  0.99717825  0.41969019
   0.22718577  0.49766954  0.29318964
   0.76854851  0.48120700  0.55047824
   0.21238492  0.98088471  0.54350875
   0.23416393  0.50214576  0.54914449
   0.75068684  0.98227699  0.54364355
   0.72558567  0.08103944  0.61663437
   0.18796857  0.24303587  0.60056355
   0.35446805  0.48738618  0.27144965
   0.25816528  0.46508405  0.57468882
   0.67210036  0.15169046  0.63827870
   0.06527126  0.19616555  0.61710385
Direct configuration=   387
   0.00058986  0.24767071  0.29147031
   0.49305682  0.74618241  0.41681489
   0.49287760  0.24680768  0.41657001
   0.00058986  0.74767011  0.29147031
   0.75058982  0.49766954  0.35292815
   0.74014450  0.99851545  0.48194935
   0.25059042  0.49766954  0.35292815
   0.23989317  0.99725680  0.48291138
   0.99618298  0.99740097  0.38536662
   0.51480552  0.49912326  0.51344919
   0.99557869  0.49257668  0.44950258
   0.50058925  0.99767067  0.32219910
   0.98408324  0.22484014  0.55268215
   0.98102294  0.73489357  0.54372353
   0.47592231  0.04707091  0.58166690
   0.99038892  0.22367097  0.48489650
   0.50058925  0.72426545  0.35464748
   0.50058925  0.27107537  0.35464748
   0.98856911  0.76399622  0.48536542
   0.77399447  0.49766954  0.29318964
   0.72319361  0.99783771  0.42032196
   0.48906062  0.22687155  0.47908818
   0.00058986  0.72426545  0.35120881
   0.00058986  0.27107537  0.35120881
   0.48993357  0.76903841  0.47874717
   0.72156498  0.49608267  0.41471440
   0.77399447  0.99767067  0.28975097
   0.26487751  0.49615401  0.41374430
   0.22718577  0.99767067  0.28975097
   0.26794860  0.99717825  0.41969019
   0.22718577  0.49766954  0.29318964
   0.76854851  0.48120700  0.55047824
   0.21238492  0.98088471  0.54350875
   0.23416393  0.50214576  0.54914449
   0.75068684  0.98227699  0.54364355
   0.72558567  0.08103944  0.61663437
   0.18796857  0.24303587  0.60056355
   0.35446805  0.48738618  0.27144965
   0.25816528  0.46508405  0.57468882
   0.67210036  0.15169046  0.63827870
   0.06527126  0.19616555  0.61710385
Direct configuration=   388
   0.00058986  0.24767071  0.29147031
   0.49305682  0.74618241  0.41681489
   0.49287760  0.24680768  0.41657001
   0.00058986  0.74767011  0.29147031
   0.75058982  0.49766954  0.35292815
   0.74014450  0.99851545  0.48194935
   0.25059042  0.49766954  0.35292815
   0.23989317  0.99725680  0.48291138
   0.99618298  0.99740097  0.38536662
   0.51480552  0.49912326  0.51344919
   0.99557869  0.49257668  0.44950258
   0.50058925  0.99767067  0.32219910
   0.98408324  0.22484014  0.55268215
   0.98102294  0.73489357  0.54372353
   0.47592231  0.04707091  0.58166690
   0.99038892  0.22367097  0.48489650
   0.50058925  0.72426545  0.35464748
   0.50058925  0.27107537  0.35464748
   0.98856911  0.76399622  0.48536542
   0.77399447  0.49766954  0.29318964
   0.72319361  0.99783771  0.42032196
   0.48906062  0.22687155  0.47908818
   0.00058986  0.72426545  0.35120881
   0.00058986  0.27107537  0.35120881
   0.48993357  0.76903841  0.47874717
   0.72156498  0.49608267  0.41471440
   0.77399447  0.99767067  0.28975097
   0.26487751  0.49615401  0.41374430
   0.22718577  0.99767067  0.28975097
   0.26794860  0.99717825  0.41969019
   0.22718577  0.49766954  0.29318964
   0.76854851  0.48120700  0.55047824
   0.21238492  0.98088471  0.54350875
   0.23416393  0.50214576  0.54914449
   0.75068684  0.98227699  0.54364355
   0.72558567  0.08103944  0.61663437
   0.18796857  0.24303587  0.60056355
   0.35446805  0.48738618  0.27144965
   0.25816528  0.46508405  0.57468882
   0.67210036  0.15169046  0.63827870
   0.06527126  0.19616555  0.61710385
Direct configuration=   389
   0.00058986  0.24767071  0.29147031
   0.49305682  0.74618241  0.41681489
   0.49287760  0.24680768  0.41657001
   0.00058986  0.74767011  0.29147031
   0.75058982  0.49766954  0.35292815
   0.74014450  0.99851545  0.48194935
   0.25059042  0.49766954  0.35292815
   0.23989317  0.99725680  0.48291138
   0.99618298  0.99740097  0.38536662
   0.51480552  0.49912326  0.51344919
   0.99557869  0.49257668  0.44950258
   0.50058925  0.99767067  0.32219910
   0.98408324  0.22484014  0.55268215
   0.98102294  0.73489357  0.54372353
   0.47592231  0.04707091  0.58166690
   0.99038892  0.22367097  0.48489650
   0.50058925  0.72426545  0.35464748
   0.50058925  0.27107537  0.35464748
   0.98856911  0.76399622  0.48536542
   0.77399447  0.49766954  0.29318964
   0.72319361  0.99783771  0.42032196
   0.48906062  0.22687155  0.47908818
   0.00058986  0.72426545  0.35120881
   0.00058986  0.27107537  0.35120881
   0.48993357  0.76903841  0.47874717
   0.72156498  0.49608267  0.41471440
   0.77399447  0.99767067  0.28975097
   0.26487751  0.49615401  0.41374430
   0.22718577  0.99767067  0.28975097
   0.26794860  0.99717825  0.41969019
   0.22718577  0.49766954  0.29318964
   0.76854851  0.48120700  0.55047824
   0.21238492  0.98088471  0.54350875
   0.23416393  0.50214576  0.54914449
   0.75068684  0.98227699  0.54364355
   0.72558567  0.08103944  0.61663437
   0.18796857  0.24303587  0.60056355
   0.35446805  0.48738618  0.27144965
   0.25816528  0.46508405  0.57468882
   0.67210036  0.15169046  0.63827870
   0.06527126  0.19616555  0.61710385
Direct configuration=   390
   0.00058986  0.24767071  0.29147031
   0.49305682  0.74618241  0.41681489
   0.49287760  0.24680768  0.41657001
   0.00058986  0.74767011  0.29147031
   0.75058982  0.49766954  0.35292815
   0.74014450  0.99851545  0.48194935
   0.25059042  0.49766954  0.35292815
   0.23989317  0.99725680  0.48291138
   0.99618298  0.99740097  0.38536662
   0.51480552  0.49912326  0.51344919
   0.99557869  0.49257668  0.44950258
   0.50058925  0.99767067  0.32219910
   0.98408324  0.22484014  0.55268215
   0.98102294  0.73489357  0.54372353
   0.47592231  0.04707091  0.58166690
   0.99038892  0.22367097  0.48489650
   0.50058925  0.72426545  0.35464748
   0.50058925  0.27107537  0.35464748
   0.98856911  0.76399622  0.48536542
   0.77399447  0.49766954  0.29318964
   0.72319361  0.99783771  0.42032196
   0.48906062  0.22687155  0.47908818
   0.00058986  0.72426545  0.35120881
   0.00058986  0.27107537  0.35120881
   0.48993357  0.76903841  0.47874717
   0.72156498  0.49608267  0.41471440
   0.77399447  0.99767067  0.28975097
   0.26487751  0.49615401  0.41374430
   0.22718577  0.99767067  0.28975097
   0.26794860  0.99717825  0.41969019
   0.22718577  0.49766954  0.29318964
   0.76854851  0.48120700  0.55047824
   0.21238492  0.98088471  0.54350875
   0.23416393  0.50214576  0.54914449
   0.75068684  0.98227699  0.54364355
   0.72558567  0.08103944  0.61663437
   0.18796857  0.24303587  0.60056355
   0.35446805  0.48738618  0.27144965
   0.25816528  0.46508405  0.57468882
   0.67210036  0.15169046  0.63827870
   0.06527126  0.19616555  0.61710385
Direct configuration=   391
   0.00058986  0.24767071  0.29147031
   0.49305682  0.74618241  0.41681489
   0.49287760  0.24680768  0.41657001
   0.00058986  0.74767011  0.29147031
   0.75058982  0.49766954  0.35292815
   0.74014450  0.99851545  0.48194935
   0.25059042  0.49766954  0.35292815
   0.23989317  0.99725680  0.48291138
   0.99618298  0.99740097  0.38536662
   0.51480552  0.49912326  0.51344919
   0.99557869  0.49257668  0.44950258
   0.50058925  0.99767067  0.32219910
   0.98408324  0.22484014  0.55268215
   0.98102294  0.73489357  0.54372353
   0.47592231  0.04707091  0.58166690
   0.99038892  0.22367097  0.48489650
   0.50058925  0.72426545  0.35464748
   0.50058925  0.27107537  0.35464748
   0.98856911  0.76399622  0.48536542
   0.77399447  0.49766954  0.29318964
   0.72319361  0.99783771  0.42032196
   0.48906062  0.22687155  0.47908818
   0.00058986  0.72426545  0.35120881
   0.00058986  0.27107537  0.35120881
   0.48993357  0.76903841  0.47874717
   0.72156498  0.49608267  0.41471440
   0.77399447  0.99767067  0.28975097
   0.26487751  0.49615401  0.41374430
   0.22718577  0.99767067  0.28975097
   0.26794860  0.99717825  0.41969019
   0.22718577  0.49766954  0.29318964
   0.76854851  0.48120700  0.55047824
   0.21238492  0.98088471  0.54350875
   0.23416393  0.50214576  0.54914449
   0.75068684  0.98227699  0.54364355
   0.72558567  0.08103944  0.61663437
   0.18796857  0.24303587  0.60056355
   0.35446805  0.48738618  0.27144965
   0.25816528  0.46508405  0.57468882
   0.67210036  0.15169046  0.63827870
   0.06527126  0.19616555  0.61710385
Direct configuration=   392
   0.00058986  0.24767071  0.29147031
   0.49305682  0.74618241  0.41681489
   0.49287760  0.24680768  0.41657001
   0.00058986  0.74767011  0.29147031
   0.75058982  0.49766954  0.35292815
   0.74014450  0.99851545  0.48194935
   0.25059042  0.49766954  0.35292815
   0.23989317  0.99725680  0.48291138
   0.99618298  0.99740097  0.38536662
   0.51480552  0.49912326  0.51344919
   0.99557869  0.49257668  0.44950258
   0.50058925  0.99767067  0.32219910
   0.98408324  0.22484014  0.55268215
   0.98102294  0.73489357  0.54372353
   0.47592231  0.04707091  0.58166690
   0.99038892  0.22367097  0.48489650
   0.50058925  0.72426545  0.35464748
   0.50058925  0.27107537  0.35464748
   0.98856911  0.76399622  0.48536542
   0.77399447  0.49766954  0.29318964
   0.72319361  0.99783771  0.42032196
   0.48906062  0.22687155  0.47908818
   0.00058986  0.72426545  0.35120881
   0.00058986  0.27107537  0.35120881
   0.48993357  0.76903841  0.47874717
   0.72156498  0.49608267  0.41471440
   0.77399447  0.99767067  0.28975097
   0.26487751  0.49615401  0.41374430
   0.22718577  0.99767067  0.28975097
   0.26794860  0.99717825  0.41969019
   0.22718577  0.49766954  0.29318964
   0.76854851  0.48120700  0.55047824
   0.21238492  0.98088471  0.54350875
   0.23416393  0.50214576  0.54914449
   0.75068684  0.98227699  0.54364355
   0.72558567  0.08103944  0.61663437
   0.18796857  0.24303587  0.60056355
   0.35446805  0.48738618  0.27144965
   0.25816528  0.46508405  0.57468882
   0.67210036  0.15169046  0.63827870
   0.06527126  0.19616555  0.61710385
Direct configuration=   393
   0.00058986  0.24767071  0.29147031
   0.49305682  0.74618241  0.41681489
   0.49287760  0.24680768  0.41657001
   0.00058986  0.74767011  0.29147031
   0.75058982  0.49766954  0.35292815
   0.74014450  0.99851545  0.48194935
   0.25059042  0.49766954  0.35292815
   0.23989317  0.99725680  0.48291138
   0.99618298  0.99740097  0.38536662
   0.51480552  0.49912326  0.51344919
   0.99557869  0.49257668  0.44950258
   0.50058925  0.99767067  0.32219910
   0.98408324  0.22484014  0.55268215
   0.98102294  0.73489357  0.54372353
   0.47592231  0.04707091  0.58166690
   0.99038892  0.22367097  0.48489650
   0.50058925  0.72426545  0.35464748
   0.50058925  0.27107537  0.35464748
   0.98856911  0.76399622  0.48536542
   0.77399447  0.49766954  0.29318964
   0.72319361  0.99783771  0.42032196
   0.48906062  0.22687155  0.47908818
   0.00058986  0.72426545  0.35120881
   0.00058986  0.27107537  0.35120881
   0.48993357  0.76903841  0.47874717
   0.72156498  0.49608267  0.41471440
   0.77399447  0.99767067  0.28975097
   0.26487751  0.49615401  0.41374430
   0.22718577  0.99767067  0.28975097
   0.26794860  0.99717825  0.41969019
   0.22718577  0.49766954  0.29318964
   0.76854851  0.48120700  0.55047824
   0.21238492  0.98088471  0.54350875
   0.23416393  0.50214576  0.54914449
   0.75068684  0.98227699  0.54364355
   0.72558567  0.08103944  0.61663437
   0.18796857  0.24303587  0.60056355
   0.35446805  0.48738618  0.27144965
   0.25816528  0.46508405  0.57468882
   0.67210036  0.15169046  0.63827870
   0.06527126  0.19616555  0.61710385
Direct configuration=   394
   0.00058986  0.24767071  0.29147031
   0.49305682  0.74618241  0.41681489
   0.49287760  0.24680768  0.41657001
   0.00058986  0.74767011  0.29147031
   0.75058982  0.49766954  0.35292815
   0.74014450  0.99851545  0.48194935
   0.25059042  0.49766954  0.35292815
   0.23989317  0.99725680  0.48291138
   0.99618298  0.99740097  0.38536662
   0.51480552  0.49912326  0.51344919
   0.99557869  0.49257668  0.44950258
   0.50058925  0.99767067  0.32219910
   0.98408324  0.22484014  0.55268215
   0.98102294  0.73489357  0.54372353
   0.47592231  0.04707091  0.58166690
   0.99038892  0.22367097  0.48489650
   0.50058925  0.72426545  0.35464748
   0.50058925  0.27107537  0.35464748
   0.98856911  0.76399622  0.48536542
   0.77399447  0.49766954  0.29318964
   0.72319361  0.99783771  0.42032196
   0.48906062  0.22687155  0.47908818
   0.00058986  0.72426545  0.35120881
   0.00058986  0.27107537  0.35120881
   0.48993357  0.76903841  0.47874717
   0.72156498  0.49608267  0.41471440
   0.77399447  0.99767067  0.28975097
   0.26487751  0.49615401  0.41374430
   0.22718577  0.99767067  0.28975097
   0.26794860  0.99717825  0.41969019
   0.22718577  0.49766954  0.29318964
   0.76854851  0.48120700  0.55047824
   0.21238492  0.98088471  0.54350875
   0.23416393  0.50214576  0.54914449
   0.75068684  0.98227699  0.54364355
   0.72558567  0.08103944  0.61663437
   0.18796857  0.24303587  0.60056355
   0.35446805  0.48738618  0.27144965
   0.25816528  0.46508405  0.57468882
   0.67210036  0.15169046  0.63827870
   0.06527126  0.19616555  0.61710385
Direct configuration=   395
   0.00058986  0.24767071  0.29147031
   0.49305682  0.74618241  0.41681489
   0.49287760  0.24680768  0.41657001
   0.00058986  0.74767011  0.29147031
   0.75058982  0.49766954  0.35292815
   0.74014450  0.99851545  0.48194935
   0.25059042  0.49766954  0.35292815
   0.23989317  0.99725680  0.48291138
   0.99618298  0.99740097  0.38536662
   0.51480552  0.49912326  0.51344919
   0.99557869  0.49257668  0.44950258
   0.50058925  0.99767067  0.32219910
   0.98408324  0.22484014  0.55268215
   0.98102294  0.73489357  0.54372353
   0.47592231  0.04707091  0.58166690
   0.99038892  0.22367097  0.48489650
   0.50058925  0.72426545  0.35464748
   0.50058925  0.27107537  0.35464748
   0.98856911  0.76399622  0.48536542
   0.77399447  0.49766954  0.29318964
   0.72319361  0.99783771  0.42032196
   0.48906062  0.22687155  0.47908818
   0.00058986  0.72426545  0.35120881
   0.00058986  0.27107537  0.35120881
   0.48993357  0.76903841  0.47874717
   0.72156498  0.49608267  0.41471440
   0.77399447  0.99767067  0.28975097
   0.26487751  0.49615401  0.41374430
   0.22718577  0.99767067  0.28975097
   0.26794860  0.99717825  0.41969019
   0.22718577  0.49766954  0.29318964
   0.76854851  0.48120700  0.55047824
   0.21238492  0.98088471  0.54350875
   0.23416393  0.50214576  0.54914449
   0.75068684  0.98227699  0.54364355
   0.72558567  0.08103944  0.61663437
   0.18796857  0.24303587  0.60056355
   0.35446805  0.48738618  0.27144965
   0.25816528  0.46508405  0.57468882
   0.67210036  0.15169046  0.63827870
   0.06527126  0.19616555  0.61710385
Direct configuration=   396
   0.00058986  0.24767071  0.29147031
   0.49305682  0.74618241  0.41681489
   0.49287760  0.24680768  0.41657001
   0.00058986  0.74767011  0.29147031
   0.75058982  0.49766954  0.35292815
   0.74014450  0.99851545  0.48194935
   0.25059042  0.49766954  0.35292815
   0.23989317  0.99725680  0.48291138
   0.99618298  0.99740097  0.38536662
   0.51480552  0.49912326  0.51344919
   0.99557869  0.49257668  0.44950258
   0.50058925  0.99767067  0.32219910
   0.98408324  0.22484014  0.55268215
   0.98102294  0.73489357  0.54372353
   0.47592231  0.04707091  0.58166690
   0.99038892  0.22367097  0.48489650
   0.50058925  0.72426545  0.35464748
   0.50058925  0.27107537  0.35464748
   0.98856911  0.76399622  0.48536542
   0.77399447  0.49766954  0.29318964
   0.72319361  0.99783771  0.42032196
   0.48906062  0.22687155  0.47908818
   0.00058986  0.72426545  0.35120881
   0.00058986  0.27107537  0.35120881
   0.48993357  0.76903841  0.47874717
   0.72156498  0.49608267  0.41471440
   0.77399447  0.99767067  0.28975097
   0.26487751  0.49615401  0.41374430
   0.22718577  0.99767067  0.28975097
   0.26794860  0.99717825  0.41969019
   0.22718577  0.49766954  0.29318964
   0.76854851  0.48120700  0.55047824
   0.21238492  0.98088471  0.54350875
   0.23416393  0.50214576  0.54914449
   0.75068684  0.98227699  0.54364355
   0.72558567  0.08103944  0.61663437
   0.18796857  0.24303587  0.60056355
   0.35446805  0.48738618  0.27144965
   0.25816528  0.46508405  0.57468882
   0.67210036  0.15169046  0.63827870
   0.06527126  0.19616555  0.61710385
Direct configuration=   397
   0.00058986  0.24767071  0.29147031
   0.49305682  0.74618241  0.41681489
   0.49287760  0.24680768  0.41657001
   0.00058986  0.74767011  0.29147031
   0.75058982  0.49766954  0.35292815
   0.74014450  0.99851545  0.48194935
   0.25059042  0.49766954  0.35292815
   0.23989317  0.99725680  0.48291138
   0.99618298  0.99740097  0.38536662
   0.51480552  0.49912326  0.51344919
   0.99557869  0.49257668  0.44950258
   0.50058925  0.99767067  0.32219910
   0.98408324  0.22484014  0.55268215
   0.98102294  0.73489357  0.54372353
   0.47592231  0.04707091  0.58166690
   0.99038892  0.22367097  0.48489650
   0.50058925  0.72426545  0.35464748
   0.50058925  0.27107537  0.35464748
   0.98856911  0.76399622  0.48536542
   0.77399447  0.49766954  0.29318964
   0.72319361  0.99783771  0.42032196
   0.48906062  0.22687155  0.47908818
   0.00058986  0.72426545  0.35120881
   0.00058986  0.27107537  0.35120881
   0.48993357  0.76903841  0.47874717
   0.72156498  0.49608267  0.41471440
   0.77399447  0.99767067  0.28975097
   0.26487751  0.49615401  0.41374430
   0.22718577  0.99767067  0.28975097
   0.26794860  0.99717825  0.41969019
   0.22718577  0.49766954  0.29318964
   0.76854851  0.48120700  0.55047824
   0.21238492  0.98088471  0.54350875
   0.23416393  0.50214576  0.54914449
   0.75068684  0.98227699  0.54364355
   0.72558567  0.08103944  0.61663437
   0.18796857  0.24303587  0.60056355
   0.35446805  0.48738618  0.27144965
   0.25816528  0.46508405  0.57468882
   0.67210036  0.15169046  0.63827870
   0.06527126  0.19616555  0.61710385
Direct configuration=   398
   0.00058986  0.24767071  0.29147031
   0.49305682  0.74618241  0.41681489
   0.49287760  0.24680768  0.41657001
   0.00058986  0.74767011  0.29147031
   0.75058982  0.49766954  0.35292815
   0.74014450  0.99851545  0.48194935
   0.25059042  0.49766954  0.35292815
   0.23989317  0.99725680  0.48291138
   0.99618298  0.99740097  0.38536662
   0.51480552  0.49912326  0.51344919
   0.99557869  0.49257668  0.44950258
   0.50058925  0.99767067  0.32219910
   0.98408324  0.22484014  0.55268215
   0.98102294  0.73489357  0.54372353
   0.47592231  0.04707091  0.58166690
   0.99038892  0.22367097  0.48489650
   0.50058925  0.72426545  0.35464748
   0.50058925  0.27107537  0.35464748
   0.98856911  0.76399622  0.48536542
   0.77399447  0.49766954  0.29318964
   0.72319361  0.99783771  0.42032196
   0.48906062  0.22687155  0.47908818
   0.00058986  0.72426545  0.35120881
   0.00058986  0.27107537  0.35120881
   0.48993357  0.76903841  0.47874717
   0.72156498  0.49608267  0.41471440
   0.77399447  0.99767067  0.28975097
   0.26487751  0.49615401  0.41374430
   0.22718577  0.99767067  0.28975097
   0.26794860  0.99717825  0.41969019
   0.22718577  0.49766954  0.29318964
   0.76854851  0.48120700  0.55047824
   0.21238492  0.98088471  0.54350875
   0.23416393  0.50214576  0.54914449
   0.75068684  0.98227699  0.54364355
   0.72558567  0.08103944  0.61663437
   0.18796857  0.24303587  0.60056355
   0.35446805  0.48738618  0.27144965
   0.25816528  0.46508405  0.57468882
   0.67210036  0.15169046  0.63827870
   0.06527126  0.19616555  0.61710385
Direct configuration=   399
   0.00058986  0.24767071  0.29147031
   0.49305682  0.74618241  0.41681489
   0.49287760  0.24680768  0.41657001
   0.00058986  0.74767011  0.29147031
   0.75058982  0.49766954  0.35292815
   0.74014450  0.99851545  0.48194935
   0.25059042  0.49766954  0.35292815
   0.23989317  0.99725680  0.48291138
   0.99618298  0.99740097  0.38536662
   0.51480552  0.49912326  0.51344919
   0.99557869  0.49257668  0.44950258
   0.50058925  0.99767067  0.32219910
   0.98408324  0.22484014  0.55268215
   0.98102294  0.73489357  0.54372353
   0.47592231  0.04707091  0.58166690
   0.99038892  0.22367097  0.48489650
   0.50058925  0.72426545  0.35464748
   0.50058925  0.27107537  0.35464748
   0.98856911  0.76399622  0.48536542
   0.77399447  0.49766954  0.29318964
   0.72319361  0.99783771  0.42032196
   0.48906062  0.22687155  0.47908818
   0.00058986  0.72426545  0.35120881
   0.00058986  0.27107537  0.35120881
   0.48993357  0.76903841  0.47874717
   0.72156498  0.49608267  0.41471440
   0.77399447  0.99767067  0.28975097
   0.26487751  0.49615401  0.41374430
   0.22718577  0.99767067  0.28975097
   0.26794860  0.99717825  0.41969019
   0.22718577  0.49766954  0.29318964
   0.76854851  0.48120700  0.55047824
   0.21238492  0.98088471  0.54350875
   0.23416393  0.50214576  0.54914449
   0.75068684  0.98227699  0.54364355
   0.72558567  0.08103944  0.61663437
   0.18796857  0.24303587  0.60056355
   0.35446805  0.48738618  0.27144965
   0.25816528  0.46508405  0.57468882
   0.67210036  0.15169046  0.63827870
   0.06527126  0.19616555  0.61710385
Direct configuration=   400
   0.00058986  0.24767071  0.29147031
   0.49305682  0.74618241  0.41681489
   0.49287760  0.24680768  0.41657001
   0.00058986  0.74767011  0.29147031
   0.75058982  0.49766954  0.35292815
   0.74014450  0.99851545  0.48194935
   0.25059042  0.49766954  0.35292815
   0.23989317  0.99725680  0.48291138
   0.99618298  0.99740097  0.38536662
   0.51480552  0.49912326  0.51344919
   0.99557869  0.49257668  0.44950258
   0.50058925  0.99767067  0.32219910
   0.98408324  0.22484014  0.55268215
   0.98102294  0.73489357  0.54372353
   0.47592231  0.04707091  0.58166690
   0.99038892  0.22367097  0.48489650
   0.50058925  0.72426545  0.35464748
   0.50058925  0.27107537  0.35464748
   0.98856911  0.76399622  0.48536542
   0.77399447  0.49766954  0.29318964
   0.72319361  0.99783771  0.42032196
   0.48906062  0.22687155  0.47908818
   0.00058986  0.72426545  0.35120881
   0.00058986  0.27107537  0.35120881
   0.48993357  0.76903841  0.47874717
   0.72156498  0.49608267  0.41471440
   0.77399447  0.99767067  0.28975097
   0.26487751  0.49615401  0.41374430
   0.22718577  0.99767067  0.28975097
   0.26794860  0.99717825  0.41969019
   0.22718577  0.49766954  0.29318964
   0.76854851  0.48120700  0.55047824
   0.21238492  0.98088471  0.54350875
   0.23416393  0.50214576  0.54914449
   0.75068684  0.98227699  0.54364355
   0.72558567  0.08103944  0.61663437
   0.18796857  0.24303587  0.60056355
   0.35446805  0.48738618  0.27144965
   0.25816528  0.46508405  0.57468882
   0.67210036  0.15169046  0.63827870
   0.06527126  0.19616555  0.61710385
Direct configuration=   401
   0.00058986  0.24767071  0.29147031
   0.49305682  0.74618241  0.41681489
   0.49287760  0.24680768  0.41657001
   0.00058986  0.74767011  0.29147031
   0.75058982  0.49766954  0.35292815
   0.74014450  0.99851545  0.48194935
   0.25059042  0.49766954  0.35292815
   0.23989317  0.99725680  0.48291138
   0.99618298  0.99740097  0.38536662
   0.51480552  0.49912326  0.51344919
   0.99557869  0.49257668  0.44950258
   0.50058925  0.99767067  0.32219910
   0.98408324  0.22484014  0.55268215
   0.98102294  0.73489357  0.54372353
   0.47592231  0.04707091  0.58166690
   0.99038892  0.22367097  0.48489650
   0.50058925  0.72426545  0.35464748
   0.50058925  0.27107537  0.35464748
   0.98856911  0.76399622  0.48536542
   0.77399447  0.49766954  0.29318964
   0.72319361  0.99783771  0.42032196
   0.48906062  0.22687155  0.47908818
   0.00058986  0.72426545  0.35120881
   0.00058986  0.27107537  0.35120881
   0.48993357  0.76903841  0.47874717
   0.72156498  0.49608267  0.41471440
   0.77399447  0.99767067  0.28975097
   0.26487751  0.49615401  0.41374430
   0.22718577  0.99767067  0.28975097
   0.26794860  0.99717825  0.41969019
   0.22718577  0.49766954  0.29318964
   0.76854851  0.48120700  0.55047824
   0.21238492  0.98088471  0.54350875
   0.23416393  0.50214576  0.54914449
   0.75068684  0.98227699  0.54364355
   0.72558567  0.08103944  0.61663437
   0.18796857  0.24303587  0.60056355
   0.35446805  0.48738618  0.27144965
   0.25816528  0.46508405  0.57468882
   0.67210036  0.15169046  0.63827870
   0.06527126  0.19616555  0.61710385
Direct configuration=   402
   0.00058986  0.24767071  0.29147031
   0.49305682  0.74618241  0.41681489
   0.49287760  0.24680768  0.41657001
   0.00058986  0.74767011  0.29147031
   0.75058982  0.49766954  0.35292815
   0.74014450  0.99851545  0.48194935
   0.25059042  0.49766954  0.35292815
   0.23989317  0.99725680  0.48291138
   0.99618298  0.99740097  0.38536662
   0.51480552  0.49912326  0.51344919
   0.99557869  0.49257668  0.44950258
   0.50058925  0.99767067  0.32219910
   0.98408324  0.22484014  0.55268215
   0.98102294  0.73489357  0.54372353
   0.47592231  0.04707091  0.58166690
   0.99038892  0.22367097  0.48489650
   0.50058925  0.72426545  0.35464748
   0.50058925  0.27107537  0.35464748
   0.98856911  0.76399622  0.48536542
   0.77399447  0.49766954  0.29318964
   0.72319361  0.99783771  0.42032196
   0.48906062  0.22687155  0.47908818
   0.00058986  0.72426545  0.35120881
   0.00058986  0.27107537  0.35120881
   0.48993357  0.76903841  0.47874717
   0.72156498  0.49608267  0.41471440
   0.77399447  0.99767067  0.28975097
   0.26487751  0.49615401  0.41374430
   0.22718577  0.99767067  0.28975097
   0.26794860  0.99717825  0.41969019
   0.22718577  0.49766954  0.29318964
   0.76854851  0.48120700  0.55047824
   0.21238492  0.98088471  0.54350875
   0.23416393  0.50214576  0.54914449
   0.75068684  0.98227699  0.54364355
   0.72558567  0.08103944  0.61663437
   0.18796857  0.24303587  0.60056355
   0.35446805  0.48738618  0.27144965
   0.25816528  0.46508405  0.57468882
   0.67210036  0.15169046  0.63827870
   0.06527126  0.19616555  0.61710385
Direct configuration=   403
   0.00058986  0.24767071  0.29147031
   0.49305682  0.74618241  0.41681489
   0.49287760  0.24680768  0.41657001
   0.00058986  0.74767011  0.29147031
   0.75058982  0.49766954  0.35292815
   0.74014450  0.99851545  0.48194935
   0.25059042  0.49766954  0.35292815
   0.23989317  0.99725680  0.48291138
   0.99618298  0.99740097  0.38536662
   0.51480552  0.49912326  0.51344919
   0.99557869  0.49257668  0.44950258
   0.50058925  0.99767067  0.32219910
   0.98408324  0.22484014  0.55268215
   0.98102294  0.73489357  0.54372353
   0.47592231  0.04707091  0.58166690
   0.99038892  0.22367097  0.48489650
   0.50058925  0.72426545  0.35464748
   0.50058925  0.27107537  0.35464748
   0.98856911  0.76399622  0.48536542
   0.77399447  0.49766954  0.29318964
   0.72319361  0.99783771  0.42032196
   0.48906062  0.22687155  0.47908818
   0.00058986  0.72426545  0.35120881
   0.00058986  0.27107537  0.35120881
   0.48993357  0.76903841  0.47874717
   0.72156498  0.49608267  0.41471440
   0.77399447  0.99767067  0.28975097
   0.26487751  0.49615401  0.41374430
   0.22718577  0.99767067  0.28975097
   0.26794860  0.99717825  0.41969019
   0.22718577  0.49766954  0.29318964
   0.76854851  0.48120700  0.55047824
   0.21238492  0.98088471  0.54350875
   0.23416393  0.50214576  0.54914449
   0.75068684  0.98227699  0.54364355
   0.72558567  0.08103944  0.61663437
   0.18796857  0.24303587  0.60056355
   0.35446805  0.48738618  0.27144965
   0.25816528  0.46508405  0.57468882
   0.67210036  0.15169046  0.63827870
   0.06527126  0.19616555  0.61710385
Direct configuration=   404
   0.00058986  0.24767071  0.29147031
   0.49305682  0.74618241  0.41681489
   0.49287760  0.24680768  0.41657001
   0.00058986  0.74767011  0.29147031
   0.75058982  0.49766954  0.35292815
   0.74014450  0.99851545  0.48194935
   0.25059042  0.49766954  0.35292815
   0.23989317  0.99725680  0.48291138
   0.99618298  0.99740097  0.38536662
   0.51480552  0.49912326  0.51344919
   0.99557869  0.49257668  0.44950258
   0.50058925  0.99767067  0.32219910
   0.98408324  0.22484014  0.55268215
   0.98102294  0.73489357  0.54372353
   0.47592231  0.04707091  0.58166690
   0.99038892  0.22367097  0.48489650
   0.50058925  0.72426545  0.35464748
   0.50058925  0.27107537  0.35464748
   0.98856911  0.76399622  0.48536542
   0.77399447  0.49766954  0.29318964
   0.72319361  0.99783771  0.42032196
   0.48906062  0.22687155  0.47908818
   0.00058986  0.72426545  0.35120881
   0.00058986  0.27107537  0.35120881
   0.48993357  0.76903841  0.47874717
   0.72156498  0.49608267  0.41471440
   0.77399447  0.99767067  0.28975097
   0.26487751  0.49615401  0.41374430
   0.22718577  0.99767067  0.28975097
   0.26794860  0.99717825  0.41969019
   0.22718577  0.49766954  0.29318964
   0.76854851  0.48120700  0.55047824
   0.21238492  0.98088471  0.54350875
   0.23416393  0.50214576  0.54914449
   0.75068684  0.98227699  0.54364355
   0.72558567  0.08103944  0.61663437
   0.18796857  0.24303587  0.60056355
   0.35446805  0.48738618  0.27144965
   0.25816528  0.46508405  0.57468882
   0.67210036  0.15169046  0.63827870
   0.06527126  0.19616555  0.61710385
Direct configuration=   405
   0.00058986  0.24767071  0.29147031
   0.49305682  0.74618241  0.41681489
   0.49287760  0.24680768  0.41657001
   0.00058986  0.74767011  0.29147031
   0.75058982  0.49766954  0.35292815
   0.74014450  0.99851545  0.48194935
   0.25059042  0.49766954  0.35292815
   0.23989317  0.99725680  0.48291138
   0.99618298  0.99740097  0.38536662
   0.51480552  0.49912326  0.51344919
   0.99557869  0.49257668  0.44950258
   0.50058925  0.99767067  0.32219910
   0.98408324  0.22484014  0.55268215
   0.98102294  0.73489357  0.54372353
   0.47592231  0.04707091  0.58166690
   0.99038892  0.22367097  0.48489650
   0.50058925  0.72426545  0.35464748
   0.50058925  0.27107537  0.35464748
   0.98856911  0.76399622  0.48536542
   0.77399447  0.49766954  0.29318964
   0.72319361  0.99783771  0.42032196
   0.48906062  0.22687155  0.47908818
   0.00058986  0.72426545  0.35120881
   0.00058986  0.27107537  0.35120881
   0.48993357  0.76903841  0.47874717
   0.72156498  0.49608267  0.41471440
   0.77399447  0.99767067  0.28975097
   0.26487751  0.49615401  0.41374430
   0.22718577  0.99767067  0.28975097
   0.26794860  0.99717825  0.41969019
   0.22718577  0.49766954  0.29318964
   0.76854851  0.48120700  0.55047824
   0.21238492  0.98088471  0.54350875
   0.23416393  0.50214576  0.54914449
   0.75068684  0.98227699  0.54364355
   0.72558567  0.08103944  0.61663437
   0.18796857  0.24303587  0.60056355
   0.35446805  0.48738618  0.27144965
   0.25816528  0.46508405  0.57468882
   0.67210036  0.15169046  0.63827870
   0.06527126  0.19616555  0.61710385
Direct configuration=   406
   0.00058986  0.24767071  0.29147031
   0.49305682  0.74618241  0.41681489
   0.49287760  0.24680768  0.41657001
   0.00058986  0.74767011  0.29147031
   0.75058982  0.49766954  0.35292815
   0.74014450  0.99851545  0.48194935
   0.25059042  0.49766954  0.35292815
   0.23989317  0.99725680  0.48291138
   0.99618298  0.99740097  0.38536662
   0.51480552  0.49912326  0.51344919
   0.99557869  0.49257668  0.44950258
   0.50058925  0.99767067  0.32219910
   0.98408324  0.22484014  0.55268215
   0.98102294  0.73489357  0.54372353
   0.47592231  0.04707091  0.58166690
   0.99038892  0.22367097  0.48489650
   0.50058925  0.72426545  0.35464748
   0.50058925  0.27107537  0.35464748
   0.98856911  0.76399622  0.48536542
   0.77399447  0.49766954  0.29318964
   0.72319361  0.99783771  0.42032196
   0.48906062  0.22687155  0.47908818
   0.00058986  0.72426545  0.35120881
   0.00058986  0.27107537  0.35120881
   0.48993357  0.76903841  0.47874717
   0.72156498  0.49608267  0.41471440
   0.77399447  0.99767067  0.28975097
   0.26487751  0.49615401  0.41374430
   0.22718577  0.99767067  0.28975097
   0.26794860  0.99717825  0.41969019
   0.22718577  0.49766954  0.29318964
   0.76854851  0.48120700  0.55047824
   0.21238492  0.98088471  0.54350875
   0.23416393  0.50214576  0.54914449
   0.75068684  0.98227699  0.54364355
   0.72558567  0.08103944  0.61663437
   0.18796857  0.24303587  0.60056355
   0.35446805  0.48738618  0.27144965
   0.25816528  0.46508405  0.57468882
   0.67210036  0.15169046  0.63827870
   0.06527126  0.19616555  0.61710385
Direct configuration=   407
   0.00058986  0.24767071  0.29147031
   0.49305682  0.74618241  0.41681489
   0.49287760  0.24680768  0.41657001
   0.00058986  0.74767011  0.29147031
   0.75058982  0.49766954  0.35292815
   0.74014450  0.99851545  0.48194935
   0.25059042  0.49766954  0.35292815
   0.23989317  0.99725680  0.48291138
   0.99618298  0.99740097  0.38536662
   0.51480552  0.49912326  0.51344919
   0.99557869  0.49257668  0.44950258
   0.50058925  0.99767067  0.32219910
   0.98408324  0.22484014  0.55268215
   0.98102294  0.73489357  0.54372353
   0.47592231  0.04707091  0.58166690
   0.99038892  0.22367097  0.48489650
   0.50058925  0.72426545  0.35464748
   0.50058925  0.27107537  0.35464748
   0.98856911  0.76399622  0.48536542
   0.77399447  0.49766954  0.29318964
   0.72319361  0.99783771  0.42032196
   0.48906062  0.22687155  0.47908818
   0.00058986  0.72426545  0.35120881
   0.00058986  0.27107537  0.35120881
   0.48993357  0.76903841  0.47874717
   0.72156498  0.49608267  0.41471440
   0.77399447  0.99767067  0.28975097
   0.26487751  0.49615401  0.41374430
   0.22718577  0.99767067  0.28975097
   0.26794860  0.99717825  0.41969019
   0.22718577  0.49766954  0.29318964
   0.76854851  0.48120700  0.55047824
   0.21238492  0.98088471  0.54350875
   0.23416393  0.50214576  0.54914449
   0.75068684  0.98227699  0.54364355
   0.72558567  0.08103944  0.61663437
   0.18796857  0.24303587  0.60056355
   0.35446805  0.48738618  0.27144965
   0.25816528  0.46508405  0.57468882
   0.67210036  0.15169046  0.63827870
   0.06527126  0.19616555  0.61710385
Direct configuration=   408
   0.00058986  0.24767071  0.29147031
   0.49305682  0.74618241  0.41681489
   0.49287760  0.24680768  0.41657001
   0.00058986  0.74767011  0.29147031
   0.75058982  0.49766954  0.35292815
   0.74014450  0.99851545  0.48194935
   0.25059042  0.49766954  0.35292815
   0.23989317  0.99725680  0.48291138
   0.99618298  0.99740097  0.38536662
   0.51480552  0.49912326  0.51344919
   0.99557869  0.49257668  0.44950258
   0.50058925  0.99767067  0.32219910
   0.98408324  0.22484014  0.55268215
   0.98102294  0.73489357  0.54372353
   0.47592231  0.04707091  0.58166690
   0.99038892  0.22367097  0.48489650
   0.50058925  0.72426545  0.35464748
   0.50058925  0.27107537  0.35464748
   0.98856911  0.76399622  0.48536542
   0.77399447  0.49766954  0.29318964
   0.72319361  0.99783771  0.42032196
   0.48906062  0.22687155  0.47908818
   0.00058986  0.72426545  0.35120881
   0.00058986  0.27107537  0.35120881
   0.48993357  0.76903841  0.47874717
   0.72156498  0.49608267  0.41471440
   0.77399447  0.99767067  0.28975097
   0.26487751  0.49615401  0.41374430
   0.22718577  0.99767067  0.28975097
   0.26794860  0.99717825  0.41969019
   0.22718577  0.49766954  0.29318964
   0.76854851  0.48120700  0.55047824
   0.21238492  0.98088471  0.54350875
   0.23416393  0.50214576  0.54914449
   0.75068684  0.98227699  0.54364355
   0.72558567  0.08103944  0.61663437
   0.18796857  0.24303587  0.60056355
   0.35446805  0.48738618  0.27144965
   0.25816528  0.46508405  0.57468882
   0.67210036  0.15169046  0.63827870
   0.06527126  0.19616555  0.61710385
Direct configuration=   409
   0.00058986  0.24767071  0.29147031
   0.49305682  0.74618241  0.41681489
   0.49287760  0.24680768  0.41657001
   0.00058986  0.74767011  0.29147031
   0.75058982  0.49766954  0.35292815
   0.74014450  0.99851545  0.48194935
   0.25059042  0.49766954  0.35292815
   0.23989317  0.99725680  0.48291138
   0.99618298  0.99740097  0.38536662
   0.51480552  0.49912326  0.51344919
   0.99557869  0.49257668  0.44950258
   0.50058925  0.99767067  0.32219910
   0.98408324  0.22484014  0.55268215
   0.98102294  0.73489357  0.54372353
   0.47592231  0.04707091  0.58166690
   0.99038892  0.22367097  0.48489650
   0.50058925  0.72426545  0.35464748
   0.50058925  0.27107537  0.35464748
   0.98856911  0.76399622  0.48536542
   0.77399447  0.49766954  0.29318964
   0.72319361  0.99783771  0.42032196
   0.48906062  0.22687155  0.47908818
   0.00058986  0.72426545  0.35120881
   0.00058986  0.27107537  0.35120881
   0.48993357  0.76903841  0.47874717
   0.72156498  0.49608267  0.41471440
   0.77399447  0.99767067  0.28975097
   0.26487751  0.49615401  0.41374430
   0.22718577  0.99767067  0.28975097
   0.26794860  0.99717825  0.41969019
   0.22718577  0.49766954  0.29318964
   0.76854851  0.48120700  0.55047824
   0.21238492  0.98088471  0.54350875
   0.23416393  0.50214576  0.54914449
   0.75068684  0.98227699  0.54364355
   0.72558567  0.08103944  0.61663437
   0.18796857  0.24303587  0.60056355
   0.35446805  0.48738618  0.27144965
   0.25816528  0.46508405  0.57468882
   0.67210036  0.15169046  0.63827870
   0.06527126  0.19616555  0.61710385
Direct configuration=   410
   0.00058986  0.24767071  0.29147031
   0.49305682  0.74618241  0.41681489
   0.49287760  0.24680768  0.41657001
   0.00058986  0.74767011  0.29147031
   0.75058982  0.49766954  0.35292815
   0.74014450  0.99851545  0.48194935
   0.25059042  0.49766954  0.35292815
   0.23989317  0.99725680  0.48291138
   0.99618298  0.99740097  0.38536662
   0.51480552  0.49912326  0.51344919
   0.99557869  0.49257668  0.44950258
   0.50058925  0.99767067  0.32219910
   0.98408324  0.22484014  0.55268215
   0.98102294  0.73489357  0.54372353
   0.47592231  0.04707091  0.58166690
   0.99038892  0.22367097  0.48489650
   0.50058925  0.72426545  0.35464748
   0.50058925  0.27107537  0.35464748
   0.98856911  0.76399622  0.48536542
   0.77399447  0.49766954  0.29318964
   0.72319361  0.99783771  0.42032196
   0.48906062  0.22687155  0.47908818
   0.00058986  0.72426545  0.35120881
   0.00058986  0.27107537  0.35120881
   0.48993357  0.76903841  0.47874717
   0.72156498  0.49608267  0.41471440
   0.77399447  0.99767067  0.28975097
   0.26487751  0.49615401  0.41374430
   0.22718577  0.99767067  0.28975097
   0.26794860  0.99717825  0.41969019
   0.22718577  0.49766954  0.29318964
   0.76854851  0.48120700  0.55047824
   0.21238492  0.98088471  0.54350875
   0.23416393  0.50214576  0.54914449
   0.75068684  0.98227699  0.54364355
   0.72558567  0.08103944  0.61663437
   0.18796857  0.24303587  0.60056355
   0.35446805  0.48738618  0.27144965
   0.25816528  0.46508405  0.57468882
   0.67210036  0.15169046  0.63827870
   0.06527126  0.19616555  0.61710385
Direct configuration=   411
   0.00058986  0.24767071  0.29147031
   0.49305682  0.74618241  0.41681489
   0.49287760  0.24680768  0.41657001
   0.00058986  0.74767011  0.29147031
   0.75058982  0.49766954  0.35292815
   0.74014450  0.99851545  0.48194935
   0.25059042  0.49766954  0.35292815
   0.23989317  0.99725680  0.48291138
   0.99618298  0.99740097  0.38536662
   0.51480552  0.49912326  0.51344919
   0.99557869  0.49257668  0.44950258
   0.50058925  0.99767067  0.32219910
   0.98408324  0.22484014  0.55268215
   0.98102294  0.73489357  0.54372353
   0.47592231  0.04707091  0.58166690
   0.99038892  0.22367097  0.48489650
   0.50058925  0.72426545  0.35464748
   0.50058925  0.27107537  0.35464748
   0.98856911  0.76399622  0.48536542
   0.77399447  0.49766954  0.29318964
   0.72319361  0.99783771  0.42032196
   0.48906062  0.22687155  0.47908818
   0.00058986  0.72426545  0.35120881
   0.00058986  0.27107537  0.35120881
   0.48993357  0.76903841  0.47874717
   0.72156498  0.49608267  0.41471440
   0.77399447  0.99767067  0.28975097
   0.26487751  0.49615401  0.41374430
   0.22718577  0.99767067  0.28975097
   0.26794860  0.99717825  0.41969019
   0.22718577  0.49766954  0.29318964
   0.76854851  0.48120700  0.55047824
   0.21238492  0.98088471  0.54350875
   0.23416393  0.50214576  0.54914449
   0.75068684  0.98227699  0.54364355
   0.72558567  0.08103944  0.61663437
   0.18796857  0.24303587  0.60056355
   0.35446805  0.48738618  0.27144965
   0.25816528  0.46508405  0.57468882
   0.67210036  0.15169046  0.63827870
   0.06527126  0.19616555  0.61710385
Direct configuration=   412
   0.00058986  0.24767071  0.29147031
   0.49305682  0.74618241  0.41681489
   0.49287760  0.24680768  0.41657001
   0.00058986  0.74767011  0.29147031
   0.75058982  0.49766954  0.35292815
   0.74014450  0.99851545  0.48194935
   0.25059042  0.49766954  0.35292815
   0.23989317  0.99725680  0.48291138
   0.99618298  0.99740097  0.38536662
   0.51480552  0.49912326  0.51344919
   0.99557869  0.49257668  0.44950258
   0.50058925  0.99767067  0.32219910
   0.98408324  0.22484014  0.55268215
   0.98102294  0.73489357  0.54372353
   0.47592231  0.04707091  0.58166690
   0.99038892  0.22367097  0.48489650
   0.50058925  0.72426545  0.35464748
   0.50058925  0.27107537  0.35464748
   0.98856911  0.76399622  0.48536542
   0.77399447  0.49766954  0.29318964
   0.72319361  0.99783771  0.42032196
   0.48906062  0.22687155  0.47908818
   0.00058986  0.72426545  0.35120881
   0.00058986  0.27107537  0.35120881
   0.48993357  0.76903841  0.47874717
   0.72156498  0.49608267  0.41471440
   0.77399447  0.99767067  0.28975097
   0.26487751  0.49615401  0.41374430
   0.22718577  0.99767067  0.28975097
   0.26794860  0.99717825  0.41969019
   0.22718577  0.49766954  0.29318964
   0.76854851  0.48120700  0.55047824
   0.21238492  0.98088471  0.54350875
   0.23416393  0.50214576  0.54914449
   0.75068684  0.98227699  0.54364355
   0.72558567  0.08103944  0.61663437
   0.18796857  0.24303587  0.60056355
   0.35446805  0.48738618  0.27144965
   0.25816528  0.46508405  0.57468882
   0.67210036  0.15169046  0.63827870
   0.06527126  0.19616555  0.61710385
Direct configuration=   413
   0.00058986  0.24767071  0.29147031
   0.49305682  0.74618241  0.41681489
   0.49287760  0.24680768  0.41657001
   0.00058986  0.74767011  0.29147031
   0.75058982  0.49766954  0.35292815
   0.74014450  0.99851545  0.48194935
   0.25059042  0.49766954  0.35292815
   0.23989317  0.99725680  0.48291138
   0.99618298  0.99740097  0.38536662
   0.51480552  0.49912326  0.51344919
   0.99557869  0.49257668  0.44950258
   0.50058925  0.99767067  0.32219910
   0.98408324  0.22484014  0.55268215
   0.98102294  0.73489357  0.54372353
   0.47592231  0.04707091  0.58166690
   0.99038892  0.22367097  0.48489650
   0.50058925  0.72426545  0.35464748
   0.50058925  0.27107537  0.35464748
   0.98856911  0.76399622  0.48536542
   0.77399447  0.49766954  0.29318964
   0.72319361  0.99783771  0.42032196
   0.48906062  0.22687155  0.47908818
   0.00058986  0.72426545  0.35120881
   0.00058986  0.27107537  0.35120881
   0.48993357  0.76903841  0.47874717
   0.72156498  0.49608267  0.41471440
   0.77399447  0.99767067  0.28975097
   0.26487751  0.49615401  0.41374430
   0.22718577  0.99767067  0.28975097
   0.26794860  0.99717825  0.41969019
   0.22718577  0.49766954  0.29318964
   0.76854851  0.48120700  0.55047824
   0.21238492  0.98088471  0.54350875
   0.23416393  0.50214576  0.54914449
   0.75068684  0.98227699  0.54364355
   0.72558567  0.08103944  0.61663437
   0.18796857  0.24303587  0.60056355
   0.35446805  0.48738618  0.27144965
   0.25816528  0.46508405  0.57468882
   0.67210036  0.15169046  0.63827870
   0.06527126  0.19616555  0.61710385
Direct configuration=   414
   0.00058986  0.24767071  0.29147031
   0.49305682  0.74618241  0.41681489
   0.49287760  0.24680768  0.41657001
   0.00058986  0.74767011  0.29147031
   0.75058982  0.49766954  0.35292815
   0.74014450  0.99851545  0.48194935
   0.25059042  0.49766954  0.35292815
   0.23989317  0.99725680  0.48291138
   0.99618298  0.99740097  0.38536662
   0.51480552  0.49912326  0.51344919
   0.99557869  0.49257668  0.44950258
   0.50058925  0.99767067  0.32219910
   0.98408324  0.22484014  0.55268215
   0.98102294  0.73489357  0.54372353
   0.47592231  0.04707091  0.58166690
   0.99038892  0.22367097  0.48489650
   0.50058925  0.72426545  0.35464748
   0.50058925  0.27107537  0.35464748
   0.98856911  0.76399622  0.48536542
   0.77399447  0.49766954  0.29318964
   0.72319361  0.99783771  0.42032196
   0.48906062  0.22687155  0.47908818
   0.00058986  0.72426545  0.35120881
   0.00058986  0.27107537  0.35120881
   0.48993357  0.76903841  0.47874717
   0.72156498  0.49608267  0.41471440
   0.77399447  0.99767067  0.28975097
   0.26487751  0.49615401  0.41374430
   0.22718577  0.99767067  0.28975097
   0.26794860  0.99717825  0.41969019
   0.22718577  0.49766954  0.29318964
   0.76854851  0.48120700  0.55047824
   0.21238492  0.98088471  0.54350875
   0.23416393  0.50214576  0.54914449
   0.75068684  0.98227699  0.54364355
   0.72558567  0.08103944  0.61663437
   0.18796857  0.24303587  0.60056355
   0.35446805  0.48738618  0.27144965
   0.25816528  0.46508405  0.57468882
   0.67210036  0.15169046  0.63827870
   0.06527126  0.19616555  0.61710385
Direct configuration=   415
   0.00058986  0.24767071  0.29147031
   0.49305682  0.74618241  0.41681489
   0.49287760  0.24680768  0.41657001
   0.00058986  0.74767011  0.29147031
   0.75058982  0.49766954  0.35292815
   0.74014450  0.99851545  0.48194935
   0.25059042  0.49766954  0.35292815
   0.23989317  0.99725680  0.48291138
   0.99618298  0.99740097  0.38536662
   0.51480552  0.49912326  0.51344919
   0.99557869  0.49257668  0.44950258
   0.50058925  0.99767067  0.32219910
   0.98408324  0.22484014  0.55268215
   0.98102294  0.73489357  0.54372353
   0.47592231  0.04707091  0.58166690
   0.99038892  0.22367097  0.48489650
   0.50058925  0.72426545  0.35464748
   0.50058925  0.27107537  0.35464748
   0.98856911  0.76399622  0.48536542
   0.77399447  0.49766954  0.29318964
   0.72319361  0.99783771  0.42032196
   0.48906062  0.22687155  0.47908818
   0.00058986  0.72426545  0.35120881
   0.00058986  0.27107537  0.35120881
   0.48993357  0.76903841  0.47874717
   0.72156498  0.49608267  0.41471440
   0.77399447  0.99767067  0.28975097
   0.26487751  0.49615401  0.41374430
   0.22718577  0.99767067  0.28975097
   0.26794860  0.99717825  0.41969019
   0.22718577  0.49766954  0.29318964
   0.76854851  0.48120700  0.55047824
   0.21238492  0.98088471  0.54350875
   0.23416393  0.50214576  0.54914449
   0.75068684  0.98227699  0.54364355
   0.72558567  0.08103944  0.61663437
   0.18796857  0.24303587  0.60056355
   0.35446805  0.48738618  0.27144965
   0.25816528  0.46508405  0.57468882
   0.67210036  0.15169046  0.63827870
   0.06527126  0.19616555  0.61710385
Direct configuration=   416
   0.00058986  0.24767071  0.29147031
   0.49305682  0.74618241  0.41681489
   0.49287760  0.24680768  0.41657001
   0.00058986  0.74767011  0.29147031
   0.75058982  0.49766954  0.35292815
   0.74014450  0.99851545  0.48194935
   0.25059042  0.49766954  0.35292815
   0.23989317  0.99725680  0.48291138
   0.99618298  0.99740097  0.38536662
   0.51480552  0.49912326  0.51344919
   0.99557869  0.49257668  0.44950258
   0.50058925  0.99767067  0.32219910
   0.98408324  0.22484014  0.55268215
   0.98102294  0.73489357  0.54372353
   0.47592231  0.04707091  0.58166690
   0.99038892  0.22367097  0.48489650
   0.50058925  0.72426545  0.35464748
   0.50058925  0.27107537  0.35464748
   0.98856911  0.76399622  0.48536542
   0.77399447  0.49766954  0.29318964
   0.72319361  0.99783771  0.42032196
   0.48906062  0.22687155  0.47908818
   0.00058986  0.72426545  0.35120881
   0.00058986  0.27107537  0.35120881
   0.48993357  0.76903841  0.47874717
   0.72156498  0.49608267  0.41471440
   0.77399447  0.99767067  0.28975097
   0.26487751  0.49615401  0.41374430
   0.22718577  0.99767067  0.28975097
   0.26794860  0.99717825  0.41969019
   0.22718577  0.49766954  0.29318964
   0.76854851  0.48120700  0.55047824
   0.21238492  0.98088471  0.54350875
   0.23416393  0.50214576  0.54914449
   0.75068684  0.98227699  0.54364355
   0.72558567  0.08103944  0.61663437
   0.18796857  0.24303587  0.60056355
   0.35446805  0.48738618  0.27144965
   0.25816528  0.46508405  0.57468882
   0.67210036  0.15169046  0.63827870
   0.06527126  0.19616555  0.61710385
Direct configuration=   417
   0.00058986  0.24767071  0.29147031
   0.49305682  0.74618241  0.41681489
   0.49287760  0.24680768  0.41657001
   0.00058986  0.74767011  0.29147031
   0.75058982  0.49766954  0.35292815
   0.74014450  0.99851545  0.48194935
   0.25059042  0.49766954  0.35292815
   0.23989317  0.99725680  0.48291138
   0.99618298  0.99740097  0.38536662
   0.51480552  0.49912326  0.51344919
   0.99557869  0.49257668  0.44950258
   0.50058925  0.99767067  0.32219910
   0.98408324  0.22484014  0.55268215
   0.98102294  0.73489357  0.54372353
   0.47592231  0.04707091  0.58166690
   0.99038892  0.22367097  0.48489650
   0.50058925  0.72426545  0.35464748
   0.50058925  0.27107537  0.35464748
   0.98856911  0.76399622  0.48536542
   0.77399447  0.49766954  0.29318964
   0.72319361  0.99783771  0.42032196
   0.48906062  0.22687155  0.47908818
   0.00058986  0.72426545  0.35120881
   0.00058986  0.27107537  0.35120881
   0.48993357  0.76903841  0.47874717
   0.72156498  0.49608267  0.41471440
   0.77399447  0.99767067  0.28975097
   0.26487751  0.49615401  0.41374430
   0.22718577  0.99767067  0.28975097
   0.26794860  0.99717825  0.41969019
   0.22718577  0.49766954  0.29318964
   0.76854851  0.48120700  0.55047824
   0.21238492  0.98088471  0.54350875
   0.23416393  0.50214576  0.54914449
   0.75068684  0.98227699  0.54364355
   0.72558567  0.08103944  0.61663437
   0.18796857  0.24303587  0.60056355
   0.35446805  0.48738618  0.27144965
   0.25816528  0.46508405  0.57468882
   0.67210036  0.15169046  0.63827870
   0.06527126  0.19616555  0.61710385
Direct configuration=   418
   0.00058986  0.24767071  0.29147031
   0.49305682  0.74618241  0.41681489
   0.49287760  0.24680768  0.41657001
   0.00058986  0.74767011  0.29147031
   0.75058982  0.49766954  0.35292815
   0.74014450  0.99851545  0.48194935
   0.25059042  0.49766954  0.35292815
   0.23989317  0.99725680  0.48291138
   0.99618298  0.99740097  0.38536662
   0.51480552  0.49912326  0.51344919
   0.99557869  0.49257668  0.44950258
   0.50058925  0.99767067  0.32219910
   0.98408324  0.22484014  0.55268215
   0.98102294  0.73489357  0.54372353
   0.47592231  0.04707091  0.58166690
   0.99038892  0.22367097  0.48489650
   0.50058925  0.72426545  0.35464748
   0.50058925  0.27107537  0.35464748
   0.98856911  0.76399622  0.48536542
   0.77399447  0.49766954  0.29318964
   0.72319361  0.99783771  0.42032196
   0.48906062  0.22687155  0.47908818
   0.00058986  0.72426545  0.35120881
   0.00058986  0.27107537  0.35120881
   0.48993357  0.76903841  0.47874717
   0.72156498  0.49608267  0.41471440
   0.77399447  0.99767067  0.28975097
   0.26487751  0.49615401  0.41374430
   0.22718577  0.99767067  0.28975097
   0.26794860  0.99717825  0.41969019
   0.22718577  0.49766954  0.29318964
   0.76854851  0.48120700  0.55047824
   0.21238492  0.98088471  0.54350875
   0.23416393  0.50214576  0.54914449
   0.75068684  0.98227699  0.54364355
   0.72558567  0.08103944  0.61663437
   0.18796857  0.24303587  0.60056355
   0.35446805  0.48738618  0.27144965
   0.25816528  0.46508405  0.57468882
   0.67210036  0.15169046  0.63827870
   0.06527126  0.19616555  0.61710385
Direct configuration=   419
   0.00058986  0.24767071  0.29147031
   0.49305682  0.74618241  0.41681489
   0.49287760  0.24680768  0.41657001
   0.00058986  0.74767011  0.29147031
   0.75058982  0.49766954  0.35292815
   0.74014450  0.99851545  0.48194935
   0.25059042  0.49766954  0.35292815
   0.23989317  0.99725680  0.48291138
   0.99618298  0.99740097  0.38536662
   0.51480552  0.49912326  0.51344919
   0.99557869  0.49257668  0.44950258
   0.50058925  0.99767067  0.32219910
   0.98408324  0.22484014  0.55268215
   0.98102294  0.73489357  0.54372353
   0.47592231  0.04707091  0.58166690
   0.99038892  0.22367097  0.48489650
   0.50058925  0.72426545  0.35464748
   0.50058925  0.27107537  0.35464748
   0.98856911  0.76399622  0.48536542
   0.77399447  0.49766954  0.29318964
   0.72319361  0.99783771  0.42032196
   0.48906062  0.22687155  0.47908818
   0.00058986  0.72426545  0.35120881
   0.00058986  0.27107537  0.35120881
   0.48993357  0.76903841  0.47874717
   0.72156498  0.49608267  0.41471440
   0.77399447  0.99767067  0.28975097
   0.26487751  0.49615401  0.41374430
   0.22718577  0.99767067  0.28975097
   0.26794860  0.99717825  0.41969019
   0.22718577  0.49766954  0.29318964
   0.76854851  0.48120700  0.55047824
   0.21238492  0.98088471  0.54350875
   0.23416393  0.50214576  0.54914449
   0.75068684  0.98227699  0.54364355
   0.72558567  0.08103944  0.61663437
   0.18796857  0.24303587  0.60056355
   0.35446805  0.48738618  0.27144965
   0.25816528  0.46508405  0.57468882
   0.67210036  0.15169046  0.63827870
   0.06527126  0.19616555  0.61710385
Direct configuration=   420
   0.00058986  0.24767071  0.29147031
   0.49305682  0.74618241  0.41681489
   0.49287760  0.24680768  0.41657001
   0.00058986  0.74767011  0.29147031
   0.75058982  0.49766954  0.35292815
   0.74014450  0.99851545  0.48194935
   0.25059042  0.49766954  0.35292815
   0.23989317  0.99725680  0.48291138
   0.99618298  0.99740097  0.38536662
   0.51480552  0.49912326  0.51344919
   0.99557869  0.49257668  0.44950258
   0.50058925  0.99767067  0.32219910
   0.98408324  0.22484014  0.55268215
   0.98102294  0.73489357  0.54372353
   0.47592231  0.04707091  0.58166690
   0.99038892  0.22367097  0.48489650
   0.50058925  0.72426545  0.35464748
   0.50058925  0.27107537  0.35464748
   0.98856911  0.76399622  0.48536542
   0.77399447  0.49766954  0.29318964
   0.72319361  0.99783771  0.42032196
   0.48906062  0.22687155  0.47908818
   0.00058986  0.72426545  0.35120881
   0.00058986  0.27107537  0.35120881
   0.48993357  0.76903841  0.47874717
   0.72156498  0.49608267  0.41471440
   0.77399447  0.99767067  0.28975097
   0.26487751  0.49615401  0.41374430
   0.22718577  0.99767067  0.28975097
   0.26794860  0.99717825  0.41969019
   0.22718577  0.49766954  0.29318964
   0.76854851  0.48120700  0.55047824
   0.21238492  0.98088471  0.54350875
   0.23416393  0.50214576  0.54914449
   0.75068684  0.98227699  0.54364355
   0.72558567  0.08103944  0.61663437
   0.18796857  0.24303587  0.60056355
   0.35446805  0.48738618  0.27144965
   0.25816528  0.46508405  0.57468882
   0.67210036  0.15169046  0.63827870
   0.06527126  0.19616555  0.61710385
Direct configuration=   421
   0.00058986  0.24767071  0.29147031
   0.49305682  0.74618241  0.41681489
   0.49287760  0.24680768  0.41657001
   0.00058986  0.74767011  0.29147031
   0.75058982  0.49766954  0.35292815
   0.74014450  0.99851545  0.48194935
   0.25059042  0.49766954  0.35292815
   0.23989317  0.99725680  0.48291138
   0.99618298  0.99740097  0.38536662
   0.51480552  0.49912326  0.51344919
   0.99557869  0.49257668  0.44950258
   0.50058925  0.99767067  0.32219910
   0.98408324  0.22484014  0.55268215
   0.98102294  0.73489357  0.54372353
   0.47592231  0.04707091  0.58166690
   0.99038892  0.22367097  0.48489650
   0.50058925  0.72426545  0.35464748
   0.50058925  0.27107537  0.35464748
   0.98856911  0.76399622  0.48536542
   0.77399447  0.49766954  0.29318964
   0.72319361  0.99783771  0.42032196
   0.48906062  0.22687155  0.47908818
   0.00058986  0.72426545  0.35120881
   0.00058986  0.27107537  0.35120881
   0.48993357  0.76903841  0.47874717
   0.72156498  0.49608267  0.41471440
   0.77399447  0.99767067  0.28975097
   0.26487751  0.49615401  0.41374430
   0.22718577  0.99767067  0.28975097
   0.26794860  0.99717825  0.41969019
   0.22718577  0.49766954  0.29318964
   0.76854851  0.48120700  0.55047824
   0.21238492  0.98088471  0.54350875
   0.23416393  0.50214576  0.54914449
   0.75068684  0.98227699  0.54364355
   0.72558567  0.08103944  0.61663437
   0.18796857  0.24303587  0.60056355
   0.35446805  0.48738618  0.27144965
   0.25816528  0.46508405  0.57468882
   0.67210036  0.15169046  0.63827870
   0.06527126  0.19616555  0.61710385
Direct configuration=   422
   0.00058986  0.24767071  0.29147031
   0.49305682  0.74618241  0.41681489
   0.49287760  0.24680768  0.41657001
   0.00058986  0.74767011  0.29147031
   0.75058982  0.49766954  0.35292815
   0.74014450  0.99851545  0.48194935
   0.25059042  0.49766954  0.35292815
   0.23989317  0.99725680  0.48291138
   0.99618298  0.99740097  0.38536662
   0.51480552  0.49912326  0.51344919
   0.99557869  0.49257668  0.44950258
   0.50058925  0.99767067  0.32219910
   0.98408324  0.22484014  0.55268215
   0.98102294  0.73489357  0.54372353
   0.47592231  0.04707091  0.58166690
   0.99038892  0.22367097  0.48489650
   0.50058925  0.72426545  0.35464748
   0.50058925  0.27107537  0.35464748
   0.98856911  0.76399622  0.48536542
   0.77399447  0.49766954  0.29318964
   0.72319361  0.99783771  0.42032196
   0.48906062  0.22687155  0.47908818
   0.00058986  0.72426545  0.35120881
   0.00058986  0.27107537  0.35120881
   0.48993357  0.76903841  0.47874717
   0.72156498  0.49608267  0.41471440
   0.77399447  0.99767067  0.28975097
   0.26487751  0.49615401  0.41374430
   0.22718577  0.99767067  0.28975097
   0.26794860  0.99717825  0.41969019
   0.22718577  0.49766954  0.29318964
   0.76854851  0.48120700  0.55047824
   0.21238492  0.98088471  0.54350875
   0.23416393  0.50214576  0.54914449
   0.75068684  0.98227699  0.54364355
   0.72558567  0.08103944  0.61663437
   0.18796857  0.24303587  0.60056355
   0.35446805  0.48738618  0.27144965
   0.25816528  0.46508405  0.57468882
   0.67210036  0.15169046  0.63827870
   0.06527126  0.19616555  0.61710385
Direct configuration=   423
   0.00058986  0.24767071  0.29147031
   0.49305682  0.74618241  0.41681489
   0.49287760  0.24680768  0.41657001
   0.00058986  0.74767011  0.29147031
   0.75058982  0.49766954  0.35292815
   0.74014450  0.99851545  0.48194935
   0.25059042  0.49766954  0.35292815
   0.23989317  0.99725680  0.48291138
   0.99618298  0.99740097  0.38536662
   0.51480552  0.49912326  0.51344919
   0.99557869  0.49257668  0.44950258
   0.50058925  0.99767067  0.32219910
   0.98408324  0.22484014  0.55268215
   0.98102294  0.73489357  0.54372353
   0.47592231  0.04707091  0.58166690
   0.99038892  0.22367097  0.48489650
   0.50058925  0.72426545  0.35464748
   0.50058925  0.27107537  0.35464748
   0.98856911  0.76399622  0.48536542
   0.77399447  0.49766954  0.29318964
   0.72319361  0.99783771  0.42032196
   0.48906062  0.22687155  0.47908818
   0.00058986  0.72426545  0.35120881
   0.00058986  0.27107537  0.35120881
   0.48993357  0.76903841  0.47874717
   0.72156498  0.49608267  0.41471440
   0.77399447  0.99767067  0.28975097
   0.26487751  0.49615401  0.41374430
   0.22718577  0.99767067  0.28975097
   0.26794860  0.99717825  0.41969019
   0.22718577  0.49766954  0.29318964
   0.76854851  0.48120700  0.55047824
   0.21238492  0.98088471  0.54350875
   0.23416393  0.50214576  0.54914449
   0.75068684  0.98227699  0.54364355
   0.72558567  0.08103944  0.61663437
   0.18796857  0.24303587  0.60056355
   0.35446805  0.48738618  0.27144965
   0.25816528  0.46508405  0.57468882
   0.67210036  0.15169046  0.63827870
   0.06527126  0.19616555  0.61710385
Direct configuration=   424
   0.00058986  0.24767071  0.29147031
   0.49305682  0.74618241  0.41681489
   0.49287760  0.24680768  0.41657001
   0.00058986  0.74767011  0.29147031
   0.75058982  0.49766954  0.35292815
   0.74014450  0.99851545  0.48194935
   0.25059042  0.49766954  0.35292815
   0.23989317  0.99725680  0.48291138
   0.99618298  0.99740097  0.38536662
   0.51480552  0.49912326  0.51344919
   0.99557869  0.49257668  0.44950258
   0.50058925  0.99767067  0.32219910
   0.98408324  0.22484014  0.55268215
   0.98102294  0.73489357  0.54372353
   0.47592231  0.04707091  0.58166690
   0.99038892  0.22367097  0.48489650
   0.50058925  0.72426545  0.35464748
   0.50058925  0.27107537  0.35464748
   0.98856911  0.76399622  0.48536542
   0.77399447  0.49766954  0.29318964
   0.72319361  0.99783771  0.42032196
   0.48906062  0.22687155  0.47908818
   0.00058986  0.72426545  0.35120881
   0.00058986  0.27107537  0.35120881
   0.48993357  0.76903841  0.47874717
   0.72156498  0.49608267  0.41471440
   0.77399447  0.99767067  0.28975097
   0.26487751  0.49615401  0.41374430
   0.22718577  0.99767067  0.28975097
   0.26794860  0.99717825  0.41969019
   0.22718577  0.49766954  0.29318964
   0.76854851  0.48120700  0.55047824
   0.21238492  0.98088471  0.54350875
   0.23416393  0.50214576  0.54914449
   0.75068684  0.98227699  0.54364355
   0.72558567  0.08103944  0.61663437
   0.18796857  0.24303587  0.60056355
   0.35446805  0.48738618  0.27144965
   0.25816528  0.46508405  0.57468882
   0.67210036  0.15169046  0.63827870
   0.06527126  0.19616555  0.61710385
Direct configuration=   425
   0.00058986  0.24767071  0.29147031
   0.49305682  0.74618241  0.41681489
   0.49287760  0.24680768  0.41657001
   0.00058986  0.74767011  0.29147031
   0.75058982  0.49766954  0.35292815
   0.74014450  0.99851545  0.48194935
   0.25059042  0.49766954  0.35292815
   0.23989317  0.99725680  0.48291138
   0.99618298  0.99740097  0.38536662
   0.51480552  0.49912326  0.51344919
   0.99557869  0.49257668  0.44950258
   0.50058925  0.99767067  0.32219910
   0.98408324  0.22484014  0.55268215
   0.98102294  0.73489357  0.54372353
   0.47592231  0.04707091  0.58166690
   0.99038892  0.22367097  0.48489650
   0.50058925  0.72426545  0.35464748
   0.50058925  0.27107537  0.35464748
   0.98856911  0.76399622  0.48536542
   0.77399447  0.49766954  0.29318964
   0.72319361  0.99783771  0.42032196
   0.48906062  0.22687155  0.47908818
   0.00058986  0.72426545  0.35120881
   0.00058986  0.27107537  0.35120881
   0.48993357  0.76903841  0.47874717
   0.72156498  0.49608267  0.41471440
   0.77399447  0.99767067  0.28975097
   0.26487751  0.49615401  0.41374430
   0.22718577  0.99767067  0.28975097
   0.26794860  0.99717825  0.41969019
   0.22718577  0.49766954  0.29318964
   0.76854851  0.48120700  0.55047824
   0.21238492  0.98088471  0.54350875
   0.23416393  0.50214576  0.54914449
   0.75068684  0.98227699  0.54364355
   0.72558567  0.08103944  0.61663437
   0.18796857  0.24303587  0.60056355
   0.35446805  0.48738618  0.27144965
   0.25816528  0.46508405  0.57468882
   0.67210036  0.15169046  0.63827870
   0.06527126  0.19616555  0.61710385
Direct configuration=   426
   0.00058986  0.24767071  0.29147031
   0.49305682  0.74618241  0.41681489
   0.49287760  0.24680768  0.41657001
   0.00058986  0.74767011  0.29147031
   0.75058982  0.49766954  0.35292815
   0.74014450  0.99851545  0.48194935
   0.25059042  0.49766954  0.35292815
   0.23989317  0.99725680  0.48291138
   0.99618298  0.99740097  0.38536662
   0.51480552  0.49912326  0.51344919
   0.99557869  0.49257668  0.44950258
   0.50058925  0.99767067  0.32219910
   0.98408324  0.22484014  0.55268215
   0.98102294  0.73489357  0.54372353
   0.47592231  0.04707091  0.58166690
   0.99038892  0.22367097  0.48489650
   0.50058925  0.72426545  0.35464748
   0.50058925  0.27107537  0.35464748
   0.98856911  0.76399622  0.48536542
   0.77399447  0.49766954  0.29318964
   0.72319361  0.99783771  0.42032196
   0.48906062  0.22687155  0.47908818
   0.00058986  0.72426545  0.35120881
   0.00058986  0.27107537  0.35120881
   0.48993357  0.76903841  0.47874717
   0.72156498  0.49608267  0.41471440
   0.77399447  0.99767067  0.28975097
   0.26487751  0.49615401  0.41374430
   0.22718577  0.99767067  0.28975097
   0.26794860  0.99717825  0.41969019
   0.22718577  0.49766954  0.29318964
   0.76854851  0.48120700  0.55047824
   0.21238492  0.98088471  0.54350875
   0.23416393  0.50214576  0.54914449
   0.75068684  0.98227699  0.54364355
   0.72558567  0.08103944  0.61663437
   0.18796857  0.24303587  0.60056355
   0.35446805  0.48738618  0.27144965
   0.25816528  0.46508405  0.57468882
   0.67210036  0.15169046  0.63827870
   0.06527126  0.19616555  0.61710385
Direct configuration=   427
   0.00058986  0.24767071  0.29147031
   0.49305682  0.74618241  0.41681489
   0.49287760  0.24680768  0.41657001
   0.00058986  0.74767011  0.29147031
   0.75058982  0.49766954  0.35292815
   0.74014450  0.99851545  0.48194935
   0.25059042  0.49766954  0.35292815
   0.23989317  0.99725680  0.48291138
   0.99618298  0.99740097  0.38536662
   0.51480552  0.49912326  0.51344919
   0.99557869  0.49257668  0.44950258
   0.50058925  0.99767067  0.32219910
   0.98408324  0.22484014  0.55268215
   0.98102294  0.73489357  0.54372353
   0.47592231  0.04707091  0.58166690
   0.99038892  0.22367097  0.48489650
   0.50058925  0.72426545  0.35464748
   0.50058925  0.27107537  0.35464748
   0.98856911  0.76399622  0.48536542
   0.77399447  0.49766954  0.29318964
   0.72319361  0.99783771  0.42032196
   0.48906062  0.22687155  0.47908818
   0.00058986  0.72426545  0.35120881
   0.00058986  0.27107537  0.35120881
   0.48993357  0.76903841  0.47874717
   0.72156498  0.49608267  0.41471440
   0.77399447  0.99767067  0.28975097
   0.26487751  0.49615401  0.41374430
   0.22718577  0.99767067  0.28975097
   0.26794860  0.99717825  0.41969019
   0.22718577  0.49766954  0.29318964
   0.76854851  0.48120700  0.55047824
   0.21238492  0.98088471  0.54350875
   0.23416393  0.50214576  0.54914449
   0.75068684  0.98227699  0.54364355
   0.72558567  0.08103944  0.61663437
   0.18796857  0.24303587  0.60056355
   0.35446805  0.48738618  0.27144965
   0.25816528  0.46508405  0.57468882
   0.67210036  0.15169046  0.63827870
   0.06527126  0.19616555  0.61710385
Direct configuration=   428
   0.00058986  0.24767071  0.29147031
   0.49305682  0.74618241  0.41681489
   0.49287760  0.24680768  0.41657001
   0.00058986  0.74767011  0.29147031
   0.75058982  0.49766954  0.35292815
   0.74014450  0.99851545  0.48194935
   0.25059042  0.49766954  0.35292815
   0.23989317  0.99725680  0.48291138
   0.99618298  0.99740097  0.38536662
   0.51480552  0.49912326  0.51344919
   0.99557869  0.49257668  0.44950258
   0.50058925  0.99767067  0.32219910
   0.98408324  0.22484014  0.55268215
   0.98102294  0.73489357  0.54372353
   0.47592231  0.04707091  0.58166690
   0.99038892  0.22367097  0.48489650
   0.50058925  0.72426545  0.35464748
   0.50058925  0.27107537  0.35464748
   0.98856911  0.76399622  0.48536542
   0.77399447  0.49766954  0.29318964
   0.72319361  0.99783771  0.42032196
   0.48906062  0.22687155  0.47908818
   0.00058986  0.72426545  0.35120881
   0.00058986  0.27107537  0.35120881
   0.48993357  0.76903841  0.47874717
   0.72156498  0.49608267  0.41471440
   0.77399447  0.99767067  0.28975097
   0.26487751  0.49615401  0.41374430
   0.22718577  0.99767067  0.28975097
   0.26794860  0.99717825  0.41969019
   0.22718577  0.49766954  0.29318964
   0.76854851  0.48120700  0.55047824
   0.21238492  0.98088471  0.54350875
   0.23416393  0.50214576  0.54914449
   0.75068684  0.98227699  0.54364355
   0.72558567  0.08103944  0.61663437
   0.18796857  0.24303587  0.60056355
   0.35446805  0.48738618  0.27144965
   0.25816528  0.46508405  0.57468882
   0.67210036  0.15169046  0.63827870
   0.06527126  0.19616555  0.61710385
Direct configuration=   429
   0.00058986  0.24767071  0.29147031
   0.49305682  0.74618241  0.41681489
   0.49287760  0.24680768  0.41657001
   0.00058986  0.74767011  0.29147031
   0.75058982  0.49766954  0.35292815
   0.74014450  0.99851545  0.48194935
   0.25059042  0.49766954  0.35292815
   0.23989317  0.99725680  0.48291138
   0.99618298  0.99740097  0.38536662
   0.51480552  0.49912326  0.51344919
   0.99557869  0.49257668  0.44950258
   0.50058925  0.99767067  0.32219910
   0.98408324  0.22484014  0.55268215
   0.98102294  0.73489357  0.54372353
   0.47592231  0.04707091  0.58166690
   0.99038892  0.22367097  0.48489650
   0.50058925  0.72426545  0.35464748
   0.50058925  0.27107537  0.35464748
   0.98856911  0.76399622  0.48536542
   0.77399447  0.49766954  0.29318964
   0.72319361  0.99783771  0.42032196
   0.48906062  0.22687155  0.47908818
   0.00058986  0.72426545  0.35120881
   0.00058986  0.27107537  0.35120881
   0.48993357  0.76903841  0.47874717
   0.72156498  0.49608267  0.41471440
   0.77399447  0.99767067  0.28975097
   0.26487751  0.49615401  0.41374430
   0.22718577  0.99767067  0.28975097
   0.26794860  0.99717825  0.41969019
   0.22718577  0.49766954  0.29318964
   0.76854851  0.48120700  0.55047824
   0.21238492  0.98088471  0.54350875
   0.23416393  0.50214576  0.54914449
   0.75068684  0.98227699  0.54364355
   0.72558567  0.08103944  0.61663437
   0.18796857  0.24303587  0.60056355
   0.35446805  0.48738618  0.27144965
   0.25816528  0.46508405  0.57468882
   0.67210036  0.15169046  0.63827870
   0.06527126  0.19616555  0.61710385
Direct configuration=   430
   0.00058986  0.24767071  0.29147031
   0.49305682  0.74618241  0.41681489
   0.49287760  0.24680768  0.41657001
   0.00058986  0.74767011  0.29147031
   0.75058982  0.49766954  0.35292815
   0.74014450  0.99851545  0.48194935
   0.25059042  0.49766954  0.35292815
   0.23989317  0.99725680  0.48291138
   0.99618298  0.99740097  0.38536662
   0.51480552  0.49912326  0.51344919
   0.99557869  0.49257668  0.44950258
   0.50058925  0.99767067  0.32219910
   0.98408324  0.22484014  0.55268215
   0.98102294  0.73489357  0.54372353
   0.47592231  0.04707091  0.58166690
   0.99038892  0.22367097  0.48489650
   0.50058925  0.72426545  0.35464748
   0.50058925  0.27107537  0.35464748
   0.98856911  0.76399622  0.48536542
   0.77399447  0.49766954  0.29318964
   0.72319361  0.99783771  0.42032196
   0.48906062  0.22687155  0.47908818
   0.00058986  0.72426545  0.35120881
   0.00058986  0.27107537  0.35120881
   0.48993357  0.76903841  0.47874717
   0.72156498  0.49608267  0.41471440
   0.77399447  0.99767067  0.28975097
   0.26487751  0.49615401  0.41374430
   0.22718577  0.99767067  0.28975097
   0.26794860  0.99717825  0.41969019
   0.22718577  0.49766954  0.29318964
   0.76854851  0.48120700  0.55047824
   0.21238492  0.98088471  0.54350875
   0.23416393  0.50214576  0.54914449
   0.75068684  0.98227699  0.54364355
   0.72558567  0.08103944  0.61663437
   0.18796857  0.24303587  0.60056355
   0.35446805  0.48738618  0.27144965
   0.25816528  0.46508405  0.57468882
   0.67210036  0.15169046  0.63827870
   0.06527126  0.19616555  0.61710385
Direct configuration=   431
   0.00058986  0.24767071  0.29147031
   0.49305682  0.74618241  0.41681489
   0.49287760  0.24680768  0.41657001
   0.00058986  0.74767011  0.29147031
   0.75058982  0.49766954  0.35292815
   0.74014450  0.99851545  0.48194935
   0.25059042  0.49766954  0.35292815
   0.23989317  0.99725680  0.48291138
   0.99618298  0.99740097  0.38536662
   0.51480552  0.49912326  0.51344919
   0.99557869  0.49257668  0.44950258
   0.50058925  0.99767067  0.32219910
   0.98408324  0.22484014  0.55268215
   0.98102294  0.73489357  0.54372353
   0.47592231  0.04707091  0.58166690
   0.99038892  0.22367097  0.48489650
   0.50058925  0.72426545  0.35464748
   0.50058925  0.27107537  0.35464748
   0.98856911  0.76399622  0.48536542
   0.77399447  0.49766954  0.29318964
   0.72319361  0.99783771  0.42032196
   0.48906062  0.22687155  0.47908818
   0.00058986  0.72426545  0.35120881
   0.00058986  0.27107537  0.35120881
   0.48993357  0.76903841  0.47874717
   0.72156498  0.49608267  0.41471440
   0.77399447  0.99767067  0.28975097
   0.26487751  0.49615401  0.41374430
   0.22718577  0.99767067  0.28975097
   0.26794860  0.99717825  0.41969019
   0.22718577  0.49766954  0.29318964
   0.76854851  0.48120700  0.55047824
   0.21238492  0.98088471  0.54350875
   0.23416393  0.50214576  0.54914449
   0.75068684  0.98227699  0.54364355
   0.72558567  0.08103944  0.61663437
   0.18796857  0.24303587  0.60056355
   0.35446805  0.48738618  0.27144965
   0.25816528  0.46508405  0.57468882
   0.67210036  0.15169046  0.63827870
   0.06527126  0.19616555  0.61710385
Direct configuration=   432
   0.00058986  0.24767071  0.29147031
   0.49305682  0.74618241  0.41681489
   0.49287760  0.24680768  0.41657001
   0.00058986  0.74767011  0.29147031
   0.75058982  0.49766954  0.35292815
   0.74014450  0.99851545  0.48194935
   0.25059042  0.49766954  0.35292815
   0.23989317  0.99725680  0.48291138
   0.99618298  0.99740097  0.38536662
   0.51480552  0.49912326  0.51344919
   0.99557869  0.49257668  0.44950258
   0.50058925  0.99767067  0.32219910
   0.98408324  0.22484014  0.55268215
   0.98102294  0.73489357  0.54372353
   0.47592231  0.04707091  0.58166690
   0.99038892  0.22367097  0.48489650
   0.50058925  0.72426545  0.35464748
   0.50058925  0.27107537  0.35464748
   0.98856911  0.76399622  0.48536542
   0.77399447  0.49766954  0.29318964
   0.72319361  0.99783771  0.42032196
   0.48906062  0.22687155  0.47908818
   0.00058986  0.72426545  0.35120881
   0.00058986  0.27107537  0.35120881
   0.48993357  0.76903841  0.47874717
   0.72156498  0.49608267  0.41471440
   0.77399447  0.99767067  0.28975097
   0.26487751  0.49615401  0.41374430
   0.22718577  0.99767067  0.28975097
   0.26794860  0.99717825  0.41969019
   0.22718577  0.49766954  0.29318964
   0.76854851  0.48120700  0.55047824
   0.21238492  0.98088471  0.54350875
   0.23416393  0.50214576  0.54914449
   0.75068684  0.98227699  0.54364355
   0.72558567  0.08103944  0.61663437
   0.18796857  0.24303587  0.60056355
   0.35446805  0.48738618  0.27144965
   0.25816528  0.46508405  0.57468882
   0.67210036  0.15169046  0.63827870
   0.06527126  0.19616555  0.61710385
Direct configuration=   433
   0.00058986  0.24767071  0.29147031
   0.49305682  0.74618241  0.41681489
   0.49287760  0.24680768  0.41657001
   0.00058986  0.74767011  0.29147031
   0.75058982  0.49766954  0.35292815
   0.74014450  0.99851545  0.48194935
   0.25059042  0.49766954  0.35292815
   0.23989317  0.99725680  0.48291138
   0.99618298  0.99740097  0.38536662
   0.51480552  0.49912326  0.51344919
   0.99557869  0.49257668  0.44950258
   0.50058925  0.99767067  0.32219910
   0.98408324  0.22484014  0.55268215
   0.98102294  0.73489357  0.54372353
   0.47592231  0.04707091  0.58166690
   0.99038892  0.22367097  0.48489650
   0.50058925  0.72426545  0.35464748
   0.50058925  0.27107537  0.35464748
   0.98856911  0.76399622  0.48536542
   0.77399447  0.49766954  0.29318964
   0.72319361  0.99783771  0.42032196
   0.48906062  0.22687155  0.47908818
   0.00058986  0.72426545  0.35120881
   0.00058986  0.27107537  0.35120881
   0.48993357  0.76903841  0.47874717
   0.72156498  0.49608267  0.41471440
   0.77399447  0.99767067  0.28975097
   0.26487751  0.49615401  0.41374430
   0.22718577  0.99767067  0.28975097
   0.26794860  0.99717825  0.41969019
   0.22718577  0.49766954  0.29318964
   0.76854851  0.48120700  0.55047824
   0.21238492  0.98088471  0.54350875
   0.23416393  0.50214576  0.54914449
   0.75068684  0.98227699  0.54364355
   0.72558567  0.08103944  0.61663437
   0.18796857  0.24303587  0.60056355
   0.35446805  0.48738618  0.27144965
   0.25816528  0.46508405  0.57468882
   0.67210036  0.15169046  0.63827870
   0.06527126  0.19616555  0.61710385
Direct configuration=   434
   0.00058986  0.24767071  0.29147031
   0.49305682  0.74618241  0.41681489
   0.49287760  0.24680768  0.41657001
   0.00058986  0.74767011  0.29147031
   0.75058982  0.49766954  0.35292815
   0.74014450  0.99851545  0.48194935
   0.25059042  0.49766954  0.35292815
   0.23989317  0.99725680  0.48291138
   0.99618298  0.99740097  0.38536662
   0.51480552  0.49912326  0.51344919
   0.99557869  0.49257668  0.44950258
   0.50058925  0.99767067  0.32219910
   0.98408324  0.22484014  0.55268215
   0.98102294  0.73489357  0.54372353
   0.47592231  0.04707091  0.58166690
   0.99038892  0.22367097  0.48489650
   0.50058925  0.72426545  0.35464748
   0.50058925  0.27107537  0.35464748
   0.98856911  0.76399622  0.48536542
   0.77399447  0.49766954  0.29318964
   0.72319361  0.99783771  0.42032196
   0.48906062  0.22687155  0.47908818
   0.00058986  0.72426545  0.35120881
   0.00058986  0.27107537  0.35120881
   0.48993357  0.76903841  0.47874717
   0.72156498  0.49608267  0.41471440
   0.77399447  0.99767067  0.28975097
   0.26487751  0.49615401  0.41374430
   0.22718577  0.99767067  0.28975097
   0.26794860  0.99717825  0.41969019
   0.22718577  0.49766954  0.29318964
   0.76854851  0.48120700  0.55047824
   0.21238492  0.98088471  0.54350875
   0.23416393  0.50214576  0.54914449
   0.75068684  0.98227699  0.54364355
   0.72558567  0.08103944  0.61663437
   0.18796857  0.24303587  0.60056355
   0.35446805  0.48738618  0.27144965
   0.25816528  0.46508405  0.57468882
   0.67210036  0.15169046  0.63827870
   0.06527126  0.19616555  0.61710385
Direct configuration=   435
   0.00058986  0.24767071  0.29147031
   0.49305682  0.74618241  0.41681489
   0.49287760  0.24680768  0.41657001
   0.00058986  0.74767011  0.29147031
   0.75058982  0.49766954  0.35292815
   0.74014450  0.99851545  0.48194935
   0.25059042  0.49766954  0.35292815
   0.23989317  0.99725680  0.48291138
   0.99618298  0.99740097  0.38536662
   0.51480552  0.49912326  0.51344919
   0.99557869  0.49257668  0.44950258
   0.50058925  0.99767067  0.32219910
   0.98408324  0.22484014  0.55268215
   0.98102294  0.73489357  0.54372353
   0.47592231  0.04707091  0.58166690
   0.99038892  0.22367097  0.48489650
   0.50058925  0.72426545  0.35464748
   0.50058925  0.27107537  0.35464748
   0.98856911  0.76399622  0.48536542
   0.77399447  0.49766954  0.29318964
   0.72319361  0.99783771  0.42032196
   0.48906062  0.22687155  0.47908818
   0.00058986  0.72426545  0.35120881
   0.00058986  0.27107537  0.35120881
   0.48993357  0.76903841  0.47874717
   0.72156498  0.49608267  0.41471440
   0.77399447  0.99767067  0.28975097
   0.26487751  0.49615401  0.41374430
   0.22718577  0.99767067  0.28975097
   0.26794860  0.99717825  0.41969019
   0.22718577  0.49766954  0.29318964
   0.76854851  0.48120700  0.55047824
   0.21238492  0.98088471  0.54350875
   0.23416393  0.50214576  0.54914449
   0.75068684  0.98227699  0.54364355
   0.72558567  0.08103944  0.61663437
   0.18796857  0.24303587  0.60056355
   0.35446805  0.48738618  0.27144965
   0.25816528  0.46508405  0.57468882
   0.67210036  0.15169046  0.63827870
   0.06527126  0.19616555  0.61710385
Direct configuration=   436
   0.00058986  0.24767071  0.29147031
   0.49305682  0.74618241  0.41681489
   0.49287760  0.24680768  0.41657001
   0.00058986  0.74767011  0.29147031
   0.75058982  0.49766954  0.35292815
   0.74014450  0.99851545  0.48194935
   0.25059042  0.49766954  0.35292815
   0.23989317  0.99725680  0.48291138
   0.99618298  0.99740097  0.38536662
   0.51480552  0.49912326  0.51344919
   0.99557869  0.49257668  0.44950258
   0.50058925  0.99767067  0.32219910
   0.98408324  0.22484014  0.55268215
   0.98102294  0.73489357  0.54372353
   0.47592231  0.04707091  0.58166690
   0.99038892  0.22367097  0.48489650
   0.50058925  0.72426545  0.35464748
   0.50058925  0.27107537  0.35464748
   0.98856911  0.76399622  0.48536542
   0.77399447  0.49766954  0.29318964
   0.72319361  0.99783771  0.42032196
   0.48906062  0.22687155  0.47908818
   0.00058986  0.72426545  0.35120881
   0.00058986  0.27107537  0.35120881
   0.48993357  0.76903841  0.47874717
   0.72156498  0.49608267  0.41471440
   0.77399447  0.99767067  0.28975097
   0.26487751  0.49615401  0.41374430
   0.22718577  0.99767067  0.28975097
   0.26794860  0.99717825  0.41969019
   0.22718577  0.49766954  0.29318964
   0.76854851  0.48120700  0.55047824
   0.21238492  0.98088471  0.54350875
   0.23416393  0.50214576  0.54914449
   0.75068684  0.98227699  0.54364355
   0.72558567  0.08103944  0.61663437
   0.18796857  0.24303587  0.60056355
   0.35446805  0.48738618  0.27144965
   0.25816528  0.46508405  0.57468882
   0.67210036  0.15169046  0.63827870
   0.06527126  0.19616555  0.61710385
Direct configuration=   437
   0.00058986  0.24767071  0.29147031
   0.49305682  0.74618241  0.41681489
   0.49287760  0.24680768  0.41657001
   0.00058986  0.74767011  0.29147031
   0.75058982  0.49766954  0.35292815
   0.74014450  0.99851545  0.48194935
   0.25059042  0.49766954  0.35292815
   0.23989317  0.99725680  0.48291138
   0.99618298  0.99740097  0.38536662
   0.51480552  0.49912326  0.51344919
   0.99557869  0.49257668  0.44950258
   0.50058925  0.99767067  0.32219910
   0.98408324  0.22484014  0.55268215
   0.98102294  0.73489357  0.54372353
   0.47592231  0.04707091  0.58166690
   0.99038892  0.22367097  0.48489650
   0.50058925  0.72426545  0.35464748
   0.50058925  0.27107537  0.35464748
   0.98856911  0.76399622  0.48536542
   0.77399447  0.49766954  0.29318964
   0.72319361  0.99783771  0.42032196
   0.48906062  0.22687155  0.47908818
   0.00058986  0.72426545  0.35120881
   0.00058986  0.27107537  0.35120881
   0.48993357  0.76903841  0.47874717
   0.72156498  0.49608267  0.41471440
   0.77399447  0.99767067  0.28975097
   0.26487751  0.49615401  0.41374430
   0.22718577  0.99767067  0.28975097
   0.26794860  0.99717825  0.41969019
   0.22718577  0.49766954  0.29318964
   0.76854851  0.48120700  0.55047824
   0.21238492  0.98088471  0.54350875
   0.23416393  0.50214576  0.54914449
   0.75068684  0.98227699  0.54364355
   0.72558567  0.08103944  0.61663437
   0.18796857  0.24303587  0.60056355
   0.35446805  0.48738618  0.27144965
   0.25816528  0.46508405  0.57468882
   0.67210036  0.15169046  0.63827870
   0.06527126  0.19616555  0.61710385
Direct configuration=   438
   0.00058986  0.24767071  0.29147031
   0.49305682  0.74618241  0.41681489
   0.49287760  0.24680768  0.41657001
   0.00058986  0.74767011  0.29147031
   0.75058982  0.49766954  0.35292815
   0.74014450  0.99851545  0.48194935
   0.25059042  0.49766954  0.35292815
   0.23989317  0.99725680  0.48291138
   0.99618298  0.99740097  0.38536662
   0.51480552  0.49912326  0.51344919
   0.99557869  0.49257668  0.44950258
   0.50058925  0.99767067  0.32219910
   0.98408324  0.22484014  0.55268215
   0.98102294  0.73489357  0.54372353
   0.47592231  0.04707091  0.58166690
   0.99038892  0.22367097  0.48489650
   0.50058925  0.72426545  0.35464748
   0.50058925  0.27107537  0.35464748
   0.98856911  0.76399622  0.48536542
   0.77399447  0.49766954  0.29318964
   0.72319361  0.99783771  0.42032196
   0.48906062  0.22687155  0.47908818
   0.00058986  0.72426545  0.35120881
   0.00058986  0.27107537  0.35120881
   0.48993357  0.76903841  0.47874717
   0.72156498  0.49608267  0.41471440
   0.77399447  0.99767067  0.28975097
   0.26487751  0.49615401  0.41374430
   0.22718577  0.99767067  0.28975097
   0.26794860  0.99717825  0.41969019
   0.22718577  0.49766954  0.29318964
   0.76854851  0.48120700  0.55047824
   0.21238492  0.98088471  0.54350875
   0.23416393  0.50214576  0.54914449
   0.75068684  0.98227699  0.54364355
   0.72558567  0.08103944  0.61663437
   0.18796857  0.24303587  0.60056355
   0.35446805  0.48738618  0.27144965
   0.25816528  0.46508405  0.57468882
   0.67210036  0.15169046  0.63827870
   0.06527126  0.19616555  0.61710385
Direct configuration=   439
   0.00058986  0.24767071  0.29147031
   0.49305682  0.74618241  0.41681489
   0.49287760  0.24680768  0.41657001
   0.00058986  0.74767011  0.29147031
   0.75058982  0.49766954  0.35292815
   0.74014450  0.99851545  0.48194935
   0.25059042  0.49766954  0.35292815
   0.23989317  0.99725680  0.48291138
   0.99618298  0.99740097  0.38536662
   0.51480552  0.49912326  0.51344919
   0.99557869  0.49257668  0.44950258
   0.50058925  0.99767067  0.32219910
   0.98408324  0.22484014  0.55268215
   0.98102294  0.73489357  0.54372353
   0.47592231  0.04707091  0.58166690
   0.99038892  0.22367097  0.48489650
   0.50058925  0.72426545  0.35464748
   0.50058925  0.27107537  0.35464748
   0.98856911  0.76399622  0.48536542
   0.77399447  0.49766954  0.29318964
   0.72319361  0.99783771  0.42032196
   0.48906062  0.22687155  0.47908818
   0.00058986  0.72426545  0.35120881
   0.00058986  0.27107537  0.35120881
   0.48993357  0.76903841  0.47874717
   0.72156498  0.49608267  0.41471440
   0.77399447  0.99767067  0.28975097
   0.26487751  0.49615401  0.41374430
   0.22718577  0.99767067  0.28975097
   0.26794860  0.99717825  0.41969019
   0.22718577  0.49766954  0.29318964
   0.76854851  0.48120700  0.55047824
   0.21238492  0.98088471  0.54350875
   0.23416393  0.50214576  0.54914449
   0.75068684  0.98227699  0.54364355
   0.72558567  0.08103944  0.61663437
   0.18796857  0.24303587  0.60056355
   0.35446805  0.48738618  0.27144965
   0.25816528  0.46508405  0.57468882
   0.67210036  0.15169046  0.63827870
   0.06527126  0.19616555  0.61710385
Direct configuration=   440
   0.00058986  0.24767071  0.29147031
   0.49305682  0.74618241  0.41681489
   0.49287760  0.24680768  0.41657001
   0.00058986  0.74767011  0.29147031
   0.75058982  0.49766954  0.35292815
   0.74014450  0.99851545  0.48194935
   0.25059042  0.49766954  0.35292815
   0.23989317  0.99725680  0.48291138
   0.99618298  0.99740097  0.38536662
   0.51480552  0.49912326  0.51344919
   0.99557869  0.49257668  0.44950258
   0.50058925  0.99767067  0.32219910
   0.98408324  0.22484014  0.55268215
   0.98102294  0.73489357  0.54372353
   0.47592231  0.04707091  0.58166690
   0.99038892  0.22367097  0.48489650
   0.50058925  0.72426545  0.35464748
   0.50058925  0.27107537  0.35464748
   0.98856911  0.76399622  0.48536542
   0.77399447  0.49766954  0.29318964
   0.72319361  0.99783771  0.42032196
   0.48906062  0.22687155  0.47908818
   0.00058986  0.72426545  0.35120881
   0.00058986  0.27107537  0.35120881
   0.48993357  0.76903841  0.47874717
   0.72156498  0.49608267  0.41471440
   0.77399447  0.99767067  0.28975097
   0.26487751  0.49615401  0.41374430
   0.22718577  0.99767067  0.28975097
   0.26794860  0.99717825  0.41969019
   0.22718577  0.49766954  0.29318964
   0.76854851  0.48120700  0.55047824
   0.21238492  0.98088471  0.54350875
   0.23416393  0.50214576  0.54914449
   0.75068684  0.98227699  0.54364355
   0.72558567  0.08103944  0.61663437
   0.18796857  0.24303587  0.60056355
   0.35446805  0.48738618  0.27144965
   0.25816528  0.46508405  0.57468882
   0.67210036  0.15169046  0.63827870
   0.06527126  0.19616555  0.61710385
Direct configuration=   441
   0.00058986  0.24767071  0.29147031
   0.49305682  0.74618241  0.41681489
   0.49287760  0.24680768  0.41657001
   0.00058986  0.74767011  0.29147031
   0.75058982  0.49766954  0.35292815
   0.74014450  0.99851545  0.48194935
   0.25059042  0.49766954  0.35292815
   0.23989317  0.99725680  0.48291138
   0.99618298  0.99740097  0.38536662
   0.51480552  0.49912326  0.51344919
   0.99557869  0.49257668  0.44950258
   0.50058925  0.99767067  0.32219910
   0.98408324  0.22484014  0.55268215
   0.98102294  0.73489357  0.54372353
   0.47592231  0.04707091  0.58166690
   0.99038892  0.22367097  0.48489650
   0.50058925  0.72426545  0.35464748
   0.50058925  0.27107537  0.35464748
   0.98856911  0.76399622  0.48536542
   0.77399447  0.49766954  0.29318964
   0.72319361  0.99783771  0.42032196
   0.48906062  0.22687155  0.47908818
   0.00058986  0.72426545  0.35120881
   0.00058986  0.27107537  0.35120881
   0.48993357  0.76903841  0.47874717
   0.72156498  0.49608267  0.41471440
   0.77399447  0.99767067  0.28975097
   0.26487751  0.49615401  0.41374430
   0.22718577  0.99767067  0.28975097
   0.26794860  0.99717825  0.41969019
   0.22718577  0.49766954  0.29318964
   0.76854851  0.48120700  0.55047824
   0.21238492  0.98088471  0.54350875
   0.23416393  0.50214576  0.54914449
   0.75068684  0.98227699  0.54364355
   0.72558567  0.08103944  0.61663437
   0.18796857  0.24303587  0.60056355
   0.35446805  0.48738618  0.27144965
   0.25816528  0.46508405  0.57468882
   0.67210036  0.15169046  0.63827870
   0.06527126  0.19616555  0.61710385
Direct configuration=   442
   0.00058986  0.24767071  0.29147031
   0.49305682  0.74618241  0.41681489
   0.49287760  0.24680768  0.41657001
   0.00058986  0.74767011  0.29147031
   0.75058982  0.49766954  0.35292815
   0.74014450  0.99851545  0.48194935
   0.25059042  0.49766954  0.35292815
   0.23989317  0.99725680  0.48291138
   0.99618298  0.99740097  0.38536662
   0.51480552  0.49912326  0.51344919
   0.99557869  0.49257668  0.44950258
   0.50058925  0.99767067  0.32219910
   0.98408324  0.22484014  0.55268215
   0.98102294  0.73489357  0.54372353
   0.47592231  0.04707091  0.58166690
   0.99038892  0.22367097  0.48489650
   0.50058925  0.72426545  0.35464748
   0.50058925  0.27107537  0.35464748
   0.98856911  0.76399622  0.48536542
   0.77399447  0.49766954  0.29318964
   0.72319361  0.99783771  0.42032196
   0.48906062  0.22687155  0.47908818
   0.00058986  0.72426545  0.35120881
   0.00058986  0.27107537  0.35120881
   0.48993357  0.76903841  0.47874717
   0.72156498  0.49608267  0.41471440
   0.77399447  0.99767067  0.28975097
   0.26487751  0.49615401  0.41374430
   0.22718577  0.99767067  0.28975097
   0.26794860  0.99717825  0.41969019
   0.22718577  0.49766954  0.29318964
   0.76854851  0.48120700  0.55047824
   0.21238492  0.98088471  0.54350875
   0.23416393  0.50214576  0.54914449
   0.75068684  0.98227699  0.54364355
   0.72558567  0.08103944  0.61663437
   0.18796857  0.24303587  0.60056355
   0.35446805  0.48738618  0.27144965
   0.25816528  0.46508405  0.57468882
   0.67210036  0.15169046  0.63827870
   0.06527126  0.19616555  0.61710385
Direct configuration=   443
   0.00058986  0.24767071  0.29147031
   0.49305682  0.74618241  0.41681489
   0.49287760  0.24680768  0.41657001
   0.00058986  0.74767011  0.29147031
   0.75058982  0.49766954  0.35292815
   0.74014450  0.99851545  0.48194935
   0.25059042  0.49766954  0.35292815
   0.23989317  0.99725680  0.48291138
   0.99618298  0.99740097  0.38536662
   0.51480552  0.49912326  0.51344919
   0.99557869  0.49257668  0.44950258
   0.50058925  0.99767067  0.32219910
   0.98408324  0.22484014  0.55268215
   0.98102294  0.73489357  0.54372353
   0.47592231  0.04707091  0.58166690
   0.99038892  0.22367097  0.48489650
   0.50058925  0.72426545  0.35464748
   0.50058925  0.27107537  0.35464748
   0.98856911  0.76399622  0.48536542
   0.77399447  0.49766954  0.29318964
   0.72319361  0.99783771  0.42032196
   0.48906062  0.22687155  0.47908818
   0.00058986  0.72426545  0.35120881
   0.00058986  0.27107537  0.35120881
   0.48993357  0.76903841  0.47874717
   0.72156498  0.49608267  0.41471440
   0.77399447  0.99767067  0.28975097
   0.26487751  0.49615401  0.41374430
   0.22718577  0.99767067  0.28975097
   0.26794860  0.99717825  0.41969019
   0.22718577  0.49766954  0.29318964
   0.76854851  0.48120700  0.55047824
   0.21238492  0.98088471  0.54350875
   0.23416393  0.50214576  0.54914449
   0.75068684  0.98227699  0.54364355
   0.72558567  0.08103944  0.61663437
   0.18796857  0.24303587  0.60056355
   0.35446805  0.48738618  0.27144965
   0.25816528  0.46508405  0.57468882
   0.67210036  0.15169046  0.63827870
   0.06527126  0.19616555  0.61710385
Direct configuration=   444
   0.00058986  0.24767071  0.29147031
   0.49305682  0.74618241  0.41681489
   0.49287760  0.24680768  0.41657001
   0.00058986  0.74767011  0.29147031
   0.75058982  0.49766954  0.35292815
   0.74014450  0.99851545  0.48194935
   0.25059042  0.49766954  0.35292815
   0.23989317  0.99725680  0.48291138
   0.99618298  0.99740097  0.38536662
   0.51480552  0.49912326  0.51344919
   0.99557869  0.49257668  0.44950258
   0.50058925  0.99767067  0.32219910
   0.98408324  0.22484014  0.55268215
   0.98102294  0.73489357  0.54372353
   0.47592231  0.04707091  0.58166690
   0.99038892  0.22367097  0.48489650
   0.50058925  0.72426545  0.35464748
   0.50058925  0.27107537  0.35464748
   0.98856911  0.76399622  0.48536542
   0.77399447  0.49766954  0.29318964
   0.72319361  0.99783771  0.42032196
   0.48906062  0.22687155  0.47908818
   0.00058986  0.72426545  0.35120881
   0.00058986  0.27107537  0.35120881
   0.48993357  0.76903841  0.47874717
   0.72156498  0.49608267  0.41471440
   0.77399447  0.99767067  0.28975097
   0.26487751  0.49615401  0.41374430
   0.22718577  0.99767067  0.28975097
   0.26794860  0.99717825  0.41969019
   0.22718577  0.49766954  0.29318964
   0.76854851  0.48120700  0.55047824
   0.21238492  0.98088471  0.54350875
   0.23416393  0.50214576  0.54914449
   0.75068684  0.98227699  0.54364355
   0.72558567  0.08103944  0.61663437
   0.18796857  0.24303587  0.60056355
   0.35446805  0.48738618  0.27144965
   0.25816528  0.46508405  0.57468882
   0.67210036  0.15169046  0.63827870
   0.06527126  0.19616555  0.61710385
Direct configuration=   445
   0.00058986  0.24767071  0.29147031
   0.49305682  0.74618241  0.41681489
   0.49287760  0.24680768  0.41657001
   0.00058986  0.74767011  0.29147031
   0.75058982  0.49766954  0.35292815
   0.74014450  0.99851545  0.48194935
   0.25059042  0.49766954  0.35292815
   0.23989317  0.99725680  0.48291138
   0.99618298  0.99740097  0.38536662
   0.51480552  0.49912326  0.51344919
   0.99557869  0.49257668  0.44950258
   0.50058925  0.99767067  0.32219910
   0.98408324  0.22484014  0.55268215
   0.98102294  0.73489357  0.54372353
   0.47592231  0.04707091  0.58166690
   0.99038892  0.22367097  0.48489650
   0.50058925  0.72426545  0.35464748
   0.50058925  0.27107537  0.35464748
   0.98856911  0.76399622  0.48536542
   0.77399447  0.49766954  0.29318964
   0.72319361  0.99783771  0.42032196
   0.48906062  0.22687155  0.47908818
   0.00058986  0.72426545  0.35120881
   0.00058986  0.27107537  0.35120881
   0.48993357  0.76903841  0.47874717
   0.72156498  0.49608267  0.41471440
   0.77399447  0.99767067  0.28975097
   0.26487751  0.49615401  0.41374430
   0.22718577  0.99767067  0.28975097
   0.26794860  0.99717825  0.41969019
   0.22718577  0.49766954  0.29318964
   0.76854851  0.48120700  0.55047824
   0.21238492  0.98088471  0.54350875
   0.23416393  0.50214576  0.54914449
   0.75068684  0.98227699  0.54364355
   0.72558567  0.08103944  0.61663437
   0.18796857  0.24303587  0.60056355
   0.35446805  0.48738618  0.27144965
   0.25816528  0.46508405  0.57468882
   0.67210036  0.15169046  0.63827870
   0.06527126  0.19616555  0.61710385
Direct configuration=   446
   0.00058986  0.24767071  0.29147031
   0.49305682  0.74618241  0.41681489
   0.49287760  0.24680768  0.41657001
   0.00058986  0.74767011  0.29147031
   0.75058982  0.49766954  0.35292815
   0.74014450  0.99851545  0.48194935
   0.25059042  0.49766954  0.35292815
   0.23989317  0.99725680  0.48291138
   0.99618298  0.99740097  0.38536662
   0.51480552  0.49912326  0.51344919
   0.99557869  0.49257668  0.44950258
   0.50058925  0.99767067  0.32219910
   0.98408324  0.22484014  0.55268215
   0.98102294  0.73489357  0.54372353
   0.47592231  0.04707091  0.58166690
   0.99038892  0.22367097  0.48489650
   0.50058925  0.72426545  0.35464748
   0.50058925  0.27107537  0.35464748
   0.98856911  0.76399622  0.48536542
   0.77399447  0.49766954  0.29318964
   0.72319361  0.99783771  0.42032196
   0.48906062  0.22687155  0.47908818
   0.00058986  0.72426545  0.35120881
   0.00058986  0.27107537  0.35120881
   0.48993357  0.76903841  0.47874717
   0.72156498  0.49608267  0.41471440
   0.77399447  0.99767067  0.28975097
   0.26487751  0.49615401  0.41374430
   0.22718577  0.99767067  0.28975097
   0.26794860  0.99717825  0.41969019
   0.22718577  0.49766954  0.29318964
   0.76854851  0.48120700  0.55047824
   0.21238492  0.98088471  0.54350875
   0.23416393  0.50214576  0.54914449
   0.75068684  0.98227699  0.54364355
   0.72558567  0.08103944  0.61663437
   0.18796857  0.24303587  0.60056355
   0.35446805  0.48738618  0.27144965
   0.25816528  0.46508405  0.57468882
   0.67210036  0.15169046  0.63827870
   0.06527126  0.19616555  0.61710385
Direct configuration=   447
   0.00058986  0.24767071  0.29147031
   0.49305682  0.74618241  0.41681489
   0.49287760  0.24680768  0.41657001
   0.00058986  0.74767011  0.29147031
   0.75058982  0.49766954  0.35292815
   0.74014450  0.99851545  0.48194935
   0.25059042  0.49766954  0.35292815
   0.23989317  0.99725680  0.48291138
   0.99618298  0.99740097  0.38536662
   0.51480552  0.49912326  0.51344919
   0.99557869  0.49257668  0.44950258
   0.50058925  0.99767067  0.32219910
   0.98408324  0.22484014  0.55268215
   0.98102294  0.73489357  0.54372353
   0.47592231  0.04707091  0.58166690
   0.99038892  0.22367097  0.48489650
   0.50058925  0.72426545  0.35464748
   0.50058925  0.27107537  0.35464748
   0.98856911  0.76399622  0.48536542
   0.77399447  0.49766954  0.29318964
   0.72319361  0.99783771  0.42032196
   0.48906062  0.22687155  0.47908818
   0.00058986  0.72426545  0.35120881
   0.00058986  0.27107537  0.35120881
   0.48993357  0.76903841  0.47874717
   0.72156498  0.49608267  0.41471440
   0.77399447  0.99767067  0.28975097
   0.26487751  0.49615401  0.41374430
   0.22718577  0.99767067  0.28975097
   0.26794860  0.99717825  0.41969019
   0.22718577  0.49766954  0.29318964
   0.76854851  0.48120700  0.55047824
   0.21238492  0.98088471  0.54350875
   0.23416393  0.50214576  0.54914449
   0.75068684  0.98227699  0.54364355
   0.72558567  0.08103944  0.61663437
   0.18796857  0.24303587  0.60056355
   0.35446805  0.48738618  0.27144965
   0.25816528  0.46508405  0.57468882
   0.67210036  0.15169046  0.63827870
   0.06527126  0.19616555  0.61710385
Direct configuration=   448
   0.00058986  0.24767071  0.29147031
   0.49305682  0.74618241  0.41681489
   0.49287760  0.24680768  0.41657001
   0.00058986  0.74767011  0.29147031
   0.75058982  0.49766954  0.35292815
   0.74014450  0.99851545  0.48194935
   0.25059042  0.49766954  0.35292815
   0.23989317  0.99725680  0.48291138
   0.99618298  0.99740097  0.38536662
   0.51480552  0.49912326  0.51344919
   0.99557869  0.49257668  0.44950258
   0.50058925  0.99767067  0.32219910
   0.98408324  0.22484014  0.55268215
   0.98102294  0.73489357  0.54372353
   0.47592231  0.04707091  0.58166690
   0.99038892  0.22367097  0.48489650
   0.50058925  0.72426545  0.35464748
   0.50058925  0.27107537  0.35464748
   0.98856911  0.76399622  0.48536542
   0.77399447  0.49766954  0.29318964
   0.72319361  0.99783771  0.42032196
   0.48906062  0.22687155  0.47908818
   0.00058986  0.72426545  0.35120881
   0.00058986  0.27107537  0.35120881
   0.48993357  0.76903841  0.47874717
   0.72156498  0.49608267  0.41471440
   0.77399447  0.99767067  0.28975097
   0.26487751  0.49615401  0.41374430
   0.22718577  0.99767067  0.28975097
   0.26794860  0.99717825  0.41969019
   0.22718577  0.49766954  0.29318964
   0.76854851  0.48120700  0.55047824
   0.21238492  0.98088471  0.54350875
   0.23416393  0.50214576  0.54914449
   0.75068684  0.98227699  0.54364355
   0.72558567  0.08103944  0.61663437
   0.18796857  0.24303587  0.60056355
   0.35446805  0.48738618  0.27144965
   0.25816528  0.46508405  0.57468882
   0.67210036  0.15169046  0.63827870
   0.06527126  0.19616555  0.61710385
Direct configuration=   449
   0.00058986  0.24767071  0.29147031
   0.49305682  0.74618241  0.41681489
   0.49287760  0.24680768  0.41657001
   0.00058986  0.74767011  0.29147031
   0.75058982  0.49766954  0.35292815
   0.74014450  0.99851545  0.48194935
   0.25059042  0.49766954  0.35292815
   0.23989317  0.99725680  0.48291138
   0.99618298  0.99740097  0.38536662
   0.51480552  0.49912326  0.51344919
   0.99557869  0.49257668  0.44950258
   0.50058925  0.99767067  0.32219910
   0.98408324  0.22484014  0.55268215
   0.98102294  0.73489357  0.54372353
   0.47592231  0.04707091  0.58166690
   0.99038892  0.22367097  0.48489650
   0.50058925  0.72426545  0.35464748
   0.50058925  0.27107537  0.35464748
   0.98856911  0.76399622  0.48536542
   0.77399447  0.49766954  0.29318964
   0.72319361  0.99783771  0.42032196
   0.48906062  0.22687155  0.47908818
   0.00058986  0.72426545  0.35120881
   0.00058986  0.27107537  0.35120881
   0.48993357  0.76903841  0.47874717
   0.72156498  0.49608267  0.41471440
   0.77399447  0.99767067  0.28975097
   0.26487751  0.49615401  0.41374430
   0.22718577  0.99767067  0.28975097
   0.26794860  0.99717825  0.41969019
   0.22718577  0.49766954  0.29318964
   0.76854851  0.48120700  0.55047824
   0.21238492  0.98088471  0.54350875
   0.23416393  0.50214576  0.54914449
   0.75068684  0.98227699  0.54364355
   0.72558567  0.08103944  0.61663437
   0.18796857  0.24303587  0.60056355
   0.35446805  0.48738618  0.27144965
   0.25816528  0.46508405  0.57468882
   0.67210036  0.15169046  0.63827870
   0.06527126  0.19616555  0.61710385
Direct configuration=   450
   0.00058986  0.24767071  0.29147031
   0.49305682  0.74618241  0.41681489
   0.49287760  0.24680768  0.41657001
   0.00058986  0.74767011  0.29147031
   0.75058982  0.49766954  0.35292815
   0.74014450  0.99851545  0.48194935
   0.25059042  0.49766954  0.35292815
   0.23989317  0.99725680  0.48291138
   0.99618298  0.99740097  0.38536662
   0.51480552  0.49912326  0.51344919
   0.99557869  0.49257668  0.44950258
   0.50058925  0.99767067  0.32219910
   0.98408324  0.22484014  0.55268215
   0.98102294  0.73489357  0.54372353
   0.47592231  0.04707091  0.58166690
   0.99038892  0.22367097  0.48489650
   0.50058925  0.72426545  0.35464748
   0.50058925  0.27107537  0.35464748
   0.98856911  0.76399622  0.48536542
   0.77399447  0.49766954  0.29318964
   0.72319361  0.99783771  0.42032196
   0.48906062  0.22687155  0.47908818
   0.00058986  0.72426545  0.35120881
   0.00058986  0.27107537  0.35120881
   0.48993357  0.76903841  0.47874717
   0.72156498  0.49608267  0.41471440
   0.77399447  0.99767067  0.28975097
   0.26487751  0.49615401  0.41374430
   0.22718577  0.99767067  0.28975097
   0.26794860  0.99717825  0.41969019
   0.22718577  0.49766954  0.29318964
   0.76854851  0.48120700  0.55047824
   0.21238492  0.98088471  0.54350875
   0.23416393  0.50214576  0.54914449
   0.75068684  0.98227699  0.54364355
   0.72558567  0.08103944  0.61663437
   0.18796857  0.24303587  0.60056355
   0.35446805  0.48738618  0.27144965
   0.25816528  0.46508405  0.57468882
   0.67210036  0.15169046  0.63827870
   0.06527126  0.19616555  0.61710385
Direct configuration=   451
   0.00058986  0.24767071  0.29147031
   0.49305682  0.74618241  0.41681489
   0.49287760  0.24680768  0.41657001
   0.00058986  0.74767011  0.29147031
   0.75058982  0.49766954  0.35292815
   0.74014450  0.99851545  0.48194935
   0.25059042  0.49766954  0.35292815
   0.23989317  0.99725680  0.48291138
   0.99618298  0.99740097  0.38536662
   0.51480552  0.49912326  0.51344919
   0.99557869  0.49257668  0.44950258
   0.50058925  0.99767067  0.32219910
   0.98408324  0.22484014  0.55268215
   0.98102294  0.73489357  0.54372353
   0.47592231  0.04707091  0.58166690
   0.99038892  0.22367097  0.48489650
   0.50058925  0.72426545  0.35464748
   0.50058925  0.27107537  0.35464748
   0.98856911  0.76399622  0.48536542
   0.77399447  0.49766954  0.29318964
   0.72319361  0.99783771  0.42032196
   0.48906062  0.22687155  0.47908818
   0.00058986  0.72426545  0.35120881
   0.00058986  0.27107537  0.35120881
   0.48993357  0.76903841  0.47874717
   0.72156498  0.49608267  0.41471440
   0.77399447  0.99767067  0.28975097
   0.26487751  0.49615401  0.41374430
   0.22718577  0.99767067  0.28975097
   0.26794860  0.99717825  0.41969019
   0.22718577  0.49766954  0.29318964
   0.76854851  0.48120700  0.55047824
   0.21238492  0.98088471  0.54350875
   0.23416393  0.50214576  0.54914449
   0.75068684  0.98227699  0.54364355
   0.72558567  0.08103944  0.61663437
   0.18796857  0.24303587  0.60056355
   0.35446805  0.48738618  0.27144965
   0.25816528  0.46508405  0.57468882
   0.67210036  0.15169046  0.63827870
   0.06527126  0.19616555  0.61710385
Direct configuration=   452
   0.00058986  0.24767071  0.29147031
   0.49305682  0.74618241  0.41681489
   0.49287760  0.24680768  0.41657001
   0.00058986  0.74767011  0.29147031
   0.75058982  0.49766954  0.35292815
   0.74014450  0.99851545  0.48194935
   0.25059042  0.49766954  0.35292815
   0.23989317  0.99725680  0.48291138
   0.99618298  0.99740097  0.38536662
   0.51480552  0.49912326  0.51344919
   0.99557869  0.49257668  0.44950258
   0.50058925  0.99767067  0.32219910
   0.98408324  0.22484014  0.55268215
   0.98102294  0.73489357  0.54372353
   0.47592231  0.04707091  0.58166690
   0.99038892  0.22367097  0.48489650
   0.50058925  0.72426545  0.35464748
   0.50058925  0.27107537  0.35464748
   0.98856911  0.76399622  0.48536542
   0.77399447  0.49766954  0.29318964
   0.72319361  0.99783771  0.42032196
   0.48906062  0.22687155  0.47908818
   0.00058986  0.72426545  0.35120881
   0.00058986  0.27107537  0.35120881
   0.48993357  0.76903841  0.47874717
   0.72156498  0.49608267  0.41471440
   0.77399447  0.99767067  0.28975097
   0.26487751  0.49615401  0.41374430
   0.22718577  0.99767067  0.28975097
   0.26794860  0.99717825  0.41969019
   0.22718577  0.49766954  0.29318964
   0.76854851  0.48120700  0.55047824
   0.21238492  0.98088471  0.54350875
   0.23416393  0.50214576  0.54914449
   0.75068684  0.98227699  0.54364355
   0.72558567  0.08103944  0.61663437
   0.18796857  0.24303587  0.60056355
   0.35446805  0.48738618  0.27144965
   0.25816528  0.46508405  0.57468882
   0.67210036  0.15169046  0.63827870
   0.06527126  0.19616555  0.61710385
Direct configuration=   453
   0.00058986  0.24767071  0.29147031
   0.49305682  0.74618241  0.41681489
   0.49287760  0.24680768  0.41657001
   0.00058986  0.74767011  0.29147031
   0.75058982  0.49766954  0.35292815
   0.74014450  0.99851545  0.48194935
   0.25059042  0.49766954  0.35292815
   0.23989317  0.99725680  0.48291138
   0.99618298  0.99740097  0.38536662
   0.51480552  0.49912326  0.51344919
   0.99557869  0.49257668  0.44950258
   0.50058925  0.99767067  0.32219910
   0.98408324  0.22484014  0.55268215
   0.98102294  0.73489357  0.54372353
   0.47592231  0.04707091  0.58166690
   0.99038892  0.22367097  0.48489650
   0.50058925  0.72426545  0.35464748
   0.50058925  0.27107537  0.35464748
   0.98856911  0.76399622  0.48536542
   0.77399447  0.49766954  0.29318964
   0.72319361  0.99783771  0.42032196
   0.48906062  0.22687155  0.47908818
   0.00058986  0.72426545  0.35120881
   0.00058986  0.27107537  0.35120881
   0.48993357  0.76903841  0.47874717
   0.72156498  0.49608267  0.41471440
   0.77399447  0.99767067  0.28975097
   0.26487751  0.49615401  0.41374430
   0.22718577  0.99767067  0.28975097
   0.26794860  0.99717825  0.41969019
   0.22718577  0.49766954  0.29318964
   0.76854851  0.48120700  0.55047824
   0.21238492  0.98088471  0.54350875
   0.23416393  0.50214576  0.54914449
   0.75068684  0.98227699  0.54364355
   0.72558567  0.08103944  0.61663437
   0.18796857  0.24303587  0.60056355
   0.35446805  0.48738618  0.27144965
   0.25816528  0.46508405  0.57468882
   0.67210036  0.15169046  0.63827870
   0.06527126  0.19616555  0.61710385
Direct configuration=   454
   0.00058986  0.24767071  0.29147031
   0.49305682  0.74618241  0.41681489
   0.49287760  0.24680768  0.41657001
   0.00058986  0.74767011  0.29147031
   0.75058982  0.49766954  0.35292815
   0.74014450  0.99851545  0.48194935
   0.25059042  0.49766954  0.35292815
   0.23989317  0.99725680  0.48291138
   0.99618298  0.99740097  0.38536662
   0.51480552  0.49912326  0.51344919
   0.99557869  0.49257668  0.44950258
   0.50058925  0.99767067  0.32219910
   0.98408324  0.22484014  0.55268215
   0.98102294  0.73489357  0.54372353
   0.47592231  0.04707091  0.58166690
   0.99038892  0.22367097  0.48489650
   0.50058925  0.72426545  0.35464748
   0.50058925  0.27107537  0.35464748
   0.98856911  0.76399622  0.48536542
   0.77399447  0.49766954  0.29318964
   0.72319361  0.99783771  0.42032196
   0.48906062  0.22687155  0.47908818
   0.00058986  0.72426545  0.35120881
   0.00058986  0.27107537  0.35120881
   0.48993357  0.76903841  0.47874717
   0.72156498  0.49608267  0.41471440
   0.77399447  0.99767067  0.28975097
   0.26487751  0.49615401  0.41374430
   0.22718577  0.99767067  0.28975097
   0.26794860  0.99717825  0.41969019
   0.22718577  0.49766954  0.29318964
   0.76854851  0.48120700  0.55047824
   0.21238492  0.98088471  0.54350875
   0.23416393  0.50214576  0.54914449
   0.75068684  0.98227699  0.54364355
   0.72558567  0.08103944  0.61663437
   0.18796857  0.24303587  0.60056355
   0.35446805  0.48738618  0.27144965
   0.25816528  0.46508405  0.57468882
   0.67210036  0.15169046  0.63827870
   0.06527126  0.19616555  0.61710385
Direct configuration=   455
   0.00058986  0.24767071  0.29147031
   0.49305682  0.74618241  0.41681489
   0.49287760  0.24680768  0.41657001
   0.00058986  0.74767011  0.29147031
   0.75058982  0.49766954  0.35292815
   0.74014450  0.99851545  0.48194935
   0.25059042  0.49766954  0.35292815
   0.23989317  0.99725680  0.48291138
   0.99618298  0.99740097  0.38536662
   0.51480552  0.49912326  0.51344919
   0.99557869  0.49257668  0.44950258
   0.50058925  0.99767067  0.32219910
   0.98408324  0.22484014  0.55268215
   0.98102294  0.73489357  0.54372353
   0.47592231  0.04707091  0.58166690
   0.99038892  0.22367097  0.48489650
   0.50058925  0.72426545  0.35464748
   0.50058925  0.27107537  0.35464748
   0.98856911  0.76399622  0.48536542
   0.77399447  0.49766954  0.29318964
   0.72319361  0.99783771  0.42032196
   0.48906062  0.22687155  0.47908818
   0.00058986  0.72426545  0.35120881
   0.00058986  0.27107537  0.35120881
   0.48993357  0.76903841  0.47874717
   0.72156498  0.49608267  0.41471440
   0.77399447  0.99767067  0.28975097
   0.26487751  0.49615401  0.41374430
   0.22718577  0.99767067  0.28975097
   0.26794860  0.99717825  0.41969019
   0.22718577  0.49766954  0.29318964
   0.76854851  0.48120700  0.55047824
   0.21238492  0.98088471  0.54350875
   0.23416393  0.50214576  0.54914449
   0.75068684  0.98227699  0.54364355
   0.72558567  0.08103944  0.61663437
   0.18796857  0.24303587  0.60056355
   0.35446805  0.48738618  0.27144965
   0.25816528  0.46508405  0.57468882
   0.67210036  0.15169046  0.63827870
   0.06527126  0.19616555  0.61710385
Direct configuration=   456
   0.00058986  0.24767071  0.29147031
   0.49305682  0.74618241  0.41681489
   0.49287760  0.24680768  0.41657001
   0.00058986  0.74767011  0.29147031
   0.75058982  0.49766954  0.35292815
   0.74014450  0.99851545  0.48194935
   0.25059042  0.49766954  0.35292815
   0.23989317  0.99725680  0.48291138
   0.99618298  0.99740097  0.38536662
   0.51480552  0.49912326  0.51344919
   0.99557869  0.49257668  0.44950258
   0.50058925  0.99767067  0.32219910
   0.98408324  0.22484014  0.55268215
   0.98102294  0.73489357  0.54372353
   0.47592231  0.04707091  0.58166690
   0.99038892  0.22367097  0.48489650
   0.50058925  0.72426545  0.35464748
   0.50058925  0.27107537  0.35464748
   0.98856911  0.76399622  0.48536542
   0.77399447  0.49766954  0.29318964
   0.72319361  0.99783771  0.42032196
   0.48906062  0.22687155  0.47908818
   0.00058986  0.72426545  0.35120881
   0.00058986  0.27107537  0.35120881
   0.48993357  0.76903841  0.47874717
   0.72156498  0.49608267  0.41471440
   0.77399447  0.99767067  0.28975097
   0.26487751  0.49615401  0.41374430
   0.22718577  0.99767067  0.28975097
   0.26794860  0.99717825  0.41969019
   0.22718577  0.49766954  0.29318964
   0.76854851  0.48120700  0.55047824
   0.21238492  0.98088471  0.54350875
   0.23416393  0.50214576  0.54914449
   0.75068684  0.98227699  0.54364355
   0.72558567  0.08103944  0.61663437
   0.18796857  0.24303587  0.60056355
   0.35446805  0.48738618  0.27144965
   0.25816528  0.46508405  0.57468882
   0.67210036  0.15169046  0.63827870
   0.06527126  0.19616555  0.61710385
Direct configuration=   457
   0.00058986  0.24767071  0.29147031
   0.49305682  0.74618241  0.41681489
   0.49287760  0.24680768  0.41657001
   0.00058986  0.74767011  0.29147031
   0.75058982  0.49766954  0.35292815
   0.74014450  0.99851545  0.48194935
   0.25059042  0.49766954  0.35292815
   0.23989317  0.99725680  0.48291138
   0.99618298  0.99740097  0.38536662
   0.51480552  0.49912326  0.51344919
   0.99557869  0.49257668  0.44950258
   0.50058925  0.99767067  0.32219910
   0.98408324  0.22484014  0.55268215
   0.98102294  0.73489357  0.54372353
   0.47592231  0.04707091  0.58166690
   0.99038892  0.22367097  0.48489650
   0.50058925  0.72426545  0.35464748
   0.50058925  0.27107537  0.35464748
   0.98856911  0.76399622  0.48536542
   0.77399447  0.49766954  0.29318964
   0.72319361  0.99783771  0.42032196
   0.48906062  0.22687155  0.47908818
   0.00058986  0.72426545  0.35120881
   0.00058986  0.27107537  0.35120881
   0.48993357  0.76903841  0.47874717
   0.72156498  0.49608267  0.41471440
   0.77399447  0.99767067  0.28975097
   0.26487751  0.49615401  0.41374430
   0.22718577  0.99767067  0.28975097
   0.26794860  0.99717825  0.41969019
   0.22718577  0.49766954  0.29318964
   0.76854851  0.48120700  0.55047824
   0.21238492  0.98088471  0.54350875
   0.23416393  0.50214576  0.54914449
   0.75068684  0.98227699  0.54364355
   0.72558567  0.08103944  0.61663437
   0.18796857  0.24303587  0.60056355
   0.35446805  0.48738618  0.27144965
   0.25816528  0.46508405  0.57468882
   0.67210036  0.15169046  0.63827870
   0.06527126  0.19616555  0.61710385
Direct configuration=   458
   0.00058986  0.24767071  0.29147031
   0.49305682  0.74618241  0.41681489
   0.49287760  0.24680768  0.41657001
   0.00058986  0.74767011  0.29147031
   0.75058982  0.49766954  0.35292815
   0.74014450  0.99851545  0.48194935
   0.25059042  0.49766954  0.35292815
   0.23989317  0.99725680  0.48291138
   0.99618298  0.99740097  0.38536662
   0.51480552  0.49912326  0.51344919
   0.99557869  0.49257668  0.44950258
   0.50058925  0.99767067  0.32219910
   0.98408324  0.22484014  0.55268215
   0.98102294  0.73489357  0.54372353
   0.47592231  0.04707091  0.58166690
   0.99038892  0.22367097  0.48489650
   0.50058925  0.72426545  0.35464748
   0.50058925  0.27107537  0.35464748
   0.98856911  0.76399622  0.48536542
   0.77399447  0.49766954  0.29318964
   0.72319361  0.99783771  0.42032196
   0.48906062  0.22687155  0.47908818
   0.00058986  0.72426545  0.35120881
   0.00058986  0.27107537  0.35120881
   0.48993357  0.76903841  0.47874717
   0.72156498  0.49608267  0.41471440
   0.77399447  0.99767067  0.28975097
   0.26487751  0.49615401  0.41374430
   0.22718577  0.99767067  0.28975097
   0.26794860  0.99717825  0.41969019
   0.22718577  0.49766954  0.29318964
   0.76854851  0.48120700  0.55047824
   0.21238492  0.98088471  0.54350875
   0.23416393  0.50214576  0.54914449
   0.75068684  0.98227699  0.54364355
   0.72558567  0.08103944  0.61663437
   0.18796857  0.24303587  0.60056355
   0.35446805  0.48738618  0.27144965
   0.25816528  0.46508405  0.57468882
   0.67210036  0.15169046  0.63827870
   0.06527126  0.19616555  0.61710385
Direct configuration=   459
   0.00058986  0.24767071  0.29147031
   0.49305682  0.74618241  0.41681489
   0.49287760  0.24680768  0.41657001
   0.00058986  0.74767011  0.29147031
   0.75058982  0.49766954  0.35292815
   0.74014450  0.99851545  0.48194935
   0.25059042  0.49766954  0.35292815
   0.23989317  0.99725680  0.48291138
   0.99618298  0.99740097  0.38536662
   0.51480552  0.49912326  0.51344919
   0.99557869  0.49257668  0.44950258
   0.50058925  0.99767067  0.32219910
   0.98408324  0.22484014  0.55268215
   0.98102294  0.73489357  0.54372353
   0.47592231  0.04707091  0.58166690
   0.99038892  0.22367097  0.48489650
   0.50058925  0.72426545  0.35464748
   0.50058925  0.27107537  0.35464748
   0.98856911  0.76399622  0.48536542
   0.77399447  0.49766954  0.29318964
   0.72319361  0.99783771  0.42032196
   0.48906062  0.22687155  0.47908818
   0.00058986  0.72426545  0.35120881
   0.00058986  0.27107537  0.35120881
   0.48993357  0.76903841  0.47874717
   0.72156498  0.49608267  0.41471440
   0.77399447  0.99767067  0.28975097
   0.26487751  0.49615401  0.41374430
   0.22718577  0.99767067  0.28975097
   0.26794860  0.99717825  0.41969019
   0.22718577  0.49766954  0.29318964
   0.76854851  0.48120700  0.55047824
   0.21238492  0.98088471  0.54350875
   0.23416393  0.50214576  0.54914449
   0.75068684  0.98227699  0.54364355
   0.72558567  0.08103944  0.61663437
   0.18796857  0.24303587  0.60056355
   0.35446805  0.48738618  0.27144965
   0.25816528  0.46508405  0.57468882
   0.67210036  0.15169046  0.63827870
   0.06527126  0.19616555  0.61710385
Direct configuration=   460
   0.00058986  0.24767071  0.29147031
   0.49305682  0.74618241  0.41681489
   0.49287760  0.24680768  0.41657001
   0.00058986  0.74767011  0.29147031
   0.75058982  0.49766954  0.35292815
   0.74014450  0.99851545  0.48194935
   0.25059042  0.49766954  0.35292815
   0.23989317  0.99725680  0.48291138
   0.99618298  0.99740097  0.38536662
   0.51480552  0.49912326  0.51344919
   0.99557869  0.49257668  0.44950258
   0.50058925  0.99767067  0.32219910
   0.98408324  0.22484014  0.55268215
   0.98102294  0.73489357  0.54372353
   0.47592231  0.04707091  0.58166690
   0.99038892  0.22367097  0.48489650
   0.50058925  0.72426545  0.35464748
   0.50058925  0.27107537  0.35464748
   0.98856911  0.76399622  0.48536542
   0.77399447  0.49766954  0.29318964
   0.72319361  0.99783771  0.42032196
   0.48906062  0.22687155  0.47908818
   0.00058986  0.72426545  0.35120881
   0.00058986  0.27107537  0.35120881
   0.48993357  0.76903841  0.47874717
   0.72156498  0.49608267  0.41471440
   0.77399447  0.99767067  0.28975097
   0.26487751  0.49615401  0.41374430
   0.22718577  0.99767067  0.28975097
   0.26794860  0.99717825  0.41969019
   0.22718577  0.49766954  0.29318964
   0.76854851  0.48120700  0.55047824
   0.21238492  0.98088471  0.54350875
   0.23416393  0.50214576  0.54914449
   0.75068684  0.98227699  0.54364355
   0.72558567  0.08103944  0.61663437
   0.18796857  0.24303587  0.60056355
   0.35446805  0.48738618  0.27144965
   0.25816528  0.46508405  0.57468882
   0.67210036  0.15169046  0.63827870
   0.06527126  0.19616555  0.61710385
Direct configuration=   461
   0.00058986  0.24767071  0.29147031
   0.49305682  0.74618241  0.41681489
   0.49287760  0.24680768  0.41657001
   0.00058986  0.74767011  0.29147031
   0.75058982  0.49766954  0.35292815
   0.74014450  0.99851545  0.48194935
   0.25059042  0.49766954  0.35292815
   0.23989317  0.99725680  0.48291138
   0.99618298  0.99740097  0.38536662
   0.51480552  0.49912326  0.51344919
   0.99557869  0.49257668  0.44950258
   0.50058925  0.99767067  0.32219910
   0.98408324  0.22484014  0.55268215
   0.98102294  0.73489357  0.54372353
   0.47592231  0.04707091  0.58166690
   0.99038892  0.22367097  0.48489650
   0.50058925  0.72426545  0.35464748
   0.50058925  0.27107537  0.35464748
   0.98856911  0.76399622  0.48536542
   0.77399447  0.49766954  0.29318964
   0.72319361  0.99783771  0.42032196
   0.48906062  0.22687155  0.47908818
   0.00058986  0.72426545  0.35120881
   0.00058986  0.27107537  0.35120881
   0.48993357  0.76903841  0.47874717
   0.72156498  0.49608267  0.41471440
   0.77399447  0.99767067  0.28975097
   0.26487751  0.49615401  0.41374430
   0.22718577  0.99767067  0.28975097
   0.26794860  0.99717825  0.41969019
   0.22718577  0.49766954  0.29318964
   0.76854851  0.48120700  0.55047824
   0.21238492  0.98088471  0.54350875
   0.23416393  0.50214576  0.54914449
   0.75068684  0.98227699  0.54364355
   0.72558567  0.08103944  0.61663437
   0.18796857  0.24303587  0.60056355
   0.35446805  0.48738618  0.27144965
   0.25816528  0.46508405  0.57468882
   0.67210036  0.15169046  0.63827870
   0.06527126  0.19616555  0.61710385
Direct configuration=   462
   0.00058986  0.24767071  0.29147031
   0.49305682  0.74618241  0.41681489
   0.49287760  0.24680768  0.41657001
   0.00058986  0.74767011  0.29147031
   0.75058982  0.49766954  0.35292815
   0.74014450  0.99851545  0.48194935
   0.25059042  0.49766954  0.35292815
   0.23989317  0.99725680  0.48291138
   0.99618298  0.99740097  0.38536662
   0.51480552  0.49912326  0.51344919
   0.99557869  0.49257668  0.44950258
   0.50058925  0.99767067  0.32219910
   0.98408324  0.22484014  0.55268215
   0.98102294  0.73489357  0.54372353
   0.47592231  0.04707091  0.58166690
   0.99038892  0.22367097  0.48489650
   0.50058925  0.72426545  0.35464748
   0.50058925  0.27107537  0.35464748
   0.98856911  0.76399622  0.48536542
   0.77399447  0.49766954  0.29318964
   0.72319361  0.99783771  0.42032196
   0.48906062  0.22687155  0.47908818
   0.00058986  0.72426545  0.35120881
   0.00058986  0.27107537  0.35120881
   0.48993357  0.76903841  0.47874717
   0.72156498  0.49608267  0.41471440
   0.77399447  0.99767067  0.28975097
   0.26487751  0.49615401  0.41374430
   0.22718577  0.99767067  0.28975097
   0.26794860  0.99717825  0.41969019
   0.22718577  0.49766954  0.29318964
   0.76854851  0.48120700  0.55047824
   0.21238492  0.98088471  0.54350875
   0.23416393  0.50214576  0.54914449
   0.75068684  0.98227699  0.54364355
   0.72558567  0.08103944  0.61663437
   0.18796857  0.24303587  0.60056355
   0.35446805  0.48738618  0.27144965
   0.25816528  0.46508405  0.57468882
   0.67210036  0.15169046  0.63827870
   0.06527126  0.19616555  0.61710385
Direct configuration=   463
   0.00058986  0.24767071  0.29147031
   0.49305682  0.74618241  0.41681489
   0.49287760  0.24680768  0.41657001
   0.00058986  0.74767011  0.29147031
   0.75058982  0.49766954  0.35292815
   0.74014450  0.99851545  0.48194935
   0.25059042  0.49766954  0.35292815
   0.23989317  0.99725680  0.48291138
   0.99618298  0.99740097  0.38536662
   0.51480552  0.49912326  0.51344919
   0.99557869  0.49257668  0.44950258
   0.50058925  0.99767067  0.32219910
   0.98408324  0.22484014  0.55268215
   0.98102294  0.73489357  0.54372353
   0.47592231  0.04707091  0.58166690
   0.99038892  0.22367097  0.48489650
   0.50058925  0.72426545  0.35464748
   0.50058925  0.27107537  0.35464748
   0.98856911  0.76399622  0.48536542
   0.77399447  0.49766954  0.29318964
   0.72319361  0.99783771  0.42032196
   0.48906062  0.22687155  0.47908818
   0.00058986  0.72426545  0.35120881
   0.00058986  0.27107537  0.35120881
   0.48993357  0.76903841  0.47874717
   0.72156498  0.49608267  0.41471440
   0.77399447  0.99767067  0.28975097
   0.26487751  0.49615401  0.41374430
   0.22718577  0.99767067  0.28975097
   0.26794860  0.99717825  0.41969019
   0.22718577  0.49766954  0.29318964
   0.76854851  0.48120700  0.55047824
   0.21238492  0.98088471  0.54350875
   0.23416393  0.50214576  0.54914449
   0.75068684  0.98227699  0.54364355
   0.72558567  0.08103944  0.61663437
   0.18796857  0.24303587  0.60056355
   0.35446805  0.48738618  0.27144965
   0.25816528  0.46508405  0.57468882
   0.67210036  0.15169046  0.63827870
   0.06527126  0.19616555  0.61710385
Direct configuration=   464
   0.00058986  0.24767071  0.29147031
   0.49305682  0.74618241  0.41681489
   0.49287760  0.24680768  0.41657001
   0.00058986  0.74767011  0.29147031
   0.75058982  0.49766954  0.35292815
   0.74014450  0.99851545  0.48194935
   0.25059042  0.49766954  0.35292815
   0.23989317  0.99725680  0.48291138
   0.99618298  0.99740097  0.38536662
   0.51480552  0.49912326  0.51344919
   0.99557869  0.49257668  0.44950258
   0.50058925  0.99767067  0.32219910
   0.98408324  0.22484014  0.55268215
   0.98102294  0.73489357  0.54372353
   0.47592231  0.04707091  0.58166690
   0.99038892  0.22367097  0.48489650
   0.50058925  0.72426545  0.35464748
   0.50058925  0.27107537  0.35464748
   0.98856911  0.76399622  0.48536542
   0.77399447  0.49766954  0.29318964
   0.72319361  0.99783771  0.42032196
   0.48906062  0.22687155  0.47908818
   0.00058986  0.72426545  0.35120881
   0.00058986  0.27107537  0.35120881
   0.48993357  0.76903841  0.47874717
   0.72156498  0.49608267  0.41471440
   0.77399447  0.99767067  0.28975097
   0.26487751  0.49615401  0.41374430
   0.22718577  0.99767067  0.28975097
   0.26794860  0.99717825  0.41969019
   0.22718577  0.49766954  0.29318964
   0.76854851  0.48120700  0.55047824
   0.21238492  0.98088471  0.54350875
   0.23416393  0.50214576  0.54914449
   0.75068684  0.98227699  0.54364355
   0.72558567  0.08103944  0.61663437
   0.18796857  0.24303587  0.60056355
   0.35446805  0.48738618  0.27144965
   0.25816528  0.46508405  0.57468882
   0.67210036  0.15169046  0.63827870
   0.06527126  0.19616555  0.61710385
Direct configuration=   465
   0.00058986  0.24767071  0.29147031
   0.49305682  0.74618241  0.41681489
   0.49287760  0.24680768  0.41657001
   0.00058986  0.74767011  0.29147031
   0.75058982  0.49766954  0.35292815
   0.74014450  0.99851545  0.48194935
   0.25059042  0.49766954  0.35292815
   0.23989317  0.99725680  0.48291138
   0.99618298  0.99740097  0.38536662
   0.51480552  0.49912326  0.51344919
   0.99557869  0.49257668  0.44950258
   0.50058925  0.99767067  0.32219910
   0.98408324  0.22484014  0.55268215
   0.98102294  0.73489357  0.54372353
   0.47592231  0.04707091  0.58166690
   0.99038892  0.22367097  0.48489650
   0.50058925  0.72426545  0.35464748
   0.50058925  0.27107537  0.35464748
   0.98856911  0.76399622  0.48536542
   0.77399447  0.49766954  0.29318964
   0.72319361  0.99783771  0.42032196
   0.48906062  0.22687155  0.47908818
   0.00058986  0.72426545  0.35120881
   0.00058986  0.27107537  0.35120881
   0.48993357  0.76903841  0.47874717
   0.72156498  0.49608267  0.41471440
   0.77399447  0.99767067  0.28975097
   0.26487751  0.49615401  0.41374430
   0.22718577  0.99767067  0.28975097
   0.26794860  0.99717825  0.41969019
   0.22718577  0.49766954  0.29318964
   0.76854851  0.48120700  0.55047824
   0.21238492  0.98088471  0.54350875
   0.23416393  0.50214576  0.54914449
   0.75068684  0.98227699  0.54364355
   0.72558567  0.08103944  0.61663437
   0.18796857  0.24303587  0.60056355
   0.35446805  0.48738618  0.27144965
   0.25816528  0.46508405  0.57468882
   0.67210036  0.15169046  0.63827870
   0.06527126  0.19616555  0.61710385
Direct configuration=   466
   0.00058986  0.24767071  0.29147031
   0.49305682  0.74618241  0.41681489
   0.49287760  0.24680768  0.41657001
   0.00058986  0.74767011  0.29147031
   0.75058982  0.49766954  0.35292815
   0.74014450  0.99851545  0.48194935
   0.25059042  0.49766954  0.35292815
   0.23989317  0.99725680  0.48291138
   0.99618298  0.99740097  0.38536662
   0.51480552  0.49912326  0.51344919
   0.99557869  0.49257668  0.44950258
   0.50058925  0.99767067  0.32219910
   0.98408324  0.22484014  0.55268215
   0.98102294  0.73489357  0.54372353
   0.47592231  0.04707091  0.58166690
   0.99038892  0.22367097  0.48489650
   0.50058925  0.72426545  0.35464748
   0.50058925  0.27107537  0.35464748
   0.98856911  0.76399622  0.48536542
   0.77399447  0.49766954  0.29318964
   0.72319361  0.99783771  0.42032196
   0.48906062  0.22687155  0.47908818
   0.00058986  0.72426545  0.35120881
   0.00058986  0.27107537  0.35120881
   0.48993357  0.76903841  0.47874717
   0.72156498  0.49608267  0.41471440
   0.77399447  0.99767067  0.28975097
   0.26487751  0.49615401  0.41374430
   0.22718577  0.99767067  0.28975097
   0.26794860  0.99717825  0.41969019
   0.22718577  0.49766954  0.29318964
   0.76854851  0.48120700  0.55047824
   0.21238492  0.98088471  0.54350875
   0.23416393  0.50214576  0.54914449
   0.75068684  0.98227699  0.54364355
   0.72558567  0.08103944  0.61663437
   0.18796857  0.24303587  0.60056355
   0.35446805  0.48738618  0.27144965
   0.25816528  0.46508405  0.57468882
   0.67210036  0.15169046  0.63827870
   0.06527126  0.19616555  0.61710385
Direct configuration=   467
   0.00058986  0.24767071  0.29147031
   0.49305682  0.74618241  0.41681489
   0.49287760  0.24680768  0.41657001
   0.00058986  0.74767011  0.29147031
   0.75058982  0.49766954  0.35292815
   0.74014450  0.99851545  0.48194935
   0.25059042  0.49766954  0.35292815
   0.23989317  0.99725680  0.48291138
   0.99618298  0.99740097  0.38536662
   0.51480552  0.49912326  0.51344919
   0.99557869  0.49257668  0.44950258
   0.50058925  0.99767067  0.32219910
   0.98408324  0.22484014  0.55268215
   0.98102294  0.73489357  0.54372353
   0.47592231  0.04707091  0.58166690
   0.99038892  0.22367097  0.48489650
   0.50058925  0.72426545  0.35464748
   0.50058925  0.27107537  0.35464748
   0.98856911  0.76399622  0.48536542
   0.77399447  0.49766954  0.29318964
   0.72319361  0.99783771  0.42032196
   0.48906062  0.22687155  0.47908818
   0.00058986  0.72426545  0.35120881
   0.00058986  0.27107537  0.35120881
   0.48993357  0.76903841  0.47874717
   0.72156498  0.49608267  0.41471440
   0.77399447  0.99767067  0.28975097
   0.26487751  0.49615401  0.41374430
   0.22718577  0.99767067  0.28975097
   0.26794860  0.99717825  0.41969019
   0.22718577  0.49766954  0.29318964
   0.76854851  0.48120700  0.55047824
   0.21238492  0.98088471  0.54350875
   0.23416393  0.50214576  0.54914449
   0.75068684  0.98227699  0.54364355
   0.72558567  0.08103944  0.61663437
   0.18796857  0.24303587  0.60056355
   0.35446805  0.48738618  0.27144965
   0.25816528  0.46508405  0.57468882
   0.67210036  0.15169046  0.63827870
   0.06527126  0.19616555  0.61710385
Direct configuration=   468
   0.00058986  0.24767071  0.29147031
   0.49305682  0.74618241  0.41681489
   0.49287760  0.24680768  0.41657001
   0.00058986  0.74767011  0.29147031
   0.75058982  0.49766954  0.35292815
   0.74014450  0.99851545  0.48194935
   0.25059042  0.49766954  0.35292815
   0.23989317  0.99725680  0.48291138
   0.99618298  0.99740097  0.38536662
   0.51480552  0.49912326  0.51344919
   0.99557869  0.49257668  0.44950258
   0.50058925  0.99767067  0.32219910
   0.98408324  0.22484014  0.55268215
   0.98102294  0.73489357  0.54372353
   0.47592231  0.04707091  0.58166690
   0.99038892  0.22367097  0.48489650
   0.50058925  0.72426545  0.35464748
   0.50058925  0.27107537  0.35464748
   0.98856911  0.76399622  0.48536542
   0.77399447  0.49766954  0.29318964
   0.72319361  0.99783771  0.42032196
   0.48906062  0.22687155  0.47908818
   0.00058986  0.72426545  0.35120881
   0.00058986  0.27107537  0.35120881
   0.48993357  0.76903841  0.47874717
   0.72156498  0.49608267  0.41471440
   0.77399447  0.99767067  0.28975097
   0.26487751  0.49615401  0.41374430
   0.22718577  0.99767067  0.28975097
   0.26794860  0.99717825  0.41969019
   0.22718577  0.49766954  0.29318964
   0.76854851  0.48120700  0.55047824
   0.21238492  0.98088471  0.54350875
   0.23416393  0.50214576  0.54914449
   0.75068684  0.98227699  0.54364355
   0.72558567  0.08103944  0.61663437
   0.18796857  0.24303587  0.60056355
   0.35446805  0.48738618  0.27144965
   0.25816528  0.46508405  0.57468882
   0.67210036  0.15169046  0.63827870
   0.06527126  0.19616555  0.61710385
Direct configuration=   469
   0.00058986  0.24767071  0.29147031
   0.49305682  0.74618241  0.41681489
   0.49287760  0.24680768  0.41657001
   0.00058986  0.74767011  0.29147031
   0.75058982  0.49766954  0.35292815
   0.74014450  0.99851545  0.48194935
   0.25059042  0.49766954  0.35292815
   0.23989317  0.99725680  0.48291138
   0.99618298  0.99740097  0.38536662
   0.51480552  0.49912326  0.51344919
   0.99557869  0.49257668  0.44950258
   0.50058925  0.99767067  0.32219910
   0.98408324  0.22484014  0.55268215
   0.98102294  0.73489357  0.54372353
   0.47592231  0.04707091  0.58166690
   0.99038892  0.22367097  0.48489650
   0.50058925  0.72426545  0.35464748
   0.50058925  0.27107537  0.35464748
   0.98856911  0.76399622  0.48536542
   0.77399447  0.49766954  0.29318964
   0.72319361  0.99783771  0.42032196
   0.48906062  0.22687155  0.47908818
   0.00058986  0.72426545  0.35120881
   0.00058986  0.27107537  0.35120881
   0.48993357  0.76903841  0.47874717
   0.72156498  0.49608267  0.41471440
   0.77399447  0.99767067  0.28975097
   0.26487751  0.49615401  0.41374430
   0.22718577  0.99767067  0.28975097
   0.26794860  0.99717825  0.41969019
   0.22718577  0.49766954  0.29318964
   0.76854851  0.48120700  0.55047824
   0.21238492  0.98088471  0.54350875
   0.23416393  0.50214576  0.54914449
   0.75068684  0.98227699  0.54364355
   0.72558567  0.08103944  0.61663437
   0.18796857  0.24303587  0.60056355
   0.35446805  0.48738618  0.27144965
   0.25816528  0.46508405  0.57468882
   0.67210036  0.15169046  0.63827870
   0.06527126  0.19616555  0.61710385
Direct configuration=   470
   0.00058986  0.24767071  0.29147031
   0.49305682  0.74618241  0.41681489
   0.49287760  0.24680768  0.41657001
   0.00058986  0.74767011  0.29147031
   0.75058982  0.49766954  0.35292815
   0.74014450  0.99851545  0.48194935
   0.25059042  0.49766954  0.35292815
   0.23989317  0.99725680  0.48291138
   0.99618298  0.99740097  0.38536662
   0.51480552  0.49912326  0.51344919
   0.99557869  0.49257668  0.44950258
   0.50058925  0.99767067  0.32219910
   0.98408324  0.22484014  0.55268215
   0.98102294  0.73489357  0.54372353
   0.47592231  0.04707091  0.58166690
   0.99038892  0.22367097  0.48489650
   0.50058925  0.72426545  0.35464748
   0.50058925  0.27107537  0.35464748
   0.98856911  0.76399622  0.48536542
   0.77399447  0.49766954  0.29318964
   0.72319361  0.99783771  0.42032196
   0.48906062  0.22687155  0.47908818
   0.00058986  0.72426545  0.35120881
   0.00058986  0.27107537  0.35120881
   0.48993357  0.76903841  0.47874717
   0.72156498  0.49608267  0.41471440
   0.77399447  0.99767067  0.28975097
   0.26487751  0.49615401  0.41374430
   0.22718577  0.99767067  0.28975097
   0.26794860  0.99717825  0.41969019
   0.22718577  0.49766954  0.29318964
   0.76854851  0.48120700  0.55047824
   0.21238492  0.98088471  0.54350875
   0.23416393  0.50214576  0.54914449
   0.75068684  0.98227699  0.54364355
   0.72558567  0.08103944  0.61663437
   0.18796857  0.24303587  0.60056355
   0.35446805  0.48738618  0.27144965
   0.25816528  0.46508405  0.57468882
   0.67210036  0.15169046  0.63827870
   0.06527126  0.19616555  0.61710385
Direct configuration=   471
   0.00058986  0.24767071  0.29147031
   0.49305682  0.74618241  0.41681489
   0.49287760  0.24680768  0.41657001
   0.00058986  0.74767011  0.29147031
   0.75058982  0.49766954  0.35292815
   0.74014450  0.99851545  0.48194935
   0.25059042  0.49766954  0.35292815
   0.23989317  0.99725680  0.48291138
   0.99618298  0.99740097  0.38536662
   0.51480552  0.49912326  0.51344919
   0.99557869  0.49257668  0.44950258
   0.50058925  0.99767067  0.32219910
   0.98408324  0.22484014  0.55268215
   0.98102294  0.73489357  0.54372353
   0.47592231  0.04707091  0.58166690
   0.99038892  0.22367097  0.48489650
   0.50058925  0.72426545  0.35464748
   0.50058925  0.27107537  0.35464748
   0.98856911  0.76399622  0.48536542
   0.77399447  0.49766954  0.29318964
   0.72319361  0.99783771  0.42032196
   0.48906062  0.22687155  0.47908818
   0.00058986  0.72426545  0.35120881
   0.00058986  0.27107537  0.35120881
   0.48993357  0.76903841  0.47874717
   0.72156498  0.49608267  0.41471440
   0.77399447  0.99767067  0.28975097
   0.26487751  0.49615401  0.41374430
   0.22718577  0.99767067  0.28975097
   0.26794860  0.99717825  0.41969019
   0.22718577  0.49766954  0.29318964
   0.76854851  0.48120700  0.55047824
   0.21238492  0.98088471  0.54350875
   0.23416393  0.50214576  0.54914449
   0.75068684  0.98227699  0.54364355
   0.72558567  0.08103944  0.61663437
   0.18796857  0.24303587  0.60056355
   0.35446805  0.48738618  0.27144965
   0.25816528  0.46508405  0.57468882
   0.67210036  0.15169046  0.63827870
   0.06527126  0.19616555  0.61710385
Direct configuration=   472
   0.00058986  0.24767071  0.29147031
   0.49305682  0.74618241  0.41681489
   0.49287760  0.24680768  0.41657001
   0.00058986  0.74767011  0.29147031
   0.75058982  0.49766954  0.35292815
   0.74014450  0.99851545  0.48194935
   0.25059042  0.49766954  0.35292815
   0.23989317  0.99725680  0.48291138
   0.99618298  0.99740097  0.38536662
   0.51480552  0.49912326  0.51344919
   0.99557869  0.49257668  0.44950258
   0.50058925  0.99767067  0.32219910
   0.98408324  0.22484014  0.55268215
   0.98102294  0.73489357  0.54372353
   0.47592231  0.04707091  0.58166690
   0.99038892  0.22367097  0.48489650
   0.50058925  0.72426545  0.35464748
   0.50058925  0.27107537  0.35464748
   0.98856911  0.76399622  0.48536542
   0.77399447  0.49766954  0.29318964
   0.72319361  0.99783771  0.42032196
   0.48906062  0.22687155  0.47908818
   0.00058986  0.72426545  0.35120881
   0.00058986  0.27107537  0.35120881
   0.48993357  0.76903841  0.47874717
   0.72156498  0.49608267  0.41471440
   0.77399447  0.99767067  0.28975097
   0.26487751  0.49615401  0.41374430
   0.22718577  0.99767067  0.28975097
   0.26794860  0.99717825  0.41969019
   0.22718577  0.49766954  0.29318964
   0.76854851  0.48120700  0.55047824
   0.21238492  0.98088471  0.54350875
   0.23416393  0.50214576  0.54914449
   0.75068684  0.98227699  0.54364355
   0.72558567  0.08103944  0.61663437
   0.18796857  0.24303587  0.60056355
   0.35446805  0.48738618  0.27144965
   0.25816528  0.46508405  0.57468882
   0.67210036  0.15169046  0.63827870
   0.06527126  0.19616555  0.61710385
Direct configuration=   473
   0.00058986  0.24767071  0.29147031
   0.49305682  0.74618241  0.41681489
   0.49287760  0.24680768  0.41657001
   0.00058986  0.74767011  0.29147031
   0.75058982  0.49766954  0.35292815
   0.74014450  0.99851545  0.48194935
   0.25059042  0.49766954  0.35292815
   0.23989317  0.99725680  0.48291138
   0.99618298  0.99740097  0.38536662
   0.51480552  0.49912326  0.51344919
   0.99557869  0.49257668  0.44950258
   0.50058925  0.99767067  0.32219910
   0.98408324  0.22484014  0.55268215
   0.98102294  0.73489357  0.54372353
   0.47592231  0.04707091  0.58166690
   0.99038892  0.22367097  0.48489650
   0.50058925  0.72426545  0.35464748
   0.50058925  0.27107537  0.35464748
   0.98856911  0.76399622  0.48536542
   0.77399447  0.49766954  0.29318964
   0.72319361  0.99783771  0.42032196
   0.48906062  0.22687155  0.47908818
   0.00058986  0.72426545  0.35120881
   0.00058986  0.27107537  0.35120881
   0.48993357  0.76903841  0.47874717
   0.72156498  0.49608267  0.41471440
   0.77399447  0.99767067  0.28975097
   0.26487751  0.49615401  0.41374430
   0.22718577  0.99767067  0.28975097
   0.26794860  0.99717825  0.41969019
   0.22718577  0.49766954  0.29318964
   0.76854851  0.48120700  0.55047824
   0.21238492  0.98088471  0.54350875
   0.23416393  0.50214576  0.54914449
   0.75068684  0.98227699  0.54364355
   0.72558567  0.08103944  0.61663437
   0.18796857  0.24303587  0.60056355
   0.35446805  0.48738618  0.27144965
   0.25816528  0.46508405  0.57468882
   0.67210036  0.15169046  0.63827870
   0.06527126  0.19616555  0.61710385
Direct configuration=   474
   0.00058986  0.24767071  0.29147031
   0.49305682  0.74618241  0.41681489
   0.49287760  0.24680768  0.41657001
   0.00058986  0.74767011  0.29147031
   0.75058982  0.49766954  0.35292815
   0.74014450  0.99851545  0.48194935
   0.25059042  0.49766954  0.35292815
   0.23989317  0.99725680  0.48291138
   0.99618298  0.99740097  0.38536662
   0.51480552  0.49912326  0.51344919
   0.99557869  0.49257668  0.44950258
   0.50058925  0.99767067  0.32219910
   0.98408324  0.22484014  0.55268215
   0.98102294  0.73489357  0.54372353
   0.47592231  0.04707091  0.58166690
   0.99038892  0.22367097  0.48489650
   0.50058925  0.72426545  0.35464748
   0.50058925  0.27107537  0.35464748
   0.98856911  0.76399622  0.48536542
   0.77399447  0.49766954  0.29318964
   0.72319361  0.99783771  0.42032196
   0.48906062  0.22687155  0.47908818
   0.00058986  0.72426545  0.35120881
   0.00058986  0.27107537  0.35120881
   0.48993357  0.76903841  0.47874717
   0.72156498  0.49608267  0.41471440
   0.77399447  0.99767067  0.28975097
   0.26487751  0.49615401  0.41374430
   0.22718577  0.99767067  0.28975097
   0.26794860  0.99717825  0.41969019
   0.22718577  0.49766954  0.29318964
   0.76854851  0.48120700  0.55047824
   0.21238492  0.98088471  0.54350875
   0.23416393  0.50214576  0.54914449
   0.75068684  0.98227699  0.54364355
   0.72558567  0.08103944  0.61663437
   0.18796857  0.24303587  0.60056355
   0.35446805  0.48738618  0.27144965
   0.25816528  0.46508405  0.57468882
   0.67210036  0.15169046  0.63827870
   0.06527126  0.19616555  0.61710385
Direct configuration=   475
   0.00058986  0.24767071  0.29147031
   0.49305682  0.74618241  0.41681489
   0.49287760  0.24680768  0.41657001
   0.00058986  0.74767011  0.29147031
   0.75058982  0.49766954  0.35292815
   0.74014450  0.99851545  0.48194935
   0.25059042  0.49766954  0.35292815
   0.23989317  0.99725680  0.48291138
   0.99618298  0.99740097  0.38536662
   0.51480552  0.49912326  0.51344919
   0.99557869  0.49257668  0.44950258
   0.50058925  0.99767067  0.32219910
   0.98408324  0.22484014  0.55268215
   0.98102294  0.73489357  0.54372353
   0.47592231  0.04707091  0.58166690
   0.99038892  0.22367097  0.48489650
   0.50058925  0.72426545  0.35464748
   0.50058925  0.27107537  0.35464748
   0.98856911  0.76399622  0.48536542
   0.77399447  0.49766954  0.29318964
   0.72319361  0.99783771  0.42032196
   0.48906062  0.22687155  0.47908818
   0.00058986  0.72426545  0.35120881
   0.00058986  0.27107537  0.35120881
   0.48993357  0.76903841  0.47874717
   0.72156498  0.49608267  0.41471440
   0.77399447  0.99767067  0.28975097
   0.26487751  0.49615401  0.41374430
   0.22718577  0.99767067  0.28975097
   0.26794860  0.99717825  0.41969019
   0.22718577  0.49766954  0.29318964
   0.76854851  0.48120700  0.55047824
   0.21238492  0.98088471  0.54350875
   0.23416393  0.50214576  0.54914449
   0.75068684  0.98227699  0.54364355
   0.72558567  0.08103944  0.61663437
   0.18796857  0.24303587  0.60056355
   0.35446805  0.48738618  0.27144965
   0.25816528  0.46508405  0.57468882
   0.67210036  0.15169046  0.63827870
   0.06527126  0.19616555  0.61710385
Direct configuration=   476
   0.00058986  0.24767071  0.29147031
   0.49305682  0.74618241  0.41681489
   0.49287760  0.24680768  0.41657001
   0.00058986  0.74767011  0.29147031
   0.75058982  0.49766954  0.35292815
   0.74014450  0.99851545  0.48194935
   0.25059042  0.49766954  0.35292815
   0.23989317  0.99725680  0.48291138
   0.99618298  0.99740097  0.38536662
   0.51480552  0.49912326  0.51344919
   0.99557869  0.49257668  0.44950258
   0.50058925  0.99767067  0.32219910
   0.98408324  0.22484014  0.55268215
   0.98102294  0.73489357  0.54372353
   0.47592231  0.04707091  0.58166690
   0.99038892  0.22367097  0.48489650
   0.50058925  0.72426545  0.35464748
   0.50058925  0.27107537  0.35464748
   0.98856911  0.76399622  0.48536542
   0.77399447  0.49766954  0.29318964
   0.72319361  0.99783771  0.42032196
   0.48906062  0.22687155  0.47908818
   0.00058986  0.72426545  0.35120881
   0.00058986  0.27107537  0.35120881
   0.48993357  0.76903841  0.47874717
   0.72156498  0.49608267  0.41471440
   0.77399447  0.99767067  0.28975097
   0.26487751  0.49615401  0.41374430
   0.22718577  0.99767067  0.28975097
   0.26794860  0.99717825  0.41969019
   0.22718577  0.49766954  0.29318964
   0.76854851  0.48120700  0.55047824
   0.21238492  0.98088471  0.54350875
   0.23416393  0.50214576  0.54914449
   0.75068684  0.98227699  0.54364355
   0.72558567  0.08103944  0.61663437
   0.18796857  0.24303587  0.60056355
   0.35446805  0.48738618  0.27144965
   0.25816528  0.46508405  0.57468882
   0.67210036  0.15169046  0.63827870
   0.06527126  0.19616555  0.61710385
Direct configuration=   477
   0.00058986  0.24767071  0.29147031
   0.49305682  0.74618241  0.41681489
   0.49287760  0.24680768  0.41657001
   0.00058986  0.74767011  0.29147031
   0.75058982  0.49766954  0.35292815
   0.74014450  0.99851545  0.48194935
   0.25059042  0.49766954  0.35292815
   0.23989317  0.99725680  0.48291138
   0.99618298  0.99740097  0.38536662
   0.51480552  0.49912326  0.51344919
   0.99557869  0.49257668  0.44950258
   0.50058925  0.99767067  0.32219910
   0.98408324  0.22484014  0.55268215
   0.98102294  0.73489357  0.54372353
   0.47592231  0.04707091  0.58166690
   0.99038892  0.22367097  0.48489650
   0.50058925  0.72426545  0.35464748
   0.50058925  0.27107537  0.35464748
   0.98856911  0.76399622  0.48536542
   0.77399447  0.49766954  0.29318964
   0.72319361  0.99783771  0.42032196
   0.48906062  0.22687155  0.47908818
   0.00058986  0.72426545  0.35120881
   0.00058986  0.27107537  0.35120881
   0.48993357  0.76903841  0.47874717
   0.72156498  0.49608267  0.41471440
   0.77399447  0.99767067  0.28975097
   0.26487751  0.49615401  0.41374430
   0.22718577  0.99767067  0.28975097
   0.26794860  0.99717825  0.41969019
   0.22718577  0.49766954  0.29318964
   0.76854851  0.48120700  0.55047824
   0.21238492  0.98088471  0.54350875
   0.23416393  0.50214576  0.54914449
   0.75068684  0.98227699  0.54364355
   0.72558567  0.08103944  0.61663437
   0.18796857  0.24303587  0.60056355
   0.35446805  0.48738618  0.27144965
   0.25816528  0.46508405  0.57468882
   0.67210036  0.15169046  0.63827870
   0.06527126  0.19616555  0.61710385
Direct configuration=   478
   0.00058986  0.24767071  0.29147031
   0.49305682  0.74618241  0.41681489
   0.49287760  0.24680768  0.41657001
   0.00058986  0.74767011  0.29147031
   0.75058982  0.49766954  0.35292815
   0.74014450  0.99851545  0.48194935
   0.25059042  0.49766954  0.35292815
   0.23989317  0.99725680  0.48291138
   0.99618298  0.99740097  0.38536662
   0.51480552  0.49912326  0.51344919
   0.99557869  0.49257668  0.44950258
   0.50058925  0.99767067  0.32219910
   0.98408324  0.22484014  0.55268215
   0.98102294  0.73489357  0.54372353
   0.47592231  0.04707091  0.58166690
   0.99038892  0.22367097  0.48489650
   0.50058925  0.72426545  0.35464748
   0.50058925  0.27107537  0.35464748
   0.98856911  0.76399622  0.48536542
   0.77399447  0.49766954  0.29318964
   0.72319361  0.99783771  0.42032196
   0.48906062  0.22687155  0.47908818
   0.00058986  0.72426545  0.35120881
   0.00058986  0.27107537  0.35120881
   0.48993357  0.76903841  0.47874717
   0.72156498  0.49608267  0.41471440
   0.77399447  0.99767067  0.28975097
   0.26487751  0.49615401  0.41374430
   0.22718577  0.99767067  0.28975097
   0.26794860  0.99717825  0.41969019
   0.22718577  0.49766954  0.29318964
   0.76854851  0.48120700  0.55047824
   0.21238492  0.98088471  0.54350875
   0.23416393  0.50214576  0.54914449
   0.75068684  0.98227699  0.54364355
   0.72558567  0.08103944  0.61663437
   0.18796857  0.24303587  0.60056355
   0.35446805  0.48738618  0.27144965
   0.25816528  0.46508405  0.57468882
   0.67210036  0.15169046  0.63827870
   0.06527126  0.19616555  0.61710385
Direct configuration=   479
   0.00058986  0.24767071  0.29147031
   0.49305682  0.74618241  0.41681489
   0.49287760  0.24680768  0.41657001
   0.00058986  0.74767011  0.29147031
   0.75058982  0.49766954  0.35292815
   0.74014450  0.99851545  0.48194935
   0.25059042  0.49766954  0.35292815
   0.23989317  0.99725680  0.48291138
   0.99618298  0.99740097  0.38536662
   0.51480552  0.49912326  0.51344919
   0.99557869  0.49257668  0.44950258
   0.50058925  0.99767067  0.32219910
   0.98408324  0.22484014  0.55268215
   0.98102294  0.73489357  0.54372353
   0.47592231  0.04707091  0.58166690
   0.99038892  0.22367097  0.48489650
   0.50058925  0.72426545  0.35464748
   0.50058925  0.27107537  0.35464748
   0.98856911  0.76399622  0.48536542
   0.77399447  0.49766954  0.29318964
   0.72319361  0.99783771  0.42032196
   0.48906062  0.22687155  0.47908818
   0.00058986  0.72426545  0.35120881
   0.00058986  0.27107537  0.35120881
   0.48993357  0.76903841  0.47874717
   0.72156498  0.49608267  0.41471440
   0.77399447  0.99767067  0.28975097
   0.26487751  0.49615401  0.41374430
   0.22718577  0.99767067  0.28975097
   0.26794860  0.99717825  0.41969019
   0.22718577  0.49766954  0.29318964
   0.76854851  0.48120700  0.55047824
   0.21238492  0.98088471  0.54350875
   0.23416393  0.50214576  0.54914449
   0.75068684  0.98227699  0.54364355
   0.72558567  0.08103944  0.61663437
   0.18796857  0.24303587  0.60056355
   0.35446805  0.48738618  0.27144965
   0.25816528  0.46508405  0.57468882
   0.67210036  0.15169046  0.63827870
   0.06527126  0.19616555  0.61710385
Direct configuration=   480
   0.00058986  0.24767071  0.29147031
   0.49305682  0.74618241  0.41681489
   0.49287760  0.24680768  0.41657001
   0.00058986  0.74767011  0.29147031
   0.75058982  0.49766954  0.35292815
   0.74014450  0.99851545  0.48194935
   0.25059042  0.49766954  0.35292815
   0.23989317  0.99725680  0.48291138
   0.99618298  0.99740097  0.38536662
   0.51480552  0.49912326  0.51344919
   0.99557869  0.49257668  0.44950258
   0.50058925  0.99767067  0.32219910
   0.98408324  0.22484014  0.55268215
   0.98102294  0.73489357  0.54372353
   0.47592231  0.04707091  0.58166690
   0.99038892  0.22367097  0.48489650
   0.50058925  0.72426545  0.35464748
   0.50058925  0.27107537  0.35464748
   0.98856911  0.76399622  0.48536542
   0.77399447  0.49766954  0.29318964
   0.72319361  0.99783771  0.42032196
   0.48906062  0.22687155  0.47908818
   0.00058986  0.72426545  0.35120881
   0.00058986  0.27107537  0.35120881
   0.48993357  0.76903841  0.47874717
   0.72156498  0.49608267  0.41471440
   0.77399447  0.99767067  0.28975097
   0.26487751  0.49615401  0.41374430
   0.22718577  0.99767067  0.28975097
   0.26794860  0.99717825  0.41969019
   0.22718577  0.49766954  0.29318964
   0.76854851  0.48120700  0.55047824
   0.21238492  0.98088471  0.54350875
   0.23416393  0.50214576  0.54914449
   0.75068684  0.98227699  0.54364355
   0.72558567  0.08103944  0.61663437
   0.18796857  0.24303587  0.60056355
   0.35446805  0.48738618  0.27144965
   0.25816528  0.46508405  0.57468882
   0.67210036  0.15169046  0.63827870
   0.06527126  0.19616555  0.61710385
Direct configuration=   481
   0.00058986  0.24767071  0.29147031
   0.49305682  0.74618241  0.41681489
   0.49287760  0.24680768  0.41657001
   0.00058986  0.74767011  0.29147031
   0.75058982  0.49766954  0.35292815
   0.74014450  0.99851545  0.48194935
   0.25059042  0.49766954  0.35292815
   0.23989317  0.99725680  0.48291138
   0.99618298  0.99740097  0.38536662
   0.51480552  0.49912326  0.51344919
   0.99557869  0.49257668  0.44950258
   0.50058925  0.99767067  0.32219910
   0.98408324  0.22484014  0.55268215
   0.98102294  0.73489357  0.54372353
   0.47592231  0.04707091  0.58166690
   0.99038892  0.22367097  0.48489650
   0.50058925  0.72426545  0.35464748
   0.50058925  0.27107537  0.35464748
   0.98856911  0.76399622  0.48536542
   0.77399447  0.49766954  0.29318964
   0.72319361  0.99783771  0.42032196
   0.48906062  0.22687155  0.47908818
   0.00058986  0.72426545  0.35120881
   0.00058986  0.27107537  0.35120881
   0.48993357  0.76903841  0.47874717
   0.72156498  0.49608267  0.41471440
   0.77399447  0.99767067  0.28975097
   0.26487751  0.49615401  0.41374430
   0.22718577  0.99767067  0.28975097
   0.26794860  0.99717825  0.41969019
   0.22718577  0.49766954  0.29318964
   0.76854851  0.48120700  0.55047824
   0.21238492  0.98088471  0.54350875
   0.23416393  0.50214576  0.54914449
   0.75068684  0.98227699  0.54364355
   0.72558567  0.08103944  0.61663437
   0.18796857  0.24303587  0.60056355
   0.35446805  0.48738618  0.27144965
   0.25816528  0.46508405  0.57468882
   0.67210036  0.15169046  0.63827870
   0.06527126  0.19616555  0.61710385
Direct configuration=   482
   0.00058986  0.24767071  0.29147031
   0.49305682  0.74618241  0.41681489
   0.49287760  0.24680768  0.41657001
   0.00058986  0.74767011  0.29147031
   0.75058982  0.49766954  0.35292815
   0.74014450  0.99851545  0.48194935
   0.25059042  0.49766954  0.35292815
   0.23989317  0.99725680  0.48291138
   0.99618298  0.99740097  0.38536662
   0.51480552  0.49912326  0.51344919
   0.99557869  0.49257668  0.44950258
   0.50058925  0.99767067  0.32219910
   0.98408324  0.22484014  0.55268215
   0.98102294  0.73489357  0.54372353
   0.47592231  0.04707091  0.58166690
   0.99038892  0.22367097  0.48489650
   0.50058925  0.72426545  0.35464748
   0.50058925  0.27107537  0.35464748
   0.98856911  0.76399622  0.48536542
   0.77399447  0.49766954  0.29318964
   0.72319361  0.99783771  0.42032196
   0.48906062  0.22687155  0.47908818
   0.00058986  0.72426545  0.35120881
   0.00058986  0.27107537  0.35120881
   0.48993357  0.76903841  0.47874717
   0.72156498  0.49608267  0.41471440
   0.77399447  0.99767067  0.28975097
   0.26487751  0.49615401  0.41374430
   0.22718577  0.99767067  0.28975097
   0.26794860  0.99717825  0.41969019
   0.22718577  0.49766954  0.29318964
   0.76854851  0.48120700  0.55047824
   0.21238492  0.98088471  0.54350875
   0.23416393  0.50214576  0.54914449
   0.75068684  0.98227699  0.54364355
   0.72558567  0.08103944  0.61663437
   0.18796857  0.24303587  0.60056355
   0.35446805  0.48738618  0.27144965
   0.25816528  0.46508405  0.57468882
   0.67210036  0.15169046  0.63827870
   0.06527126  0.19616555  0.61710385
Direct configuration=   483
   0.00058986  0.24767071  0.29147031
   0.49305682  0.74618241  0.41681489
   0.49287760  0.24680768  0.41657001
   0.00058986  0.74767011  0.29147031
   0.75058982  0.49766954  0.35292815
   0.74014450  0.99851545  0.48194935
   0.25059042  0.49766954  0.35292815
   0.23989317  0.99725680  0.48291138
   0.99618298  0.99740097  0.38536662
   0.51480552  0.49912326  0.51344919
   0.99557869  0.49257668  0.44950258
   0.50058925  0.99767067  0.32219910
   0.98408324  0.22484014  0.55268215
   0.98102294  0.73489357  0.54372353
   0.47592231  0.04707091  0.58166690
   0.99038892  0.22367097  0.48489650
   0.50058925  0.72426545  0.35464748
   0.50058925  0.27107537  0.35464748
   0.98856911  0.76399622  0.48536542
   0.77399447  0.49766954  0.29318964
   0.72319361  0.99783771  0.42032196
   0.48906062  0.22687155  0.47908818
   0.00058986  0.72426545  0.35120881
   0.00058986  0.27107537  0.35120881
   0.48993357  0.76903841  0.47874717
   0.72156498  0.49608267  0.41471440
   0.77399447  0.99767067  0.28975097
   0.26487751  0.49615401  0.41374430
   0.22718577  0.99767067  0.28975097
   0.26794860  0.99717825  0.41969019
   0.22718577  0.49766954  0.29318964
   0.76854851  0.48120700  0.55047824
   0.21238492  0.98088471  0.54350875
   0.23416393  0.50214576  0.54914449
   0.75068684  0.98227699  0.54364355
   0.72558567  0.08103944  0.61663437
   0.18796857  0.24303587  0.60056355
   0.35446805  0.48738618  0.27144965
   0.25816528  0.46508405  0.57468882
   0.67210036  0.15169046  0.63827870
   0.06527126  0.19616555  0.61710385
Direct configuration=   484
   0.00058986  0.24767071  0.29147031
   0.49305682  0.74618241  0.41681489
   0.49287760  0.24680768  0.41657001
   0.00058986  0.74767011  0.29147031
   0.75058982  0.49766954  0.35292815
   0.74014450  0.99851545  0.48194935
   0.25059042  0.49766954  0.35292815
   0.23989317  0.99725680  0.48291138
   0.99618298  0.99740097  0.38536662
   0.51480552  0.49912326  0.51344919
   0.99557869  0.49257668  0.44950258
   0.50058925  0.99767067  0.32219910
   0.98408324  0.22484014  0.55268215
   0.98102294  0.73489357  0.54372353
   0.47592231  0.04707091  0.58166690
   0.99038892  0.22367097  0.48489650
   0.50058925  0.72426545  0.35464748
   0.50058925  0.27107537  0.35464748
   0.98856911  0.76399622  0.48536542
   0.77399447  0.49766954  0.29318964
   0.72319361  0.99783771  0.42032196
   0.48906062  0.22687155  0.47908818
   0.00058986  0.72426545  0.35120881
   0.00058986  0.27107537  0.35120881
   0.48993357  0.76903841  0.47874717
   0.72156498  0.49608267  0.41471440
   0.77399447  0.99767067  0.28975097
   0.26487751  0.49615401  0.41374430
   0.22718577  0.99767067  0.28975097
   0.26794860  0.99717825  0.41969019
   0.22718577  0.49766954  0.29318964
   0.76854851  0.48120700  0.55047824
   0.21238492  0.98088471  0.54350875
   0.23416393  0.50214576  0.54914449
   0.75068684  0.98227699  0.54364355
   0.72558567  0.08103944  0.61663437
   0.18796857  0.24303587  0.60056355
   0.35446805  0.48738618  0.27144965
   0.25816528  0.46508405  0.57468882
   0.67210036  0.15169046  0.63827870
   0.06527126  0.19616555  0.61710385
Direct configuration=   485
   0.00058986  0.24767071  0.29147031
   0.49305682  0.74618241  0.41681489
   0.49287760  0.24680768  0.41657001
   0.00058986  0.74767011  0.29147031
   0.75058982  0.49766954  0.35292815
   0.74014450  0.99851545  0.48194935
   0.25059042  0.49766954  0.35292815
   0.23989317  0.99725680  0.48291138
   0.99618298  0.99740097  0.38536662
   0.51480552  0.49912326  0.51344919
   0.99557869  0.49257668  0.44950258
   0.50058925  0.99767067  0.32219910
   0.98408324  0.22484014  0.55268215
   0.98102294  0.73489357  0.54372353
   0.47592231  0.04707091  0.58166690
   0.99038892  0.22367097  0.48489650
   0.50058925  0.72426545  0.35464748
   0.50058925  0.27107537  0.35464748
   0.98856911  0.76399622  0.48536542
   0.77399447  0.49766954  0.29318964
   0.72319361  0.99783771  0.42032196
   0.48906062  0.22687155  0.47908818
   0.00058986  0.72426545  0.35120881
   0.00058986  0.27107537  0.35120881
   0.48993357  0.76903841  0.47874717
   0.72156498  0.49608267  0.41471440
   0.77399447  0.99767067  0.28975097
   0.26487751  0.49615401  0.41374430
   0.22718577  0.99767067  0.28975097
   0.26794860  0.99717825  0.41969019
   0.22718577  0.49766954  0.29318964
   0.76854851  0.48120700  0.55047824
   0.21238492  0.98088471  0.54350875
   0.23416393  0.50214576  0.54914449
   0.75068684  0.98227699  0.54364355
   0.72558567  0.08103944  0.61663437
   0.18796857  0.24303587  0.60056355
   0.35446805  0.48738618  0.27144965
   0.25816528  0.46508405  0.57468882
   0.67210036  0.15169046  0.63827870
   0.06527126  0.19616555  0.61710385
Direct configuration=   486
   0.00058986  0.24767071  0.29147031
   0.49305682  0.74618241  0.41681489
   0.49287760  0.24680768  0.41657001
   0.00058986  0.74767011  0.29147031
   0.75058982  0.49766954  0.35292815
   0.74014450  0.99851545  0.48194935
   0.25059042  0.49766954  0.35292815
   0.23989317  0.99725680  0.48291138
   0.99618298  0.99740097  0.38536662
   0.51480552  0.49912326  0.51344919
   0.99557869  0.49257668  0.44950258
   0.50058925  0.99767067  0.32219910
   0.98408324  0.22484014  0.55268215
   0.98102294  0.73489357  0.54372353
   0.47592231  0.04707091  0.58166690
   0.99038892  0.22367097  0.48489650
   0.50058925  0.72426545  0.35464748
   0.50058925  0.27107537  0.35464748
   0.98856911  0.76399622  0.48536542
   0.77399447  0.49766954  0.29318964
   0.72319361  0.99783771  0.42032196
   0.48906062  0.22687155  0.47908818
   0.00058986  0.72426545  0.35120881
   0.00058986  0.27107537  0.35120881
   0.48993357  0.76903841  0.47874717
   0.72156498  0.49608267  0.41471440
   0.77399447  0.99767067  0.28975097
   0.26487751  0.49615401  0.41374430
   0.22718577  0.99767067  0.28975097
   0.26794860  0.99717825  0.41969019
   0.22718577  0.49766954  0.29318964
   0.76854851  0.48120700  0.55047824
   0.21238492  0.98088471  0.54350875
   0.23416393  0.50214576  0.54914449
   0.75068684  0.98227699  0.54364355
   0.72558567  0.08103944  0.61663437
   0.18796857  0.24303587  0.60056355
   0.35446805  0.48738618  0.27144965
   0.25816528  0.46508405  0.57468882
   0.67210036  0.15169046  0.63827870
   0.06527126  0.19616555  0.61710385
Direct configuration=   487
   0.00058986  0.24767071  0.29147031
   0.49305682  0.74618241  0.41681489
   0.49287760  0.24680768  0.41657001
   0.00058986  0.74767011  0.29147031
   0.75058982  0.49766954  0.35292815
   0.74014450  0.99851545  0.48194935
   0.25059042  0.49766954  0.35292815
   0.23989317  0.99725680  0.48291138
   0.99618298  0.99740097  0.38536662
   0.51480552  0.49912326  0.51344919
   0.99557869  0.49257668  0.44950258
   0.50058925  0.99767067  0.32219910
   0.98408324  0.22484014  0.55268215
   0.98102294  0.73489357  0.54372353
   0.47592231  0.04707091  0.58166690
   0.99038892  0.22367097  0.48489650
   0.50058925  0.72426545  0.35464748
   0.50058925  0.27107537  0.35464748
   0.98856911  0.76399622  0.48536542
   0.77399447  0.49766954  0.29318964
   0.72319361  0.99783771  0.42032196
   0.48906062  0.22687155  0.47908818
   0.00058986  0.72426545  0.35120881
   0.00058986  0.27107537  0.35120881
   0.48993357  0.76903841  0.47874717
   0.72156498  0.49608267  0.41471440
   0.77399447  0.99767067  0.28975097
   0.26487751  0.49615401  0.41374430
   0.22718577  0.99767067  0.28975097
   0.26794860  0.99717825  0.41969019
   0.22718577  0.49766954  0.29318964
   0.76854851  0.48120700  0.55047824
   0.21238492  0.98088471  0.54350875
   0.23416393  0.50214576  0.54914449
   0.75068684  0.98227699  0.54364355
   0.72558567  0.08103944  0.61663437
   0.18796857  0.24303587  0.60056355
   0.35446805  0.48738618  0.27144965
   0.25816528  0.46508405  0.57468882
   0.67210036  0.15169046  0.63827870
   0.06527126  0.19616555  0.61710385
Direct configuration=   488
   0.00058986  0.24767071  0.29147031
   0.49305682  0.74618241  0.41681489
   0.49287760  0.24680768  0.41657001
   0.00058986  0.74767011  0.29147031
   0.75058982  0.49766954  0.35292815
   0.74014450  0.99851545  0.48194935
   0.25059042  0.49766954  0.35292815
   0.23989317  0.99725680  0.48291138
   0.99618298  0.99740097  0.38536662
   0.51480552  0.49912326  0.51344919
   0.99557869  0.49257668  0.44950258
   0.50058925  0.99767067  0.32219910
   0.98408324  0.22484014  0.55268215
   0.98102294  0.73489357  0.54372353
   0.47592231  0.04707091  0.58166690
   0.99038892  0.22367097  0.48489650
   0.50058925  0.72426545  0.35464748
   0.50058925  0.27107537  0.35464748
   0.98856911  0.76399622  0.48536542
   0.77399447  0.49766954  0.29318964
   0.72319361  0.99783771  0.42032196
   0.48906062  0.22687155  0.47908818
   0.00058986  0.72426545  0.35120881
   0.00058986  0.27107537  0.35120881
   0.48993357  0.76903841  0.47874717
   0.72156498  0.49608267  0.41471440
   0.77399447  0.99767067  0.28975097
   0.26487751  0.49615401  0.41374430
   0.22718577  0.99767067  0.28975097
   0.26794860  0.99717825  0.41969019
   0.22718577  0.49766954  0.29318964
   0.76854851  0.48120700  0.55047824
   0.21238492  0.98088471  0.54350875
   0.23416393  0.50214576  0.54914449
   0.75068684  0.98227699  0.54364355
   0.72558567  0.08103944  0.61663437
   0.18796857  0.24303587  0.60056355
   0.35446805  0.48738618  0.27144965
   0.25816528  0.46508405  0.57468882
   0.67210036  0.15169046  0.63827870
   0.06527126  0.19616555  0.61710385
Direct configuration=   489
   0.00058986  0.24767071  0.29147031
   0.49305682  0.74618241  0.41681489
   0.49287760  0.24680768  0.41657001
   0.00058986  0.74767011  0.29147031
   0.75058982  0.49766954  0.35292815
   0.74014450  0.99851545  0.48194935
   0.25059042  0.49766954  0.35292815
   0.23989317  0.99725680  0.48291138
   0.99618298  0.99740097  0.38536662
   0.51480552  0.49912326  0.51344919
   0.99557869  0.49257668  0.44950258
   0.50058925  0.99767067  0.32219910
   0.98408324  0.22484014  0.55268215
   0.98102294  0.73489357  0.54372353
   0.47592231  0.04707091  0.58166690
   0.99038892  0.22367097  0.48489650
   0.50058925  0.72426545  0.35464748
   0.50058925  0.27107537  0.35464748
   0.98856911  0.76399622  0.48536542
   0.77399447  0.49766954  0.29318964
   0.72319361  0.99783771  0.42032196
   0.48906062  0.22687155  0.47908818
   0.00058986  0.72426545  0.35120881
   0.00058986  0.27107537  0.35120881
   0.48993357  0.76903841  0.47874717
   0.72156498  0.49608267  0.41471440
   0.77399447  0.99767067  0.28975097
   0.26487751  0.49615401  0.41374430
   0.22718577  0.99767067  0.28975097
   0.26794860  0.99717825  0.41969019
   0.22718577  0.49766954  0.29318964
   0.76854851  0.48120700  0.55047824
   0.21238492  0.98088471  0.54350875
   0.23416393  0.50214576  0.54914449
   0.75068684  0.98227699  0.54364355
   0.72558567  0.08103944  0.61663437
   0.18796857  0.24303587  0.60056355
   0.35446805  0.48738618  0.27144965
   0.25816528  0.46508405  0.57468882
   0.67210036  0.15169046  0.63827870
   0.06527126  0.19616555  0.61710385
Direct configuration=   490
   0.00058986  0.24767071  0.29147031
   0.49305682  0.74618241  0.41681489
   0.49287760  0.24680768  0.41657001
   0.00058986  0.74767011  0.29147031
   0.75058982  0.49766954  0.35292815
   0.74014450  0.99851545  0.48194935
   0.25059042  0.49766954  0.35292815
   0.23989317  0.99725680  0.48291138
   0.99618298  0.99740097  0.38536662
   0.51480552  0.49912326  0.51344919
   0.99557869  0.49257668  0.44950258
   0.50058925  0.99767067  0.32219910
   0.98408324  0.22484014  0.55268215
   0.98102294  0.73489357  0.54372353
   0.47592231  0.04707091  0.58166690
   0.99038892  0.22367097  0.48489650
   0.50058925  0.72426545  0.35464748
   0.50058925  0.27107537  0.35464748
   0.98856911  0.76399622  0.48536542
   0.77399447  0.49766954  0.29318964
   0.72319361  0.99783771  0.42032196
   0.48906062  0.22687155  0.47908818
   0.00058986  0.72426545  0.35120881
   0.00058986  0.27107537  0.35120881
   0.48993357  0.76903841  0.47874717
   0.72156498  0.49608267  0.41471440
   0.77399447  0.99767067  0.28975097
   0.26487751  0.49615401  0.41374430
   0.22718577  0.99767067  0.28975097
   0.26794860  0.99717825  0.41969019
   0.22718577  0.49766954  0.29318964
   0.76854851  0.48120700  0.55047824
   0.21238492  0.98088471  0.54350875
   0.23416393  0.50214576  0.54914449
   0.75068684  0.98227699  0.54364355
   0.72558567  0.08103944  0.61663437
   0.18796857  0.24303587  0.60056355
   0.35446805  0.48738618  0.27144965
   0.25816528  0.46508405  0.57468882
   0.67210036  0.15169046  0.63827870
   0.06527126  0.19616555  0.61710385
Direct configuration=   491
   0.00058986  0.24767071  0.29147031
   0.49305682  0.74618241  0.41681489
   0.49287760  0.24680768  0.41657001
   0.00058986  0.74767011  0.29147031
   0.75058982  0.49766954  0.35292815
   0.74014450  0.99851545  0.48194935
   0.25059042  0.49766954  0.35292815
   0.23989317  0.99725680  0.48291138
   0.99618298  0.99740097  0.38536662
   0.51480552  0.49912326  0.51344919
   0.99557869  0.49257668  0.44950258
   0.50058925  0.99767067  0.32219910
   0.98408324  0.22484014  0.55268215
   0.98102294  0.73489357  0.54372353
   0.47592231  0.04707091  0.58166690
   0.99038892  0.22367097  0.48489650
   0.50058925  0.72426545  0.35464748
   0.50058925  0.27107537  0.35464748
   0.98856911  0.76399622  0.48536542
   0.77399447  0.49766954  0.29318964
   0.72319361  0.99783771  0.42032196
   0.48906062  0.22687155  0.47908818
   0.00058986  0.72426545  0.35120881
   0.00058986  0.27107537  0.35120881
   0.48993357  0.76903841  0.47874717
   0.72156498  0.49608267  0.41471440
   0.77399447  0.99767067  0.28975097
   0.26487751  0.49615401  0.41374430
   0.22718577  0.99767067  0.28975097
   0.26794860  0.99717825  0.41969019
   0.22718577  0.49766954  0.29318964
   0.76854851  0.48120700  0.55047824
   0.21238492  0.98088471  0.54350875
   0.23416393  0.50214576  0.54914449
   0.75068684  0.98227699  0.54364355
   0.72558567  0.08103944  0.61663437
   0.18796857  0.24303587  0.60056355
   0.35446805  0.48738618  0.27144965
   0.25816528  0.46508405  0.57468882
   0.67210036  0.15169046  0.63827870
   0.06527126  0.19616555  0.61710385
Direct configuration=   492
   0.00058986  0.24767071  0.29147031
   0.49305682  0.74618241  0.41681489
   0.49287760  0.24680768  0.41657001
   0.00058986  0.74767011  0.29147031
   0.75058982  0.49766954  0.35292815
   0.74014450  0.99851545  0.48194935
   0.25059042  0.49766954  0.35292815
   0.23989317  0.99725680  0.48291138
   0.99618298  0.99740097  0.38536662
   0.51480552  0.49912326  0.51344919
   0.99557869  0.49257668  0.44950258
   0.50058925  0.99767067  0.32219910
   0.98408324  0.22484014  0.55268215
   0.98102294  0.73489357  0.54372353
   0.47592231  0.04707091  0.58166690
   0.99038892  0.22367097  0.48489650
   0.50058925  0.72426545  0.35464748
   0.50058925  0.27107537  0.35464748
   0.98856911  0.76399622  0.48536542
   0.77399447  0.49766954  0.29318964
   0.72319361  0.99783771  0.42032196
   0.48906062  0.22687155  0.47908818
   0.00058986  0.72426545  0.35120881
   0.00058986  0.27107537  0.35120881
   0.48993357  0.76903841  0.47874717
   0.72156498  0.49608267  0.41471440
   0.77399447  0.99767067  0.28975097
   0.26487751  0.49615401  0.41374430
   0.22718577  0.99767067  0.28975097
   0.26794860  0.99717825  0.41969019
   0.22718577  0.49766954  0.29318964
   0.76854851  0.48120700  0.55047824
   0.21238492  0.98088471  0.54350875
   0.23416393  0.50214576  0.54914449
   0.75068684  0.98227699  0.54364355
   0.72558567  0.08103944  0.61663437
   0.18796857  0.24303587  0.60056355
   0.35446805  0.48738618  0.27144965
   0.25816528  0.46508405  0.57468882
   0.67210036  0.15169046  0.63827870
   0.06527126  0.19616555  0.61710385
Direct configuration=   493
   0.00058986  0.24767071  0.29147031
   0.49305682  0.74618241  0.41681489
   0.49287760  0.24680768  0.41657001
   0.00058986  0.74767011  0.29147031
   0.75058982  0.49766954  0.35292815
   0.74014450  0.99851545  0.48194935
   0.25059042  0.49766954  0.35292815
   0.23989317  0.99725680  0.48291138
   0.99618298  0.99740097  0.38536662
   0.51480552  0.49912326  0.51344919
   0.99557869  0.49257668  0.44950258
   0.50058925  0.99767067  0.32219910
   0.98408324  0.22484014  0.55268215
   0.98102294  0.73489357  0.54372353
   0.47592231  0.04707091  0.58166690
   0.99038892  0.22367097  0.48489650
   0.50058925  0.72426545  0.35464748
   0.50058925  0.27107537  0.35464748
   0.98856911  0.76399622  0.48536542
   0.77399447  0.49766954  0.29318964
   0.72319361  0.99783771  0.42032196
   0.48906062  0.22687155  0.47908818
   0.00058986  0.72426545  0.35120881
   0.00058986  0.27107537  0.35120881
   0.48993357  0.76903841  0.47874717
   0.72156498  0.49608267  0.41471440
   0.77399447  0.99767067  0.28975097
   0.26487751  0.49615401  0.41374430
   0.22718577  0.99767067  0.28975097
   0.26794860  0.99717825  0.41969019
   0.22718577  0.49766954  0.29318964
   0.76854851  0.48120700  0.55047824
   0.21238492  0.98088471  0.54350875
   0.23416393  0.50214576  0.54914449
   0.75068684  0.98227699  0.54364355
   0.72558567  0.08103944  0.61663437
   0.18796857  0.24303587  0.60056355
   0.35446805  0.48738618  0.27144965
   0.25816528  0.46508405  0.57468882
   0.67210036  0.15169046  0.63827870
   0.06527126  0.19616555  0.61710385
Direct configuration=   494
   0.00058986  0.24767071  0.29147031
   0.49305682  0.74618241  0.41681489
   0.49287760  0.24680768  0.41657001
   0.00058986  0.74767011  0.29147031
   0.75058982  0.49766954  0.35292815
   0.74014450  0.99851545  0.48194935
   0.25059042  0.49766954  0.35292815
   0.23989317  0.99725680  0.48291138
   0.99618298  0.99740097  0.38536662
   0.51480552  0.49912326  0.51344919
   0.99557869  0.49257668  0.44950258
   0.50058925  0.99767067  0.32219910
   0.98408324  0.22484014  0.55268215
   0.98102294  0.73489357  0.54372353
   0.47592231  0.04707091  0.58166690
   0.99038892  0.22367097  0.48489650
   0.50058925  0.72426545  0.35464748
   0.50058925  0.27107537  0.35464748
   0.98856911  0.76399622  0.48536542
   0.77399447  0.49766954  0.29318964
   0.72319361  0.99783771  0.42032196
   0.48906062  0.22687155  0.47908818
   0.00058986  0.72426545  0.35120881
   0.00058986  0.27107537  0.35120881
   0.48993357  0.76903841  0.47874717
   0.72156498  0.49608267  0.41471440
   0.77399447  0.99767067  0.28975097
   0.26487751  0.49615401  0.41374430
   0.22718577  0.99767067  0.28975097
   0.26794860  0.99717825  0.41969019
   0.22718577  0.49766954  0.29318964
   0.76854851  0.48120700  0.55047824
   0.21238492  0.98088471  0.54350875
   0.23416393  0.50214576  0.54914449
   0.75068684  0.98227699  0.54364355
   0.72558567  0.08103944  0.61663437
   0.18796857  0.24303587  0.60056355
   0.35446805  0.48738618  0.27144965
   0.25816528  0.46508405  0.57468882
   0.67210036  0.15169046  0.63827870
   0.06527126  0.19616555  0.61710385
Direct configuration=   495
   0.00058986  0.24767071  0.29147031
   0.49305682  0.74618241  0.41681489
   0.49287760  0.24680768  0.41657001
   0.00058986  0.74767011  0.29147031
   0.75058982  0.49766954  0.35292815
   0.74014450  0.99851545  0.48194935
   0.25059042  0.49766954  0.35292815
   0.23989317  0.99725680  0.48291138
   0.99618298  0.99740097  0.38536662
   0.51480552  0.49912326  0.51344919
   0.99557869  0.49257668  0.44950258
   0.50058925  0.99767067  0.32219910
   0.98408324  0.22484014  0.55268215
   0.98102294  0.73489357  0.54372353
   0.47592231  0.04707091  0.58166690
   0.99038892  0.22367097  0.48489650
   0.50058925  0.72426545  0.35464748
   0.50058925  0.27107537  0.35464748
   0.98856911  0.76399622  0.48536542
   0.77399447  0.49766954  0.29318964
   0.72319361  0.99783771  0.42032196
   0.48906062  0.22687155  0.47908818
   0.00058986  0.72426545  0.35120881
   0.00058986  0.27107537  0.35120881
   0.48993357  0.76903841  0.47874717
   0.72156498  0.49608267  0.41471440
   0.77399447  0.99767067  0.28975097
   0.26487751  0.49615401  0.41374430
   0.22718577  0.99767067  0.28975097
   0.26794860  0.99717825  0.41969019
   0.22718577  0.49766954  0.29318964
   0.76854851  0.48120700  0.55047824
   0.21238492  0.98088471  0.54350875
   0.23416393  0.50214576  0.54914449
   0.75068684  0.98227699  0.54364355
   0.72558567  0.08103944  0.61663437
   0.18796857  0.24303587  0.60056355
   0.35446805  0.48738618  0.27144965
   0.25816528  0.46508405  0.57468882
   0.67210036  0.15169046  0.63827870
   0.06527126  0.19616555  0.61710385
Direct configuration=   496
   0.00058986  0.24767071  0.29147031
   0.49305682  0.74618241  0.41681489
   0.49287760  0.24680768  0.41657001
   0.00058986  0.74767011  0.29147031
   0.75058982  0.49766954  0.35292815
   0.74014450  0.99851545  0.48194935
   0.25059042  0.49766954  0.35292815
   0.23989317  0.99725680  0.48291138
   0.99618298  0.99740097  0.38536662
   0.51480552  0.49912326  0.51344919
   0.99557869  0.49257668  0.44950258
   0.50058925  0.99767067  0.32219910
   0.98408324  0.22484014  0.55268215
   0.98102294  0.73489357  0.54372353
   0.47592231  0.04707091  0.58166690
   0.99038892  0.22367097  0.48489650
   0.50058925  0.72426545  0.35464748
   0.50058925  0.27107537  0.35464748
   0.98856911  0.76399622  0.48536542
   0.77399447  0.49766954  0.29318964
   0.72319361  0.99783771  0.42032196
   0.48906062  0.22687155  0.47908818
   0.00058986  0.72426545  0.35120881
   0.00058986  0.27107537  0.35120881
   0.48993357  0.76903841  0.47874717
   0.72156498  0.49608267  0.41471440
   0.77399447  0.99767067  0.28975097
   0.26487751  0.49615401  0.41374430
   0.22718577  0.99767067  0.28975097
   0.26794860  0.99717825  0.41969019
   0.22718577  0.49766954  0.29318964
   0.76854851  0.48120700  0.55047824
   0.21238492  0.98088471  0.54350875
   0.23416393  0.50214576  0.54914449
   0.75068684  0.98227699  0.54364355
   0.72558567  0.08103944  0.61663437
   0.18796857  0.24303587  0.60056355
   0.35446805  0.48738618  0.27144965
   0.25816528  0.46508405  0.57468882
   0.67210036  0.15169046  0.63827870
   0.06527126  0.19616555  0.61710385
Direct configuration=   497
   0.00058986  0.24767071  0.29147031
   0.49305682  0.74618241  0.41681489
   0.49287760  0.24680768  0.41657001
   0.00058986  0.74767011  0.29147031
   0.75058982  0.49766954  0.35292815
   0.74014450  0.99851545  0.48194935
   0.25059042  0.49766954  0.35292815
   0.23989317  0.99725680  0.48291138
   0.99618298  0.99740097  0.38536662
   0.51480552  0.49912326  0.51344919
   0.99557869  0.49257668  0.44950258
   0.50058925  0.99767067  0.32219910
   0.98408324  0.22484014  0.55268215
   0.98102294  0.73489357  0.54372353
   0.47592231  0.04707091  0.58166690
   0.99038892  0.22367097  0.48489650
   0.50058925  0.72426545  0.35464748
   0.50058925  0.27107537  0.35464748
   0.98856911  0.76399622  0.48536542
   0.77399447  0.49766954  0.29318964
   0.72319361  0.99783771  0.42032196
   0.48906062  0.22687155  0.47908818
   0.00058986  0.72426545  0.35120881
   0.00058986  0.27107537  0.35120881
   0.48993357  0.76903841  0.47874717
   0.72156498  0.49608267  0.41471440
   0.77399447  0.99767067  0.28975097
   0.26487751  0.49615401  0.41374430
   0.22718577  0.99767067  0.28975097
   0.26794860  0.99717825  0.41969019
   0.22718577  0.49766954  0.29318964
   0.76854851  0.48120700  0.55047824
   0.21238492  0.98088471  0.54350875
   0.23416393  0.50214576  0.54914449
   0.75068684  0.98227699  0.54364355
   0.72558567  0.08103944  0.61663437
   0.18796857  0.24303587  0.60056355
   0.35446805  0.48738618  0.27144965
   0.25816528  0.46508405  0.57468882
   0.67210036  0.15169046  0.63827870
   0.06527126  0.19616555  0.61710385
Direct configuration=   498
   0.00058986  0.24767071  0.29147031
   0.49305682  0.74618241  0.41681489
   0.49287760  0.24680768  0.41657001
   0.00058986  0.74767011  0.29147031
   0.75058982  0.49766954  0.35292815
   0.74014450  0.99851545  0.48194935
   0.25059042  0.49766954  0.35292815
   0.23989317  0.99725680  0.48291138
   0.99618298  0.99740097  0.38536662
   0.51480552  0.49912326  0.51344919
   0.99557869  0.49257668  0.44950258
   0.50058925  0.99767067  0.32219910
   0.98408324  0.22484014  0.55268215
   0.98102294  0.73489357  0.54372353
   0.47592231  0.04707091  0.58166690
   0.99038892  0.22367097  0.48489650
   0.50058925  0.72426545  0.35464748
   0.50058925  0.27107537  0.35464748
   0.98856911  0.76399622  0.48536542
   0.77399447  0.49766954  0.29318964
   0.72319361  0.99783771  0.42032196
   0.48906062  0.22687155  0.47908818
   0.00058986  0.72426545  0.35120881
   0.00058986  0.27107537  0.35120881
   0.48993357  0.76903841  0.47874717
   0.72156498  0.49608267  0.41471440
   0.77399447  0.99767067  0.28975097
   0.26487751  0.49615401  0.41374430
   0.22718577  0.99767067  0.28975097
   0.26794860  0.99717825  0.41969019
   0.22718577  0.49766954  0.29318964
   0.76854851  0.48120700  0.55047824
   0.21238492  0.98088471  0.54350875
   0.23416393  0.50214576  0.54914449
   0.75068684  0.98227699  0.54364355
   0.72558567  0.08103944  0.61663437
   0.18796857  0.24303587  0.60056355
   0.35446805  0.48738618  0.27144965
   0.25816528  0.46508405  0.57468882
   0.67210036  0.15169046  0.63827870
   0.06527126  0.19616555  0.61710385
Direct configuration=   499
   0.00058986  0.24767071  0.29147031
   0.49305682  0.74618241  0.41681489
   0.49287760  0.24680768  0.41657001
   0.00058986  0.74767011  0.29147031
   0.75058982  0.49766954  0.35292815
   0.74014450  0.99851545  0.48194935
   0.25059042  0.49766954  0.35292815
   0.23989317  0.99725680  0.48291138
   0.99618298  0.99740097  0.38536662
   0.51480552  0.49912326  0.51344919
   0.99557869  0.49257668  0.44950258
   0.50058925  0.99767067  0.32219910
   0.98408324  0.22484014  0.55268215
   0.98102294  0.73489357  0.54372353
   0.47592231  0.04707091  0.58166690
   0.99038892  0.22367097  0.48489650
   0.50058925  0.72426545  0.35464748
   0.50058925  0.27107537  0.35464748
   0.98856911  0.76399622  0.48536542
   0.77399447  0.49766954  0.29318964
   0.72319361  0.99783771  0.42032196
   0.48906062  0.22687155  0.47908818
   0.00058986  0.72426545  0.35120881
   0.00058986  0.27107537  0.35120881
   0.48993357  0.76903841  0.47874717
   0.72156498  0.49608267  0.41471440
   0.77399447  0.99767067  0.28975097
   0.26487751  0.49615401  0.41374430
   0.22718577  0.99767067  0.28975097
   0.26794860  0.99717825  0.41969019
   0.22718577  0.49766954  0.29318964
   0.76854851  0.48120700  0.55047824
   0.21238492  0.98088471  0.54350875
   0.23416393  0.50214576  0.54914449
   0.75068684  0.98227699  0.54364355
   0.72558567  0.08103944  0.61663437
   0.18796857  0.24303587  0.60056355
   0.35446805  0.48738618  0.27144965
   0.25816528  0.46508405  0.57468882
   0.67210036  0.15169046  0.63827870
   0.06527126  0.19616555  0.61710385
Direct configuration=   500
   0.00058986  0.24767071  0.29147031
   0.49305682  0.74618241  0.41681489
   0.49287760  0.24680768  0.41657001
   0.00058986  0.74767011  0.29147031
   0.75058982  0.49766954  0.35292815
   0.74014450  0.99851545  0.48194935
   0.25059042  0.49766954  0.35292815
   0.23989317  0.99725680  0.48291138
   0.99618298  0.99740097  0.38536662
   0.51480552  0.49912326  0.51344919
   0.99557869  0.49257668  0.44950258
   0.50058925  0.99767067  0.32219910
   0.98408324  0.22484014  0.55268215
   0.98102294  0.73489357  0.54372353
   0.47592231  0.04707091  0.58166690
   0.99038892  0.22367097  0.48489650
   0.50058925  0.72426545  0.35464748
   0.50058925  0.27107537  0.35464748
   0.98856911  0.76399622  0.48536542
   0.77399447  0.49766954  0.29318964
   0.72319361  0.99783771  0.42032196
   0.48906062  0.22687155  0.47908818
   0.00058986  0.72426545  0.35120881
   0.00058986  0.27107537  0.35120881
   0.48993357  0.76903841  0.47874717
   0.72156498  0.49608267  0.41471440
   0.77399447  0.99767067  0.28975097
   0.26487751  0.49615401  0.41374430
   0.22718577  0.99767067  0.28975097
   0.26794860  0.99717825  0.41969019
   0.22718577  0.49766954  0.29318964
   0.76854851  0.48120700  0.55047824
   0.21238492  0.98088471  0.54350875
   0.23416393  0.50214576  0.54914449
   0.75068684  0.98227699  0.54364355
   0.72558567  0.08103944  0.61663437
   0.18796857  0.24303587  0.60056355
   0.35446805  0.48738618  0.27144965
   0.25816528  0.46508405  0.57468882
   0.67210036  0.15169046  0.63827870
   0.06527126  0.19616555  0.61710385
