Mn O  H 
 1.0000000000000000
     5.7471469900000001    0.0000000000000000    0.0000000000000000
     0.0000000000000000    5.7471469900000001    0.0000000000000000
     0.0000000000000000    0.0000000000000000   38.3523056924327008
 Mn  O   H  
  12  17   1
Selective dynamics
Direct
 -0.0093835343744717  0.2391760241319369  0.2623916092900749   F   F   F
  0.7489864879576713  0.4968346817732093  0.3235847127412249   F   F   F
  0.5011635217629672  0.2509638098608568  0.3875032766783412   T   T   T
  0.7553180575113012  0.0015635051937655  0.4512375653771120   T   T   T
  0.2474793384016692  0.0019770489840011  0.4506386667815424   T   T   T
  0.2510151206674320  0.4955812159049278  0.3269556710605909   F   F   F
  0.5020683150031366  0.7504092493079962  0.3875064478199475   T   T   T
 -0.0100916428494874  0.7513987945614823  0.2627757334990781   F   F   F
  0.0024768544779153 -0.0045784375955736  0.3571699137271092   F   F   F
 -0.0015259939193965  0.5030329984006863  0.4203254306166720   T   T   T
  0.4869291591004847  0.5028792576812341  0.4856378204019616   T   T   T
  0.4872487909802456 -0.0043314717839424  0.2917774653642574   F   F   F
  0.0021201183792136  0.2254275380303500  0.4535478365845194   T   T   T
  0.7747574636748692  0.4958631552600724  0.2647010163483396   F   F   F
  0.4994775423373534  0.2678073900728424  0.3280746410023943   F   F   F
  0.7259468427658050 -0.0006401590566189  0.3919850034715008   T   T   T
  0.0037645548922136  0.2690184215424850  0.3222536979589821   F   F   F
  0.7692367725186661 -0.0055241815224737  0.2597891457639432   F   F   F
  0.5007909993611875  0.2276447420342065  0.4514936919316037   T   T   T
  0.7348966282021695  0.5004571236151943  0.3813551191313279   T   T   T
  0.2111692605782599 -0.0057975698878655  0.2583053953367737   F   F   F
  0.2782785817116936  0.5024082396727950  0.3869379916761471   T   T   T
  0.2272536477132092  0.4962741366236937  0.2626329689737672   F   F   F
  0.2757665995082699 -0.0002211255471257  0.3921994556446426   T   T   T
  0.4987015056994976  0.7247605740973498  0.3278246169346272   F   F   F
  0.0026331300224344  0.7783472226888202  0.4538329015202696   T   T   T
  0.5008178338313501  0.7755805836155795  0.4509983385811711   T   T   T
  0.0041034282560547  0.7236694402594225  0.3222276800561435   F   F   F
  0.4984072636010479  0.5000678582568145  0.5344834045413657   T   T   T
  0.3862807976787250  0.4992215041381847  0.2532026820654570   F   F   F
