Mn O  H 
 1.0000000000000000
     2.8735734950000000   -2.8735734950000000    4.7083351100000002
     5.7471469900000001    0.0000000000000000    0.0000000000000000
     0.0000000000000000   33.0656910066415008   20.1805290088081009
 Mn  O   H  
  14  23  10
Selective dynamics
Direct
  0.2206712106837827  0.8924024101981231  0.0890155841539979   F   F   F
  0.6747283365765311  0.1692091512955609  0.2185783425133955   T   T   T
  0.9492761232251893  0.0280999539274164  0.1523349856625060   F   F   F
  0.3940400114880114  0.3114832599325120  0.2841492829558561   T   T   T
  0.4492761232251893  0.5280999539274162  0.1523349856625060   F   F   F
  0.9014237993961953  0.3116988105189186  0.2843157928273727   T   T   T
  0.4492761232251893  0.0280999539274163  0.1523349856625060   F   F   F
  0.9028184207843836  0.8057481963494435  0.2844044018987615   T   T   T
  0.9028224388191363  0.5513267961304463  0.1048454345311214   F   F   F
  0.3552055696512506  0.8329980726588445  0.2338832170542520   T   T   T
  0.9946173100369095  0.5054515299703726  0.2026675776261450   T   T   T
  0.5385199825484293  0.2334780242657996  0.0731857337768673   F   F   F
  0.7988828988845100  0.0979612122996408  0.3654185303470340   T   T   T
  0.4449951115555834  0.7781998397869176  0.3348217652571467   T   T   T
  0.7777230067252346  0.6123218064946357  0.3166001192451748   T   T   T
  0.8792642171272149  0.0631059069764035  0.0552776342656358   F   F   F
  0.3398585596211204  0.3326168598610861  0.1832210454438789   T   T   T
  0.5824613929758371  0.2115073190520960  0.1245249348239739   F   F   F
  0.0381508069535878  0.4831302677424896  0.2555709163975168   T   T   T
  0.0951652613222294  0.7285601348788971  0.1215609852990625   F   F   F
  0.5498529315577713  0.4574329257882126  0.2528903690911344   T   T   T
  0.7505285630797769  0.1407755046066216  0.3137685616655878   T   T   T
  0.8588810283917283  0.5732975013441504  0.0535062334840219   F   F   F
  0.3120564369886878  0.8473568831342576  0.1808647764306033   T   T   T
  0.5620782042403505  0.7216989134198426  0.1227535340423529   F   F   F
  0.0092678731813498  0.0139567232412367  0.2537256192528803   T   T   T
  0.7973220149423709  0.3305494977673550  0.1842803123223668   T   T   T
  0.2532206662298340  0.6344341788737404  0.3126156786677058   T   T   T
  0.3461771600453361  0.6030541855173510  0.0564701830089334   F   F   F
  0.2413426121285951  0.1602225430480992  0.3150202998927551   T   T   T
  0.7987909947215390  0.8798322455269788  0.1848967331998381   T   T   T
  0.3461771600453361  0.0562446855173491  0.0564701830089334   F   F   F
  0.5532644678995255  0.0068608304259015  0.2536938388087821   T   T   T
  0.0951652613222294  0.1817506348788953  0.1215609852990625   F   F   F
  0.4736888454008769  0.7455830845581611  0.3869839806940497   T   T   T
  0.0575410800985117  0.7428167253699108  0.3804872575057448   T   T   T
  0.4578612695667936  0.2339517288591650  0.3833799359615803   T   T   T
  0.3404706169097480  0.6039120138460916  0.0278288297643030   F   F   F
  0.9243468113422041  0.6852365052266405  0.0369688146645331   F   F   F
  0.3436334761770041  0.0639996102436484  0.0278342118600037   F   F   F
  0.8883812645227351  0.0556090842097918  0.0266559720288981   F   F   F
  0.7790616340895802  0.1343982629555236  0.3384511752569609   T   T   T
  0.2531053818837471  0.5789816051123424  0.3363446637127474   T   T   T
  0.3194369654968823  0.9673703161068034  0.3155940066390949   T   T   T
  0.4541912504355490  0.9160263030649441  0.3954974473178283   T   T   T
  0.7848801373055215  0.5086619931684451  0.3876983776063758   T   T   T
  0.4311995654129376  0.3521007647350659  0.4028082580257664   T   T   T
