Mn O 
 1.0000000000000000
     5.7471469900000001    0.0000000000000000    0.0000000000000000
     0.0000000000000000    5.7471469900000001    0.0000000000000000
     0.0000000000000000    0.0000000000000000   38.3523056924327008
 Mn  O  
  13  18
Selective dynamics
Direct
 -0.0093835343744717  0.2391760241319369  0.2623916092900749   F   F   F
  0.7489864879576713  0.4968346817732093  0.3235847127412249   F   F   F
  0.4889806793876593  0.2425959456322760  0.3907007335949777   T   T   T
  0.7359425591065891  0.0008851837778486  0.4559258724001021   T   T   T
  0.2342267953966238 -0.0104302150041415  0.4547543683389158   T   T   T
  0.2510151206674320  0.4955812159049278  0.3269556710605909   F   F   F
  0.4916641833350426  0.7437654653474136  0.3905693182784372   T   T   T
 -0.0100916428494874  0.7513987945614823  0.2627757334990781   F   F   F
  0.0024768544779153 -0.0045784375955736  0.3571699137271092   F   F   F
 -0.0041429833648846  0.5023205885227940  0.4221332743103242   T   T   T
  0.4817112399522838  0.4851817184260046  0.4878553681048836   T   T   T
  0.4872487909802456 -0.0043314717839424  0.2917774653642574   F   F   F
  0.9835649221263250  0.4646975917255133  0.5068834836092264   T   T   T
 -0.0025775936434164  0.2265281809139872  0.4584982980513099   T   T   T
  0.7747574636748692  0.4958631552600724  0.2647010163483396   F   F   F
  0.4994775423373534  0.2678073900728424  0.3280746410023943   F   F   F
  0.7174888645268517 -0.0079919050192094  0.3960260061881582   T   T   T
  0.0037645548922136  0.2690184215424850  0.3222536979589821   F   F   F
  0.7692367725186661 -0.0055241815224737  0.2597891457639432   F   F   F
  0.4771486393864554  0.2242604051375889  0.4512123510110985   T   T   T
  0.7133962151505552  0.4936837077984865  0.3901658279705389   T   T   T
  0.2111692605782599 -0.0057975698878655  0.2583053953367737   F   F   F
  0.2594787160887996  0.4964393279037320  0.3847703610175630   T   T   T
  0.2272536477132092  0.4962741366236937  0.2626329689737672   F   F   F
  0.2621833749310499 -0.0098231354578410  0.3954565377265534   T   T   T
  0.4987015056994976  0.7247605740973498  0.3278246169346272   F   F   F
 -0.0187519936233714  0.7649701044716086  0.4598359219720728   T   T   T
  0.4841103441553435  0.7650143895978445  0.4545244407202241   T   T   T
  0.0041034282560547  0.7236694402594225  0.3222276800561435   F   F   F
  0.6899777158430395  0.3269949497014796  0.5147896309014760   T   T   T
  0.2709224576828903  0.5959933658104275  0.5189687300476066   T   T   T
