Mn  O  H                                
   1.00000000000000     
     5.7471469900000001    0.0000000000000000    0.0000000000000000
     0.0000000000000000    5.7471469900000001    0.0000000000000000
     0.0000000000000000    0.0000000000000000   38.3054457869999965
   Mn   O    H 
    14    20     2
Selective dynamics
Direct
  0.0005898578905175  0.2476707142651335  0.2914703058693817   F   F   F
  0.4954479529881069  0.7474712785350103  0.4173060714996517   T   T   T
  0.4955390423847960  0.2484624394525513  0.4174140453707748   T   T   T
  0.0005898578905175  0.7476701061373063  0.2914703058693817   F   F   F
  0.7505898156956690  0.4976695402043276  0.3529281469578436   F   F   F
  0.7458378073571280  0.0003960786852651  0.4800352792764438   T   T   T
  0.2505904238234891  0.4976695402043276  0.3529281469578436   F   F   F
  0.2481241617326404  0.9990979883312474  0.4831983881473749   T   T   T
  0.9979450343932282  0.9954407245977842  0.3856713973130133   T   T   T
  0.5057679874825532  0.5013235119690846  0.5152422838722904   T   T   T
  0.9961151909069279  0.5011327325328246  0.4495746585215954   T   T   T
  0.5005892497626903  0.9976706720702850  0.3221990958838745   F   F   F
  0.0036055305918735  0.2571583347319547  0.5444723665438314   T   T   T
  0.0042353816011075  0.7446767193341374  0.5442029985404228   T   T   T
  0.9935941078460035  0.2270604365385678  0.4845270747576782   T   T   T
  0.5005892497626903  0.7242654498384411  0.3546474847346772   F   F   F
  0.5005892497626903  0.2710753705639917  0.3546474847346772   F   F   F
  0.9933034804766867  0.7722410248788747  0.4846832481593468   T   T   T
  0.7739944719945271  0.4976695402043276  0.2931896436462154   F   F   F
  0.7240200722533310  0.9977345292716269  0.4203684321156859   T   T   T
  0.4974451801228794  0.2279838263614699  0.4790643923628490   T   T   T
  0.0005898578905175  0.7242654498384411  0.3512088091810099   F   F   F
  0.0005898578905175  0.2710753705639917  0.3512088091810099   F   F   F
  0.4982737202165650  0.7708030212844854  0.4789737850047518   T   T   T
  0.7227781720386577  0.4998983731930258  0.4146571767522466   T   T   T
  0.7739944719945271  0.9976706720702850  0.2897509680925552   F   F   F
  0.2675732436698705  0.4981766516406525  0.4141892672630924   T   T   T
  0.2271857675246238  0.9976706720702850  0.2897509680925552   F   F   F
  0.2699461216605260  0.9962220709810027  0.4203530564129115   T   T   T
  0.2271857675246238  0.4976695402043276  0.2931896436462154   F   F   F
  0.7825712902416275  0.5019788449247642  0.5485469873194991   T   T   T
  0.2190906973422200  0.0000394879654084  0.5425725413606264   T   T   T
  0.2249374903640402  0.5013491930401017  0.5476897503602126   T   T   T
  0.7667825455712841  0.0005957657825512  0.5440102011070521   T   T   T
  0.3544680523300840  0.4873861769803085  0.2714496538643303   F   F   F
  0.6065391180675552 -0.0001132447724812  0.5530755287208008   T   T   T
 
  0.00000000E+00  0.00000000E+00  0.00000000E+00
  0.00000000E+00  0.00000000E+00  0.00000000E+00
  0.00000000E+00  0.00000000E+00  0.00000000E+00
  0.00000000E+00  0.00000000E+00  0.00000000E+00
  0.00000000E+00  0.00000000E+00  0.00000000E+00
  0.00000000E+00  0.00000000E+00  0.00000000E+00
  0.00000000E+00  0.00000000E+00  0.00000000E+00
  0.00000000E+00  0.00000000E+00  0.00000000E+00
  0.00000000E+00  0.00000000E+00  0.00000000E+00
  0.00000000E+00  0.00000000E+00  0.00000000E+00
  0.00000000E+00  0.00000000E+00  0.00000000E+00
  0.00000000E+00  0.00000000E+00  0.00000000E+00
  0.00000000E+00  0.00000000E+00  0.00000000E+00
  0.00000000E+00  0.00000000E+00  0.00000000E+00
  0.00000000E+00  0.00000000E+00  0.00000000E+00
  0.00000000E+00  0.00000000E+00  0.00000000E+00
  0.00000000E+00  0.00000000E+00  0.00000000E+00
  0.00000000E+00  0.00000000E+00  0.00000000E+00
  0.00000000E+00  0.00000000E+00  0.00000000E+00
  0.00000000E+00  0.00000000E+00  0.00000000E+00
  0.00000000E+00  0.00000000E+00  0.00000000E+00
  0.00000000E+00  0.00000000E+00  0.00000000E+00
  0.00000000E+00  0.00000000E+00  0.00000000E+00
  0.00000000E+00  0.00000000E+00  0.00000000E+00
  0.00000000E+00  0.00000000E+00  0.00000000E+00
  0.00000000E+00  0.00000000E+00  0.00000000E+00
  0.00000000E+00  0.00000000E+00  0.00000000E+00
  0.00000000E+00  0.00000000E+00  0.00000000E+00
  0.00000000E+00  0.00000000E+00  0.00000000E+00
  0.00000000E+00  0.00000000E+00  0.00000000E+00
  0.00000000E+00  0.00000000E+00  0.00000000E+00
  0.00000000E+00  0.00000000E+00  0.00000000E+00
  0.00000000E+00  0.00000000E+00  0.00000000E+00
  0.00000000E+00  0.00000000E+00  0.00000000E+00
  0.00000000E+00  0.00000000E+00  0.00000000E+00
  0.00000000E+00  0.00000000E+00  0.00000000E+00
