Mn  O  H                                
   1.00000000000000     
     5.7471469900000001    0.0000000000000000    0.0000000000000000
     0.0000000000000000    5.7471469900000001    0.0000000000000000
     0.0000000000000000    0.0000000000000000   38.3054457869999965
   Mn   O    H 
    14    20     2
Selective dynamics
Direct
  0.0005898578905175  0.2476707142651335  0.2914703058693817   F   F   F
  0.4950532942806920  0.7471335852399659  0.4175375912552089   T   T   T
  0.4951538834854269  0.2479980877001579  0.4174464722913167   T   T   T
  0.0005898578905175  0.7476701061373063  0.2914703058693817   F   F   F
  0.7505898156956690  0.4976695402043276  0.3529281469578436   F   F   F
  0.7461920583829479  0.9995743976144320  0.4800812826054077   T   T   T
  0.2505904238234891  0.4976695402043276  0.3529281469578436   F   F   F
  0.2478287341847882  0.9996693408679509  0.4829601561211062   T   T   T
  0.9960305159422671  0.9978755580052943  0.3854697221495947   T   T   T
  0.5047788301339265  0.4995275132016829  0.5152388976890487   T   T   T
  0.9966744162782638  0.4997874470995642  0.4494632763738031   T   T   T
  0.5005892497626903  0.9976706720702850  0.3221990958838745   F   F   F
  0.0039590463149763  0.2565375886745653  0.5445134974512424   T   T   T
  0.0039807780177128  0.7459962632181013  0.5445735623580754   T   T   T
  0.9945587564342171  0.2282061895576747  0.4846716499250340   T   T   T
  0.5005892497626903  0.7242654498384411  0.3546474847346772   F   F   F
  0.5005892497626903  0.2710753705639917  0.3546474847346772   F   F   F
  0.9946822707407840  0.7711917525400515  0.4847403539899090   T   T   T
  0.7739944719945271  0.4976695402043276  0.2931896436462154   F   F   F
  0.7238197962697658  0.9975900196398517  0.4205398299114246   T   T   T
  0.4969219722778034  0.2292416821970243  0.4788311047972103   T   T   T
  0.0005898578905175  0.7242654498384411  0.3512088091810099   F   F   F
  0.0005898578905175  0.2710753705639917  0.3512088091810099   F   F   F
  0.4969058531365604  0.7697928735941025  0.4789304912126989   T   T   T
  0.7237117255648753  0.4975486403255250  0.4144788232027088   T   T   T
  0.7739944719945271  0.9976706720702850  0.2897509680925552   F   F   F
  0.2668390244957046  0.4976120556147718  0.4140490254151899   T   T   T
  0.2271857675246238  0.9976706720702850  0.2897509680925552   F   F   F
  0.2674880276767865  0.9978153522916541  0.4203660187400621   T   T   T
  0.2271857675246238  0.4976695402043276  0.2931896436462154   F   F   F
  0.7817078952936575  0.5011966499154172  0.5485896710068400   T   T   T
  0.2199283153991257  0.0012629235156487  0.5425909006458405   T   T   T
  0.2257235745689035  0.5012688259066809  0.5479158960299166   T   T   T
  0.7648115229511029  0.0012463680101817  0.5437635501385729   T   T   T
  0.3544680523300840  0.4873861769803085  0.2714496538643303   F   F   F
  0.6053802040753270  0.0010749704108206  0.5530817988950937   T   T   T
 
  0.00000000E+00  0.00000000E+00  0.00000000E+00
  0.00000000E+00  0.00000000E+00  0.00000000E+00
  0.00000000E+00  0.00000000E+00  0.00000000E+00
  0.00000000E+00  0.00000000E+00  0.00000000E+00
  0.00000000E+00  0.00000000E+00  0.00000000E+00
  0.00000000E+00  0.00000000E+00  0.00000000E+00
  0.00000000E+00  0.00000000E+00  0.00000000E+00
  0.00000000E+00  0.00000000E+00  0.00000000E+00
  0.00000000E+00  0.00000000E+00  0.00000000E+00
  0.00000000E+00  0.00000000E+00  0.00000000E+00
  0.00000000E+00  0.00000000E+00  0.00000000E+00
  0.00000000E+00  0.00000000E+00  0.00000000E+00
  0.00000000E+00  0.00000000E+00  0.00000000E+00
  0.00000000E+00  0.00000000E+00  0.00000000E+00
  0.00000000E+00  0.00000000E+00  0.00000000E+00
  0.00000000E+00  0.00000000E+00  0.00000000E+00
  0.00000000E+00  0.00000000E+00  0.00000000E+00
  0.00000000E+00  0.00000000E+00  0.00000000E+00
  0.00000000E+00  0.00000000E+00  0.00000000E+00
  0.00000000E+00  0.00000000E+00  0.00000000E+00
  0.00000000E+00  0.00000000E+00  0.00000000E+00
  0.00000000E+00  0.00000000E+00  0.00000000E+00
  0.00000000E+00  0.00000000E+00  0.00000000E+00
  0.00000000E+00  0.00000000E+00  0.00000000E+00
  0.00000000E+00  0.00000000E+00  0.00000000E+00
  0.00000000E+00  0.00000000E+00  0.00000000E+00
  0.00000000E+00  0.00000000E+00  0.00000000E+00
  0.00000000E+00  0.00000000E+00  0.00000000E+00
  0.00000000E+00  0.00000000E+00  0.00000000E+00
  0.00000000E+00  0.00000000E+00  0.00000000E+00
  0.00000000E+00  0.00000000E+00  0.00000000E+00
  0.00000000E+00  0.00000000E+00  0.00000000E+00
  0.00000000E+00  0.00000000E+00  0.00000000E+00
  0.00000000E+00  0.00000000E+00  0.00000000E+00
  0.00000000E+00  0.00000000E+00  0.00000000E+00
  0.00000000E+00  0.00000000E+00  0.00000000E+00
