 running on   64 total cores
 distrk:  each k-point on   64 cores,    1 groups
 distr:  one band on   32 cores,    2 groups
 using from now: INCAR     
 vasp.5.4.4.18Apr17-6-g9f103f2a35 (build Sep 24 2019 09:38:50) complex          
  
 POSCAR found type information on POSCAR  Mn O  H 
 POSCAR found :  3 types and      36 ions

 ----------------------------------------------------------------------------- 
|                                                                             |
|           W    W    AA    RRRRR   N    N  II  N    N   GGGG   !!!           |
|           W    W   A  A   R    R  NN   N  II  NN   N  G    G  !!!           |
|           W    W  A    A  R    R  N N  N  II  N N  N  G       !!!           |
|           W WW W  AAAAAA  RRRRR   N  N N  II  N  N N  G  GGG   !            |
|           WW  WW  A    A  R   R   N   NN  II  N   NN  G    G                |
|           W    W  A    A  R    R  N    N  II  N    N   GGGG   !!!           |
|                                                                             |
|      For optimal performance we recommend to set                            |
|        NCORE= 4 - approx SQRT( number of cores)                             |
|      NCORE specifies how many cores store one orbital (NPAR=cpu/NCORE).     |
|      This setting can  greatly improve the performance of VASP for DFT.     |
|      The default,   NCORE=1            might be grossly inefficient         |
|      on modern multi-core architectures or massively parallel machines.     |
|      Do your own testing !!!!                                               |
|      Unfortunately you need to use the default for GW and RPA calculations. |
|      (for HF NCORE is supported but not extensively tested yet)             |
|                                                                             |
 ----------------------------------------------------------------------------- 

 LDA part: xc-table for Pade appr. of Perdew
 POSCAR found type information on POSCAR  Mn O  H 
 POSCAR found :  3 types and      36 ions
 POSCAR, INCAR and KPOINTS ok, starting setup
 FFT: planning ...
 WAVECAR not read
 entering main loop
       N       E                     dE             d eps       ncg     rms          rms(c)
DAV:   1     0.336751239085E+04    0.33675E+04   -0.16607E+05  9344   0.145E+03
DAV:   2     0.262686729019E+03   -0.31048E+04   -0.29264E+04  8416   0.401E+02
DAV:   3    -0.273787246939E+03   -0.53647E+03   -0.52564E+03  9528   0.159E+02
DAV:   4    -0.298719503870E+03   -0.24932E+02   -0.24650E+02  9328   0.347E+01
DAV:   5    -0.299284301214E+03   -0.56480E+00   -0.56309E+00  9184   0.612E+00    0.766E+01
RMM:   6    -0.366134642138E+03   -0.66850E+02   -0.80159E+02  9194   0.634E+01    0.138E+02
RMM:   7    -0.276864539255E+03    0.89270E+02   -0.52487E+01  8411   0.166E+01    0.884E+01
RMM:   8    -0.349288191382E+03   -0.72424E+02   -0.45694E+01  8532   0.130E+01    0.104E+02
RMM:   9    -0.251604389272E+03    0.97684E+02   -0.57240E+01  8610   0.160E+01    0.572E+01
RMM:  10    -0.287536912605E+03   -0.35933E+02   -0.40240E+01  8138   0.144E+01    0.731E+01
RMM:  11    -0.248984618580E+03    0.38552E+02   -0.29204E+01  9174   0.118E+01    0.375E+01
RMM:  12    -0.267141659816E+03   -0.18157E+02   -0.23503E+01  8439   0.935E+00    0.612E+01
RMM:  13    -0.250173749544E+03    0.16968E+02   -0.10562E+01  8930   0.742E+00    0.420E+01
RMM:  14    -0.249334423061E+03    0.83933E+00   -0.55637E+00  8357   0.486E+00    0.404E+01
RMM:  15    -0.246419081043E+03    0.29153E+01   -0.23880E+00  8453   0.328E+00    0.255E+01
RMM:  16    -0.248804892499E+03   -0.23858E+01   -0.90157E-01  7869   0.183E+00    0.221E+01
RMM:  17    -0.250787496183E+03   -0.19826E+01   -0.70831E-01  7882   0.157E+00    0.215E+01
RMM:  18    -0.251572730102E+03   -0.78523E+00   -0.32671E-01  7959   0.104E+00    0.207E+01
RMM:  19    -0.251729924671E+03   -0.15719E+00   -0.27359E-01  7871   0.102E+00    0.194E+01
RMM:  20    -0.251435104691E+03    0.29482E+00   -0.14382E+00  7758   0.242E+00    0.155E+01
RMM:  21    -0.251554696677E+03   -0.11959E+00   -0.13229E+00  7872   0.234E+00    0.142E+01
RMM:  22    -0.252080009871E+03   -0.52531E+00   -0.32141E-01  8427   0.110E+00    0.149E+01
RMM:  23    -0.252251241788E+03   -0.17123E+00   -0.12557E-01  8473   0.662E-01    0.169E+01
RMM:  24    -0.252316860116E+03   -0.65618E-01   -0.74174E-02  7855   0.565E-01    0.192E+01
RMM:  25    -0.252276287794E+03    0.40572E-01   -0.56589E-02  7606   0.429E-01    0.194E+01
RMM:  26    -0.252230715115E+03    0.45573E-01   -0.18859E-02  7838   0.246E-01    0.196E+01
RMM:  27    -0.252258265687E+03   -0.27551E-01   -0.96004E-03  7822   0.205E-01    0.198E+01
RMM:  28    -0.252316608304E+03   -0.58343E-01   -0.18864E-02  7402   0.259E-01    0.198E+01
RMM:  29    -0.252077873231E+03    0.23874E+00   -0.68890E-01  7747   0.135E+00    0.213E+01
RMM:  30    -0.251210163921E+03    0.86771E+00   -0.14438E+00  7779   0.178E+00    0.184E+01
RMM:  31    -0.252027738789E+03   -0.81757E+00   -0.29297E-01  7815   0.107E+00    0.177E+01
RMM:  32    -0.252170604533E+03   -0.14287E+00   -0.14562E-01  8131   0.762E-01    0.175E+01
RMM:  33    -0.252180090645E+03   -0.94861E-02   -0.22217E-02  8298   0.296E-01    0.175E+01
RMM:  34    -0.252061664338E+03    0.11843E+00   -0.13678E-02  7907   0.217E-01    0.173E+01
RMM:  35    -0.250678263199E+03    0.13834E+01   -0.53517E-01  7857   0.130E+00    0.164E+01
RMM:  36    -0.245964039535E+03    0.47142E+01   -0.18566E+00  7870   0.240E+00    0.166E+01
RMM:  37    -0.246427746803E+03   -0.46371E+00   -0.56749E-01  7870   0.165E+00    0.176E+01
RMM:  38    -0.246421549224E+03    0.61976E-02   -0.15051E-01  8589   0.756E-01    0.176E+01
RMM:  39    -0.247341496631E+03   -0.91995E+00   -0.62269E-02  7670   0.502E-01    0.171E+01
RMM:  40    -0.247289761200E+03    0.51735E-01   -0.39563E-02  7646   0.367E-01    0.166E+01
RMM:  41    -0.245371444237E+03    0.19183E+01   -0.42381E-01  7696   0.136E+00    0.160E+01
RMM:  42    -0.245270951446E+03    0.10049E+00   -0.37613E-01  7915   0.128E+00    0.151E+01
RMM:  43    -0.244586882013E+03    0.68407E+00   -0.11687E-01  8154   0.696E-01    0.160E+01
RMM:  44    -0.244822079791E+03   -0.23520E+00   -0.73200E-02  7607   0.568E-01    0.159E+01
RMM:  45    -0.244618100403E+03    0.20398E+00   -0.36678E-02  7395   0.407E-01    0.144E+01
RMM:  46    -0.244445646722E+03    0.17245E+00   -0.64533E-02  7575   0.500E-01    0.141E+01
RMM:  47    -0.244720279002E+03   -0.27463E+00   -0.13636E-01  7373   0.689E-01    0.141E+01
RMM:  48    -0.244706472581E+03    0.13806E-01   -0.20134E-02  7377   0.250E-01    0.142E+01
RMM:  49    -0.244554201049E+03    0.15227E+00   -0.11198E-02  8035   0.215E-01    0.142E+01
RMM:  50    -0.245070740874E+03   -0.51654E+00   -0.82222E-02  7993   0.565E-01    0.141E+01
RMM:  51    -0.244412183706E+03    0.65856E+00   -0.39948E-01  8066   0.128E+00    0.137E+01
RMM:  52    -0.243730711532E+03    0.68147E+00   -0.21684E-01  8108   0.970E-01    0.144E+01
RMM:  53    -0.244306680192E+03   -0.57597E+00   -0.88003E-02  8498   0.583E-01    0.190E+01
RMM:  54    -0.244952297701E+03   -0.64562E+00   -0.15328E-01  7582   0.866E-01    0.188E+01
RMM:  55    -0.245230375159E+03   -0.27808E+00   -0.24971E-02  8033   0.365E-01    0.191E+01
RMM:  56    -0.243939113857E+03    0.12913E+01   -0.27689E-01  7746   0.114E+00    0.211E+01
RMM:  57    -0.243282776727E+03    0.65634E+00   -0.10235E-01  7934   0.674E-01    0.225E+01
RMM:  58    -0.244108556240E+03   -0.82578E+00   -0.10854E-01  7717   0.646E-01    0.244E+01
RMM:  59    -0.243832530083E+03    0.27603E+00   -0.89122E-02  7800   0.536E-01    0.246E+01
RMM:  60    -0.243484753013E+03    0.34778E+00   -0.15426E-01  7839   0.838E-01
   1 F= -.24348475E+03 E0= -.24349309E+03  d E =-.243485E+03  mag=    19.2601
 curvature:   0.00 expect dE= 0.000E+00 dE for cont linesearch  0.000E+00
 trial: gam= 0.00000 g(F)=  0.192E+00 g(S)=  0.000E+00 ort = 0.000E+00 (trialstep = 0.100E+01)
 search vector abs. value=  0.192E+00
 bond charge predicted
       N       E                     dE             d eps       ncg     rms          rms(c)
DAV:   1    -0.242085052976E+03    0.17475E+01   -0.48843E+01 10656   0.497E+01    0.237E+01
RMM:   2    -0.320081973414E+03   -0.77997E+02   -0.69772E+01  8484   0.175E+01    0.883E+01
RMM:   3    -0.253112849255E+03    0.66969E+02   -0.26103E+01  8474   0.112E+01    0.229E+01
RMM:   4    -0.257761971019E+03   -0.46491E+01   -0.50668E+00  8402   0.495E+00    0.142E+01
RMM:   5    -0.259577130153E+03   -0.18152E+01   -0.16043E+00  8951   0.277E+00    0.201E+01
RMM:   6    -0.260084579208E+03   -0.50745E+00   -0.23958E-01  9378   0.103E+00    0.266E+01
RMM:   7    -0.261286433368E+03   -0.12019E+01   -0.36203E-01  7914   0.125E+00    0.285E+01
RMM:   8    -0.262825507600E+03   -0.15391E+01   -0.73895E-01  8027   0.168E+00    0.330E+01
RMM:   9    -0.262339538256E+03    0.48597E+00   -0.49777E-01  8134   0.137E+00    0.338E+01
RMM:  10    -0.262725331113E+03   -0.38579E+00   -0.14331E-01  8548   0.754E-01    0.354E+01
RMM:  11    -0.263254415009E+03   -0.52908E+00   -0.82678E-02  7699   0.630E-01    0.388E+01
RMM:  12    -0.261145189691E+03    0.21092E+01   -0.44093E-01  7925   0.143E+00    0.366E+01
RMM:  13    -0.260277399990E+03    0.86779E+00   -0.13470E-01  8214   0.754E-01    0.309E+01
RMM:  14    -0.260513666389E+03   -0.23627E+00   -0.18152E-01  7835   0.933E-01    0.289E+01
RMM:  15    -0.260373900621E+03    0.13977E+00   -0.98543E-02  7741   0.689E-01    0.282E+01
RMM:  16    -0.259881556560E+03    0.49234E+00   -0.51902E-02  7939   0.472E-01    0.273E+01
RMM:  17    -0.256596993017E+03    0.32846E+01   -0.65974E-01  8031   0.169E+00    0.145E+01
RMM:  18    -0.257564034576E+03   -0.96704E+00   -0.56930E-01  7990   0.174E+00    0.102E+01
RMM:  19    -0.259046847306E+03   -0.14828E+01   -0.39475E-01  7824   0.151E+00    0.979E+00
RMM:  20    -0.259328468504E+03   -0.28162E+00   -0.27280E-01  7979   0.120E+00    0.102E+01
RMM:  21    -0.259319250153E+03    0.92184E-02   -0.96233E-02  8667   0.674E-01    0.115E+01
RMM:  22    -0.259181304532E+03    0.13795E+00   -0.74918E-02  8076   0.592E-01    0.140E+01
RMM:  23    -0.259264792596E+03   -0.83488E-01   -0.75666E-03  8438   0.205E-01    0.132E+01
RMM:  24    -0.259332101261E+03   -0.67309E-01   -0.91241E-03  7975   0.198E-01    0.124E+01
RMM:  25    -0.259675259532E+03   -0.34316E+00   -0.14473E-01  7851   0.854E-01    0.855E+00
RMM:  26    -0.259909825377E+03   -0.23457E+00   -0.10692E-01  7929   0.754E-01    0.623E+00
RMM:  27    -0.260054283138E+03   -0.14446E+00   -0.35246E-02  7960   0.426E-01    0.482E+00
RMM:  28    -0.260292024162E+03   -0.23774E+00   -0.10770E-01  7798   0.717E-01    0.266E+00
RMM:  29    -0.260409577135E+03   -0.11755E+00   -0.14437E-01  8166   0.792E-01    0.309E+00
RMM:  30    -0.260452184424E+03   -0.42607E-01   -0.37349E-02  7959   0.403E-01    0.307E+00
RMM:  31    -0.260492648747E+03   -0.40464E-01   -0.14630E-02  7892   0.262E-01    0.225E+00
RMM:  32    -0.260529795387E+03   -0.37147E-01   -0.13363E-02  7972   0.229E-01    0.178E+00
RMM:  33    -0.260573071149E+03   -0.43276E-01   -0.12986E-02  7759   0.244E-01    0.130E+00
RMM:  34    -0.260690865524E+03   -0.11779E+00   -0.85377E-03  7761   0.199E-01    0.965E-01
RMM:  35    -0.260753188922E+03   -0.62323E-01   -0.72019E-03  7958   0.164E-01    0.878E-01
RMM:  36    -0.260756389990E+03   -0.32011E-02   -0.13982E-02  8192   0.202E-01    0.716E-01
RMM:  37    -0.260781778130E+03   -0.25388E-01   -0.36311E-02  8240   0.314E-01    0.721E-01
RMM:  38    -0.260821145875E+03   -0.39368E-01   -0.28308E-02  8445   0.270E-01    0.510E-01
RMM:  39    -0.260928228327E+03   -0.10708E+00   -0.21818E-02  8499   0.225E-01    0.446E-01
RMM:  40    -0.261035199539E+03   -0.10697E+00   -0.14347E-02  8415   0.189E-01    0.645E-01
RMM:  41    -0.261083073975E+03   -0.47874E-01   -0.41971E-03  8312   0.115E-01    0.641E-01
RMM:  42    -0.261123677861E+03   -0.40604E-01   -0.23706E-03  8067   0.754E-02    0.593E-01
RMM:  43    -0.261243364939E+03   -0.11969E+00   -0.91664E-03  7528   0.175E-01    0.524E-01
RMM:  44    -0.261308652855E+03   -0.65288E-01   -0.53666E-03  7800   0.127E-01    0.530E-01
RMM:  45    -0.261355421679E+03   -0.46769E-01   -0.28433E-03  8014   0.855E-02    0.499E-01
RMM:  46    -0.261389756157E+03   -0.34334E-01   -0.20436E-03  7921   0.704E-02    0.469E-01
RMM:  47    -0.261400142955E+03   -0.10387E-01   -0.39420E-03  8045   0.106E-01    0.430E-01
RMM:  48    -0.261425160005E+03   -0.25017E-01   -0.13410E-03  7882   0.658E-02    0.428E-01
RMM:  49    -0.261435983868E+03   -0.10824E-01   -0.74390E-04  7725   0.448E-02    0.424E-01
RMM:  50    -0.261438596727E+03   -0.26129E-02   -0.35893E-04  6894   0.327E-02    0.435E-01
RMM:  51    -0.261452295976E+03   -0.13699E-01   -0.71451E-04  7384   0.627E-02    0.467E-01
RMM:  52    -0.261402284265E+03    0.50012E-01   -0.10643E-02  8023   0.205E-01    0.770E-01
RMM:  53    -0.261416688372E+03   -0.14404E-01   -0.13926E-03  8153   0.866E-02    0.691E-01
RMM:  54    -0.261434894747E+03   -0.18206E-01   -0.43776E-04  7009   0.595E-02    0.634E-01
RMM:  55    -0.261465175409E+03   -0.30281E-01   -0.48742E-04  7143   0.497E-02    0.593E-01
RMM:  56    -0.261487653560E+03   -0.22478E-01   -0.50918E-04  7331   0.412E-02    0.549E-01
RMM:  57    -0.261500155927E+03   -0.12502E-01   -0.13318E-03  7598   0.706E-02    0.514E-01
RMM:  58    -0.261506116136E+03   -0.59602E-02   -0.92591E-04  7953   0.512E-02    0.418E-01
RMM:  59    -0.261508153643E+03   -0.20375E-02   -0.21450E-04  7133   0.302E-02    0.386E-01
RMM:  60    -0.261508113653E+03    0.39990E-04   -0.24657E-04  7041   0.302E-02
   2 F= -.26150811E+03 E0= -.26151654E+03  d E =-.180234E+02  mag=    21.9809
 trial-energy change:  -18.023361  1 .order   -0.037453   -0.191976    0.117070
 step:   0.9989(harm=  0.6212)  dis= 0.04002  next Energy=  -261.508177 (dE=-0.180E+02)
 bond charge predicted
       N       E                     dE             d eps       ncg     rms          rms(c)
DAV:   1    -0.261505680698E+03    0.24729E-02   -0.47983E-04 10744   0.177E-01    0.336E-01
RMM:   2    -0.261507930094E+03   -0.22494E-02   -0.78028E-03  7657   0.195E-01    0.391E-01
RMM:   3    -0.261510017835E+03   -0.20877E-02   -0.14432E-03  8381   0.802E-02    0.205E-01
RMM:   4    -0.261511495235E+03   -0.14774E-02   -0.95591E-04  7363   0.570E-02    0.144E-01
RMM:   5    -0.261512942194E+03   -0.14470E-02   -0.18772E-03  7232   0.888E-02    0.701E-02
RMM:   6    -0.261515865464E+03   -0.29233E-02   -0.10007E-03  7086   0.566E-02    0.105E-01
RMM:   7    -0.261517496103E+03   -0.16306E-02   -0.11430E-03  7005   0.547E-02    0.691E-02
RMM:   8    -0.261519492928E+03   -0.19968E-02   -0.94408E-04  6892   0.454E-02    0.733E-02
RMM:   9    -0.261521007507E+03   -0.15146E-02   -0.10030E-03  6764   0.469E-02    0.571E-02
RMM:  10    -0.261521708494E+03   -0.70099E-03   -0.14430E-03  6665   0.619E-02    0.269E-02
RMM:  11    -0.261524174888E+03   -0.24664E-02   -0.81978E-04  6578   0.533E-02    0.901E-02
RMM:  12    -0.261525054755E+03   -0.87987E-03   -0.52013E-04  6412   0.337E-02    0.110E-01
RMM:  13    -0.261525205871E+03   -0.15112E-03   -0.25921E-04  6020   0.319E-02    0.156E-01
RMM:  14    -0.261525297333E+03   -0.91462E-04   -0.14536E-04  5670   0.196E-02    0.174E-01
RMM:  15    -0.261524862940E+03    0.43439E-03   -0.66555E-05  5298   0.201E-02    0.208E-01
RMM:  16    -0.261523920382E+03    0.94256E-03   -0.43283E-05  4987   0.209E-02    0.243E-01
RMM:  17    -0.261523489058E+03    0.43132E-03   -0.91109E-06  4017   0.917E-03    0.253E-01
RMM:  18    -0.261523694593E+03   -0.20554E-03   -0.20024E-06  3541   0.464E-03    0.246E-01
RMM:  19    -0.261524518799E+03   -0.82421E-03   -0.23011E-05  4219   0.148E-02    0.222E-01
RMM:  20    -0.261525495180E+03   -0.97638E-03   -0.74119E-05  5192   0.209E-02    0.193E-01
RMM:  21    -0.261526484858E+03   -0.98968E-03   -0.15662E-04  5740   0.255E-02    0.161E-01
RMM:  22    -0.261526806278E+03   -0.32142E-03   -0.11595E-04  4983   0.151E-02    0.168E-01
RMM:  23    -0.261526794209E+03    0.12069E-04   -0.70671E-05  4837   0.145E-02    0.186E-01
RMM:  24    -0.261526394737E+03    0.39947E-03   -0.35322E-05  4611   0.143E-02    0.211E-01
RMM:  25    -0.261526889940E+03   -0.49520E-03   -0.38413E-05  4371   0.111E-02    0.198E-01
RMM:  26    -0.261526939649E+03   -0.49709E-04   -0.24153E-05  3897   0.766E-03    0.204E-01
RMM:  27    -0.261526546231E+03    0.39342E-03   -0.13710E-05  4031   0.101E-02    0.222E-01
RMM:  28    -0.261527201207E+03   -0.65498E-03   -0.31545E-05  4406   0.128E-02    0.203E-01
RMM:  29    -0.261528514829E+03   -0.13136E-02   -0.16714E-04  5824   0.300E-02    0.157E-01
RMM:  30    -0.261529473589E+03   -0.95876E-03   -0.21335E-04  5782   0.257E-02    0.134E-01
RMM:  31    -0.261530110554E+03   -0.63697E-03   -0.20927E-04  5457   0.203E-02    0.133E-01
RMM:  32    -0.261530752354E+03   -0.64180E-03   -0.20165E-04  5522   0.199E-02    0.131E-01
RMM:  33    -0.261531955062E+03   -0.12027E-02   -0.61581E-04  6305   0.501E-02    0.657E-02
RMM:  34    -0.261532798909E+03   -0.84385E-03   -0.74278E-04  6214   0.433E-02    0.389E-02
RMM:  35    -0.261533943200E+03   -0.11443E-02   -0.43288E-04  6003   0.390E-02    0.954E-02
RMM:  36    -0.261534192261E+03   -0.24906E-03   -0.22574E-04  5827   0.263E-02    0.127E-01
RMM:  37    -0.261534042797E+03    0.14946E-03   -0.10118E-04  5451   0.207E-02    0.157E-01
RMM:  38    -0.261533977732E+03    0.65065E-04   -0.46920E-05  4850   0.124E-02    0.171E-01
RMM:  39    -0.261533845103E+03    0.13263E-03   -0.19953E-05  4314   0.926E-03    0.183E-01
RMM:  40    -0.261533696731E+03    0.14837E-03   -0.86497E-06  3935   0.676E-03    0.193E-01
RMM:  41    -0.261533576689E+03    0.12004E-03   -0.37745E-06  3622   0.477E-03    0.199E-01
RMM:  42    -0.261533621433E+03   -0.44743E-04   -0.22450E-06  2949   0.295E-03    0.199E-01
RMM:  43    -0.261534714545E+03   -0.10931E-02   -0.86412E-05  5284   0.238E-02    0.158E-01
RMM:  44    -0.261534605953E+03    0.10859E-03   -0.27240E-05  4128   0.100E-02    0.175E-01
RMM:  45    -0.261534485932E+03    0.12002E-03   -0.12537E-05  3812   0.719E-03    0.185E-01
RMM:  46    -0.261534447617E+03    0.38315E-04   -0.63447E-06  3422   0.450E-03    0.189E-01
RMM:  47    -0.261534555944E+03   -0.10833E-03   -0.62414E-06  3202   0.400E-03    0.188E-01
RMM:  48    -0.261534637473E+03   -0.81529E-04   -0.55658E-06  3118   0.379E-03    0.188E-01
RMM:  49    -0.261534711845E+03   -0.74372E-04   -0.54901E-06  3074   0.372E-03    0.188E-01
RMM:  50    -0.261535102064E+03   -0.39022E-03   -0.19247E-05  3884   0.905E-03    0.175E-01
RMM:  51    -0.261534925505E+03    0.17656E-03   -0.80806E-06  3524   0.722E-03    0.188E-01
RMM:  52    -0.261534474297E+03    0.45121E-03   -0.82036E-06  3900   0.966E-03    0.204E-01
RMM:  53    -0.261534492633E+03   -0.18336E-04   -0.55027E-07  2269   0.211E-03    0.203E-01
RMM:  54    -0.261534647824E+03   -0.15519E-03   -0.90577E-07  3035   0.334E-03    0.197E-01
RMM:  55    -0.261534494480E+03    0.15334E-03   -0.84928E-07  2854   0.315E-03    0.203E-01
RMM:  56    -0.261534510672E+03   -0.16192E-04   -0.58598E-08  1164   0.126E-03    0.202E-01
RMM:  57    -0.261534189844E+03    0.32083E-03   -0.47906E-06  3543   0.631E-03    0.211E-01
RMM:  58    -0.261534106953E+03    0.82892E-04   -0.27630E-06  2753   0.312E-03    0.211E-01
RMM:  59    -0.261533831923E+03    0.27503E-03   -0.78866E-06  3503   0.580E-03    0.217E-01
RMM:  60    -0.261533809022E+03    0.22901E-04   -0.52578E-06  2905   0.380E-03
   3 F= -.26153381E+03 E0= -.26154149E+03  d E =-.180491E+02  mag=    21.9974
 curvature:  -0.00 expect dE=-0.238E-03 dE for cont linesearch -0.121E-03
 ZBRENT: interpolating
 opt :   0.6259  next Energy=  -261.555152 (dE=-0.181E+02)
 bond charge predicted
       N       E                     dE             d eps       ncg     rms          rms(c)
DAV:   1    -0.261394617765E+03    0.13921E+00   -0.64571E+00 10512   0.179E+01    0.195E+00
RMM:   2    -0.261561022130E+03   -0.16640E+00   -0.15667E+00  9592   0.312E+00    0.996E-01
RMM:   3    -0.261571368971E+03   -0.10347E-01   -0.66451E-02  8130   0.576E-01    0.483E-01
RMM:   4    -0.261570833789E+03    0.53518E-03   -0.47994E-03  9438   0.137E-01    0.398E-01
RMM:   5    -0.261570247169E+03    0.58662E-03   -0.24393E-03  7532   0.115E-01    0.191E-01
RMM:   6    -0.261571532428E+03   -0.12853E-02   -0.12739E-03  7499   0.799E-02    0.593E-02
RMM:   7    -0.261572790163E+03   -0.12577E-02   -0.46386E-04  7752   0.412E-02    0.675E-02
RMM:   8    -0.261573212986E+03   -0.42282E-03   -0.19532E-04  6386   0.280E-02    0.975E-02
RMM:   9    -0.261573072898E+03    0.14009E-03   -0.10309E-04  6100   0.283E-02    0.142E-01
RMM:  10    -0.261572032114E+03    0.10408E-02   -0.96134E-05  6140   0.309E-02    0.194E-01
RMM:  11    -0.261570779669E+03    0.12524E-02   -0.88600E-05  5872   0.248E-02    0.227E-01
RMM:  12    -0.261572389378E+03   -0.16097E-02   -0.78951E-05  5724   0.288E-02    0.169E-01
RMM:  13    -0.261573721058E+03   -0.13317E-02   -0.15952E-04  6340   0.360E-02    0.111E-01
RMM:  14    -0.261574686399E+03   -0.96534E-03   -0.23050E-04  6346   0.318E-02    0.727E-02
RMM:  15    -0.261575380876E+03   -0.69448E-03   -0.24084E-04  6048   0.249E-02    0.606E-02
RMM:  16    -0.261576011376E+03   -0.63050E-03   -0.23426E-04  5825   0.221E-02    0.597E-02
RMM:  17    -0.261576378031E+03   -0.36666E-03   -0.15718E-04  5437   0.203E-02    0.826E-02
RMM:  18    -0.261576095246E+03    0.28279E-03   -0.80170E-05  5439   0.236E-02    0.125E-01
RMM:  19    -0.261576454943E+03   -0.35970E-03   -0.55128E-05  4651   0.116E-02    0.113E-01
RMM:  20    -0.261577231353E+03   -0.77641E-03   -0.16319E-04  5803   0.267E-02    0.751E-02
RMM:  21    -0.261577739696E+03   -0.50834E-03   -0.17134E-04  5500   0.209E-02    0.634E-02
RMM:  22    -0.261578193239E+03   -0.45354E-03   -0.18518E-04  5535   0.203E-02    0.577E-02
RMM:  23    -0.261578635527E+03   -0.44229E-03   -0.20723E-04  5661   0.219E-02    0.478E-02
RMM:  24    -0.261579003970E+03   -0.36844E-03   -0.14806E-04  5205   0.194E-02    0.671E-02
RMM:  25    -0.261578898518E+03    0.10545E-03   -0.75850E-05  5146   0.204E-02    0.102E-01
RMM:  26    -0.261579177829E+03   -0.27931E-03   -0.60585E-05  4688   0.117E-02    0.932E-02
RMM:  27    -0.261579437419E+03   -0.25959E-03   -0.57461E-05  4636   0.115E-02    0.883E-02
RMM:  28    -0.261579989603E+03   -0.55218E-03   -0.21355E-04  5848   0.303E-02    0.456E-02
RMM:  29    -0.261580333456E+03   -0.34385E-03   -0.21923E-04  5729   0.240E-02    0.325E-02
RMM:  30    -0.261580703932E+03   -0.37048E-03   -0.23754E-04  5616   0.228E-02    0.278E-02
RMM:  31    -0.261581109568E+03   -0.40564E-03   -0.18440E-04  5325   0.198E-02    0.378E-02
RMM:  32    -0.261581428421E+03   -0.31885E-03   -0.16330E-04  5323   0.182E-02    0.404E-02
RMM:  33    -0.261581118827E+03    0.30959E-03   -0.12062E-04  5685   0.341E-02    0.108E-01
RMM:  34    -0.261580734230E+03    0.38460E-03   -0.22432E-05  4451   0.147E-02    0.129E-01
RMM:  35    -0.261580740090E+03   -0.58605E-05   -0.20471E-06  3431   0.376E-03
   4 F= -.26158074E+03 E0= -.26158752E+03  d E =-.180960E+02  mag=    21.9995
 curvature:  -0.31 expect dE=-0.205E-01 dE for cont linesearch -0.799E-02
 ZBRENT: interpolating
 opt :   0.1948  next Energy=  -261.599864 (dE=-0.181E+02)
 bond charge predicted
       N       E                     dE             d eps       ncg     rms          rms(c)
DAV:   1    -0.261368176545E+03    0.21256E+00   -0.86302E+00 10520   0.207E+01    0.225E+00
RMM:   2    -0.261587814352E+03   -0.21964E+00   -0.20834E+00  9585   0.360E+00    0.116E+00
RMM:   3    -0.261600152920E+03   -0.12339E-01   -0.87977E-02  8139   0.662E-01    0.555E-01
RMM:   4    -0.261598857232E+03    0.12957E-02   -0.62241E-03  9478   0.157E-01    0.452E-01
RMM:   5    -0.261597730841E+03    0.11264E-02   -0.28453E-03  7720   0.119E-01    0.216E-01
RMM:   6    -0.261598263768E+03   -0.53293E-03   -0.15026E-03  7761   0.850E-02    0.618E-02
RMM:   7    -0.261599048932E+03   -0.78516E-03   -0.35729E-04  8200   0.371E-02    0.497E-02
RMM:   8    -0.261599466477E+03   -0.41754E-03   -0.12146E-04  6735   0.194E-02    0.522E-02
RMM:   9    -0.261599444749E+03    0.21727E-04   -0.45037E-05  5399   0.168E-02    0.752E-02
RMM:  10    -0.261600401489E+03   -0.95674E-03   -0.27385E-04  7116   0.300E-02    0.441E-02
RMM:  11    -0.261600884827E+03   -0.48334E-03   -0.14192E-04  6960   0.188E-02    0.468E-02
RMM:  12    -0.261601238423E+03   -0.35360E-03   -0.72640E-05  6319   0.139E-02    0.554E-02
RMM:  13    -0.261601536287E+03   -0.29786E-03   -0.45511E-05  5646   0.110E-02    0.597E-02
RMM:  14    -0.261601722826E+03   -0.18654E-03   -0.29973E-05  4893   0.887E-03    0.640E-02
RMM:  15    -0.261601780941E+03   -0.58114E-04   -0.18976E-05  4343   0.750E-03    0.709E-02
RMM:  16    -0.261601657306E+03    0.12363E-03   -0.96650E-06  4088   0.801E-03    0.850E-02
RMM:  17    -0.261601720174E+03   -0.62868E-04   -0.52840E-06  3526   0.408E-03    0.844E-02
RMM:  18    -0.261601838354E+03   -0.11818E-03   -0.67824E-06  3581   0.466E-03    0.807E-02
RMM:  19    -0.261602037429E+03   -0.19908E-03   -0.14497E-05  3965   0.722E-03    0.721E-02
RMM:  20    -0.261602302222E+03   -0.26479E-03   -0.30950E-05  4475   0.107E-02    0.591E-02
RMM:  21    -0.261602377399E+03   -0.75177E-04   -0.19731E-05  3969   0.689E-03    0.628E-02
RMM:  22    -0.261602328610E+03    0.48789E-04   -0.11033E-05  3790   0.708E-03    0.743E-02
RMM:  23    -0.261602362327E+03   -0.33717E-04   -0.75773E-06  3473   0.442E-03    0.756E-02
RMM:  24    -0.261602443710E+03   -0.81383E-04   -0.89331E-06  3808   0.496E-03    0.732E-02
RMM:  25    -0.261602548103E+03   -0.10439E-03   -0.12098E-05  3923   0.585E-03    0.689E-02
RMM:  26    -0.261602592356E+03   -0.44253E-04   -0.92275E-06  3505   0.489E-03    0.702E-02
RMM:  27    -0.261602571318E+03    0.21038E-04   -0.59218E-06  3542   0.478E-03    0.762E-02
RMM:  28    -0.261602534426E+03    0.36892E-04   -0.33507E-06  3469   0.402E-03    0.816E-02
RMM:  29    -0.261602529960E+03    0.44663E-05   -0.19030E-06  2736   0.265E-03
   5 F= -.26160253E+03 E0= -.26160703E+03  d E =-.181178E+02  mag=    21.9999
 curvature:  -0.75 expect dE=-0.171E-01 dE for cont linesearch -0.742E-03
 ZBRENT: interpolating
 opt :   0.1139  next Energy=  -261.603219 (dE=-0.181E+02)
 bond charge predicted
       N       E                     dE             d eps       ncg     rms          rms(c)
DAV:   1    -0.261595074728E+03    0.74597E-02   -0.30421E-01 10744   0.394E+00    0.425E-01
RMM:   2    -0.261603010921E+03   -0.79362E-02   -0.73316E-02  9480   0.690E-01    0.208E-01
RMM:   3    -0.261603797100E+03   -0.78618E-03   -0.32650E-03  7918   0.131E-01    0.108E-01
RMM:   4    -0.261603828232E+03   -0.31132E-04   -0.25588E-04  8286   0.320E-02    0.937E-02
RMM:   5    -0.261603813089E+03    0.15144E-04   -0.17032E-04  6762   0.311E-02    0.527E-02
RMM:   6    -0.261603913085E+03   -0.99996E-04   -0.18626E-04  6800   0.291E-02    0.166E-02
RMM:   7    -0.261604213286E+03   -0.30020E-03   -0.75310E-05  5694   0.190E-02    0.305E-02
RMM:   8    -0.261604303884E+03   -0.90598E-04   -0.40602E-05  5203   0.118E-02    0.410E-02
RMM:   9    -0.261604152692E+03    0.15119E-03   -0.21903E-05  4855   0.142E-02    0.675E-02
RMM:  10    -0.261604040413E+03    0.11228E-03   -0.56537E-06  4280   0.740E-03    0.775E-02
RMM:  11    -0.261604257103E+03   -0.21669E-03   -0.13574E-05  4050   0.976E-03    0.607E-02
RMM:  12    -0.261604551978E+03   -0.29488E-03   -0.14734E-04  6193   0.300E-02    0.115E-02
RMM:  13    -0.261604731809E+03   -0.17983E-03   -0.48477E-05  4685   0.130E-02    0.294E-02
RMM:  14    -0.261604824414E+03   -0.92605E-04   -0.34394E-05  4364   0.876E-03    0.343E-02
RMM:  15    -0.261604927677E+03   -0.10326E-03   -0.39011E-05  4437   0.957E-03    0.286E-02
RMM:  16    -0.261605012209E+03   -0.84532E-04   -0.51769E-05  4712   0.116E-02    0.204E-02
RMM:  17    -0.261605082634E+03   -0.70425E-04   -0.64823E-05  4941   0.131E-02    0.119E-02
RMM:  18    -0.261605195167E+03   -0.11253E-03   -0.54330E-05  4496   0.108E-02    0.147E-02
RMM:  19    -0.261605299289E+03   -0.10412E-03   -0.43150E-05  4371   0.973E-03    0.192E-02
RMM:  20    -0.261605296747E+03    0.25421E-05   -0.22676E-05  4287   0.128E-02
   6 F= -.26160530E+03 E0= -.26160977E+03  d E =-.181205E+02  mag=    22.0000
 curvature:  -0.70 expect dE=-0.142E-01 dE for cont linesearch -0.433E-04
 trial: gam= 0.12461 g(F)=  0.205E-01 g(S)=  0.000E+00 ort =-0.346E-02 (trialstep = 0.823E+00)
 search vector abs. value=  0.226E-01
 bond charge predicted
       N       E                     dE             d eps       ncg     rms          rms(c)
DAV:   1    -0.261555242955E+03    0.50056E-01   -0.39694E+00  9824   0.110E+01    0.120E+00
RMM:   2    -0.261611289364E+03   -0.56046E-01   -0.53612E-01  9568   0.209E+00    0.718E-01
RMM:   3    -0.261613280892E+03   -0.19915E-02   -0.23953E-02  8213   0.388E-01    0.404E-01
RMM:   4    -0.261612913297E+03    0.36760E-03   -0.16937E-03  8321   0.912E-02    0.307E-01
RMM:   5    -0.261612538671E+03    0.37463E-03   -0.15613E-03  7408   0.888E-02    0.115E-01
RMM:   6    -0.261612696135E+03   -0.15746E-03   -0.38761E-04  7626   0.498E-02    0.448E-02
RMM:   7    -0.261612776772E+03   -0.80637E-04   -0.50834E-05  6094   0.168E-02    0.288E-02
RMM:   8    -0.261612829861E+03   -0.53089E-04   -0.25952E-05  4934   0.103E-02    0.246E-02
RMM:   9    -0.261612863632E+03   -0.33771E-04   -0.46701E-05  5282   0.136E-02    0.155E-02
RMM:  10    -0.261612934540E+03   -0.70908E-04   -0.44887E-05  5247   0.124E-02    0.106E-02
RMM:  11    -0.261613034400E+03   -0.99860E-04   -0.26420E-05  4702   0.973E-03    0.171E-02
RMM:  12    -0.261613089793E+03   -0.55393E-04   -0.23934E-05  4454   0.769E-03    0.170E-02
RMM:  13    -0.261613055937E+03    0.33856E-04   -0.74716E-05  5367   0.176E-02    0.108E-02
RMM:  14    -0.261613174872E+03   -0.11894E-03   -0.39036E-05  4416   0.103E-02    0.520E-03
RMM:  15    -0.261613257736E+03   -0.82864E-04   -0.27212E-05  4226   0.852E-03    0.104E-02
RMM:  16    -0.261613310406E+03   -0.52670E-04   -0.20799E-05  4135   0.708E-03    0.127E-02
RMM:  17    -0.261613347989E+03   -0.37583E-04   -0.20499E-05  4029   0.688E-03    0.122E-02
RMM:  18    -0.261613387626E+03   -0.39637E-04   -0.17507E-05  3919   0.648E-03    0.128E-02
RMM:  19    -0.261613391878E+03   -0.42518E-05   -0.94000E-06  3896   0.776E-03
   7 F= -.26161339E+03 E0= -.26161796E+03  d E =-.809513E-02  mag=    22.0000
 trial-energy change:   -0.008095  1 .order   -0.006953   -0.016484    0.002577
 step:   0.7387(harm=  0.7115)  dis= 0.00736  next Energy=  -261.613522 (dE=-0.823E-02)
 bond charge predicted
       N       E                     dE             d eps       ncg     rms          rms(c)
DAV:   1    -0.261612982855E+03    0.40477E-03   -0.41416E-02  9928   0.112E+00    0.126E-01
RMM:   2    -0.261613595857E+03   -0.61300E-03   -0.56959E-03  9348   0.216E-01    0.754E-02
RMM:   3    -0.261613673067E+03   -0.77210E-04   -0.24964E-04  7650   0.410E-02    0.443E-02
RMM:   4    -0.261613694988E+03   -0.21921E-04   -0.25091E-05  4935   0.118E-02    0.363E-02
RMM:   5    -0.261613671542E+03    0.23446E-04   -0.50604E-05  5517   0.170E-02    0.150E-02
RMM:   6    -0.261613751764E+03   -0.80223E-04   -0.21048E-05  4778   0.103E-02    0.959E-03
RMM:   7    -0.261613798956E+03   -0.47192E-04   -0.11571E-05  4455   0.694E-03    0.149E-02
RMM:   8    -0.261613793359E+03    0.55970E-05   -0.59860E-06  4058   0.585E-03
   8 F= -.26161379E+03 E0= -.26161840E+03  d E =-.849661E-02  mag=    22.0000
 curvature:  -0.38 expect dE=-0.262E-02 dE for cont linesearch -0.886E-05
 trial: gam= 0.32125 g(F)=  0.695E-02 g(S)=  0.000E+00 ort =-0.728E-03 (trialstep = 0.806E+00)
 search vector abs. value=  0.881E-02
 bond charge predicted
       N       E                     dE             d eps       ncg     rms          rms(c)
DAV:   1    -0.261590407588E+03    0.23391E-01   -0.13271E+00  9944   0.732E+00    0.778E-01
RMM:   2    -0.261614430795E+03   -0.24023E-01   -0.22806E-01  9577   0.134E+00    0.405E-01
RMM:   3    -0.261615983526E+03   -0.15527E-02   -0.11744E-02  8025   0.255E-01    0.212E-01
RMM:   4    -0.261615817825E+03    0.16570E-03   -0.65570E-04  9007   0.563E-02    0.168E-01
RMM:   5    -0.261615545269E+03    0.27256E-03   -0.44177E-04  7536   0.492E-02    0.684E-02
RMM:   6    -0.261615570441E+03   -0.25172E-04   -0.14347E-04  7348   0.306E-02    0.221E-02
RMM:   7    -0.261615633215E+03   -0.62774E-04   -0.16611E-05  4898   0.104E-02    0.159E-02
RMM:   8    -0.261615671178E+03   -0.37963E-04   -0.93897E-06  4607   0.641E-03    0.143E-02
RMM:   9    -0.261615716571E+03   -0.45393E-04   -0.12666E-05  4609   0.691E-03    0.111E-02
RMM:  10    -0.261615773159E+03   -0.56588E-04   -0.23049E-05  4939   0.948E-03    0.555E-03
RMM:  11    -0.261615842295E+03   -0.69136E-04   -0.94799E-06  4134   0.746E-03    0.120E-02
RMM:  12    -0.261615879602E+03   -0.37307E-04   -0.74797E-06  3685   0.459E-03    0.113E-02
RMM:  13    -0.261615915456E+03   -0.35854E-04   -0.14917E-05  4080   0.728E-03    0.473E-03
RMM:  14    -0.261615942876E+03   -0.27420E-04   -0.18266E-05  4268   0.704E-03    0.391E-03
RMM:  15    -0.261615993680E+03   -0.50805E-04   -0.10569E-05  3622   0.579E-03    0.513E-03
RMM:  16    -0.261616022619E+03   -0.28939E-04   -0.69598E-06  3570   0.462E-03    0.891E-03
RMM:  17    -0.261616018367E+03    0.42523E-05   -0.36831E-06  3573   0.477E-03
   9 F= -.26161602E+03 E0= -.26162045E+03  d E =-.222501E-02  mag=    22.0000
 trial-energy change:   -0.002225  1 .order   -0.001935   -0.005410    0.001539
 step:   0.6577(harm=  0.6274)  dis= 0.00442  next Energy=  -261.616158 (dE=-0.236E-02)
 bond charge predicted
       N       E                     dE             d eps       ncg     rms          rms(c)
DAV:   1    -0.261615333406E+03    0.68921E-03   -0.44893E-02 10128   0.135E+00    0.144E-01
RMM:   2    -0.261616151097E+03   -0.81769E-03   -0.77263E-03  9380   0.249E-01    0.745E-02
RMM:   3    -0.261616240859E+03   -0.89762E-04   -0.39867E-04  7607   0.477E-02    0.398E-02
RMM:   4    -0.261616245723E+03   -0.48645E-05   -0.21667E-05  4957   0.116E-02
  10 F= -.26161625E+03 E0= -.26162072E+03  d E =-.245236E-02  mag=    22.0000
 curvature:  -0.40 expect dE=-0.222E-02 dE for cont linesearch -0.454E-05
 trial: gam= 0.80441 g(F)=  0.556E-02 g(S)=  0.000E+00 ort =-0.316E-03 (trialstep = 0.636E+00)
 search vector abs. value=  0.108E-01
 bond charge predicted
       N       E                     dE             d eps       ncg     rms          rms(c)
DAV:   1    -0.261590927404E+03    0.25313E-01   -0.11203E+00 10520   0.735E+00    0.789E-01
RMM:   2    -0.261615823405E+03   -0.24896E-01   -0.23411E-01  9472   0.130E+00    0.378E-01
RMM:   3    -0.261617473182E+03   -0.16498E-02   -0.11213E-02  7843   0.247E-01    0.182E-01
RMM:   4    -0.261617322806E+03    0.15038E-03   -0.66347E-04  9227   0.542E-02    0.146E-01
RMM:   5    -0.261617111620E+03    0.21119E-03   -0.21736E-04  7512   0.346E-02    0.792E-02
RMM:   6    -0.261617045697E+03    0.65923E-04   -0.16906E-04  7336   0.309E-02    0.147E-02
RMM:   7    -0.261617101013E+03   -0.55316E-04   -0.13642E-05  4726   0.102E-02    0.110E-02
RMM:   8    -0.261617135607E+03   -0.34594E-04   -0.56078E-06  4511   0.575E-03    0.934E-03
RMM:   9    -0.261617170867E+03   -0.35260E-04   -0.46956E-06  4254   0.452E-03    0.871E-03
RMM:  10    -0.261617224723E+03   -0.53856E-04   -0.99741E-06  4554   0.643E-03    0.384E-03
RMM:  11    -0.261617274852E+03   -0.50129E-04   -0.48263E-06  3643   0.443E-03    0.617E-03
RMM:  12    -0.261617313337E+03   -0.38485E-04   -0.49268E-06  3482   0.369E-03    0.561E-03
RMM:  13    -0.261617352027E+03   -0.38691E-04   -0.69853E-06  3679   0.459E-03    0.319E-03
RMM:  14    -0.261617386407E+03   -0.34380E-04   -0.85741E-06  3798   0.460E-03    0.188E-03
RMM:  15    -0.261617418601E+03   -0.32194E-04   -0.47333E-06  3386   0.405E-03    0.413E-03
RMM:  16    -0.261617433175E+03   -0.14574E-04   -0.31356E-06  3255   0.326E-03    0.656E-03
RMM:  17    -0.261617430063E+03    0.31114E-05   -0.17032E-06  3254   0.317E-03
  11 F= -.26161743E+03 E0= -.26162181E+03  d E =-.118434E-02  mag=    22.0000
 trial-energy change:   -0.001184  1 .order   -0.001083   -0.003376    0.001211
 step:   0.4834(harm=  0.4680)  dis= 0.00422  next Energy=  -261.617574 (dE=-0.133E-02)
 bond charge predicted
       N       E                     dE             d eps       ncg     rms          rms(c)
DAV:   1    -0.261616075554E+03    0.13576E-02   -0.64260E-02 10512   0.176E+00    0.189E-01
RMM:   2    -0.261617498404E+03   -0.14228E-02   -0.13507E-02  9365   0.312E-01    0.901E-02
RMM:   3    -0.261617622832E+03   -0.12443E-03   -0.64526E-04  7568   0.598E-02    0.446E-02
RMM:   4    -0.261617616581E+03    0.62507E-05   -0.35541E-05  5577   0.136E-02
  12 F= -.26161762E+03 E0= -.26162203E+03  d E =-.137086E-02  mag=    22.0000
 curvature:  -0.47 expect dE=-0.881E-03 dE for cont linesearch -0.842E-06
 trial: gam= 0.32637 g(F)=  0.188E-02 g(S)=  0.000E+00 ort =-0.139E-03 (trialstep = 0.605E+00)
 search vector abs. value=  0.293E-02
 bond charge predicted
       N       E                     dE             d eps       ncg     rms          rms(c)
DAV:   1    -0.261611838604E+03    0.57842E-02   -0.25810E-01 10640   0.365E+00    0.393E-01
RMM:   2    -0.261617901295E+03   -0.60627E-02   -0.56911E-02  9389   0.631E-01    0.181E-01
RMM:   3    -0.261618511811E+03   -0.61052E-03   -0.34199E-03  7683   0.125E-01    0.879E-02
RMM:   4    -0.261618471728E+03    0.40083E-04   -0.16281E-04  8198   0.271E-02    0.710E-02
RMM:   5    -0.261618391432E+03    0.80296E-04   -0.49240E-05  6070   0.186E-02    0.365E-02
RMM:   6    -0.261618360932E+03    0.30501E-04   -0.30602E-05  4984   0.147E-02    0.784E-03
RMM:   7    -0.261618391333E+03   -0.30402E-04   -0.49049E-06  4423   0.648E-03    0.697E-03
RMM:   8    -0.261618405839E+03   -0.14505E-04   -0.23263E-06  4113   0.377E-03    0.596E-03
RMM:   9    -0.261618409705E+03   -0.38666E-05   -0.12199E-06  3494   0.284E-03
  13 F= -.26161841E+03 E0= -.26162285E+03  d E =-.793124E-03  mag=    22.0000
 trial-energy change:   -0.000793  1 .order   -0.000853   -0.001108   -0.000598
 step:   1.3142(harm=  1.3142)  dis= 0.00369  next Energy=  -261.618819 (dE=-0.120E-02)
 bond charge predicted
       N       E                     dE             d eps       ncg     rms          rms(c)
DAV:   1    -0.261609746728E+03    0.86591E-02   -0.35407E-01 10568   0.429E+00    0.453E-01
RMM:   2    -0.261617974110E+03   -0.82274E-02   -0.77927E-02  9395   0.740E-01    0.213E-01
RMM:   3    -0.261618696739E+03   -0.72263E-03   -0.47207E-03  7785   0.149E-01    0.107E-01
RMM:   4    -0.261618623054E+03    0.73685E-04   -0.21938E-04  8550   0.312E-02    0.876E-02
RMM:   5    -0.261618524692E+03    0.98362E-04   -0.72736E-05  6780   0.215E-02    0.453E-02
RMM:   6    -0.261618524466E+03    0.22641E-06   -0.49229E-05  5846   0.175E-02
  14 F= -.26161852E+03 E0= -.26162298E+03  d E =-.907885E-03  mag=    22.0000
 curvature:  -1.05 expect dE=-0.843E-03 dE for cont linesearch -0.925E-05
 ZBRENT: extrapolating
 opt :   1.4519  next Energy=  -261.618536 (dE=-0.919E-03)
 bond charge predicted
       N       E                     dE             d eps       ncg     rms          rms(c)
DAV:   1    -0.261618238313E+03    0.28638E-03   -0.13291E-02 10680   0.831E-01    0.899E-02
RMM:   2    -0.261618569587E+03   -0.33127E-03   -0.29090E-03  9143   0.144E-01    0.419E-02
RMM:   3    -0.261618616460E+03   -0.46873E-04   -0.17107E-04  6357   0.291E-02    0.209E-02
RMM:   4    -0.261618624804E+03   -0.83442E-05   -0.79007E-06  4373   0.779E-03
  15 F= -.26161862E+03 E0= -.26162308E+03  d E =-.100822E-02  mag=    22.0000
 curvature:  -1.26 expect dE=-0.120E-02 dE for cont linesearch -0.647E-05
 trial: gam= 0.54256 g(F)=  0.958E-03 g(S)=  0.000E+00 ort =-0.123E-03 (trialstep = 0.775E+00)
 search vector abs. value=  0.169E-02
 bond charge predicted
       N       E                     dE             d eps       ncg     rms          rms(c)
DAV:   1    -0.261613041627E+03    0.55748E-02   -0.23917E-01 10376   0.348E+00    0.363E-01
RMM:   2    -0.261618651818E+03   -0.56102E-02   -0.53331E-02  9385   0.616E-01    0.175E-01
RMM:   3    -0.261619008964E+03   -0.35715E-03   -0.24024E-03  7764   0.115E-01    0.894E-02
RMM:   4    -0.261618960382E+03    0.48582E-04   -0.14019E-04  8135   0.247E-02    0.745E-02
RMM:   5    -0.261618900703E+03    0.59680E-04   -0.37372E-05  5397   0.161E-02    0.434E-02
RMM:   6    -0.261618914558E+03   -0.13855E-04   -0.51134E-05  5954   0.167E-02    0.760E-03
RMM:   7    -0.261618972739E+03   -0.58181E-04   -0.53310E-06  4434   0.630E-03    0.619E-03
RMM:   8    -0.261619014923E+03   -0.42184E-04   -0.23888E-06  3933   0.354E-03    0.491E-03
RMM:   9    -0.261619076862E+03   -0.61938E-04   -0.26610E-06  3898   0.328E-03    0.339E-03
RMM:  10    -0.261619146240E+03   -0.69378E-04   -0.30715E-06  3639   0.294E-03    0.211E-03
RMM:  11    -0.261619195160E+03   -0.48920E-04   -0.22756E-06  3134   0.253E-03    0.240E-03
RMM:  12    -0.261619235774E+03   -0.40614E-04   -0.21789E-06  3075   0.247E-03    0.208E-03
RMM:  13    -0.261619284386E+03   -0.48612E-04   -0.36815E-06  3515   0.311E-03    0.122E-03
RMM:  14    -0.261619309052E+03   -0.24666E-04   -0.20119E-06  2865   0.246E-03    0.150E-03
RMM:  15    -0.261619324867E+03   -0.15815E-04   -0.16555E-06  2887   0.229E-03    0.198E-03
RMM:  16    -0.261619331538E+03   -0.66714E-05   -0.10621E-06  2763   0.209E-03
  16 F= -.26161933E+03 E0= -.26162387E+03  d E =-.706734E-03  mag=    22.0000
 trial-energy change:   -0.000707  1 .order   -0.000427   -0.000690   -0.000164
 step:   0.8293(harm=  1.0156)  dis= 0.00233  next Energy=  -261.619337 (dE=-0.713E-03)
 reached required accuracy - stopping structural energy minimisation
