unknown system                          
           1
     5.747147    0.000000    0.000000
     0.000000    5.747147    0.000000
     0.000000    0.000000   38.305446
   Mn   O    H 
  14  20   2
Direct configuration=     1
   0.00058986  0.24767071  0.29147031
   0.49505329  0.74713359  0.41753759
   0.49515388  0.24799809  0.41744647
   0.00058986  0.74767011  0.29147031
   0.75058982  0.49766954  0.35292815
   0.74619206  0.99957440  0.48008128
   0.25059042  0.49766954  0.35292815
   0.24782873  0.99966934  0.48296016
   0.99603052  0.99787556  0.38546972
   0.50477883  0.49952751  0.51523890
   0.99667442  0.49978745  0.44946328
   0.50058925  0.99767067  0.32219910
   0.00395905  0.25653759  0.54451350
   0.00398078  0.74599626  0.54457356
   0.99455876  0.22820619  0.48467165
   0.50058925  0.72426545  0.35464748
   0.50058925  0.27107537  0.35464748
   0.99468227  0.77119175  0.48474035
   0.77399447  0.49766954  0.29318964
   0.72381980  0.99759002  0.42053983
   0.49692197  0.22924168  0.47883110
   0.00058986  0.72426545  0.35120881
   0.00058986  0.27107537  0.35120881
   0.49690585  0.76979287  0.47893049
   0.72371173  0.49754864  0.41447882
   0.77399447  0.99767067  0.28975097
   0.26683902  0.49761206  0.41404903
   0.22718577  0.99767067  0.28975097
   0.26748803  0.99781535  0.42036602
   0.22718577  0.49766954  0.29318964
   0.78170790  0.50119665  0.54858967
   0.21992832  0.00126292  0.54259090
   0.22572357  0.50126883  0.54791590
   0.76481152  0.00124637  0.54376355
   0.35446805  0.48738618  0.27144965
   0.60538020  0.00107497  0.55308180
Direct configuration=     2
   0.00058986  0.24767071  0.29147031
   0.49506689  0.74693158  0.41702866
   0.49519410  0.24848465  0.41699469
   0.00058986  0.74767011  0.29147031
   0.75058982  0.49766954  0.35292815
   0.74662846  0.99928225  0.47985058
   0.25059042  0.49766954  0.35292815
   0.24710091  0.99851294  0.48289273
   0.99623548  0.99733073  0.38516305
   0.50473416  0.49999623  0.51529556
   0.99673774  0.50057267  0.44921453
   0.50058925  0.99767067  0.32219910
  -0.00163115  0.25330712  0.54376850
   0.00702275  0.74670887  0.54561957
   0.99411053  0.22654953  0.48424862
   0.50058925  0.72426545  0.35464748
   0.50058925  0.27107537  0.35464748
   0.99322717  0.77211595  0.48405717
   0.77399447  0.49766954  0.29318964
   0.72364041  0.99748869  0.42076898
   0.49693376  0.22890715  0.47906016
   0.00058986  0.72426545  0.35120881
   0.00058986  0.27107537  0.35120881
   0.49714681  0.77047711  0.47913425
   0.72352227  0.49891974  0.41482900
   0.77399447  0.99767067  0.28975097
   0.26729641  0.49834936  0.41435712
   0.22718577  0.99767067  0.28975097
   0.26868342  0.99708868  0.42068957
   0.22718577  0.49766954  0.29318964
   0.78394500  0.50227815  0.54819088
   0.21802730 -0.00048556  0.54261788
   0.22561797  0.50639996  0.54779029
   0.76567301 -0.00170717  0.54397273
   0.35446805  0.48738618  0.27144965
   0.60645771  0.00150146  0.55290362
Direct configuration=     3
   0.00058986  0.24767071  0.29147031
   0.49506688  0.74693180  0.41702921
   0.49519406  0.24848413  0.41699517
   0.00058986  0.74767011  0.29147031
   0.75058982  0.49766954  0.35292815
   0.74662798  0.99928257  0.47985083
   0.25059042  0.49766954  0.35292815
   0.24710170  0.99851419  0.48289280
   0.99623526  0.99733132  0.38516338
   0.50473421  0.49999572  0.51529550
   0.99673768  0.50057182  0.44921480
   0.50058925  0.99767067  0.32219910
  -0.00162510  0.25331062  0.54376930
   0.00701945  0.74670810  0.54561844
   0.99411101  0.22655132  0.48424908
   0.50058925  0.72426545  0.35464748
   0.50058925  0.27107537  0.35464748
   0.99322875  0.77211495  0.48405791
   0.77399447  0.49766954  0.29318964
   0.72364060  0.99748880  0.42076873
   0.49693375  0.22890752  0.47905991
   0.00058986  0.72426545  0.35120881
   0.00058986  0.27107537  0.35120881
   0.49714655  0.77047637  0.47913403
   0.72352248  0.49891825  0.41482862
   0.77399447  0.99767067  0.28975097
   0.26729592  0.49834856  0.41435678
   0.22718577  0.99767067  0.28975097
   0.26868213  0.99708947  0.42068922
   0.22718577  0.49766954  0.29318964
   0.78394258  0.50227698  0.54819131
   0.21802936 -0.00048367  0.54261785
   0.22561808  0.50639440  0.54779043
   0.76567208 -0.00170397  0.54397251
   0.35446805  0.48738618  0.27144965
   0.60645655  0.00150100  0.55290381
Direct configuration=     4
   0.00058986  0.24767071  0.29147031
   0.49506181  0.74700716  0.41721906
   0.49517905  0.24830262  0.41716371
   0.00058986  0.74767011  0.29147031
   0.75058982  0.49766954  0.35292815
   0.74646519  0.99939155  0.47993689
   0.25059042  0.49766954  0.35292815
   0.24737321  0.99894558  0.48291795
   0.99615880  0.99753457  0.38527778
   0.50475087  0.49982087  0.51527436
   0.99671405  0.50027890  0.44930760
   0.50058925  0.99767067  0.32219910
   0.00046029  0.25451572  0.54404722
   0.00588466  0.74644226  0.54522823
   0.99427822  0.22716933  0.48440689
   0.50058925  0.72426545  0.35464748
   0.50058925  0.27107537  0.35464748
   0.99377156  0.77177018  0.48431277
   0.77399447  0.49766954  0.29318964
   0.72370752  0.99752660  0.42068325
   0.49692935  0.22903231  0.47897446
   0.00058986  0.72426545  0.35120881
   0.00058986  0.27107537  0.35120881
   0.49705666  0.77022112  0.47905802
   0.72359315  0.49840677  0.41469799
   0.77399447  0.99767067  0.28975097
   0.26712529  0.49807351  0.41424185
   0.22718577  0.99767067  0.28975097
   0.26823619  0.99736055  0.42056852
   0.22718577  0.49766954  0.29318964
   0.78310804  0.50187353  0.54834008
   0.21873852  0.00016859  0.54260779
   0.22565748  0.50448026  0.54783728
   0.76535071 -0.00060217  0.54389447
   0.35446805  0.48738618  0.27144965
   0.60605459  0.00134190  0.55297028
Direct configuration=     5
   0.00058986  0.24767071  0.29147031
   0.49505594  0.74709423  0.41743843
   0.49516172  0.24809289  0.41735845
   0.00058986  0.74767011  0.29147031
   0.75058982  0.49766954  0.35292815
   0.74627709  0.99951748  0.48003633
   0.25059042  0.49766954  0.35292815
   0.24768693  0.99944403  0.48294702
   0.99607045  0.99776941  0.38540997
   0.50477013  0.49961884  0.51524994
   0.99668676  0.49994044  0.44941481
   0.50058925  0.99767067  0.32219910
   0.00286987  0.25590817  0.54436834
   0.00457347  0.74613511  0.54477736
   0.99447142  0.22788341  0.48458923
   0.50058925  0.72426545  0.35464748
   0.50058925  0.27107537  0.35464748
   0.99439876  0.77137182  0.48460724
   0.77399447  0.49766954  0.29318964
   0.72378484  0.99757028  0.42058448
   0.49692427  0.22917650  0.47887573
   0.00058986  0.72426545  0.35120881
   0.00058986  0.27107537  0.35120881
   0.49695280  0.76992619  0.47897019
   0.72367481  0.49781578  0.41454705
   0.77399447  0.99767067  0.28975097
   0.26692814  0.49775571  0.41410905
   0.22718577  0.99767067  0.28975097
   0.26772093  0.99767377  0.42042906
   0.22718577  0.49766954  0.29318964
   0.78214377  0.50140737  0.54851197
   0.21955793  0.00092225  0.54259616
   0.22570300  0.50226856  0.54789142
   0.76497937  0.00067091  0.54380431
   0.35446805  0.48738618  0.27144965
   0.60559014  0.00115807  0.55304708
Direct configuration=     6
   0.00058986  0.24767071  0.29147031
   0.49505484  0.74711059  0.41747964
   0.49515846  0.24805349  0.41739503
   0.00058986  0.74767011  0.29147031
   0.75058982  0.49766954  0.35292815
   0.74624175  0.99954113  0.48005502
   0.25059042  0.49766954  0.35292815
   0.24774586  0.99953767  0.48295248
   0.99605385  0.99781352  0.38543480
   0.50477374  0.49958088  0.51524535
   0.99668163  0.49987685  0.44943495
   0.50058925  0.99767067  0.32219910
   0.00332255  0.25616977  0.54442867
   0.00432714  0.74607740  0.54469266
   0.99450772  0.22801756  0.48462348
   0.50058925  0.72426545  0.35464748
   0.50058925  0.27107537  0.35464748
   0.99451659  0.77129698  0.48466257
   0.77399447  0.49766954  0.29318964
   0.72379937  0.99757848  0.42056592
   0.49692331  0.22920359  0.47885718
   0.00058986  0.72426545  0.35120881
   0.00058986  0.27107537  0.35120881
   0.49693329  0.76987078  0.47895369
   0.72369015  0.49770475  0.41451869
   0.77399447  0.99767067  0.28975097
   0.26689110  0.49769600  0.41408410
   0.22718577  0.99767067  0.28975097
   0.26762413  0.99773261  0.42040286
   0.22718577  0.49766954  0.29318964
   0.78196261  0.50131979  0.54854426
   0.21971187  0.00106384  0.54259397
   0.22571155  0.50185306  0.54790159
   0.76490961  0.00091008  0.54378737
   0.35446805  0.48738618  0.27144965
   0.60550289  0.00112353  0.55306151
Direct configuration=     7
   0.00058986  0.24767071  0.29147031
   0.49494034  0.74712203  0.41741205
   0.49507118  0.24814836  0.41736709
   0.00058986  0.74767011  0.29147031
   0.75058982  0.49766954  0.35292815
   0.74596051  0.99996139  0.48004058
   0.25059042  0.49766954  0.35292815
   0.24794467  0.99916067  0.48298399
   0.99634662  0.99711465  0.38547281
   0.50501583  0.50000835  0.51526001
   0.99657200  0.50028504  0.44947154
   0.50058925  0.99767067  0.32219910
   0.00294668  0.25759696  0.54437210
   0.00460208  0.74462124  0.54468585
   0.99375070  0.22703479  0.48458325
   0.50058925  0.72426545  0.35464748
   0.50058925  0.27107537  0.35464748
   0.99378542  0.77198482  0.48460796
   0.77399447  0.49766954  0.29318964
   0.72351560  0.99718645  0.42055769
   0.49753765  0.22812510  0.47887705
   0.00058986  0.72426545  0.35120881
   0.00058986  0.27107537  0.35120881
   0.49758169  0.77067996  0.47893934
   0.72285013  0.49878892  0.41455610
   0.77399447  0.99767067  0.28975097
   0.26770916  0.49820686  0.41409362
   0.22718577  0.99767067  0.28975097
   0.26870134  0.99682900  0.42041974
   0.22718577  0.49766954  0.29318964
   0.78315669  0.50193187  0.54852002
   0.21932586  0.00035714  0.54261539
   0.22448770  0.50232126  0.54789035
   0.76577644  0.00027737  0.54381078
   0.35446805  0.48738618  0.27144965
   0.60534492  0.00103293  0.55306749
Direct configuration=     8
   0.00058986  0.24767071  0.29147031
   0.49495204  0.74712086  0.41741896
   0.49508010  0.24813866  0.41736994
   0.00058986  0.74767011  0.29147031
   0.75058982  0.49766954  0.35292815
   0.74598926  0.99991843  0.48004206
   0.25059042  0.49766954  0.35292815
   0.24792435  0.99919920  0.48298077
   0.99631669  0.99718609  0.38546892
   0.50499108  0.49996466  0.51525851
   0.99658321  0.50024331  0.44946780
   0.50058925  0.99767067  0.32219910
   0.00298510  0.25745107  0.54437788
   0.00457397  0.74477009  0.54468655
   0.99382808  0.22713525  0.48458737
   0.50058925  0.72426545  0.35464748
   0.50058925  0.27107537  0.35464748
   0.99386016  0.77191451  0.48461354
   0.77399447  0.49766954  0.29318964
   0.72354461  0.99722652  0.42055853
   0.49747485  0.22823534  0.47887502
   0.00058986  0.72426545  0.35120881
   0.00058986  0.27107537  0.35120881
   0.49751541  0.77059724  0.47894080
   0.72293600  0.49867810  0.41455227
   0.77399447  0.99767067  0.28975097
   0.26762554  0.49815464  0.41409265
   0.22718577  0.99767067  0.28975097
   0.26859123  0.99692137  0.42041802
   0.22718577  0.49766954  0.29318964
   0.78303463  0.50186930  0.54852250
   0.21936532  0.00042938  0.54261320
   0.22461280  0.50227340  0.54789150
   0.76568783  0.00034204  0.54380839
   0.35446805  0.48738618  0.27144965
   0.60536106  0.00104219  0.55306687
Direct configuration=     9
   0.00058986  0.24767071  0.29147031
   0.49509528  0.74733852  0.41739914
   0.49522855  0.24807884  0.41738721
   0.00058986  0.74767011  0.29147031
   0.75058982  0.49766954  0.35292815
   0.74587743  0.00007244  0.48005180
   0.25059042  0.49766954  0.35292815
   0.24795247  0.99891453  0.48304603
   0.99666480  0.99653525  0.38556347
   0.50519943  0.50040633  0.51525919
   0.99643546  0.50057685  0.44952317
   0.50058925  0.99767067  0.32219910
   0.00347088  0.25738523  0.54436838
   0.00448336  0.74513930  0.54456013
   0.99342349  0.22677712  0.48456674
   0.50058925  0.72426545  0.35464748
   0.50058925  0.27107537  0.35464748
   0.99342884  0.77226606  0.48460645
   0.77399447  0.49766954  0.29318964
   0.72344971  0.99708459  0.42049837
   0.49779028  0.22776701  0.47890655
   0.00058986  0.72426545  0.35120881
   0.00058986  0.27107537  0.35120881
   0.49798592  0.77090556  0.47893433
   0.72241351  0.49940455  0.41456596
   0.77399447  0.99767067  0.28975097
   0.26793286  0.49838214  0.41408828
   0.22718577  0.99767067  0.28975097
   0.26920255  0.99631407  0.42038538
   0.22718577  0.49766954  0.29318964
   0.78293433  0.50216021  0.54853222
   0.21894859  0.00020665  0.54262662
   0.22448690  0.50187534  0.54786967
   0.76534153  0.00013448  0.54390243
   0.35446805  0.48738618  0.27144965
   0.60630337  0.00082937  0.55301519
Direct configuration=    10
   0.00058986  0.24767071  0.29147031
   0.49506893  0.74729848  0.41740279
   0.49520124  0.24808984  0.41738403
   0.00058986  0.74767011  0.29147031
   0.75058982  0.49766954  0.35292815
   0.74589800  0.00004411  0.48005001
   0.25059042  0.49766954  0.35292815
   0.24794729  0.99896690  0.48303402
   0.99660076  0.99665498  0.38554608
   0.50516110  0.50032508  0.51525907
   0.99646264  0.50051549  0.44951298
   0.50058925  0.99767067  0.32219910
   0.00338152  0.25739735  0.54437013
   0.00450003  0.74507138  0.54458338
   0.99349792  0.22684301  0.48457053
   0.50058925  0.72426545  0.35464748
   0.50058925  0.27107537  0.35464748
   0.99350819  0.77220139  0.48460775
   0.77399447  0.49766954  0.29318964
   0.72346717  0.99711070  0.42050944
   0.49773225  0.22785317  0.47890075
   0.00058986  0.72426545  0.35120881
   0.00058986  0.27107537  0.35120881
   0.49789937  0.77084884  0.47893552
   0.72250963  0.49927091  0.41456344
   0.77399447  0.99767067  0.28975097
   0.26787633  0.49834029  0.41408908
   0.22718577  0.99767067  0.28975097
   0.26909009  0.99642579  0.42039138
   0.22718577  0.49766954  0.29318964
   0.78295278  0.50210669  0.54853043
   0.21902526  0.00024763  0.54262415
   0.22451006  0.50194856  0.54787369
   0.76540523  0.00017266  0.54388513
   0.35446805  0.48738618  0.27144965
   0.60613002  0.00086852  0.55302470
Direct configuration=    11
   0.00058986  0.24767071  0.29147031
   0.49525907  0.74748250  0.41737999
   0.49538365  0.24809392  0.41740265
   0.00058986  0.74767011  0.29147031
   0.75058982  0.49766954  0.35292815
   0.74583101  0.00012762  0.48005904
   0.25059042  0.49766954  0.35292815
   0.24796590  0.99878857  0.48310210
   0.99701571  0.99602541  0.38563991
   0.50538751  0.50078063  0.51525505
   0.99629901  0.50082550  0.44955612
   0.50058925  0.99767067  0.32219910
   0.00366728  0.25705411  0.54437864
   0.00417165  0.74555874  0.54443486
   0.99330293  0.22672828  0.48455360
   0.50058925  0.72426545  0.35464748
   0.50058925  0.27107537  0.35464748
   0.99322915  0.77238101  0.48461714
   0.77399447  0.49766954  0.29318964
   0.72353224  0.99713913  0.42044169
   0.49783558  0.22766342  0.47894759
   0.00058986  0.72426545  0.35120881
   0.00058986  0.27107537  0.35120881
   0.49823149  0.77093611  0.47894100
   0.72226152  0.49979526  0.41458602
   0.77399447  0.99767067  0.28975097
   0.26792868  0.49841257  0.41410047
   0.22718577  0.99767067  0.28975097
   0.26951174  0.99602111  0.42035652
   0.22718577  0.49766954  0.29318964
   0.78270223  0.50224378  0.54854095
   0.21872823  0.00015686  0.54262714
   0.22473300  0.50149316  0.54783562
   0.76637089  0.00016310  0.54391101
   0.35446805  0.48738618  0.27144965
   0.60600098  0.00058599  0.55304643
Direct configuration=    12
   0.00058986  0.24767071  0.29147031
   0.49521349  0.74743839  0.41738545
   0.49533992  0.24809294  0.41739819
   0.00058986  0.74767011  0.29147031
   0.75058982  0.49766954  0.35292815
   0.74584707  0.00010760  0.48005687
   0.25059042  0.49766954  0.35292815
   0.24796144  0.99883132  0.48308578
   0.99691625  0.99617632  0.38561742
   0.50533324  0.50067143  0.51525601
   0.99633824  0.50075119  0.44954578
   0.50058925  0.99767067  0.32219910
   0.00359878  0.25713638  0.54437660
   0.00425037  0.74544192  0.54447046
   0.99334967  0.22675578  0.48455766
   0.50058925  0.72426545  0.35464748
   0.50058925  0.27107537  0.35464748
   0.99329604  0.77233795  0.48461489
   0.77399447  0.49766954  0.29318964
   0.72351664  0.99713231  0.42045793
   0.49781081  0.22770890  0.47893636
   0.00058986  0.72426545  0.35120881
   0.00058986  0.27107537  0.35120881
   0.49815188  0.77091519  0.47893968
   0.72232099  0.49966956  0.41458060
   0.77399447  0.99767067  0.28975097
   0.26791613  0.49839524  0.41409774
   0.22718577  0.99767067  0.28975097
   0.26941066  0.99611812  0.42036488
   0.22718577  0.49766954  0.29318964
   0.78276229  0.50221092  0.54853843
   0.21879943  0.00017862  0.54262642
   0.22467956  0.50160232  0.54784475
   0.76613942  0.00016540  0.54390481
   0.35446805  0.48738618  0.27144965
   0.60603192  0.00065371  0.55304122
Direct configuration=    13
   0.00058986  0.24767071  0.29147031
   0.49529663  0.74743690  0.41736195
   0.49540561  0.24820592  0.41740268
   0.00058986  0.74767011  0.29147031
   0.75058982  0.49766954  0.35292815
   0.74583469  0.00015655  0.48005216
   0.25059042  0.49766954  0.35292815
   0.24800611  0.99887917  0.48311712
   0.99721199  0.99589017  0.38564832
   0.50547257  0.50090493  0.51525108
   0.99624569  0.50089206  0.44955446
   0.50058925  0.99767067  0.32219910
   0.00353142  0.25718294  0.54440115
   0.00408636  0.74519226  0.54438528
   0.99342507  0.22684973  0.48454862
   0.50058925  0.72426545  0.35464748
   0.50058925  0.27107537  0.35464748
   0.99328367  0.77229805  0.48463274
   0.77399447  0.49766954  0.29318964
   0.72369044  0.99730528  0.42042502
   0.49769045  0.22778759  0.47897626
   0.00058986  0.72426545  0.35120881
   0.00058986  0.27107537  0.35120881
   0.49820039  0.77083299  0.47895317
   0.72244978  0.49976812  0.41460555
   0.77399447  0.99767067  0.28975097
   0.26778162  0.49831603  0.41412352
   0.22718577  0.99767067  0.28975097
   0.26953543  0.99611160  0.42035551
   0.22718577  0.49766954  0.29318964
   0.78271872  0.50216257  0.54854007
   0.21892370  0.00017075  0.54261618
   0.22483213  0.50148265  0.54780392
   0.76629476  0.00032003  0.54393834
   0.35446805  0.48738618  0.27144965
   0.60623643  0.00043249  0.55304574
Direct configuration=    14
   0.00058986  0.24767071  0.29147031
   0.49539398  0.74743515  0.41733444
   0.49548254  0.24833821  0.41740793
   0.00058986  0.74767011  0.29147031
   0.75058982  0.49766954  0.35292815
   0.74582020  0.00021385  0.48004665
   0.25059042  0.49766954  0.35292815
   0.24805841  0.99893519  0.48315382
   0.99755829  0.99555510  0.38568450
   0.50563572  0.50117835  0.51524530
   0.99613731  0.50105701  0.44956464
   0.50058925  0.99767067  0.32219910
   0.00345254  0.25723745  0.54442990
   0.00389432  0.74489993  0.54428553
   0.99351335  0.22695974  0.48453804
   0.50058925  0.72426545  0.35464748
   0.50058925  0.27107537  0.35464748
   0.99326920  0.77225133  0.48465363
   0.77399447  0.49766954  0.29318964
   0.72389394  0.99750781  0.42038649
   0.49754952  0.22787972  0.47902297
   0.00058986  0.72426545  0.35120881
   0.00058986  0.27107537  0.35120881
   0.49825719  0.77073674  0.47896895
   0.72260059  0.49988353  0.41463475
   0.77399447  0.99767067  0.28975097
   0.26762412  0.49822327  0.41415371
   0.22718577  0.99767067  0.28975097
   0.26968153  0.99610397  0.42034455
   0.22718577  0.49766954  0.29318964
   0.78266770  0.50210596  0.54854199
   0.21906922  0.00016154  0.54260419
   0.22501078  0.50134252  0.54775611
   0.76647667  0.00050110  0.54397760
   0.35446805  0.48738618  0.27144965
   0.60647591  0.00017345  0.55305104
Direct configuration=    15
   0.00058986  0.24767071  0.29147031
   0.49541289  0.74743482  0.41732909
   0.49549748  0.24836391  0.41740895
   0.00058986  0.74767011  0.29147031
   0.75058982  0.49766954  0.35292815
   0.74581738  0.00022498  0.48004558
   0.25059042  0.49766954  0.35292815
   0.24806856  0.99894608  0.48316095
   0.99762555  0.99549002  0.38569153
   0.50566741  0.50123146  0.51524418
   0.99611627  0.50108905  0.44956661
   0.50058925  0.99767067  0.32219910
   0.00343722  0.25724803  0.54443548
   0.00385702  0.74484315  0.54426615
   0.99353050  0.22698111  0.48453598
   0.50058925  0.72426545  0.35464748
   0.50058925  0.27107537  0.35464748
   0.99326639  0.77224225  0.48465769
   0.77399447  0.49766954  0.29318964
   0.72393347  0.99754715  0.42037901
   0.49752214  0.22789761  0.47903205
   0.00058986  0.72426545  0.35120881
   0.00058986  0.27107537  0.35120881
   0.49826822  0.77071804  0.47897202
   0.72262988  0.49990594  0.41464043
   0.77399447  0.99767067  0.28975097
   0.26759353  0.49820525  0.41415957
   0.22718577  0.99767067  0.28975097
   0.26970990  0.99610249  0.42034242
   0.22718577  0.49766954  0.29318964
   0.78265779  0.50209497  0.54854237
   0.21909748  0.00015975  0.54260186
   0.22504548  0.50131530  0.54774682
   0.76651200  0.00053627  0.54398522
   0.35446805  0.48738618  0.27144965
   0.60652242  0.00012313  0.55305206
Direct configuration=    16
   0.00058986  0.24767071  0.29147031
   0.49544795  0.74747128  0.41730607
   0.49553904  0.24846244  0.41741405
   0.00058986  0.74767011  0.29147031
   0.75058982  0.49766954  0.35292815
   0.74583781  0.00039608  0.48003528
   0.25059042  0.49766954  0.35292815
   0.24812416  0.99909799  0.48319839
   0.99794503  0.99544072  0.38567140
   0.50576799  0.50132351  0.51524228
   0.99611519  0.50113273  0.44957466
   0.50058925  0.99767067  0.32219910
   0.00360553  0.25715833  0.54447237
   0.00423538  0.74467672  0.54420300
   0.99359411  0.22706044  0.48452707
   0.50058925  0.72426545  0.35464748
   0.50058925  0.27107537  0.35464748
   0.99330348  0.77224102  0.48468325
   0.77399447  0.49766954  0.29318964
   0.72402007  0.99773453  0.42036843
   0.49744518  0.22798383  0.47906439
   0.00058986  0.72426545  0.35120881
   0.00058986  0.27107537  0.35120881
   0.49827372  0.77080302  0.47897379
   0.72277817  0.49989837  0.41465718
   0.77399447  0.99767067  0.28975097
   0.26757324  0.49817665  0.41418927
   0.22718577  0.99767067  0.28975097
   0.26994612  0.99622207  0.42035306
   0.22718577  0.49766954  0.29318964
   0.78257129  0.50197884  0.54854699
   0.21909070  0.00003949  0.54257254
   0.22493749  0.50134919  0.54768975
   0.76678255  0.00059577  0.54401020
   0.35446805  0.48738618  0.27144965
   0.60653912 -0.00011324  0.55307553
