Mn O  H 
 1.0000000000000000
     5.7471469900000001    0.0000000000000000    0.0000000000000000
     0.0000000000000000    5.7471469900000001    0.0000000000000000
     0.0000000000000000    0.0000000000000000   38.3523056924327008
 Mn  O   H  
  14  20   2
Selective dynamics
Direct
 -0.0093835343744717  0.2391760241319369  0.2623916092900749   F   F   F
  0.7489864879576713  0.4968346817732093  0.3235847127412249   F   F   F
  0.4958448276280006  0.2522296608039715  0.3939706150890306   T   T   T
  0.7377729998308727  0.0036879559817819  0.4609772512037924   T   T   T
  0.2357037737856199  0.0031033317350850  0.4549627090509316   T   T   T
  0.2510151206674320  0.4955812159049278  0.3269556710605909   F   F   F
  0.4971665641712315  0.7520278395793700  0.3939338411274134   T   T   T
 -0.0100916428494874  0.7513987945614823  0.2627757334990781   F   F   F
  0.0024768544779153 -0.0045784375955736  0.3571699137271092   F   F   F
 -0.0052865374245570  0.5015839454773482  0.4263976085653023   T   T   T
  0.4737249494983884  0.5125971731231184  0.4910806518324560   T   T   T
  0.4872487909802456 -0.0043314717839424  0.2917774653642574   F   F   F
  0.6800639335617505  0.1520825560706477  0.5487998196633441   T   T   T
  0.9462741174101358  0.6813132305705030  0.5195405992518388   T   T   T
 -0.0079901731802060  0.2241736247198327  0.4598054166122857   T   T   T
  0.7747574636748692  0.4958631552600724  0.2647010163483396   F   F   F
  0.4994775423373534  0.2678073900728424  0.3280746410023943   F   F   F
  0.7221261377855891  0.0014502811698388  0.3970094962067195   T   T   T
  0.0037645548922136  0.2690184215424850  0.3222536979589821   F   F   F
  0.7692367725186661 -0.0055241815224737  0.2597891457639432   F   F   F
  0.4840064589939295  0.2309155508993228  0.4564338434257935   T   T   T
  0.7229092313646754  0.5025898264621732  0.3913562541590490   T   T   T
  0.2111692605782599 -0.0057975698878655  0.2583053953367737   F   F   F
  0.2668388349173132  0.5032269732094222  0.3909953795022267   T   T   T
  0.2272536477132092  0.4962741366236937  0.2626329689737672   F   F   F
  0.2657162159801542  0.0012825873964514  0.3966882652376710   T   T   T
  0.4987015056994976  0.7247605740973498  0.3278246169346272   F   F   F
 -0.0058676875474924  0.7701263837066920  0.4630138565812108   T   T   T
  0.4854080569423169  0.7752052528356991  0.4540917602674138   T   T   T
  0.0041034282560547  0.7236694402594225  0.3222276800561435   F   F   F
  0.7149159440855254  0.4283993689238576  0.5290189997079683   T   T   T
  0.2566300319244354  0.5748664145506788  0.5322755411694883   T   T   T
  0.5735203955151497  0.1019547221497501  0.5874481868687844   T   T   T
  0.7037892626840097  0.9314386766415976  0.5167917356180064   T   T   T
  0.3862807976787250  0.4992215041381847  0.2532026820654570   F   F   F
  0.3427569778774894  0.6099581632796468  0.5534072249482697   T   T   T
