unknown system                          
           1
     2.873573   -2.873573    4.708335
     5.747147    0.000000    0.000000
     0.000000   33.065691   20.180529
   Mn   O    H 
  14  23  10
Direct configuration=     1
   0.22067121  0.89240241  0.08901558
   0.67261918  0.16057439  0.21767817
   0.94927612  0.02809995  0.15233499
   0.39458204  0.29878739  0.28241041
   0.44927612  0.52809995  0.15233499
   0.89895002  0.29589364  0.28370198
   0.44927612  0.02809995  0.15233499
   0.89533930  0.78577702  0.28340836
   0.90282244  0.55132680  0.10484543
   0.35112635  0.81564853  0.23371269
   0.99534735  0.50366816  0.20210693
   0.22539011  0.88292720  0.35077474
   0.53851998  0.23347802  0.07318573
   0.13638968  0.42627566  0.34742053
   0.81939002  0.58512248  0.31734762
   0.87926422  0.06310591  0.05527763
   0.34086717  0.33257145  0.18317610
   0.58246139  0.21150732  0.12452493
   0.04430979  0.47815212  0.25478458
   0.58228532  0.68287924  0.37125271
   0.09516526  0.72856013  0.12156099
   0.55652395  0.44639146  0.25230032
   0.75550588  0.10291027  0.31283744
   0.85888103  0.57329750  0.05350623
   0.31645959  0.84542543  0.18182538
   0.56207820  0.72169891  0.12275353
   0.01514692  0.97742132  0.25401673
   0.79931765  0.32562501  0.18469245
   0.25222312  0.59485829  0.31577418
   0.34617716  0.60305419  0.05647018
   0.25220366  0.14351140  0.31555157
   0.79931806  0.87550343  0.18389805
   0.34617716  0.05624469  0.05647018
   0.54724102  0.99021229  0.25139547
   0.09516526  0.18175063  0.12156099
   0.01314610  0.73213531  0.37786413
   0.04467785  0.23176201  0.37959342
   0.34047062  0.60391201  0.02782883
   0.92434681  0.68523651  0.03696881
   0.34363348  0.06399961  0.02783421
   0.88838126  0.05560908  0.02665597
   0.66285043  0.77322322  0.38285315
   0.70993433  0.10151885  0.33690410
   0.39211582  0.30289904  0.36718780
   0.67167827  0.64242714  0.34659554
   0.07072172  0.67641370  0.40129347
   0.86858294  0.32689289  0.38287450
Direct configuration=     2
   0.22067121  0.89240241  0.08901558
   0.67343849  0.15924579  0.21785935
   0.94927612  0.02809995  0.15233499
   0.39598786  0.29749188  0.28210033
   0.44927612  0.52809995  0.15233499
   0.89907839  0.29595011  0.28360068
   0.44927612  0.02809995  0.15233499
   0.89675813  0.78592171  0.28306283
   0.90282244  0.55132680  0.10484543
   0.35192331  0.81516366  0.23378316
   0.99538128  0.50380320  0.20210375
   0.22552103  0.88291640  0.35080059
   0.53851998  0.23347802  0.07318573
   0.14126596  0.42462050  0.34723958
   0.81924602  0.58728363  0.31748210
   0.87926422  0.06310591  0.05527763
   0.34172456  0.33075120  0.18297386
   0.58246139  0.21150732  0.12452493
   0.04385993  0.48003114  0.25499692
   0.58181708  0.68306832  0.37126219
   0.09516526  0.72856013  0.12156099
   0.55725522  0.44167688  0.25255586
   0.75522912  0.10189949  0.31298404
   0.85888103  0.57329750  0.05350623
   0.31630962  0.84568794  0.18087925
   0.56207820  0.72169891  0.12275353
   0.00928184  0.97737035  0.25437835
   0.79982770  0.32385623  0.18443987
   0.25020401  0.59329092  0.31601591
   0.34617716  0.60305419  0.05647018
   0.25174643  0.14558286  0.31572921
   0.79954549  0.87646542  0.18369429
   0.34617716  0.05624469  0.05647018
   0.54965289  0.99411378  0.25174578
   0.09516526  0.18175063  0.12156099
   0.01344538  0.73087877  0.37778401
   0.04547304  0.23274506  0.37934509
   0.34047062  0.60391201  0.02782883
   0.92434681  0.68523651  0.03696881
   0.34363348  0.06399961  0.02783421
   0.88838126  0.05560908  0.02665597
   0.66256137  0.77344882  0.38286797
   0.70976058  0.10142709  0.33686934
   0.38928119  0.30419433  0.36704012
   0.67191681  0.64266413  0.34660212
   0.07078473  0.67629764  0.40127427
   0.86818020  0.32725261  0.38290287
Direct configuration=     3
   0.22067121  0.89240241  0.08901558
   0.67341447  0.15928475  0.21785404
   0.94927612  0.02809995  0.15233499
   0.39594664  0.29752987  0.28210942
   0.44927612  0.52809995  0.15233499
   0.89907463  0.29594845  0.28360365
   0.44927612  0.02809995  0.15233499
   0.89671653  0.78591747  0.28307296
   0.90282244  0.55132680  0.10484543
   0.35189994  0.81517787  0.23378109
   0.99538028  0.50379924  0.20210385
   0.22551719  0.88291671  0.35079983
   0.53851998  0.23347802  0.07318573
   0.14112297  0.42466904  0.34724489
   0.81925024  0.58722026  0.31747816
   0.87926422  0.06310591  0.05527763
   0.34169942  0.33080457  0.18297979
   0.58246139  0.21150732  0.12452493
   0.04387312  0.47997604  0.25499070
   0.58183081  0.68306277  0.37126191
   0.09516526  0.72856013  0.12156099
   0.55723378  0.44181512  0.25254837
   0.75523724  0.10192913  0.31297974
   0.85888103  0.57329750  0.05350623
   0.31631401  0.84568024  0.18090699
   0.56207820  0.72169891  0.12275353
   0.00945382  0.97737185  0.25436774
   0.79981275  0.32390809  0.18444728
   0.25026322  0.59333688  0.31600882
   0.34617716  0.60305419  0.05647018
   0.25175984  0.14552212  0.31572400
   0.79953883  0.87643721  0.18370026
   0.34617716  0.05624469  0.05647018
   0.54958217  0.99399938  0.25173551
   0.09516526  0.18175063  0.12156099
   0.01343660  0.73091561  0.37778636
   0.04544973  0.23271623  0.37935237
   0.34047062  0.60391201  0.02782883
   0.92434681  0.68523651  0.03696881
   0.34363348  0.06399961  0.02783421
   0.88838126  0.05560908  0.02665597
   0.66256984  0.77344220  0.38286753
   0.70976567  0.10142978  0.33687036
   0.38936431  0.30415634  0.36704445
   0.67190982  0.64265718  0.34660193
   0.07078288  0.67630104  0.40127483
   0.86819201  0.32724206  0.38290204
Direct configuration=     4
   0.22067121  0.89240241  0.08901558
   0.67330417  0.15946361  0.21782965
   0.94927612  0.02809995  0.15233499
   0.39575739  0.29770427  0.28215116
   0.44927612  0.52809995  0.15233499
   0.89905734  0.29594085  0.28361729
   0.44927612  0.02809995  0.15233499
   0.89652552  0.78589799  0.28311947
   0.90282244  0.55132680  0.10484543
   0.35179265  0.81524315  0.23377160
   0.99537571  0.50378106  0.20210427
   0.22549957  0.88291817  0.35079635
   0.53851998  0.23347802  0.07318573
   0.14046651  0.42489186  0.34726925
   0.81926963  0.58692932  0.31746006
   0.87926422  0.06310591  0.05527763
   0.34158400  0.33104962  0.18300702
   0.58246139  0.21150732  0.12452493
   0.04393368  0.47972308  0.25496211
   0.58189384  0.68303732  0.37126063
   0.09516526  0.72856013  0.12156099
   0.55713533  0.44244981  0.25251397
   0.75527450  0.10206521  0.31296001
   0.85888103  0.57329750  0.05350623
   0.31633420  0.84564490  0.18103436
   0.56207820  0.72169891  0.12275353
   0.01024339  0.97737871  0.25431906
   0.79974408  0.32414621  0.18448128
   0.25053504  0.59354788  0.31597628
   0.34617716  0.60305419  0.05647018
   0.25182139  0.14524325  0.31570009
   0.79950821  0.87630770  0.18372770
   0.34617716  0.05624469  0.05647018
   0.54925748  0.99347415  0.25168835
   0.09516526  0.18175063  0.12156099
   0.01339631  0.73108477  0.37779714
   0.04534267  0.23258389  0.37938580
   0.34047062  0.60391201  0.02782883
   0.92434681  0.68523651  0.03696881
   0.34363348  0.06399961  0.02783421
   0.88838126  0.05560908  0.02665597
   0.66260876  0.77341183  0.38286554
   0.70978906  0.10144213  0.33687504
   0.38974592  0.30398197  0.36706433
   0.67187770  0.64262528  0.34660105
   0.07077440  0.67631667  0.40127742
   0.86824623  0.32719363  0.38289822
Direct configuration=     5
   0.22067121  0.89240241  0.08901558
   0.67547647  0.15788201  0.21791428
   0.94927612  0.02809995  0.15233499
   0.39518798  0.29749027  0.28223941
   0.44927612  0.52809995  0.15233499
   0.89724621  0.29768044  0.28368959
   0.44927612  0.02809995  0.15233499
   0.89738216  0.78499192  0.28327125
   0.90282244  0.55132680  0.10484543
   0.35189296  0.81534057  0.23387434
   0.99550419  0.50382115  0.20216607
   0.22513211  0.88330090  0.35086690
   0.53851998  0.23347802  0.07318573
   0.14090383  0.42527451  0.34719443
   0.81900756  0.59269119  0.31796786
   0.87926422  0.06310591  0.05527763
   0.34201418  0.32942901  0.18287764
   0.58246139  0.21150732  0.12452493
   0.04608240  0.48298051  0.25468617
   0.58118005  0.68355516  0.37134082
   0.09516526  0.72856013  0.12156099
   0.55795202  0.43955262  0.25258023
   0.75430123  0.10058608  0.31321606
   0.85888103  0.57329750  0.05350623
   0.31571558  0.84603369  0.18034736
   0.56207820  0.72169891  0.12275353
   0.00717431  0.97196509  0.25407596
   0.80021599  0.32264794  0.18433927
   0.24957255  0.59259480  0.31599164
   0.34617716  0.60305419  0.05647018
   0.25239533  0.14587075  0.31566422
   0.79973856  0.87671512  0.18358797
   0.34617716  0.05624469  0.05647018
   0.55131465  0.99494890  0.25185341
   0.09516526  0.18175063  0.12156099
   0.01429753  0.72942733  0.37773696
   0.04446182  0.23446648  0.37911647
   0.34047062  0.60391201  0.02782883
   0.92434681  0.68523651  0.03696881
   0.34363348  0.06399961  0.02783421
   0.88838126  0.05560908  0.02665597
   0.66208518  0.77341875  0.38285389
   0.70904063  0.10041633  0.33700187
   0.38792975  0.30477340  0.36699523
   0.67316426  0.64301554  0.34649212
   0.07077923  0.67621436  0.40120010
   0.87016259  0.32667431  0.38285377
Direct configuration=     6
   0.22067121  0.89240241  0.08901558
   0.67544610  0.15790412  0.21791310
   0.94927612  0.02809995  0.15233499
   0.39519594  0.29749326  0.28223817
   0.44927612  0.52809995  0.15233499
   0.89727153  0.29765611  0.28368858
   0.44927612  0.02809995  0.15233499
   0.89737019  0.78500459  0.28326913
   0.90282244  0.55132680  0.10484543
   0.35189155  0.81533921  0.23387290
   0.99550239  0.50382059  0.20216521
   0.22513725  0.88329555  0.35086591
   0.53851998  0.23347802  0.07318573
   0.14089772  0.42526916  0.34719548
   0.81901122  0.59261063  0.31796076
   0.87926422  0.06310591  0.05527763
   0.34200816  0.32945167  0.18287945
   0.58246139  0.21150732  0.12452493
   0.04605235  0.48293497  0.25469003
   0.58119003  0.68354792  0.37133970
   0.09516526  0.72856013  0.12156099
   0.55794060  0.43959313  0.25257930
   0.75431484  0.10060676  0.31321248
   0.85888103  0.57329750  0.05350623
   0.31572423  0.84602826  0.18035696
   0.56207820  0.72169891  0.12275353
   0.00721722  0.97204078  0.25407935
   0.80020939  0.32266888  0.18434126
   0.24958601  0.59260813  0.31599142
   0.34617716  0.60305419  0.05647018
   0.25238731  0.14586198  0.31566472
   0.79973534  0.87670943  0.18358992
   0.34617716  0.05624469  0.05647018
   0.55128589  0.99492828  0.25185110
   0.09516526  0.18175063  0.12156099
   0.01428493  0.72945051  0.37773781
   0.04447414  0.23444016  0.37912023
   0.34047062  0.60391201  0.02782883
   0.92434681  0.68523651  0.03696881
   0.34363348  0.06399961  0.02783421
   0.88838126  0.05560908  0.02665597
   0.66209250  0.77341865  0.38285406
   0.70905109  0.10043067  0.33700009
   0.38795514  0.30476233  0.36699620
   0.67314627  0.64301009  0.34649364
   0.07077916  0.67621579  0.40120118
   0.87013579  0.32668157  0.38285439
Direct configuration=     7
   0.22067121  0.89240241  0.08901558
   0.67454379  0.15856107  0.21787794
   0.94927612  0.02809995  0.15233499
   0.39543246  0.29758215  0.28220152
   0.44927612  0.52809995  0.15233499
   0.89802383  0.29693354  0.28365855
   0.44927612  0.02809995  0.15233499
   0.89701436  0.78538094  0.28320608
   0.90282244  0.55132680  0.10484543
   0.35184989  0.81529874  0.23383023
   0.99544903  0.50380393  0.20213954
   0.22528988  0.88313657  0.35083661
   0.53851998  0.23347802  0.07318573
   0.14071607  0.42511022  0.34722655
   0.81912008  0.59021731  0.31774983
   0.87926422  0.06310591  0.05527763
   0.34182948  0.33012482  0.18293319
   0.58246139  0.21150732  0.12452493
   0.04515984  0.48158193  0.25480465
   0.58148652  0.68333282  0.37130639
   0.09516526  0.72856013  0.12156099
   0.55760137  0.44079654  0.25255178
   0.75471910  0.10122115  0.31310613
   0.85888103  0.57329750  0.05350623
   0.31598119  0.84586676  0.18064232
   0.56207820  0.72169891  0.12275353
   0.00849203  0.97428944  0.25418033
   0.80001337  0.32329122  0.18440024
   0.24998580  0.59300401  0.31598504
   0.34617716  0.60305419  0.05647018
   0.25214891  0.14560133  0.31567962
   0.79963966  0.87654020  0.18364796
   0.34617716  0.05624469  0.05647018
   0.55043140  0.99431571  0.25178254
   0.09516526  0.18175063  0.12156099
   0.01391059  0.73013896  0.37776280
   0.04484002  0.23365818  0.37923211
   0.34047062  0.60391201  0.02782883
   0.92434681  0.68523651  0.03696881
   0.34363348  0.06399961  0.02783421
   0.88838126  0.05560908  0.02665597
   0.66230998  0.77341578  0.38285889
   0.70936197  0.10085676  0.33694741
   0.38870953  0.30443360  0.36702490
   0.67261187  0.64284798  0.34653888
   0.07077716  0.67625829  0.40123330
   0.86933979  0.32689728  0.38287285
Direct configuration=     8
   0.22067121  0.89240241  0.08901558
   0.67430315  0.15873627  0.21786857
   0.94927612  0.02809995  0.15233499
   0.39549553  0.29760586  0.28219174
   0.44927612  0.52809995  0.15233499
   0.89822445  0.29674084  0.28365054
   0.44927612  0.02809995  0.15233499
   0.89691947  0.78548131  0.28318927
   0.90282244  0.55132680  0.10484543
   0.35183878  0.81528795  0.23381885
   0.99543479  0.50379949  0.20213269
   0.22533058  0.88309417  0.35082879
   0.53851998  0.23347802  0.07318573
   0.14066762  0.42506783  0.34723484
   0.81914911  0.58957904  0.31769358
   0.87926422  0.06310591  0.05527763
   0.34178183  0.33030435  0.18294752
   0.58246139  0.21150732  0.12452493
   0.04492182  0.48122108  0.25483522
   0.58156559  0.68327546  0.37129751
   0.09516526  0.72856013  0.12156099
   0.55751091  0.44111747  0.25254444
   0.75482692  0.10138500  0.31307776
   0.85888103  0.57329750  0.05350623
   0.31604972  0.84582369  0.18071843
   0.56207820  0.72169891  0.12275353
   0.00883201  0.97488914  0.25420726
   0.79996110  0.32345720  0.18441597
   0.25009242  0.59310959  0.31598334
   0.34617716  0.60305419  0.05647018
   0.25208533  0.14553182  0.31568359
   0.79961414  0.87649507  0.18366344
   0.34617716  0.05624469  0.05647018
   0.55020351  0.99415235  0.25176425
   0.09516526  0.18175063  0.12156099
   0.01381076  0.73032256  0.37776947
   0.04493759  0.23344964  0.37926194
   0.34047062  0.60391201  0.02782883
   0.92434681  0.68523651  0.03696881
   0.34363348  0.06399961  0.02783421
   0.88838126  0.05560908  0.02665597
   0.66236798  0.77341501  0.38286018
   0.70944488  0.10097040  0.33693336
   0.38891071  0.30434593  0.36703255
   0.67246936  0.64280475  0.34655095
   0.07077662  0.67626962  0.40124186
   0.86912751  0.32695481  0.38287777
Direct configuration=     9
   0.22067121  0.89240241  0.08901558
   0.67393948  0.15900105  0.21785440
   0.94927612  0.02809995  0.15233499
   0.39559086  0.29764168  0.28217697
   0.44927612  0.52809995  0.15233499
   0.89852766  0.29644961  0.28363843
   0.44927612  0.02809995  0.15233499
   0.89677605  0.78563300  0.28316386
   0.90282244  0.55132680  0.10484543
   0.35182199  0.81527164  0.23380165
   0.99541329  0.50379278  0.20212235
   0.22539210  0.88303010  0.35081698
   0.53851998  0.23347802  0.07318573
   0.14059441  0.42500377  0.34724737
   0.81919298  0.58861442  0.31760857
   0.87926422  0.06310591  0.05527763
   0.34170981  0.33057566  0.18296918
   0.58246139  0.21150732  0.12452493
   0.04456209  0.48067574  0.25488141
   0.58168509  0.68318877  0.37128409
   0.09516526  0.72856013  0.12156099
   0.55737418  0.44160251  0.25253335
   0.75498986  0.10163262  0.31303489
   0.85888103  0.57329750  0.05350623
   0.31615328  0.84575860  0.18083344
   0.56207820  0.72169891  0.12275353
   0.00934582  0.97579545  0.25424796
   0.79988209  0.32370803  0.18443975
   0.25025355  0.59326914  0.31598077
   0.34617716  0.60305419  0.05647018
   0.25198925  0.14542677  0.31568960
   0.79957558  0.87642686  0.18368683
   0.34617716  0.05624469  0.05647018
   0.54985911  0.99390545  0.25173662
   0.09516526  0.18175063  0.12156099
   0.01365988  0.73060004  0.37777954
   0.04508506  0.23313447  0.37930703
   0.34047062  0.60391201  0.02782883
   0.92434681  0.68523651  0.03696881
   0.34363348  0.06399961  0.02783421
   0.88838126  0.05560908  0.02665597
   0.66245563  0.77341386  0.38286213
   0.70957018  0.10114213  0.33691213
   0.38921477  0.30421343  0.36704412
   0.67225397  0.64273942  0.34656919
   0.07077581  0.67628675  0.40125480
   0.86880668  0.32704175  0.38288522
Direct configuration=    10
   0.22067121  0.89240241  0.08901558
   0.67565594  0.15790992  0.21777116
   0.94927612  0.02809995  0.15233499
   0.39505639  0.29763191  0.28246242
   0.44927612  0.52809995  0.15233499
   0.89778118  0.29799663  0.28395579
   0.44927612  0.02809995  0.15233499
   0.89610488  0.78535479  0.28363292
   0.90282244  0.55132680  0.10484543
   0.35187641  0.81554424  0.23382937
   0.99555709  0.50374712  0.20209335
   0.22514261  0.88328560  0.35090705
   0.53851998  0.23347802  0.07318573
   0.13967376  0.42565510  0.34737696
   0.81921761  0.59004319  0.31754468
   0.87926422  0.06310591  0.05527763
   0.34164532  0.32979659  0.18294991
   0.58246139  0.21150732  0.12452493
   0.04526222  0.48061205  0.25471677
   0.58122496  0.68344804  0.37128276
   0.09516526  0.72856013  0.12156099
   0.55751464  0.44083135  0.25254711
   0.75552910  0.10136218  0.31273295
   0.85888103  0.57329750  0.05350623
   0.31535844  0.84606519  0.18062604
   0.56207820  0.72169891  0.12275353
   0.00822011  0.97528853  0.25401131
   0.80023775  0.32303755  0.18441492
   0.25049058  0.59278667  0.31580444
   0.34617716  0.60305419  0.05647018
   0.25276222  0.14528581  0.31550171
   0.79978291  0.87619791  0.18363305
   0.34617716  0.05624469  0.05647018
   0.55046284  0.99392543  0.25180348
   0.09516526  0.18175063  0.12156099
   0.01435043  0.72959346  0.37770734
   0.04493050  0.23396617  0.37910103
   0.34047062  0.60391201  0.02782883
   0.92434681  0.68523651  0.03696881
   0.34363348  0.06399961  0.02783421
   0.88838126  0.05560908  0.02665597
   0.66209613  0.77352850  0.38287721
   0.70871922  0.10058762  0.33727621
   0.38864818  0.30440218  0.36704469
   0.67281690  0.64307010  0.34656285
   0.07085427  0.67608312  0.40121766
   0.86990356  0.32698070  0.38284645
Direct configuration=    11
   0.22067121  0.89240241  0.08901558
   0.67480760  0.15844920  0.21781230
   0.94927612  0.02809995  0.15233499
   0.39532054  0.29763674  0.28232134
   0.44927612  0.52809995  0.15233499
   0.89815012  0.29723204  0.28379894
   0.44927612  0.02809995  0.15233499
   0.89643660  0.78549229  0.28340110
   0.90282244  0.55132680  0.10484543
   0.35184951  0.81540951  0.23381567
   0.99548602  0.50376969  0.20210768
   0.22526592  0.88315932  0.35086254
   0.53851998  0.23347802  0.07318573
   0.14012878  0.42533319  0.34731291
   0.81920544  0.58933704  0.31757625
   0.87926422  0.06310591  0.05527763
   0.34167719  0.33018164  0.18295943
   0.58246139  0.21150732  0.12452493
   0.04491619  0.48064353  0.25479814
   0.58145237  0.68331990  0.37128342
   0.09516526  0.72856013  0.12156099
   0.55744522  0.44121248  0.25254031
   0.75526259  0.10149585  0.31288218
   0.85888103  0.57329750  0.05350623
   0.31575128  0.84591367  0.18072855
   0.56207820  0.72169891  0.12275353
   0.00877648  0.97553907  0.25412827
   0.80006197  0.32336892  0.18442719
   0.25037343  0.59302513  0.31589159
   0.34617716  0.60305419  0.05647018
   0.25238019  0.14535548  0.31559457
   0.79968044  0.87631106  0.18365963
   0.34617716  0.05624469  0.05647018
   0.55016446  0.99391555  0.25177043
   0.09516526  0.18175063  0.12156099
   0.01400913  0.73009095  0.37774302
   0.04500689  0.23355511  0.37920284
   0.34047062  0.60391201  0.02782883
   0.92434681  0.68523651  0.03696881
   0.34363348  0.06399961  0.02783421
   0.88838126  0.05560908  0.02665597
   0.66227381  0.77347184  0.38286976
   0.70913980  0.10086168  0.33709627
   0.38892821  0.30430889  0.36704441
   0.67253868  0.64290667  0.34656598
   0.07081549  0.67618376  0.40123602
   0.86936145  0.32701088  0.38286561
Direct configuration=    12
   0.22067121  0.89240241  0.08901558
   0.67653948  0.15736370  0.21775830
   0.94927612  0.02809995  0.15233499
   0.39511669  0.29754179  0.28251319
   0.44927612  0.52809995  0.15233499
   0.89770690  0.29842033  0.28400187
   0.44927612  0.02809995  0.15233499
   0.89612940  0.78522559  0.28371305
   0.90282244  0.55132680  0.10484543
   0.35177820  0.81577979  0.23382610
   0.99567769  0.50367020  0.20206465
   0.22519498  0.88331397  0.35091295
   0.53851998  0.23347802  0.07318573
   0.13920028  0.42594136  0.34733879
   0.81897112  0.59046977  0.31761015
   0.87926422  0.06310591  0.05527763
   0.34152123  0.32957281  0.18296185
   0.58246139  0.21150732  0.12452493
   0.04533417  0.48041880  0.25470018
   0.58117136  0.68351447  0.37125522
   0.09516526  0.72856013  0.12156099
   0.55735388  0.44086111  0.25256715
   0.75476784  0.10155539  0.31314490
   0.85888103  0.57329750  0.05350623
   0.31478606  0.84623339  0.18065091
   0.56207820  0.72169891  0.12275353
   0.00792125  0.97542742  0.25391181
   0.80046272  0.32294506  0.18442222
   0.25069698  0.59277782  0.31573598
   0.34617716  0.60305419  0.05647018
   0.25297594  0.14515810  0.31544382
   0.79991651  0.87579937  0.18360491
   0.34617716  0.05624469  0.05647018
   0.55035700  0.99364195  0.25184706
   0.09516526  0.18175063  0.12156099
   0.01455474  0.72938027  0.37769655
   0.04557101  0.23375656  0.37900540
   0.34047062  0.60391201  0.02782883
   0.92434681  0.68523651  0.03696881
   0.34363348  0.06399961  0.02783421
   0.88838126  0.05560908  0.02665597
   0.66181529  0.77362765  0.38289422
   0.70910179  0.10027241  0.33700839
   0.38861761  0.30435432  0.36706413
   0.67300994  0.64336853  0.34656866
   0.07093557  0.67590434  0.40120504
   0.86962272  0.32749673  0.38284081
Direct configuration=    13
   0.22067121  0.89240241  0.08901558
   0.67652115  0.15737519  0.21775887
   0.94927612  0.02809995  0.15233499
   0.39511885  0.29754279  0.28251116
   0.44927612  0.52809995  0.15233499
   0.89771159  0.29840776  0.28399972
   0.44927612  0.02809995  0.15233499
   0.89613265  0.78522841  0.28370975
   0.90282244  0.55132680  0.10484543
   0.35177896  0.81577587  0.23382599
   0.99567566  0.50367125  0.20206510
   0.22519573  0.88331234  0.35091242
   0.53851998  0.23347802  0.07318573
   0.13921010  0.42593493  0.34733852
   0.81897360  0.59045779  0.31760979
   0.87926422  0.06310591  0.05527763
   0.34152288  0.32957926  0.18296183
   0.58246139  0.21150732  0.12452493
   0.04532974  0.48042118  0.25470122
   0.58117434  0.68351242  0.37125552
   0.09516526  0.72856013  0.12156099
   0.55735485  0.44086483  0.25256687
   0.75477307  0.10155476  0.31314212
   0.85888103  0.57329750  0.05350623
   0.31479628  0.84623001  0.18065173
   0.56207820  0.72169891  0.12275353
   0.00793030  0.97542860  0.25391410
   0.80045848  0.32294954  0.18442227
   0.25069356  0.59278044  0.31573763
   0.34617716  0.60305419  0.05647018
   0.25296964  0.14516019  0.31544541
   0.79991401  0.87580478  0.18360549
   0.34617716  0.05624469  0.05647018
   0.55035496  0.99364485  0.25184625
   0.09516526  0.18175063  0.12156099
   0.01454897  0.72938780  0.37769704
   0.04556504  0.23375443  0.37900749
   0.34047062  0.60391201  0.02782883
   0.92434681  0.68523651  0.03696881
   0.34363348  0.06399961  0.02783421
   0.88838126  0.05560908  0.02665597
   0.66182014  0.77362600  0.38289396
   0.70910219  0.10027864  0.33700932
   0.38862090  0.30435384  0.36706392
   0.67300496  0.64336364  0.34656863
   0.07093430  0.67590729  0.40120537
   0.86961995  0.32749159  0.38284107
Direct configuration=    14
   0.22067121  0.89240241  0.08901558
   0.67573610  0.15786724  0.21778335
   0.94927612  0.02809995  0.15233499
   0.39521125  0.29758583  0.28242419
   0.44927612  0.52809995  0.15233499
   0.89791250  0.29786911  0.28390774
   0.44927612  0.02809995  0.15233499
   0.89627190  0.78534931  0.28356834
   0.90282244  0.55132680  0.10484543
   0.35181128  0.81560802  0.23382126
   0.99558878  0.50371635  0.20208461
   0.22522789  0.88324223  0.35088956
   0.53851998  0.23347802  0.07318573
   0.13963099  0.42565924  0.34732679
   0.81907981  0.58994432  0.31759443
   0.87926422  0.06310591  0.05527763
   0.34159358  0.32985523  0.18296073
   0.58246139  0.21150732  0.12452493
   0.04514028  0.48052305  0.25474562
   0.58130172  0.68342421  0.37126830
   0.09516526  0.72856013  0.12156099
   0.55739625  0.44102411  0.25255470
   0.75499734  0.10152777  0.31302303
   0.85888103  0.57329750  0.05350623
   0.31523381  0.84608508  0.18068692
   0.56207820  0.72169891  0.12275353
   0.00831797  0.97547921  0.25401222
   0.80027682  0.32314168  0.18442452
   0.25054689  0.59289254  0.31580816
   0.34617716  0.60305419  0.05647018
   0.25269958  0.14524966  0.31551375
   0.79980700  0.87603673  0.18363029
   0.34617716  0.05624469  0.05647018
   0.55026768  0.99376887  0.25181151
   0.09516526  0.18175063  0.12156099
   0.01430165  0.72970994  0.37771811
   0.04530933  0.23366312  0.37909699
   0.34047062  0.60391201  0.02782883
   0.92434681  0.68523651  0.03696881
   0.34363348  0.06399961  0.02783421
   0.88838126  0.05560908  0.02665597
   0.66202799  0.77355537  0.38288287
   0.70911942  0.10054576  0.33704916
   0.38876169  0.30433325  0.36705498
   0.67279133  0.64315428  0.34656742
   0.07087987  0.67603395  0.40121941
   0.86950152  0.32727135  0.38285231
Direct configuration=    15
   0.22067121  0.89240241  0.08901558
   0.67636624  0.15739692  0.21784482
   0.94927612  0.02809995  0.15233499
   0.39560522  0.29736171  0.28238397
   0.44927612  0.52809995  0.15233499
   0.89799674  0.29776731  0.28389726
   0.44927612  0.02809995  0.15233499
   0.89652809  0.78558573  0.28352529
   0.90282244  0.55132680  0.10484543
   0.35174725  0.81577823  0.23382742
   0.99572183  0.50362088  0.20206893
   0.22538798  0.88315292  0.35086122
   0.53851998  0.23347802  0.07318573
   0.13985370  0.42564203  0.34722664
   0.81875131  0.59002195  0.31768108
   0.87926422  0.06310591  0.05527763
   0.34156111  0.32968034  0.18295632
   0.58246139  0.21150732  0.12452493
   0.04489783  0.48032643  0.25479445
   0.58137460  0.68345069  0.37124566
   0.09516526  0.72856013  0.12156099
   0.55723642  0.44103958  0.25257463
   0.75491201  0.10179806  0.31315183
   0.85888103  0.57329750  0.05350623
   0.31472406  0.84619823  0.18071346
   0.56207820  0.72169891  0.12275353
   0.00777982  0.97606339  0.25399356
   0.80048764  0.32310788  0.18441431
   0.25053294  0.59307475  0.31579553
   0.34617716  0.60305419  0.05647018
   0.25263185  0.14522124  0.31551594
   0.79993995  0.87563654  0.18358548
   0.34617716  0.05624469  0.05647018
   0.55020004  0.99353555  0.25185555
   0.09516526  0.18175063  0.12156099
   0.01436477  0.72967777  0.37772357
   0.04537894  0.23363806  0.37904403
   0.34047062  0.60391201  0.02782883
   0.92434681  0.68523651  0.03696881
   0.34363348  0.06399961  0.02783421
   0.88838126  0.05560908  0.02665597
   0.66169878  0.77368758  0.38290505
   0.70901659  0.10027445  0.33704233
   0.38861902  0.30434641  0.36706737
   0.67287032  0.64348212  0.34657603
   0.07099218  0.67581009  0.40121176
   0.86957136  0.32761048  0.38283879
Direct configuration=    16
   0.22067121  0.89240241  0.08901558
   0.67639998  0.15737173  0.21784811
   0.94927612  0.02809995  0.15233499
   0.39562632  0.29734971  0.28238182
   0.44927612  0.52809995  0.15233499
   0.89800125  0.29776186  0.28389670
   0.44927612  0.02809995  0.15233499
   0.89654181  0.78559839  0.28352298
   0.90282244  0.55132680  0.10484543
   0.35174382  0.81578734  0.23382775
   0.99572895  0.50361577  0.20206809
   0.22539655  0.88314814  0.35085970
   0.53851998  0.23347802  0.07318573
   0.13986563  0.42564111  0.34722127
   0.81873372  0.59002610  0.31768572
   0.87926422  0.06310591  0.05527763
   0.34155937  0.32967097  0.18295608
   0.58246139  0.21150732  0.12452493
   0.04488484  0.48031590  0.25479707
   0.58137850  0.68345210  0.37124444
   0.09516526  0.72856013  0.12156099
   0.55722786  0.44104040  0.25257570
   0.75490744  0.10181253  0.31315873
   0.85888103  0.57329750  0.05350623
   0.31469676  0.84620429  0.18071488
   0.56207820  0.72169891  0.12275353
   0.00775100  0.97609468  0.25399256
   0.80049893  0.32310607  0.18441377
   0.25053219  0.59308450  0.31579486
   0.34617716  0.60305419  0.05647018
   0.25262822  0.14521972  0.31551606
   0.79994707  0.87561511  0.18358308
   0.34617716  0.05624469  0.05647018
   0.55019642  0.99352306  0.25185791
   0.09516526  0.18175063  0.12156099
   0.01436816  0.72967605  0.37772386
   0.04538267  0.23363672  0.37904120
   0.34047062  0.60391201  0.02782883
   0.92434681  0.68523651  0.03696881
   0.34363348  0.06399961  0.02783421
   0.88838126  0.05560908  0.02665597
   0.66168115  0.77369466  0.38290624
   0.70901109  0.10025992  0.33704197
   0.38861138  0.30434711  0.36706803
   0.67287455  0.64349967  0.34657649
   0.07099819  0.67579810  0.40121135
   0.86957510  0.32762864  0.38283806
Direct configuration=    17
   0.22067121  0.89240241  0.08901558
   0.67668060  0.15714485  0.21787634
   0.94927612  0.02809995  0.15233499
   0.39581378  0.29723852  0.28236797
   0.44927612  0.52809995  0.15233499
   0.89806078  0.29771744  0.28390748
   0.44927612  0.02809995  0.15233499
   0.89661382  0.78573044  0.28351628
   0.90282244  0.55132680  0.10484543
   0.35172080  0.81585790  0.23383112
   0.99580589  0.50355538  0.20206112
   0.22547466  0.88309558  0.35084787
   0.53851998  0.23347802  0.07318573
   0.13999703  0.42561275  0.34718808
   0.81862372  0.58992873  0.31769490
   0.87926422  0.06310591  0.05527763
   0.34156388  0.32959060  0.18295341
   0.58246139  0.21150732  0.12452493
   0.04469196  0.48013949  0.25482808
   0.58138209  0.68346479  0.37123743
   0.09516526  0.72856013  0.12156099
   0.55715070  0.44107345  0.25258105
   0.75501840  0.10196378  0.31315814
   0.85888103  0.57329750  0.05350623
   0.31445278  0.84625448  0.18072951
   0.56207820  0.72169891  0.12275353
   0.00747807  0.97656941  0.25398930
   0.80059017  0.32308299  0.18441047
   0.25053219  0.59319476  0.31578231
   0.34617716  0.60305419  0.05647018
   0.25259457  0.14519940  0.31551212
   0.80000122  0.87543384  0.18356305
   0.34617716  0.05624469  0.05647018
   0.55018350  0.99338242  0.25187590
   0.09516526  0.18175063  0.12156099
   0.01439915  0.72966687  0.37772129
   0.04540393  0.23363309  0.37901434
   0.34047062  0.60391201  0.02782883
   0.92434681  0.68523651  0.03696881
   0.34363348  0.06399961  0.02783421
   0.88838126  0.05560908  0.02665597
   0.66151976  0.77378590  0.38292160
   0.70888042  0.10013818  0.33708649
   0.38853606  0.30435525  0.36707313
   0.67290259  0.64365628  0.34658105
   0.07106892  0.67566464  0.40120954
   0.86962794  0.32779983  0.38282965
Direct configuration=    18
   0.22067121  0.89240241  0.08901558
   0.67691651  0.15695411  0.21790007
   0.94927612  0.02809995  0.15233499
   0.39597138  0.29714505  0.28235633
   0.44927612  0.52809995  0.15233499
   0.89811083  0.29768009  0.28391655
   0.44927612  0.02809995  0.15233499
   0.89667437  0.78584146  0.28351064
   0.90282244  0.55132680  0.10484543
   0.35170145  0.81591722  0.23383395
   0.99587057  0.50350461  0.20205527
   0.22554032  0.88305139  0.35083792
   0.53851998  0.23347802  0.07318573
   0.14010750  0.42558890  0.34716017
   0.81853124  0.58984687  0.31770262
   0.87926422  0.06310591  0.05527763
   0.34156767  0.32952302  0.18295117
   0.58246139  0.21150732  0.12452493
   0.04452979  0.47999117  0.25485416
   0.58138510  0.68347545  0.37123153
   0.09516526  0.72856013  0.12156099
   0.55708584  0.44110124  0.25258556
   0.75511170  0.10209094  0.31315764
   0.85888103  0.57329750  0.05350623
   0.31424765  0.84629667  0.18074181
   0.56207820  0.72169891  0.12275353
   0.00724861  0.97696853  0.25398656
   0.80066688  0.32306359  0.18440770
   0.25053219  0.59328745  0.31577177
   0.34617716  0.60305419  0.05647018
   0.25256629  0.14518231  0.31550881
   0.80004675  0.87528145  0.18354622
   0.34617716  0.05624469  0.05647018
   0.55017264  0.99326418  0.25189103
   0.09516526  0.18175063  0.12156099
   0.01442520  0.72965916  0.37771912
   0.04542180  0.23363004  0.37899175
   0.34047062  0.60391201  0.02782883
   0.92434681  0.68523651  0.03696881
   0.34363348  0.06399961  0.02783421
   0.88838126  0.05560908  0.02665597
   0.66138407  0.77386261  0.38293451
   0.70877057  0.10003582  0.33712393
   0.38847274  0.30436209  0.36707742
   0.67292616  0.64378794  0.34658488
   0.07112838  0.67555244  0.40120802
   0.86967236  0.32794375  0.38282258
Direct configuration=    19
   0.22067121  0.89240241  0.08901558
   0.67677547  0.15706815  0.21788588
   0.94927612  0.02809995  0.15233499
   0.39587716  0.29720093  0.28236329
   0.44927612  0.52809995  0.15233499
   0.89808091  0.29770242  0.28391113
   0.44927612  0.02809995  0.15233499
   0.89663817  0.78577509  0.28351401
   0.90282244  0.55132680  0.10484543
   0.35171302  0.81588175  0.23383225
   0.99583190  0.50353496  0.20205877
   0.22550106  0.88307781  0.35084387
   0.53851998  0.23347802  0.07318573
   0.14004146  0.42560316  0.34717686
   0.81858653  0.58989581  0.31769801
   0.87926422  0.06310591  0.05527763
   0.34156540  0.32956342  0.18295251
   0.58246139  0.21150732  0.12452493
   0.04462674  0.48007984  0.25483857
   0.58138330  0.68346908  0.37123505
   0.09516526  0.72856013  0.12156099
   0.55712462  0.44108463  0.25258286
   0.75505592  0.10201492  0.31315794
   0.85888103  0.57329750  0.05350623
   0.31437028  0.84627145  0.18073446
   0.56207820  0.72169891  0.12275353
   0.00738579  0.97672993  0.25398820
   0.80062102  0.32307519  0.18440935
   0.25053219  0.59323203  0.31577807
   0.34617716  0.60305419  0.05647018
   0.25258320  0.14519253  0.31551079
   0.80001953  0.87537256  0.18355628
   0.34617716  0.05624469  0.05647018
   0.55017913  0.99333487  0.25188198
   0.09516526  0.18175063  0.12156099
   0.01440962  0.72966377  0.37772041
   0.04541111  0.23363186  0.37900525
   0.34047062  0.60391201  0.02782883
   0.92434681  0.68523651  0.03696881
   0.34363348  0.06399961  0.02783421
   0.88838126  0.05560908  0.02665597
   0.66146519  0.77381675  0.38292679
   0.70883625  0.10009701  0.33710155
   0.38851060  0.30435800  0.36707486
   0.67291207  0.64370923  0.34658259
   0.07109283  0.67561952  0.40120893
   0.86964580  0.32785771  0.38282681
Direct configuration=    20
   0.22067121  0.89240241  0.08901558
   0.67684599  0.15701113  0.21789297
   0.94927612  0.02809995  0.15233499
   0.39592427  0.29717299  0.28235981
   0.44927612  0.52809995  0.15233499
   0.89809587  0.29769126  0.28391384
   0.44927612  0.02809995  0.15233499
   0.89665627  0.78580828  0.28351232
   0.90282244  0.55132680  0.10484543
   0.35170724  0.81589949  0.23383310
   0.99585124  0.50351979  0.20205702
   0.22552069  0.88306460  0.35084090
   0.53851998  0.23347802  0.07318573
   0.14007448  0.42559603  0.34716851
   0.81855889  0.58987134  0.31770032
   0.87926422  0.06310591  0.05527763
   0.34156654  0.32954322  0.18295184
   0.58246139  0.21150732  0.12452493
   0.04457827  0.48003551  0.25484636
   0.58138420  0.68347227  0.37123329
   0.09516526  0.72856013  0.12156099
   0.55710523  0.44109293  0.25258421
   0.75508381  0.10205293  0.31315779
   0.85888103  0.57329750  0.05350623
   0.31430897  0.84628406  0.18073813
   0.56207820  0.72169891  0.12275353
   0.00731720  0.97684923  0.25398738
   0.80064395  0.32306939  0.18440853
   0.25053219  0.59325974  0.31577492
   0.34617716  0.60305419  0.05647018
   0.25257474  0.14518742  0.31550980
   0.80003314  0.87532701  0.18355125
   0.34617716  0.05624469  0.05647018
   0.55017589  0.99329952  0.25188650
   0.09516526  0.18175063  0.12156099
   0.01441741  0.72966146  0.37771977
   0.04541646  0.23363095  0.37899850
   0.34047062  0.60391201  0.02782883
   0.92434681  0.68523651  0.03696881
   0.34363348  0.06399961  0.02783421
   0.88838126  0.05560908  0.02665597
   0.66142463  0.77383968  0.38293065
   0.70880341  0.10006642  0.33711274
   0.38849167  0.30436005  0.36707614
   0.67291911  0.64374858  0.34658373
   0.07111061  0.67558598  0.40120847
   0.86965908  0.32790073  0.38282470
Direct configuration=    21
   0.22067121  0.89240241  0.08901558
   0.67688125  0.15698262  0.21789652
   0.94927612  0.02809995  0.15233499
   0.39594782  0.29715902  0.28235807
   0.44927612  0.52809995  0.15233499
   0.89810335  0.29768568  0.28391520
   0.44927612  0.02809995  0.15233499
   0.89666532  0.78582487  0.28351148
   0.90282244  0.55132680  0.10484543
   0.35170435  0.81590835  0.23383352
   0.99586090  0.50351220  0.20205614
   0.22553051  0.88305799  0.35083941
   0.53851998  0.23347802  0.07318573
   0.14009099  0.42559247  0.34716434
   0.81854506  0.58985911  0.31770147
   0.87926422  0.06310591  0.05527763
   0.34156710  0.32953312  0.18295150
   0.58246139  0.21150732  0.12452493
   0.04455403  0.48001334  0.25485026
   0.58138465  0.68347386  0.37123241
   0.09516526  0.72856013  0.12156099
   0.55709553  0.44109709  0.25258488
   0.75509775  0.10207193  0.31315772
   0.85888103  0.57329750  0.05350623
   0.31427831  0.84629036  0.18073997
   0.56207820  0.72169891  0.12275353
   0.00728290  0.97690888  0.25398697
   0.80065541  0.32306649  0.18440811
   0.25053219  0.59327359  0.31577334
   0.34617716  0.60305419  0.05647018
   0.25257051  0.14518486  0.31550930
   0.80003994  0.87530423  0.18354873
   0.34617716  0.05624469  0.05647018
   0.55017426  0.99328185  0.25188877
   0.09516526  0.18175063  0.12156099
   0.01442131  0.72966031  0.37771944
   0.04541913  0.23363050  0.37899513
   0.34047062  0.60391201  0.02782883
   0.92434681  0.68523651  0.03696881
   0.34363348  0.06399961  0.02783421
   0.88838126  0.05560908  0.02665597
   0.66140435  0.77385114  0.38293258
   0.70878699  0.10005112  0.33711833
   0.38848221  0.30436107  0.36707678
   0.67292264  0.64376826  0.34658431
   0.07111949  0.67556921  0.40120825
   0.86966572  0.32792224  0.38282364
Direct configuration=    22
   0.22067121  0.89240241  0.08901558
   0.67689888  0.15696837  0.21789829
   0.94927612  0.02809995  0.15233499
   0.39595960  0.29715203  0.28235720
   0.44927612  0.52809995  0.15233499
   0.89810709  0.29768289  0.28391587
   0.44927612  0.02809995  0.15233499
   0.89666984  0.78583317  0.28351106
   0.90282244  0.55132680  0.10484543
   0.35170290  0.81591278  0.23383374
   0.99586574  0.50350840  0.20205571
   0.22553541  0.88305469  0.35083867
   0.53851998  0.23347802  0.07318573
   0.14009924  0.42559069  0.34716226
   0.81853815  0.58985299  0.31770205
   0.87926422  0.06310591  0.05527763
   0.34156739  0.32952807  0.18295133
   0.58246139  0.21150732  0.12452493
   0.04454191  0.48000226  0.25485221
   0.58138488  0.68347466  0.37123197
   0.09516526  0.72856013  0.12156099
   0.55709068  0.44109916  0.25258522
   0.75510473  0.10208143  0.31315768
   0.85888103  0.57329750  0.05350623
   0.31426298  0.84629352  0.18074089
   0.56207820  0.72169891  0.12275353
   0.00726575  0.97693871  0.25398677
   0.80066115  0.32306504  0.18440790
   0.25053219  0.59328052  0.31577255
   0.34617716  0.60305419  0.05647018
   0.25256840  0.14518359  0.31550906
   0.80004335  0.87529284  0.18354747
   0.34617716  0.05624469  0.05647018
   0.55017345  0.99327302  0.25188990
   0.09516526  0.18175063  0.12156099
   0.01442325  0.72965973  0.37771928
   0.04542046  0.23363027  0.37899344
   0.34047062  0.60391201  0.02782883
   0.92434681  0.68523651  0.03696881
   0.34363348  0.06399961  0.02783421
   0.88838126  0.05560908  0.02665597
   0.66139421  0.77385687  0.38293354
   0.70877878  0.10004347  0.33712113
   0.38847748  0.30436158  0.36707710
   0.67292440  0.64377810  0.34658459
   0.07112394  0.67556082  0.40120813
   0.86966904  0.32793300  0.38282311
Direct configuration=    23
   0.22067121  0.89240241  0.08901558
   0.67690770  0.15696124  0.21789918
   0.94927612  0.02809995  0.15233499
   0.39596549  0.29714854  0.28235677
   0.44927612  0.52809995  0.15233499
   0.89810896  0.29768149  0.28391621
   0.44927612  0.02809995  0.15233499
   0.89667210  0.78583732  0.28351085
   0.90282244  0.55132680  0.10484543
   0.35170218  0.81591500  0.23383384
   0.99586815  0.50350651  0.20205549
   0.22553787  0.88305304  0.35083829
   0.53851998  0.23347802  0.07318573
   0.14010337  0.42558979  0.34716121
   0.81853470  0.58984993  0.31770233
   0.87926422  0.06310591  0.05527763
   0.34156753  0.32952555  0.18295125
   0.58246139  0.21150732  0.12452493
   0.04453585  0.47999672  0.25485318
   0.58138499  0.68347505  0.37123175
   0.09516526  0.72856013  0.12156099
   0.55708826  0.44110020  0.25258539
   0.75510821  0.10208619  0.31315766
   0.85888103  0.57329750  0.05350623
   0.31425532  0.84629509  0.18074135
   0.56207820  0.72169891  0.12275353
   0.00725718  0.97695362  0.25398667
   0.80066401  0.32306432  0.18440780
   0.25053219  0.59328398  0.31577216
   0.34617716  0.60305419  0.05647018
   0.25256734  0.14518295  0.31550893
   0.80004505  0.87528715  0.18354685
   0.34617716  0.05624469  0.05647018
   0.55017305  0.99326860  0.25189046
   0.09516526  0.18175063  0.12156099
   0.01442423  0.72965944  0.37771920
   0.04542113  0.23363015  0.37899260
   0.34047062  0.60391201  0.02782883
   0.92434681  0.68523651  0.03696881
   0.34363348  0.06399961  0.02783421
   0.88838126  0.05560908  0.02665597
   0.66138914  0.77385974  0.38293403
   0.70877468  0.10003965  0.33712253
   0.38847511  0.30436183  0.36707726
   0.67292528  0.64378302  0.34658473
   0.07112616  0.67555663  0.40120808
   0.86967070  0.32793837  0.38282285
Direct configuration=    24
   0.22067121  0.89240241  0.08901558
   0.67691271  0.15695719  0.21789968
   0.94927612  0.02809995  0.15233499
   0.39596883  0.29714655  0.28235652
   0.44927612  0.52809995  0.15233499
   0.89811002  0.29768070  0.28391641
   0.44927612  0.02809995  0.15233499
   0.89667339  0.78583967  0.28351073
   0.90282244  0.55132680  0.10484543
   0.35170177  0.81591626  0.23383390
   0.99586953  0.50350543  0.20205536
   0.22553926  0.88305210  0.35083808
   0.53851998  0.23347802  0.07318573
   0.14010572  0.42558929  0.34716062
   0.81853273  0.58984819  0.31770250
   0.87926422  0.06310591  0.05527763
   0.34156761  0.32952411  0.18295120
   0.58246139  0.21150732  0.12452493
   0.04453241  0.47999357  0.25485374
   0.58138505  0.68347528  0.37123162
   0.09516526  0.72856013  0.12156099
   0.55708688  0.44110079  0.25258548
   0.75511019  0.10208889  0.31315765
   0.85888103  0.57329750  0.05350623
   0.31425096  0.84629599  0.18074161
   0.56207820  0.72169891  0.12275353
   0.00725231  0.97696210  0.25398661
   0.80066564  0.32306390  0.18440774
   0.25053219  0.59328595  0.31577194
   0.34617716  0.60305419  0.05647018
   0.25256674  0.14518259  0.31550886
   0.80004601  0.87528391  0.18354649
   0.34617716  0.05624469  0.05647018
   0.55017282  0.99326609  0.25189078
   0.09516526  0.18175063  0.12156099
   0.01442478  0.72965928  0.37771915
   0.04542151  0.23363009  0.37899212
   0.34047062  0.60391201  0.02782883
   0.92434681  0.68523651  0.03696881
   0.34363348  0.06399961  0.02783421
   0.88838126  0.05560908  0.02665597
   0.66138626  0.77386137  0.38293430
   0.70877234  0.10003748  0.33712332
   0.38847377  0.30436198  0.36707735
   0.67292578  0.64378581  0.34658482
   0.07112742  0.67555425  0.40120804
   0.86967164  0.32794143  0.38282270
Direct configuration=    25
   0.22067121  0.89240241  0.08901558
   0.67691456  0.15695569  0.21789987
   0.94927612  0.02809995  0.15233499
   0.39597007  0.29714582  0.28235643
   0.44927612  0.52809995  0.15233499
   0.89811041  0.29768040  0.28391648
   0.44927612  0.02809995  0.15233499
   0.89667386  0.78584055  0.28351069
   0.90282244  0.55132680  0.10484543
   0.35170161  0.81591673  0.23383392
   0.99587003  0.50350503  0.20205532
   0.22553978  0.88305176  0.35083801
   0.53851998  0.23347802  0.07318573
   0.14010659  0.42558910  0.34716040
   0.81853201  0.58984755  0.31770256
   0.87926422  0.06310591  0.05527763
   0.34156764  0.32952358  0.18295118
   0.58246139  0.21150732  0.12452493
   0.04453114  0.47999240  0.25485394
   0.58138508  0.68347536  0.37123158
   0.09516526  0.72856013  0.12156099
   0.55708637  0.44110101  0.25258552
   0.75511093  0.10208988  0.31315765
   0.85888103  0.57329750  0.05350623
   0.31424935  0.84629632  0.18074171
   0.56207820  0.72169891  0.12275353
   0.00725050  0.97696523  0.25398659
   0.80066624  0.32306375  0.18440772
   0.25053219  0.59328668  0.31577185
   0.34617716  0.60305419  0.05647018
   0.25256652  0.14518245  0.31550884
   0.80004637  0.87528272  0.18354636
   0.34617716  0.05624469  0.05647018
   0.55017273  0.99326516  0.25189090
   0.09516526  0.18175063  0.12156099
   0.01442499  0.72965922  0.37771914
   0.04542165  0.23363007  0.37899194
   0.34047062  0.60391201  0.02782883
   0.92434681  0.68523651  0.03696881
   0.34363348  0.06399961  0.02783421
   0.88838126  0.05560908  0.02665597
   0.66138519  0.77386197  0.38293440
   0.70877148  0.10003667  0.33712362
   0.38847327  0.30436203  0.36707738
   0.67292596  0.64378685  0.34658485
   0.07112789  0.67555337  0.40120803
   0.86967199  0.32794256  0.38282264
Direct configuration=    26
   0.22067121  0.89240241  0.08901558
   0.67691361  0.15695646  0.21789977
   0.94927612  0.02809995  0.15233499
   0.39596944  0.29714620  0.28235648
   0.44927612  0.52809995  0.15233499
   0.89811021  0.29768055  0.28391644
   0.44927612  0.02809995  0.15233499
   0.89667362  0.78584010  0.28351071
   0.90282244  0.55132680  0.10484543
   0.35170169  0.81591649  0.23383391
   0.99586978  0.50350523  0.20205534
   0.22553951  0.88305193  0.35083805
   0.53851998  0.23347802  0.07318573
   0.14010614  0.42558920  0.34716051
   0.81853238  0.58984788  0.31770253
   0.87926422  0.06310591  0.05527763
   0.34156763  0.32952385  0.18295119
   0.58246139  0.21150732  0.12452493
   0.04453179  0.47999300  0.25485384
   0.58138506  0.68347532  0.37123160
   0.09516526  0.72856013  0.12156099
   0.55708663  0.44110090  0.25258550
   0.75511055  0.10208937  0.31315765
   0.85888103  0.57329750  0.05350623
   0.31425017  0.84629615  0.18074166
   0.56207820  0.72169891  0.12275353
   0.00725142  0.97696363  0.25398660
   0.80066594  0.32306383  0.18440773
   0.25053219  0.59328631  0.31577190
   0.34617716  0.60305419  0.05647018
   0.25256663  0.14518252  0.31550885
   0.80004619  0.87528333  0.18354642
   0.34617716  0.05624469  0.05647018
   0.55017277  0.99326563  0.25189084
   0.09516526  0.18175063  0.12156099
   0.01442488  0.72965925  0.37771915
   0.04542158  0.23363008  0.37899203
   0.34047062  0.60391201  0.02782883
   0.92434681  0.68523651  0.03696881
   0.34363348  0.06399961  0.02783421
   0.88838126  0.05560908  0.02665597
   0.66138574  0.77386166  0.38293435
   0.70877192  0.10003708  0.33712347
   0.38847352  0.30436201  0.36707737
   0.67292587  0.64378632  0.34658483
   0.07112765  0.67555382  0.40120804
   0.86967182  0.32794198  0.38282267
Direct configuration=    27
   0.22067121  0.89240241  0.08901558
   0.67691315  0.15695683  0.21789973
   0.94927612  0.02809995  0.15233499
   0.39596913  0.29714638  0.28235650
   0.44927612  0.52809995  0.15233499
   0.89811012  0.29768063  0.28391642
   0.44927612  0.02809995  0.15233499
   0.89667350  0.78583988  0.28351072
   0.90282244  0.55132680  0.10484543
   0.35170173  0.81591637  0.23383391
   0.99586965  0.50350533  0.20205535
   0.22553938  0.88305202  0.35083806
   0.53851998  0.23347802  0.07318573
   0.14010593  0.42558924  0.34716057
   0.81853256  0.58984804  0.31770251
   0.87926422  0.06310591  0.05527763
   0.34156762  0.32952398  0.18295120
   0.58246139  0.21150732  0.12452493
   0.04453210  0.47999329  0.25485378
   0.58138506  0.68347530  0.37123161
   0.09516526  0.72856013  0.12156099
   0.55708676  0.44110084  0.25258549
   0.75511037  0.10208913  0.31315765
   0.85888103  0.57329750  0.05350623
   0.31425057  0.84629607  0.18074164
   0.56207820  0.72169891  0.12275353
   0.00725187  0.97696285  0.25398660
   0.80066579  0.32306387  0.18440774
   0.25053219  0.59328613  0.31577192
   0.34617716  0.60305419  0.05647018
   0.25256669  0.14518255  0.31550886
   0.80004610  0.87528362  0.18354646
   0.34617716  0.05624469  0.05647018
   0.55017280  0.99326586  0.25189081
   0.09516526  0.18175063  0.12156099
   0.01442483  0.72965927  0.37771915
   0.04542154  0.23363008  0.37899207
   0.34047062  0.60391201  0.02782883
   0.92434681  0.68523651  0.03696881
   0.34363348  0.06399961  0.02783421
   0.88838126  0.05560908  0.02665597
   0.66138600  0.77386151  0.38293433
   0.70877214  0.10003728  0.33712339
   0.38847365  0.30436199  0.36707736
   0.67292582  0.64378606  0.34658482
   0.07112753  0.67555403  0.40120804
   0.86967173  0.32794170  0.38282268
Direct configuration=    28
   0.22067121  0.89240241  0.08901558
   0.67710669  0.15679997  0.21791009
   0.94927612  0.02809995  0.15233499
   0.39602567  0.29710062  0.28235303
   0.44927612  0.52809995  0.15233499
   0.89806888  0.29771951  0.28392735
   0.44927612  0.02809995  0.15233499
   0.89671163  0.78583455  0.28351581
   0.90282244  0.55132680  0.10484543
   0.35165049  0.81596264  0.23383518
   0.99594591  0.50343969  0.20205514
   0.22558121  0.88301268  0.35083208
   0.53851998  0.23347802  0.07318573
   0.14009266  0.42561578  0.34715245
   0.81850559  0.58994699  0.31771207
   0.87926422  0.06310591  0.05527763
   0.34159926  0.32946167  0.18295127
   0.58246139  0.21150732  0.12452493
   0.04445474  0.48001311  0.25486274
   0.58133236  0.68350399  0.37123735
   0.09516526  0.72856013  0.12156099
   0.55704223  0.44112999  0.25258513
   0.75515360  0.10212141  0.31317572
   0.85888103  0.57329750  0.05350623
   0.31409376  0.84633571  0.18075215
   0.56207820  0.72169891  0.12275353
   0.00713732  0.97707530  0.25397229
   0.80070701  0.32302832  0.18441153
   0.25055118  0.59336158  0.31575243
   0.34617716  0.60305419  0.05647018
   0.25257878  0.14516333  0.31549669
   0.80006049  0.87519846  0.18353860
   0.34617716  0.05624469  0.05647018
   0.55019760  0.99315107  0.25190159
   0.09516526  0.18175063  0.12156099
   0.01446188  0.72963886  0.37771468
   0.04543670  0.23364222  0.37897011
   0.34047062  0.60391201  0.02782883
   0.92434681  0.68523651  0.03696881
   0.34363348  0.06399961  0.02783421
   0.88838126  0.05560908  0.02665597
   0.66126485  0.77394648  0.38294843
   0.70868536  0.09992278  0.33714662
   0.38842614  0.30436264  0.36707903
   0.67299257  0.64389147  0.34657896
   0.07118780  0.67544258  0.40120400
   0.86972485  0.32807292  0.38281384
Direct configuration=    29
   0.22067121  0.89240241  0.08901558
   0.67768729  0.15632941  0.21794118
   0.94927612  0.02809995  0.15233499
   0.39619526  0.29696334  0.28234263
   0.44927612  0.52809995  0.15233499
   0.89794516  0.29783616  0.28396014
   0.44927612  0.02809995  0.15233499
   0.89682600  0.78581857  0.28353110
   0.90282244  0.55132680  0.10484543
   0.35149678  0.81610144  0.23383900
   0.99617468  0.50324276  0.20205450
   0.22570670  0.88289467  0.35081412
   0.53851998  0.23347802  0.07318573
   0.14005287  0.42569540  0.34712811
   0.81842470  0.59024383  0.31774074
   0.87926422  0.06310591  0.05527763
   0.34169417  0.32927472  0.18295150
   0.58246139  0.21150732  0.12452493
   0.04422265  0.48007259  0.25488959
   0.58117428  0.68359005  0.37125457
   0.09516526  0.72856013  0.12156099
   0.55690863  0.44121742  0.25258402
   0.75528331  0.10221827  0.31322993
   0.85888103  0.57329750  0.05350623
   0.31362331  0.84645465  0.18078370
   0.56207820  0.72169891  0.12275353
   0.00679364  0.97741266  0.25392936
   0.80083066  0.32292166  0.18442292
   0.25060815  0.59358793  0.31569398
   0.34617716  0.60305419  0.05647018
   0.25261506  0.14510565  0.31546018
   0.80010367  0.87494296  0.18351504
   0.34617716  0.05624469  0.05647018
   0.55027203  0.99280667  0.25193391
   0.09516526  0.18175063  0.12156099
   0.01457304  0.72957762  0.37770128
   0.04548219  0.23367863  0.37890423
   0.34047062  0.60391201  0.02782883
   0.92434681  0.68523651  0.03696881
   0.34363348  0.06399961  0.02783421
   0.88838126  0.05560908  0.02665597
   0.66090139  0.77420137  0.38299075
   0.70842502  0.09957927  0.33721631
   0.38828363  0.30436457  0.36708406
   0.67319279  0.64420769  0.34656136
   0.07136858  0.67510822  0.40119190
   0.86988421  0.32846659  0.38278730
Direct configuration=    30
   0.22067121  0.89240241  0.08901558
   0.67884849  0.15538830  0.21800336
   0.94927612  0.02809995  0.15233499
   0.39653446  0.29668878  0.28232183
   0.44927612  0.52809995  0.15233499
   0.89769772  0.29806947  0.28402571
   0.44927612  0.02809995  0.15233499
   0.89705475  0.78578659  0.28356167
   0.90282244  0.55132680  0.10484543
   0.35118937  0.81637904  0.23384663
   0.99663223  0.50284890  0.20205322
   0.22595767  0.88265864  0.35077819
   0.53851998  0.23347802  0.07318573
   0.13997328  0.42585464  0.34707942
   0.81826291  0.59083753  0.31779807
   0.87926422  0.06310591  0.05527763
   0.34188400  0.32890082  0.18295197
   0.58246139  0.21150732  0.12452493
   0.04375847  0.48019155  0.25494331
   0.58085812  0.68376217  0.37128900
   0.09516526  0.72856013  0.12156099
   0.55664145  0.44139227  0.25258182
   0.75554273  0.10241199  0.31333834
   0.85888103  0.57329750  0.05350623
   0.31268242  0.84669252  0.18084680
   0.56207820  0.72169891  0.12275353
   0.00610630  0.97808736  0.25384349
   0.80107798  0.32270835  0.18444569
   0.25072210  0.59404064  0.31557708
   0.34617716  0.60305419  0.05647018
   0.25268760  0.14499028  0.31538717
   0.80019002  0.87443196  0.18346792
   0.34617716  0.05624469  0.05647018
   0.55042088  0.99211788  0.25199855
   0.09516526  0.18175063  0.12156099
   0.01479536  0.72945516  0.37767447
   0.04557315  0.23375144  0.37877247
   0.34047062  0.60391201  0.02782883
   0.92434681  0.68523651  0.03696881
   0.34363348  0.06399961  0.02783421
   0.88838126  0.05560908  0.02665597
   0.66017448  0.77471115  0.38307539
   0.70790434  0.09889226  0.33735569
   0.38799861  0.30436845  0.36709412
   0.67359325  0.64484014  0.34652616
   0.07173016  0.67443949  0.40116768
   0.87020293  0.32925391  0.38273421
Direct configuration=    31
   0.22067121  0.89240241  0.08901558
   0.67854978  0.15563039  0.21798737
   0.94927612  0.02809995  0.15233499
   0.39644721  0.29675940  0.28232718
   0.44927612  0.52809995  0.15233499
   0.89776137  0.29800945  0.28400884
   0.44927612  0.02809995  0.15233499
   0.89699591  0.78579482  0.28355381
   0.90282244  0.55132680  0.10484543
   0.35126845  0.81630763  0.23384467
   0.99651453  0.50295022  0.20205355
   0.22589311  0.88271936  0.35078743
   0.53851998  0.23347802  0.07318573
   0.13999375  0.42581368  0.34709194
   0.81830453  0.59068480  0.31778332
   0.87926422  0.06310591  0.05527763
   0.34183517  0.32899700  0.18295185
   0.58246139  0.21150732  0.12452493
   0.04387788  0.48016095  0.25492949
   0.58093945  0.68371790  0.37128014
   0.09516526  0.72856013  0.12156099
   0.55671018  0.44134729  0.25258239
   0.75547599  0.10236216  0.31331046
   0.85888103  0.57329750  0.05350623
   0.31292446  0.84663133  0.18083057
   0.56207820  0.72169891  0.12275353
   0.00628312  0.97791380  0.25386558
   0.80101436  0.32276323  0.18443983
   0.25069279  0.59392418  0.31560715
   0.34617716  0.60305419  0.05647018
   0.25266894  0.14501996  0.31540595
   0.80016780  0.87456341  0.18348004
   0.34617716  0.05624469  0.05647018
   0.55038259  0.99229507  0.25198192
   0.09516526  0.18175063  0.12156099
   0.01473817  0.72948666  0.37768136
   0.04554975  0.23373271  0.37880637
   0.34047062  0.60391201  0.02782883
   0.92434681  0.68523651  0.03696881
   0.34363348  0.06399961  0.02783421
   0.88838126  0.05560908  0.02665597
   0.66036147  0.77458001  0.38305362
   0.70803828  0.09906899  0.33731984
   0.38807193  0.30436745  0.36709153
   0.67349023  0.64467745  0.34653521
   0.07163714  0.67461152  0.40117391
   0.87012094  0.32905138  0.38274787
Direct configuration=    32
   0.22067121  0.89240241  0.08901558
   0.67874778  0.15544929  0.21799559
   0.94927612  0.02809995  0.15233499
   0.39648844  0.29671630  0.28232769
   0.44927612  0.52809995  0.15233499
   0.89770462  0.29808822  0.28403311
   0.44927612  0.02809995  0.15233499
   0.89699590  0.78584735  0.28357082
   0.90282244  0.55132680  0.10484543
   0.35120768  0.81634706  0.23384711
   0.99661884  0.50285406  0.20205529
   0.22594220  0.88266573  0.35077878
   0.53851998  0.23347802  0.07318573
   0.14002370  0.42584482  0.34708326
   0.81830240  0.59074174  0.31777901
   0.87926422  0.06310591  0.05527763
   0.34190305  0.32892350  0.18295212
   0.58246139  0.21150732  0.12452493
   0.04375043  0.48014005  0.25494034
   0.58092769  0.68376708  0.37128538
   0.09516526  0.72856013  0.12156099
   0.55666843  0.44136111  0.25257755
   0.75552156  0.10236631  0.31335228
   0.85888103  0.57329750  0.05350623
   0.31275877  0.84667232  0.18083554
   0.56207820  0.72169891  0.12275353
   0.00613304  0.97813706  0.25385410
   0.80105442  0.32270031  0.18444716
   0.25070614  0.59398822  0.31558133
   0.34617716  0.60305419  0.05647018
   0.25268128  0.14502668  0.31538921
   0.80018029  0.87447563  0.18347413
   0.34617716  0.05624469  0.05647018
   0.55045208  0.99215404  0.25199245
   0.09516526  0.18175063  0.12156099
   0.01480872  0.72943461  0.37768121
   0.04559188  0.23374494  0.37877709
   0.34047062  0.60391201  0.02782883
   0.92434681  0.68523651  0.03696881
   0.34363348  0.06399961  0.02783421
   0.88838126  0.05560908  0.02665597
   0.66016480  0.77469498  0.38307415
   0.70797951  0.09893327  0.33732420
   0.38801329  0.30436730  0.36709194
   0.67354653  0.64482226  0.34653326
   0.07171159  0.67446348  0.40116047
   0.87015705  0.32925707  0.38273498
Direct configuration=    33
   0.22067121  0.89240241  0.08901558
   0.67934178  0.15490600  0.21802025
   0.94927612  0.02809995  0.15233499
   0.39661216  0.29658700  0.28232920
   0.44927612  0.52809995  0.15233499
   0.89753437  0.29832451  0.28410590
   0.44927612  0.02809995  0.15233499
   0.89699588  0.78600493  0.28362185
   0.90282244  0.55132680  0.10484543
   0.35102538  0.81646535  0.23385443
   0.99693175  0.50256558  0.20206049
   0.22608948  0.88250486  0.35075283
   0.53851998  0.23347802  0.07318573
   0.14011353  0.42593827  0.34705721
   0.81829602  0.59091254  0.31776606
   0.87926422  0.06310591  0.05527763
   0.34210669  0.32870297  0.18295293
   0.58246139  0.21150732  0.12452493
   0.04336809  0.48007737  0.25497290
   0.58089240  0.68391463  0.37130111
   0.09516526  0.72856013  0.12156099
   0.55654319  0.44140256  0.25256302
   0.75565824  0.10237876  0.31347776
   0.85888103  0.57329750  0.05350623
   0.31226169  0.84679531  0.18085046
   0.56207820  0.72169891  0.12275353
   0.00568279  0.97880683  0.25381964
   0.80117461  0.32251155  0.18446917
   0.25074619  0.59418031  0.31550388
   0.34617716  0.60305419  0.05647018
   0.25271829  0.14504683  0.31533900
   0.80021775  0.87421229  0.18345642
   0.34617716  0.05624469  0.05647018
   0.55066056  0.99173097  0.25202402
   0.09516526  0.18175063  0.12156099
   0.01502037  0.72927846  0.37768076
   0.04571827  0.23378164  0.37868927
   0.34047062  0.60391201  0.02782883
   0.92434681  0.68523651  0.03696881
   0.34363348  0.06399961  0.02783421
   0.88838126  0.05560908  0.02665597
   0.65957480  0.77503990  0.38313573
   0.70780321  0.09852613  0.33733727
   0.38783740  0.30436683  0.36709315
   0.67371541  0.64525672  0.34652741
   0.07193493  0.67401938  0.40112014
   0.87026536  0.32987412  0.38269633
Direct configuration=    34
   0.22067121  0.89240241  0.08901558
   0.67911435  0.15511402  0.21801081
   0.94927612  0.02809995  0.15233499
   0.39656479  0.29663651  0.28232862
   0.44927612  0.52809995  0.15233499
   0.89759956  0.29823404  0.28407803
   0.44927612  0.02809995  0.15233499
   0.89699589  0.78594459  0.28360231
   0.90282244  0.55132680  0.10484543
   0.35109518  0.81642006  0.23385163
   0.99681194  0.50267603  0.20205850
   0.22603309  0.88256646  0.35076277
   0.53851998  0.23347802  0.07318573
   0.14007914  0.42590249  0.34706718
   0.81829847  0.59084714  0.31777102
   0.87926422  0.06310591  0.05527763
   0.34202872  0.32878741  0.18295262
   0.58246139  0.21150732  0.12452493
   0.04351448  0.48010137  0.25496044
   0.58090591  0.68385814  0.37129509
   0.09516526  0.72856013  0.12156099
   0.55659114  0.44138669  0.25256859
   0.75560591  0.10237399  0.31342972
   0.85888103  0.57329750  0.05350623
   0.31245201  0.84674822  0.18084475
   0.56207820  0.72169891  0.12275353
   0.00585518  0.97855038  0.25383283
   0.80112859  0.32258382  0.18446074
   0.25073086  0.59410676  0.31553353
   0.34617716  0.60305419  0.05647018
   0.25270412  0.14503912  0.31535823
   0.80020341  0.87431312  0.18346320
   0.34617716  0.05624469  0.05647018
   0.55058074  0.99189296  0.25201193
   0.09516526  0.18175063  0.12156099
   0.01493933  0.72933825  0.37768093
   0.04566988  0.23376759  0.37872290
   0.34047062  0.60391201  0.02782883
   0.92434681  0.68523651  0.03696881
   0.34363348  0.06399961  0.02783421
   0.88838126  0.05560908  0.02665597
   0.65980070  0.77490784  0.38311215
   0.70787071  0.09868202  0.33733227
   0.38790474  0.30436701  0.36709269
   0.67365075  0.64509037  0.34652965
   0.07184942  0.67418942  0.40113558
   0.87022389  0.32963786  0.38271113
Direct configuration=    35
   0.22067121  0.89240241  0.08901558
   0.67919062  0.15504426  0.21801397
   0.94927612  0.02809995  0.15233499
   0.39658068  0.29661991  0.28232881
   0.44927612  0.52809995  0.15233499
   0.89757770  0.29826438  0.28408737
   0.44927612  0.02809995  0.15233499
   0.89699589  0.78596482  0.28360887
   0.90282244  0.55132680  0.10484543
   0.35107177  0.81643525  0.23385257
   0.99685212  0.50263899  0.20205917
   0.22605200  0.88254580  0.35075944
   0.53851998  0.23347802  0.07318573
   0.14009067  0.42591449  0.34706384
   0.81829765  0.59086907  0.31776935
   0.87926422  0.06310591  0.05527763
   0.34205487  0.32875909  0.18295272
   0.58246139  0.21150732  0.12452493
   0.04346539  0.48009333  0.25496462
   0.58090138  0.68387708  0.37129711
   0.09516526  0.72856013  0.12156099
   0.55657506  0.44139201  0.25256672
   0.75562346  0.10237559  0.31344583
   0.85888103  0.57329750  0.05350623
   0.31238819  0.84676401  0.18084666
   0.56207820  0.72169891  0.12275353
   0.00579737  0.97863638  0.25382841
   0.80114403  0.32255959  0.18446357
   0.25073600  0.59413143  0.31552359
   0.34617716  0.60305419  0.05647018
   0.25270887  0.14504170  0.31535178
   0.80020822  0.87427930  0.18346093
   0.34617716  0.05624469  0.05647018
   0.55060751  0.99183863  0.25201599
   0.09516526  0.18175063  0.12156099
   0.01496651  0.72931820  0.37768087
   0.04568611  0.23377230  0.37871162
   0.34047062  0.60391201  0.02782883
   0.92434681  0.68523651  0.03696881
   0.34363348  0.06399961  0.02783421
   0.88838126  0.05560908  0.02665597
   0.65972494  0.77495212  0.38312006
   0.70784807  0.09862974  0.33733395
   0.38788216  0.30436695  0.36709284
   0.67367243  0.64514616  0.34652890
   0.07187809  0.67413239  0.40113040
   0.87023780  0.32971709  0.38270617
Direct configuration=    36
   0.22067121  0.89240241  0.08901558
   0.67929849  0.15494559  0.21801845
   0.94927612  0.02809995  0.15233499
   0.39660314  0.29659643  0.28232909
   0.44927612  0.52809995  0.15233499
   0.89754678  0.29830729  0.28410059
   0.44927612  0.02809995  0.15233499
   0.89699588  0.78599344  0.28361814
   0.90282244  0.55132680  0.10484543
   0.35103866  0.81645673  0.23385390
   0.99690895  0.50258660  0.20206011
   0.22607875  0.88251659  0.35075473
   0.53851998  0.23347802  0.07318573
   0.14010699  0.42593146  0.34705910
   0.81829649  0.59090009  0.31776700
   0.87926422  0.06310591  0.05527763
   0.34209185  0.32871904  0.18295287
   0.58246139  0.21150732  0.12452493
   0.04339595  0.48008194  0.25497053
   0.58089497  0.68390388  0.37129996
   0.09516526  0.72856013  0.12156099
   0.55655232  0.44139954  0.25256408
   0.75564828  0.10237785  0.31346862
   0.85888103  0.57329750  0.05350623
   0.31229791  0.84678634  0.18084937
   0.56207820  0.72169891  0.12275353
   0.00571560  0.97875803  0.25382215
   0.80116586  0.32252531  0.18446757
   0.25074328  0.59416631  0.31550952
   0.34617716  0.60305419  0.05647018
   0.25271559  0.14504537  0.31534266
   0.80021502  0.87423148  0.18345771
   0.34617716  0.05624469  0.05647018
   0.55064537  0.99176180  0.25202172
   0.09516526  0.18175063  0.12156099
   0.01500495  0.72928984  0.37768079
   0.04570906  0.23377897  0.37869567
   0.34047062  0.60391201  0.02782883
   0.92434681  0.68523651  0.03696881
   0.34363348  0.06399961  0.02783421
   0.88838126  0.05560908  0.02665597
   0.65961779  0.77501477  0.38313125
   0.70781605  0.09855580  0.33733632
   0.38785021  0.30436687  0.36709306
   0.67370310  0.64522506  0.34652784
   0.07191865  0.67405174  0.40112308
   0.87025747  0.32982916  0.38269915
Direct configuration=    37
   0.22067121  0.89240241  0.08901558
   0.67925026  0.15495039  0.21801342
   0.94927612  0.02809995  0.15233499
   0.39657496  0.29661154  0.28232659
   0.44927612  0.52809995  0.15233499
   0.89750613  0.29833626  0.28411234
   0.44927612  0.02809995  0.15233499
   0.89694888  0.78611355  0.28362520
   0.90282244  0.55132680  0.10484543
   0.35102931  0.81643270  0.23385530
   0.99693634  0.50254786  0.20206407
   0.22608043  0.88250394  0.35074827
   0.53851998  0.23347802  0.07318573
   0.14018561  0.42593709  0.34705180
   0.81831334  0.59087077  0.31775781
   0.87926422  0.06310591  0.05527763
   0.34214739  0.32871854  0.18295455
   0.58246139  0.21150732  0.12452493
   0.04334407  0.48006658  0.25497175
   0.58096624  0.68389400  0.37128926
   0.09516526  0.72856013  0.12156099
   0.55656176  0.44134189  0.25255980
   0.75572658  0.10230794  0.31346945
   0.85888103  0.57329750  0.05350623
   0.31233327  0.84677498  0.18083546
   0.56207820  0.72169891  0.12275353
   0.00567576  0.97885218  0.25383574
   0.80116075  0.32248633  0.18447283
   0.25072120  0.59412709  0.31550672
   0.34617716  0.60305419  0.05647018
   0.25270603  0.14510443  0.31534248
   0.80021962  0.87423389  0.18346355
   0.34617716  0.05624469  0.05647018
   0.55071778  0.99175908  0.25202217
   0.09516526  0.18175063  0.12156099
   0.01502887  0.72926802  0.37767464
   0.04569809  0.23380901  0.37868959
   0.34047062  0.60391201  0.02782883
   0.92434681  0.68523651  0.03696881
   0.34363348  0.06399961  0.02783421
   0.88838126  0.05560908  0.02665597
   0.65952849  0.77509316  0.38314492
   0.70779976  0.09852663  0.33733856
   0.38784931  0.30436420  0.36709025
   0.67367597  0.64528354  0.34653781
   0.07197378  0.67396795  0.40112169
   0.87026365  0.32991565  0.38269165
Direct configuration=    38
   0.22067121  0.89240241  0.08901558
   0.67910557  0.15496478  0.21799834
   0.94927612  0.02809995  0.15233499
   0.39649042  0.29665688  0.28231909
   0.44927612  0.52809995  0.15233499
   0.89738417  0.29842314  0.28414757
   0.44927612  0.02809995  0.15233499
   0.89680790  0.78647387  0.28364638
   0.90282244  0.55132680  0.10484543
   0.35100125  0.81636063  0.23385949
   0.99701851  0.50243166  0.20207593
   0.22608549  0.88246602  0.35072890
   0.53851998  0.23347802  0.07318573
   0.14042148  0.42595400  0.34702988
   0.81836388  0.59078282  0.31773022
   0.87926422  0.06310591  0.05527763
   0.34231399  0.32871705  0.18295960
   0.58246139  0.21150732  0.12452493
   0.04318841  0.48002050  0.25497542
   0.58118005  0.68386435  0.37125713
   0.09516526  0.72856013  0.12156099
   0.55659009  0.44116894  0.25254697
   0.75596149  0.10209818  0.31347195
   0.85888103  0.57329750  0.05350623
   0.31243936  0.84674090  0.18079373
   0.56207820  0.72169891  0.12275353
   0.00555624  0.97913463  0.25387649
   0.80114544  0.32236938  0.18448861
   0.25065495  0.59400941  0.31549830
   0.34617716  0.60305419  0.05647018
   0.25267733  0.14528162  0.31534195
   0.80023344  0.87424113  0.18348105
   0.34617716  0.05624469  0.05647018
   0.55093502  0.99175093  0.25202351
   0.09516526  0.18175063  0.12156099
   0.01510064  0.72920256  0.37765618
   0.04566515  0.23389914  0.37867136
   0.34047062  0.60391201  0.02782883
   0.92434681  0.68523651  0.03696881
   0.34363348  0.06399961  0.02783421
   0.88838126  0.05560908  0.02665597
   0.65926059  0.77532834  0.38318595
   0.70775088  0.09843912  0.33734526
   0.38784659  0.30435621  0.36708182
   0.67359458  0.64545898  0.34656770
   0.07213917  0.67371657  0.40111754
   0.87028220  0.33017512  0.38266914
Direct configuration=    39
   0.22067121  0.89240241  0.08901558
   0.67905106  0.15497020  0.21799266
   0.94927612  0.02809995  0.15233499
   0.39645856  0.29667397  0.28231626
   0.44927612  0.52809995  0.15233499
   0.89733822  0.29845587  0.28416085
   0.44927612  0.02809995  0.15233499
   0.89675478  0.78660962  0.28365436
   0.90282244  0.55132680  0.10484543
   0.35099068  0.81633348  0.23386107
   0.99704947  0.50238788  0.20208039
   0.22608740  0.88245173  0.35072161
   0.53851998  0.23347802  0.07318573
   0.14051034  0.42596036  0.34702162
   0.81838292  0.59074968  0.31771982
   0.87926422  0.06310591  0.05527763
   0.34237676  0.32871649  0.18296150
   0.58246139  0.21150732  0.12452493
   0.04312976  0.48000314  0.25497681
   0.58126061  0.68385318  0.37124502
   0.09516526  0.72856013  0.12156099
   0.55660076  0.44110378  0.25254213
   0.75604999  0.10201916  0.31347290
   0.85888103  0.57329750  0.05350623
   0.31247933  0.84672806  0.18077800
   0.56207820  0.72169891  0.12275353
   0.00551120  0.97924104  0.25389184
   0.80113967  0.32232532  0.18449456
   0.25063000  0.59396508  0.31549513
   0.34617716  0.60305419  0.05647018
   0.25266652  0.14534838  0.31534174
   0.80023865  0.87424386  0.18348765
   0.34617716  0.05624469  0.05647018
   0.55101686  0.99174786  0.25202401
   0.09516526  0.18175063  0.12156099
   0.01512767  0.72917790  0.37764923
   0.04565274  0.23393310  0.37866449
   0.34047062  0.60391201  0.02782883
   0.92434681  0.68523651  0.03696881
   0.34363348  0.06399961  0.02783421
   0.88838126  0.05560908  0.02665597
   0.65915966  0.77541694  0.38320141
   0.70773246  0.09840615  0.33734778
   0.38784556  0.30435320  0.36707865
   0.67356392  0.64552508  0.34657897
   0.07220148  0.67362187  0.40111597
   0.87028918  0.33027288  0.38266066
Direct configuration=    40
   0.22067121  0.89240241  0.08901558
   0.67909935  0.15496540  0.21799769
   0.94927612  0.02809995  0.15233499
   0.39648678  0.29665884  0.28231876
   0.44927612  0.52809995  0.15233499
   0.89737892  0.29842688  0.28414909
   0.44927612  0.02809995  0.15233499
   0.89680183  0.78648938  0.28364729
   0.90282244  0.55132680  0.10484543
   0.35100004  0.81635753  0.23385967
   0.99702205  0.50242666  0.20207644
   0.22608571  0.88246439  0.35072807
   0.53851998  0.23347802  0.07318573
   0.14043163  0.42595472  0.34702894
   0.81836605  0.59077903  0.31772903
   0.87926422  0.06310591  0.05527763
   0.34232116  0.32871699  0.18295981
   0.58246139  0.21150732  0.12452493
   0.04318171  0.48001852  0.25497558
   0.58118925  0.68386308  0.37125575
   0.09516526  0.72856013  0.12156099
   0.55659131  0.44116150  0.25254642
   0.75597160  0.10208916  0.31347206
   0.85888103  0.57329750  0.05350623
   0.31244393  0.84673943  0.18079193
   0.56207820  0.72169891  0.12275353
   0.00555109  0.97914679  0.25387824
   0.80114478  0.32236435  0.18448929
   0.25065210  0.59400435  0.31549794
   0.34617716  0.60305419  0.05647018
   0.25267610  0.14528925  0.31534192
   0.80023404  0.87424144  0.18348181
   0.34617716  0.05624469  0.05647018
   0.55094437  0.99175058  0.25202356
   0.09516526  0.18175063  0.12156099
   0.01510373  0.72919974  0.37765539
   0.04566373  0.23390302  0.37867057
   0.34047062  0.60391201  0.02782883
   0.92434681  0.68523651  0.03696881
   0.34363348  0.06399961  0.02783421
   0.88838126  0.05560908  0.02665597
   0.65924906  0.77533846  0.38318772
   0.70774878  0.09843535  0.33734555
   0.38784647  0.30435586  0.36708146
   0.67359108  0.64546654  0.34656899
   0.07214628  0.67370575  0.40111736
   0.87028300  0.33018629  0.38266817
Direct configuration=    41
   0.22067121  0.89240241  0.08901558
   0.67907520  0.15496780  0.21799518
   0.94927612  0.02809995  0.15233499
   0.39647267  0.29666640  0.28231751
   0.44927612  0.52809995  0.15233499
   0.89735857  0.29844138  0.28415497
   0.44927612  0.02809995  0.15233499
   0.89677830  0.78654950  0.28365082
   0.90282244  0.55132680  0.10484543
   0.35099536  0.81634550  0.23386037
   0.99703576  0.50240727  0.20207842
   0.22608655  0.88245806  0.35072484
   0.53851998  0.23347802  0.07318573
   0.14047099  0.42595754  0.34702528
   0.81837449  0.59076436  0.31772443
   0.87926422  0.06310591  0.05527763
   0.34234896  0.32871674  0.18296065
   0.58246139  0.21150732  0.12452493
   0.04315573  0.48001083  0.25497620
   0.58122493  0.68385813  0.37125039
   0.09516526  0.72856013  0.12156099
   0.55659603  0.44113264  0.25254427
   0.75601079  0.10205416  0.31347248
   0.85888103  0.57329750  0.05350623
   0.31246163  0.84673374  0.18078497
   0.56207820  0.72169891  0.12275353
   0.00553115  0.97919391  0.25388504
   0.80114222  0.32234483  0.18449193
   0.25064105  0.59398472  0.31549653
   0.34617716  0.60305419  0.05647018
   0.25267131  0.14531881  0.31534183
   0.80023634  0.87424265  0.18348473
   0.34617716  0.05624469  0.05647018
   0.55098062  0.99174922  0.25202379
   0.09516526  0.18175063  0.12156099
   0.01511570  0.72918882  0.37765231
   0.04565824  0.23391806  0.37866753
   0.34047062  0.60391201  0.02782883
   0.92434681  0.68523651  0.03696881
   0.34363348  0.06399961  0.02783421
   0.88838126  0.05560908  0.02665597
   0.65920436  0.77537770  0.38319456
   0.70774062  0.09842075  0.33734666
   0.38784602  0.30435453  0.36708005
   0.67357750  0.64549581  0.34657398
   0.07217388  0.67366381  0.40111667
   0.87028609  0.33022958  0.38266441
