Mn  O  H                                
   1.00000000000000     
     2.8735734950000000   -2.8735734950000000    4.7083351100000002
     5.7471469900000001    0.0000000000000000    0.0000000000000000
     0.0000000000000000   33.0656910066415008   20.1805290088081009
   Mn   O    H 
    14    21     6
Selective dynamics
Direct
  0.2206712106837827  0.8924024101981232  0.0890155841539979   F   F   F
  0.6791708859492049  0.1622635342573070  0.2182466323976356   T   T   T
  0.9492761232251894  0.0280999539274163  0.1523349856625060   F   F   F
  0.3945452479023749  0.3084238606830023  0.2833786782675463   T   T   T
  0.4492761232251894  0.5280999539274163  0.1523349856625060   F   F   F
  0.9070756496051051  0.3035131428968026  0.2836983597152851   T   T   T
  0.4492761232251894  0.0280999539274163  0.1523349856625060   F   F   F
  0.9034950670408034  0.7994037248309774  0.2833382356504053   T   T   T
  0.9028224388191362  0.5513267961304464  0.1048454345311214   F   F   F
  0.3587603582950071  0.8221459410903009  0.2332407715819062   T   T   T
 -0.0012119361911991  0.5048116201700648  0.2020527404923110   T   T   T
  0.4418810299990590  0.7803941709737096  0.3239160273507708   T   T   T
  0.5385199825484293  0.2334780242657999  0.0731857337768673   F   F   F
  0.0899109078871219  0.4489164490068788  0.3493192729225150   T   T   T
  0.7879705268208715  0.6197477969311638  0.3156102175143901   T   T   T
  0.8792642171272149  0.0631059069764035  0.0552776342656358   F   F   F
  0.3446643410506773  0.3280492222610111  0.1831926866449427   T   T   T
  0.5824613929758371  0.2115073190520960  0.1245249348239739   F   F   F
  0.0461550816286580  0.4909411778669133  0.2549106079645618   T   T   T
  0.0951652613222294  0.7285601348788973  0.1215609852990625   F   F   F
  0.5588614666079034  0.4489504400601098  0.2530289245808117   T   T   T
  0.7562947864185088  0.1179070411621447  0.3135880624200352   T   T   T
  0.8588810283917283  0.5732975013441504  0.0535062334840219   F   F   F
  0.3135232346306066  0.8470627748754155  0.1806016009237698   T   T   T
  0.5620782042403505  0.7216989134198428  0.1227535340423529   F   F   F
  0.0137634301763409  0.9883880914485147  0.2532336016836184   T   T   T
  0.8028995529840092  0.3249672215722120  0.1844507838530912   T   T   T
  0.2524627487622400  0.6022855515986081  0.3162484314937917   T   T   T
  0.3461771600453361  0.6030541855173510  0.0564701830089334   F   F   F
  0.2520323727438104  0.1460313453194561  0.3146333201681174   T   T   T
  0.8004532023109089  0.8774893643987607  0.1841216093161069   T   T   T
  0.3461771600453361  0.0562446855173491  0.0564701830089334   F   F   F
  0.5531960058184465  0.0016183871832923  0.2528489733688822   T   T   T
  0.0951652613222294  0.1817506348788953  0.1215609852990625   F   F   F
  0.9325665660979218  0.4945297957879112  0.3919491716806454   T   T   T
  0.3404706169097480  0.6039120138460916  0.0278288297643030   F   F   F
  0.9243468113422040  0.6852365052266407  0.0369688146645331   F   F   F
  0.3436334761770041  0.0639996102436484  0.0278342118600037   F   F   F
  0.8883812645227351  0.0556090842097916  0.0266559720288981   F   F   F
  0.7850154765517093  0.0915351009239835  0.3383416768519250   T   T   T
  0.0116157148653764  0.4324640695146201  0.4140538574913419   T   T   T
 
  0.00000000E+00  0.00000000E+00  0.00000000E+00
  0.00000000E+00  0.00000000E+00  0.00000000E+00
  0.00000000E+00  0.00000000E+00  0.00000000E+00
  0.00000000E+00  0.00000000E+00  0.00000000E+00
  0.00000000E+00  0.00000000E+00  0.00000000E+00
  0.00000000E+00  0.00000000E+00  0.00000000E+00
  0.00000000E+00  0.00000000E+00  0.00000000E+00
  0.00000000E+00  0.00000000E+00  0.00000000E+00
  0.00000000E+00  0.00000000E+00  0.00000000E+00
  0.00000000E+00  0.00000000E+00  0.00000000E+00
  0.00000000E+00  0.00000000E+00  0.00000000E+00
  0.00000000E+00  0.00000000E+00  0.00000000E+00
  0.00000000E+00  0.00000000E+00  0.00000000E+00
  0.00000000E+00  0.00000000E+00  0.00000000E+00
  0.00000000E+00  0.00000000E+00  0.00000000E+00
  0.00000000E+00  0.00000000E+00  0.00000000E+00
  0.00000000E+00  0.00000000E+00  0.00000000E+00
  0.00000000E+00  0.00000000E+00  0.00000000E+00
  0.00000000E+00  0.00000000E+00  0.00000000E+00
  0.00000000E+00  0.00000000E+00  0.00000000E+00
  0.00000000E+00  0.00000000E+00  0.00000000E+00
  0.00000000E+00  0.00000000E+00  0.00000000E+00
  0.00000000E+00  0.00000000E+00  0.00000000E+00
  0.00000000E+00  0.00000000E+00  0.00000000E+00
  0.00000000E+00  0.00000000E+00  0.00000000E+00
  0.00000000E+00  0.00000000E+00  0.00000000E+00
  0.00000000E+00  0.00000000E+00  0.00000000E+00
  0.00000000E+00  0.00000000E+00  0.00000000E+00
  0.00000000E+00  0.00000000E+00  0.00000000E+00
  0.00000000E+00  0.00000000E+00  0.00000000E+00
  0.00000000E+00  0.00000000E+00  0.00000000E+00
  0.00000000E+00  0.00000000E+00  0.00000000E+00
  0.00000000E+00  0.00000000E+00  0.00000000E+00
  0.00000000E+00  0.00000000E+00  0.00000000E+00
  0.00000000E+00  0.00000000E+00  0.00000000E+00
  0.00000000E+00  0.00000000E+00  0.00000000E+00
  0.00000000E+00  0.00000000E+00  0.00000000E+00
  0.00000000E+00  0.00000000E+00  0.00000000E+00
  0.00000000E+00  0.00000000E+00  0.00000000E+00
  0.00000000E+00  0.00000000E+00  0.00000000E+00
  0.00000000E+00  0.00000000E+00  0.00000000E+00
