INCAR created by Atomic Simulation Environment
 ENCUT = 520.000000
 POTIM = 0.500000
 SIGMA = 0.200000
 EDIFF = 1.00e-05
 EDIFFG = -5.00e-02
 ALGO = fast
 GGA = PE
 PREC = Accurate
 IBRION = 2
 ISIF = 0
 ISMEAR = 1
 ISPIN = 2
 ISTART = 0
 LORBIT = 11
 NPAR = 2
 NSW = 500
 NWRITE = 1
 LCHARG = .FALSE.
 LDAU = .TRUE.
 LVTOT = .FALSE.
 LWAVE = .FALSE.
 LREAL = auto
 LDAUL = 2 -1 -1
 LDAUU = 3.900 0.000 0.000
 LDAUJ = 0.000 0.000 0.000
MAGMOM = -3.8000 3.8000 2*-3.8000 2*3.8000 2*-3.8000 3*4.4000 -4.4000 4.4000 3.8000 -4.4000 46*0.0000
NCORE = 8
