Mn  O  H                                
   1.00000000000000     
     5.7471469900000001    0.0000000000000000    0.0000000000000000
     0.0000000000000000    5.7471469900000001    0.0000000000000000
     0.0000000000000000    0.0000000000000000   38.3054457869999965
   Mn   O    H 
    15    21     3
Selective dynamics
Direct
  0.0005898578905175  0.2476707142651335  0.2914703058693817   F   F   F
  0.4930568167006300  0.7461824114576885  0.4168148855069234   F   F   F
  0.4928775973415611  0.2468076773515762  0.4165700117087638   F   F   F
  0.0005898578905175  0.7476701061373063  0.2914703058693817   F   F   F
  0.7505898156956690  0.4976695402043276  0.3529281469578436   F   F   F
  0.7426079225671232  0.9979666566198380  0.4807441415758330   T   T   T
  0.2505904238234891  0.4976695402043276  0.3529281469578436   F   F   F
  0.2437776317602693  0.9974975184307867  0.4824234131861727   T   T   T
  0.9961829773906672  0.9974009730347930  0.3853666155481648   F   F   F
  0.4962702799027675  0.5061098060019641  0.5128221927081853   T   T   T
  0.9964465750877494  0.4965675345704311  0.4493752410741023   T   T   T
  0.5005892497626903  0.9976706720702850  0.3221990958838745   F   F   F
  0.9878911319529977  0.2282893422588045  0.5434025750742865   T   T   T
  0.9836784872489814  0.7244781652852220  0.5436544990793483   T   T   T
  0.5053116697488257  0.1403719327787059  0.5707550697625450   T   T   T
 -0.0015818399808913  0.2323398650251197  0.4852719525623783   T   T   T
  0.5005892497626903  0.7242654498384411  0.3546474847346772   F   F   F
  0.5005892497626903  0.2710753705639917  0.3546474847346772   F   F   F
 -0.0028217040523486  0.7603986254894518  0.4853837808191074   T   T   T
  0.7739944719945271  0.4976695402043276  0.2931896436462154   F   F   F
  0.7231936136716044  0.9978377114729042  0.4203219586459994   F   F   F
  0.4873824426759177  0.2332787668989002  0.4787475152983692   T   T   T
  0.0005898578905175  0.7242654498384411  0.3512088091810099   F   F   F
  0.0005898578905175  0.2710753705639917  0.3512088091810099   F   F   F
  0.4873386545402604  0.7639876112048045  0.4779046765832680   T   T   T
  0.7215649794960228  0.4960826658794062  0.4147144008800794   F   F   F
  0.7739944719945271  0.9976706720702850  0.2897509680925552   F   F   F
  0.2648775127291429  0.4961540056242768  0.4137443038289561   F   F   F
  0.2271857675246238  0.9976706720702850  0.2897509680925552   F   F   F
  0.2679486017461343  0.9971782538313008  0.4196901946891316   F   F   F
  0.2271857675246238  0.4976695402043276  0.2931896436462154   F   F   F
  0.7492699698714753  0.4546623744634320  0.5504462863928532   T   T   T
  0.2252231628565947  0.9942118819768909  0.5441567454743773   T   T   T
  0.2287515423363205  0.4739029945359766  0.5525369715418388   T   T   T
  0.7524513798034286  0.9880721552837977  0.5438812446022786   T   T   T
  0.3465218498915775  0.3238971438298352  0.6093563412233020   T   T   T
  0.3544680523300840  0.4873861769803085  0.2714496538643303   F   F   F
  0.2778826345312682  0.4457644123071668  0.5801229770110001   T   T   T
  0.4351420618574675  0.4113098448002404  0.6264373633709407   T   T   T
 
  0.00000000E+00  0.00000000E+00  0.00000000E+00
  0.00000000E+00  0.00000000E+00  0.00000000E+00
  0.00000000E+00  0.00000000E+00  0.00000000E+00
  0.00000000E+00  0.00000000E+00  0.00000000E+00
  0.00000000E+00  0.00000000E+00  0.00000000E+00
  0.00000000E+00  0.00000000E+00  0.00000000E+00
  0.00000000E+00  0.00000000E+00  0.00000000E+00
  0.00000000E+00  0.00000000E+00  0.00000000E+00
  0.00000000E+00  0.00000000E+00  0.00000000E+00
  0.00000000E+00  0.00000000E+00  0.00000000E+00
  0.00000000E+00  0.00000000E+00  0.00000000E+00
  0.00000000E+00  0.00000000E+00  0.00000000E+00
  0.00000000E+00  0.00000000E+00  0.00000000E+00
  0.00000000E+00  0.00000000E+00  0.00000000E+00
  0.00000000E+00  0.00000000E+00  0.00000000E+00
  0.00000000E+00  0.00000000E+00  0.00000000E+00
  0.00000000E+00  0.00000000E+00  0.00000000E+00
  0.00000000E+00  0.00000000E+00  0.00000000E+00
  0.00000000E+00  0.00000000E+00  0.00000000E+00
  0.00000000E+00  0.00000000E+00  0.00000000E+00
  0.00000000E+00  0.00000000E+00  0.00000000E+00
  0.00000000E+00  0.00000000E+00  0.00000000E+00
  0.00000000E+00  0.00000000E+00  0.00000000E+00
  0.00000000E+00  0.00000000E+00  0.00000000E+00
  0.00000000E+00  0.00000000E+00  0.00000000E+00
  0.00000000E+00  0.00000000E+00  0.00000000E+00
  0.00000000E+00  0.00000000E+00  0.00000000E+00
  0.00000000E+00  0.00000000E+00  0.00000000E+00
  0.00000000E+00  0.00000000E+00  0.00000000E+00
  0.00000000E+00  0.00000000E+00  0.00000000E+00
  0.00000000E+00  0.00000000E+00  0.00000000E+00
  0.00000000E+00  0.00000000E+00  0.00000000E+00
  0.00000000E+00  0.00000000E+00  0.00000000E+00
  0.00000000E+00  0.00000000E+00  0.00000000E+00
  0.00000000E+00  0.00000000E+00  0.00000000E+00
  0.00000000E+00  0.00000000E+00  0.00000000E+00
  0.00000000E+00  0.00000000E+00  0.00000000E+00
  0.00000000E+00  0.00000000E+00  0.00000000E+00
  0.00000000E+00  0.00000000E+00  0.00000000E+00
