unknown system                          
           1
     5.747147    0.000000    0.000000
     0.000000    5.747147    0.000000
     0.000000    0.000000   38.305446
   Mn   O    H 
  15  21   3
Direct configuration=     1
   0.00058986  0.24767071  0.29147031
   0.49305682  0.74618241  0.41681489
   0.49287760  0.24680768  0.41657001
   0.00058986  0.74767011  0.29147031
   0.75058982  0.49766954  0.35292815
   0.74231922  0.99834915  0.48107655
   0.25059042  0.49766954  0.35292815
   0.24385714  0.99771889  0.48253584
   0.99618298  0.99740097  0.38536662
   0.49642115  0.50607555  0.51308230
   0.99565380  0.49644583  0.44923199
   0.50058925  0.99767067  0.32219910
   0.98772794  0.22856082  0.54364998
   0.98362285  0.72537785  0.54381282
   0.50422048  0.14130946  0.57119934
   0.99569952  0.22856576  0.48526623
   0.50058925  0.72426545  0.35464748
   0.50058925  0.27107537  0.35464748
   0.99465850  0.76375343  0.48542343
   0.77399447  0.49766954  0.29318964
   0.72319361  0.99783771  0.42032196
   0.48992176  0.22922941  0.47867050
   0.00058986  0.72426545  0.35120881
   0.00058986  0.27107537  0.35120881
   0.49045218  0.76884613  0.47785731
   0.72156498  0.49608267  0.41471440
   0.77399447  0.99767067  0.28975097
   0.26487751  0.49615401  0.41374430
   0.22718577  0.99767067  0.28975097
   0.26794860  0.99717825  0.41969019
   0.22718577  0.49766954  0.29318964
   0.74646507  0.45039860  0.55051215
   0.22606716  0.99841187  0.54397793
   0.23002078  0.46930021  0.55248692
   0.75478748  0.99016535  0.54370429
   0.34479858  0.32459088  0.60983151
   0.35446805  0.48738618  0.27144965
   0.27802152  0.44587088  0.58027032
   0.43562592  0.41217741  0.62663521
Direct configuration=     2
   0.00058986  0.24767071  0.29147031
   0.49305682  0.74618241  0.41681489
   0.49287760  0.24680768  0.41657001
   0.00058986  0.74767011  0.29147031
   0.75058982  0.49766954  0.35292815
   0.74260792  0.99796666  0.48074414
   0.25059042  0.49766954  0.35292815
   0.24377763  0.99749752  0.48242341
   0.99618298  0.99740097  0.38536662
   0.49627028  0.50610981  0.51282219
   0.99644657  0.49656753  0.44937524
   0.50058925  0.99767067  0.32219910
   0.98789113  0.22828934  0.54340258
   0.98367849  0.72447817  0.54365450
   0.50531166  0.14037194  0.57075507
   0.99841815  0.23233984  0.48527195
   0.50058925  0.72426545  0.35464748
   0.50058925  0.27107537  0.35464748
   0.99717828  0.76039864  0.48538378
   0.77399447  0.49766954  0.29318964
   0.72319361  0.99783771  0.42032196
   0.48738246  0.23327875  0.47874751
   0.00058986  0.72426545  0.35120881
   0.00058986  0.27107537  0.35120881
   0.48733867  0.76398764  0.47790468
   0.72156498  0.49608267  0.41471440
   0.77399447  0.99767067  0.28975097
   0.26487751  0.49615401  0.41374430
   0.22718577  0.99767067  0.28975097
   0.26794860  0.99717825  0.41969019
   0.22718577  0.49766954  0.29318964
   0.74926995  0.45466235  0.55044629
   0.22522317  0.99421190  0.54415674
   0.22875155  0.47390297  0.55253697
   0.75245139  0.98807217  0.54388124
   0.34652184  0.32389715  0.60935634
   0.35446805  0.48738618  0.27144965
   0.27788264  0.44576441  0.58012298
   0.43514206  0.41130985  0.62643736
Direct configuration=     3
   0.00058986  0.24767071  0.29147031
   0.49305682  0.74618241  0.41681489
   0.49287760  0.24680768  0.41657001
   0.00058986  0.74767011  0.29147031
   0.75058982  0.49766954  0.35292815
   0.74305653  0.99737232  0.48022763
   0.25059042  0.49766954  0.35292815
   0.24365409  0.99715354  0.48224872
   0.99618298  0.99740097  0.38536662
   0.49603584  0.50616304  0.51241802
   0.99767843  0.49675664  0.44959784
   0.50058925  0.99767067  0.32219910
   0.98814472  0.22786750  0.54301814
   0.98376494  0.72308019  0.54340849
   0.50700722  0.13891515  0.57006475
   0.00264252  0.23820427  0.48528084
   0.50058925  0.72426545  0.35464748
   0.50058925  0.27107537  0.35464748
   0.00109368  0.75518577  0.48532216
   0.77399447  0.49766954  0.29318964
   0.72319361  0.99783771  0.42032196
   0.48343673  0.23957086  0.47886719
   0.00058986  0.72426545  0.35120881
   0.00058986  0.27107537  0.35120881
   0.48250070  0.75643820  0.47797828
   0.72156498  0.49608267  0.41471440
   0.77399447  0.99767067  0.28975097
   0.26487751  0.49615401  0.41374430
   0.22718577  0.99767067  0.28975097
   0.26794860  0.99717825  0.41969019
   0.22718577  0.49766954  0.29318964
   0.75362837  0.46128764  0.55034395
   0.22391172  0.98768573  0.54443460
   0.22677933  0.48105503  0.55261474
   0.74882143  0.98481964  0.54415620
   0.34919955  0.32281918  0.60861800
   0.35446805  0.48738618  0.27144965
   0.27766683  0.44559897  0.57989404
   0.43439022  0.40996178  0.62612993
Direct configuration=     4
   0.00058986  0.24767071  0.29147031
   0.49305682  0.74618241  0.41681489
   0.49287760  0.24680768  0.41657001
   0.00058986  0.74767011  0.29147031
   0.75058982  0.49766954  0.35292815
   0.74275051  0.99777775  0.48057998
   0.25059042  0.49766954  0.35292815
   0.24373836  0.99738819  0.48236789
   0.99618298  0.99740097  0.38536662
   0.49619577  0.50612672  0.51269373
   0.99683810  0.49662764  0.44944599
   0.50058925  0.99767067  0.32219910
   0.98797173  0.22815527  0.54328039
   0.98370596  0.72403384  0.54357631
   0.50585058  0.13990892  0.57053566
  -0.00023919  0.23420378  0.48527478
   0.50058925  0.72426545  0.35464748
   0.50058925  0.27107537  0.35464748
  -0.00157725  0.75874179  0.48536420
   0.77399447  0.49766954  0.29318964
   0.72319361  0.99783771  0.42032196
   0.48612835  0.23527862  0.47878555
   0.00058986  0.72426545  0.35120881
   0.00058986  0.27107537  0.35120881
   0.48580098  0.76158814  0.47792807
   0.72156498  0.49608267  0.41471440
   0.77399447  0.99767067  0.28975097
   0.26487751  0.49615401  0.41374430
   0.22718577  0.99767067  0.28975097
   0.26794860  0.99717825  0.41969019
   0.22718577  0.49766954  0.29318964
   0.75065523  0.45676812  0.55041376
   0.22480634  0.99213763  0.54424506
   0.22812470  0.47617617  0.55256169
   0.75129765  0.98703839  0.54396863
   0.34737292  0.32355453  0.60912167
   0.35446805  0.48738618  0.27144965
   0.27781405  0.44571183  0.58005021
   0.43490310  0.41088138  0.62633965
Direct configuration=     5
   0.00058986  0.24767071  0.29147031
   0.49305682  0.74618241  0.41681489
   0.49287760  0.24680768  0.41657001
   0.00058986  0.74767011  0.29147031
   0.75058982  0.49766954  0.35292815
   0.74266557  0.99789028  0.48067777
   0.25059042  0.49766954  0.35292815
   0.24376176  0.99745331  0.48240096
   0.99618298  0.99740097  0.38536662
   0.49624015  0.50611665  0.51277025
   0.99660488  0.49659184  0.44940385
   0.50058925  0.99767067  0.32219910
   0.98792372  0.22823513  0.54335317
   0.98368960  0.72429852  0.54362289
   0.50552956  0.14018473  0.57066636
  -0.00103898  0.23309348  0.48527309
   0.50058925  0.72426545  0.35464748
   0.50058925  0.27107537  0.35464748
  -0.00231855  0.75972874  0.48537586
   0.77399447  0.49766954  0.29318964
   0.72319361  0.99783771  0.42032196
   0.48687539  0.23408734  0.47876289
   0.00058986  0.72426545  0.35120881
   0.00058986  0.27107537  0.35120881
   0.48671694  0.76301746  0.47791413
   0.72156498  0.49608267  0.41471440
   0.77399447  0.99767067  0.28975097
   0.26487751  0.49615401  0.41374430
   0.22718577  0.99767067  0.28975097
   0.26794860  0.99717825  0.41969019
   0.22718577  0.49766954  0.29318964
   0.74983005  0.45551377  0.55043314
   0.22505463  0.99337323  0.54419245
   0.22849810  0.47482208  0.55254697
   0.75198491  0.98765418  0.54391658
   0.34686595  0.32375862  0.60926146
   0.35446805  0.48738618  0.27144965
   0.27785490  0.44574315  0.58009356
   0.43504544  0.41113661  0.62639786
Direct configuration=     6
   0.00058986  0.24767071  0.29147031
   0.49305682  0.74618241  0.41681489
   0.49287760  0.24680768  0.41657001
   0.00058986  0.74767011  0.29147031
   0.75058982  0.49766954  0.35292815
   0.74263350  0.99793277  0.48071469
   0.25059042  0.49766954  0.35292815
   0.24377059  0.99747790  0.48241345
   0.99618298  0.99740097  0.38536662
   0.49625691  0.50611284  0.51279915
   0.99651682  0.49657832  0.44938793
   0.50058925  0.99767067  0.32219910
   0.98790559  0.22826529  0.54338065
   0.98368342  0.72439845  0.54364047
   0.50540835  0.14028887  0.57071571
  -0.00134096  0.23267426  0.48527246
   0.50058925  0.72426545  0.35464748
   0.50058925  0.27107537  0.35464748
  -0.00259845  0.76010139  0.48538027
   0.77399447  0.49766954  0.29318964
   0.72319361  0.99783771  0.42032196
   0.48715746  0.23363755  0.47875434
   0.00058986  0.72426545  0.35120881
   0.00058986  0.27107537  0.35120881
   0.48706279  0.76355714  0.47790887
   0.72156498  0.49608267  0.41471440
   0.77399447  0.99767067  0.28975097
   0.26487751  0.49615401  0.41374430
   0.22718577  0.99767067  0.28975097
   0.26794860  0.99717825  0.41969019
   0.22718577  0.49766954  0.29318964
   0.74951849  0.45504015  0.55044045
   0.22514838  0.99383976  0.54417259
   0.22863909  0.47431081  0.55254141
   0.75224440  0.98788669  0.54389692
   0.34667453  0.32383568  0.60931424
   0.35446805  0.48738618  0.27144965
   0.27787033  0.44575498  0.58010992
   0.43509919  0.41123298  0.62641983
Direct configuration=     7
   0.00058986  0.24767071  0.29147031
   0.49305682  0.74618241  0.41681489
   0.49287760  0.24680768  0.41657001
   0.00058986  0.74767011  0.29147031
   0.75058982  0.49766954  0.35292815
   0.74261971  0.99795104  0.48073057
   0.25059042  0.49766954  0.35292815
   0.24377439  0.99748848  0.48241882
   0.99618298  0.99740097  0.38536662
   0.49626412  0.50611120  0.51281157
   0.99647894  0.49657250  0.44938109
   0.50058925  0.99767067  0.32219910
   0.98789779  0.22827826  0.54339248
   0.98368076  0.72444144  0.54364804
   0.50535621  0.14033366  0.57073693
  -0.00147086  0.23249393  0.48527219
   0.50058925  0.72426545  0.35464748
   0.50058925  0.27107537  0.35464748
  -0.00271884  0.76026168  0.48538216
   0.77399447  0.49766954  0.29318964
   0.72319361  0.99783771  0.42032196
   0.48727878  0.23344407  0.47875066
   0.00058986  0.72426545  0.35120881
   0.00058986  0.27107537  0.35120881
   0.48721155  0.76378928  0.47790661
   0.72156498  0.49608267  0.41471440
   0.77399447  0.99767067  0.28975097
   0.26487751  0.49615401  0.41374430
   0.22718577  0.99767067  0.28975097
   0.26794860  0.99717825  0.41969019
   0.22718577  0.49766954  0.29318964
   0.74938447  0.45483643  0.55044360
   0.22518871  0.99404043  0.54416405
   0.22869973  0.47409089  0.55253901
   0.75235602  0.98798671  0.54388847
   0.34659220  0.32386882  0.60933694
   0.35446805  0.48738618  0.27144965
   0.27787697  0.44576007  0.58011696
   0.43512231  0.41127443  0.62642929
Direct configuration=     8
   0.00058986  0.24767071  0.29147031
   0.49305682  0.74618241  0.41681489
   0.49287760  0.24680768  0.41657001
   0.00058986  0.74767011  0.29147031
   0.75058982  0.49766954  0.35292815
   0.74261344  0.99795935  0.48073779
   0.25059042  0.49766954  0.35292815
   0.24377611  0.99749329  0.48242126
   0.99618298  0.99740097  0.38536662
   0.49626740  0.50611046  0.51281722
   0.99646173  0.49656986  0.44937798
   0.50058925  0.99767067  0.32219910
   0.98789425  0.22828415  0.54339785
   0.98367955  0.72446097  0.54365147
   0.50533253  0.14035401  0.57074658
  -0.00152988  0.23241200  0.48527206
   0.50058925  0.72426545  0.35464748
   0.50058925  0.27107537  0.35464748
  -0.00277354  0.76033450  0.48538302
   0.77399447  0.49766954  0.29318964
   0.72319361  0.99783771  0.42032196
   0.48733391  0.23335617  0.47874899
   0.00058986  0.72426545  0.35120881
   0.00058986  0.27107537  0.35120881
   0.48727914  0.76389474  0.47790558
   0.72156498  0.49608267  0.41471440
   0.77399447  0.99767067  0.28975097
   0.26487751  0.49615401  0.41374430
   0.22718577  0.99767067  0.28975097
   0.26794860  0.99717825  0.41969019
   0.22718577  0.49766954  0.29318964
   0.74932358  0.45474387  0.55044503
   0.22520703  0.99413160  0.54416016
   0.22872728  0.47399097  0.55253793
   0.75240673  0.98803215  0.54388463
   0.34655479  0.32388388  0.60934726
   0.35446805  0.48738618  0.27144965
   0.27787998  0.44576238  0.58012016
   0.43513281  0.41129326  0.62643358
Direct configuration=     9
   0.00058986  0.24767071  0.29147031
   0.49305682  0.74618241  0.41681489
   0.49287760  0.24680768  0.41657001
   0.00058986  0.74767011  0.29147031
   0.75058982  0.49766954  0.35292815
   0.74261052  0.99796321  0.48074115
   0.25059042  0.49766954  0.35292815
   0.24377692  0.99749552  0.48242240
   0.99618298  0.99740097  0.38536662
   0.49626892  0.50611011  0.51281985
   0.99645372  0.49656863  0.44937653
   0.50058925  0.99767067  0.32219910
   0.98789260  0.22828690  0.54340035
   0.98367899  0.72447006  0.54365307
   0.50532150  0.14036349  0.57075107
  -0.00155735  0.23237387  0.48527200
   0.50058925  0.72426545  0.35464748
   0.50058925  0.27107537  0.35464748
  -0.00279900  0.76036840  0.48538342
   0.77399447  0.49766954  0.29318964
   0.72319361  0.99783771  0.42032196
   0.48735956  0.23331525  0.47874821
   0.00058986  0.72426545  0.35120881
   0.00058986  0.27107537  0.35120881
   0.48731060  0.76394384  0.47790510
   0.72156498  0.49608267  0.41471440
   0.77399447  0.99767067  0.28975097
   0.26487751  0.49615401  0.41374430
   0.22718577  0.99767067  0.28975097
   0.26794860  0.99717825  0.41969019
   0.22718577  0.49766954  0.29318964
   0.74929524  0.45470079  0.55044569
   0.22521556  0.99417404  0.54415836
   0.22874011  0.47394446  0.55253742
   0.75243033  0.98805330  0.54388284
   0.34653738  0.32389089  0.60935206
   0.35446805  0.48738618  0.27144965
   0.27788138  0.44576345  0.58012165
   0.43513770  0.41130203  0.62643558
Direct configuration=    10
   0.00058986  0.24767071  0.29147031
   0.49305682  0.74618241  0.41681489
   0.49287760  0.24680768  0.41657001
   0.00058986  0.74767011  0.29147031
   0.75058982  0.49766954  0.35292815
   0.74260915  0.99796503  0.48074273
   0.25059042  0.49766954  0.35292815
   0.24377729  0.99749658  0.48242293
   0.99618298  0.99740097  0.38536662
   0.49626964  0.50610995  0.51282108
   0.99644995  0.49656805  0.44937585
   0.50058925  0.99767067  0.32219910
   0.98789183  0.22828819  0.54340152
   0.98367872  0.72447433  0.54365382
   0.50531632  0.14036794  0.57075318
  -0.00157026  0.23235595  0.48527198
   0.50058925  0.72426545  0.35464748
   0.50058925  0.27107537  0.35464748
  -0.00281097  0.76038433  0.48538361
   0.77399447  0.49766954  0.29318964
   0.72319361  0.99783771  0.42032196
   0.48737162  0.23329602  0.47874784
   0.00058986  0.72426545  0.35120881
   0.00058986  0.27107537  0.35120881
   0.48732539  0.76396691  0.47790488
   0.72156498  0.49608267  0.41471440
   0.77399447  0.99767067  0.28975097
   0.26487751  0.49615401  0.41374430
   0.22718577  0.99767067  0.28975097
   0.26794860  0.99717825  0.41969019
   0.22718577  0.49766954  0.29318964
   0.74928192  0.45468054  0.55044601
   0.22521957  0.99419399  0.54415751
   0.22874613  0.47392261  0.55253718
   0.75244143  0.98806324  0.54388200
   0.34652919  0.32389419  0.60935432
   0.35446805  0.48738618  0.27144965
   0.27788204  0.44576396  0.58012235
   0.43514000  0.41130615  0.62643652
Direct configuration=    11
   0.00058986  0.24767071  0.29147031
   0.49305682  0.74618241  0.41681489
   0.49287760  0.24680768  0.41657001
   0.00058986  0.74767011  0.29147031
   0.75058982  0.49766954  0.35292815
   0.74260851  0.99796588  0.48074347
   0.25059042  0.49766954  0.35292815
   0.24377747  0.99749707  0.48242319
   0.99618298  0.99740097  0.38536662
   0.49626997  0.50610988  0.51282167
   0.99644818  0.49656778  0.44937553
   0.50058925  0.99767067  0.32219910
   0.98789146  0.22828879  0.54340207
   0.98367860  0.72447635  0.54365418
   0.50531388  0.14037004  0.57075417
  -0.00157634  0.23234750  0.48527196
   0.50058925  0.72426545  0.35464748
   0.50058925  0.27107537  0.35464748
  -0.00281661  0.76039184  0.48538370
   0.77399447  0.49766954  0.29318964
   0.72319361  0.99783771  0.42032196
   0.48737731  0.23328696  0.47874767
   0.00058986  0.72426545  0.35120881
   0.00058986  0.27107537  0.35120881
   0.48733236  0.76397778  0.47790477
   0.72156498  0.49608267  0.41471440
   0.77399447  0.99767067  0.28975097
   0.26487751  0.49615401  0.41374430
   0.22718577  0.99767067  0.28975097
   0.26794860  0.99717825  0.41969019
   0.22718577  0.49766954  0.29318964
   0.74927564  0.45467100  0.55044615
   0.22522146  0.99420339  0.54415711
   0.22874898  0.47391230  0.55253707
   0.75244666  0.98806792  0.54388160
   0.34652534  0.32389574  0.60935538
   0.35446805  0.48738618  0.27144965
   0.27788235  0.44576420  0.58012268
   0.43514108  0.41130809  0.62643696
Direct configuration=    12
   0.00058986  0.24767071  0.29147031
   0.49305682  0.74618241  0.41681489
   0.49287760  0.24680768  0.41657001
   0.00058986  0.74767011  0.29147031
   0.75058982  0.49766954  0.35292815
   0.74260820  0.99796629  0.48074382
   0.25059042  0.49766954  0.35292815
   0.24377756  0.99749731  0.48242331
   0.99618298  0.99740097  0.38536662
   0.49627014  0.50610984  0.51282194
   0.99644733  0.49656765  0.44937538
   0.50058925  0.99767067  0.32219910
   0.98789129  0.22828908  0.54340234
   0.98367854  0.72447730  0.54365435
   0.50531272  0.14037103  0.57075464
  -0.00157923  0.23234348  0.48527196
   0.50058925  0.72426545  0.35464748
   0.50058925  0.27107537  0.35464748
  -0.00281929  0.76039541  0.48538374
   0.77399447  0.49766954  0.29318964
   0.72319361  0.99783771  0.42032196
   0.48738001  0.23328265  0.47874759
   0.00058986  0.72426545  0.35120881
   0.00058986  0.27107537  0.35120881
   0.48733567  0.76398295  0.47790472
   0.72156498  0.49608267  0.41471440
   0.77399447  0.99767067  0.28975097
   0.26487751  0.49615401  0.41374430
   0.22718577  0.99767067  0.28975097
   0.26794860  0.99717825  0.41969019
   0.22718577  0.49766954  0.29318964
   0.74927266  0.45466646  0.55044622
   0.22522235  0.99420786  0.54415692
   0.22875033  0.47390741  0.55253702
   0.75244914  0.98807015  0.54388141
   0.34652350  0.32389648  0.60935589
   0.35446805  0.48738618  0.27144965
   0.27788250  0.44576431  0.58012284
   0.43514160  0.41130901  0.62643717
Direct configuration=    13
   0.00058986  0.24767071  0.29147031
   0.49305682  0.74618241  0.41681489
   0.49287760  0.24680768  0.41657001
   0.00058986  0.74767011  0.29147031
   0.75058982  0.49766954  0.35292815
   0.74260805  0.99796648  0.48074399
   0.25059042  0.49766954  0.35292815
   0.24377760  0.99749742  0.48242336
   0.99618298  0.99740097  0.38536662
   0.49627021  0.50610982  0.51282207
   0.99644693  0.49656759  0.44937531
   0.50058925  0.99767067  0.32219910
   0.98789121  0.22828922  0.54340246
   0.98367851  0.72447776  0.54365443
   0.50531216  0.14037151  0.57075487
  -0.00158061  0.23234158  0.48527196
   0.50058925  0.72426545  0.35464748
   0.50058925  0.27107537  0.35464748
  -0.00282056  0.76039711  0.48538376
   0.77399447  0.49766954  0.29318964
   0.72319361  0.99783771  0.42032196
   0.48738129  0.23328060  0.47874755
   0.00058986  0.72426545  0.35120881
   0.00058986  0.27107537  0.35120881
   0.48733724  0.76398541  0.47790470
   0.72156498  0.49608267  0.41471440
   0.77399447  0.99767067  0.28975097
   0.26487751  0.49615401  0.41374430
   0.22718577  0.99767067  0.28975097
   0.26794860  0.99717825  0.41969019
   0.22718577  0.49766954  0.29318964
   0.74927124  0.45466431  0.55044626
   0.22522278  0.99420998  0.54415683
   0.22875097  0.47390508  0.55253699
   0.75245032  0.98807121  0.54388132
   0.34652263  0.32389683  0.60935613
   0.35446805  0.48738618  0.27144965
   0.27788257  0.44576436  0.58012291
   0.43514184  0.41130945  0.62643727
Direct configuration=    14
   0.00058986  0.24767071  0.29147031
   0.49305682  0.74618241  0.41681489
   0.49287760  0.24680768  0.41657001
   0.00058986  0.74767011  0.29147031
   0.75058982  0.49766954  0.35292815
   0.74260798  0.99796658  0.48074407
   0.25059042  0.49766954  0.35292815
   0.24377761  0.99749747  0.48242339
   0.99618298  0.99740097  0.38536662
   0.49627025  0.50610981  0.51282214
   0.99644674  0.49656756  0.44937527
   0.50058925  0.99767067  0.32219910
   0.98789117  0.22828928  0.54340252
   0.98367850  0.72447797  0.54365447
   0.50531190  0.14037173  0.57075498
  -0.00158126  0.23234067  0.48527195
   0.50058925  0.72426545  0.35464748
   0.50058925  0.27107537  0.35464748
  -0.00282117  0.76039791  0.48538377
   0.77399447  0.49766954  0.29318964
   0.72319361  0.99783771  0.42032196
   0.48738190  0.23327963  0.47874753
   0.00058986  0.72426545  0.35120881
   0.00058986  0.27107537  0.35120881
   0.48733799  0.76398658  0.47790469
   0.72156498  0.49608267  0.41471440
   0.77399447  0.99767067  0.28975097
   0.26487751  0.49615401  0.41374430
   0.22718577  0.99767067  0.28975097
   0.26794860  0.99717825  0.41969019
   0.22718577  0.49766954  0.29318964
   0.74927057  0.45466328  0.55044627
   0.22522298  0.99421099  0.54415678
   0.22875127  0.47390398  0.55253698
   0.75245088  0.98807171  0.54388128
   0.34652222  0.32389700  0.60935624
   0.35446805  0.48738618  0.27144965
   0.27788260  0.44576439  0.58012295
   0.43514196  0.41130966  0.62643732
Direct configuration=    15
   0.00058986  0.24767071  0.29147031
   0.49305682  0.74618241  0.41681489
   0.49287760  0.24680768  0.41657001
   0.00058986  0.74767011  0.29147031
   0.75058982  0.49766954  0.35292815
   0.74260795  0.99796662  0.48074411
   0.25059042  0.49766954  0.35292815
   0.24377762  0.99749750  0.48242340
   0.99618298  0.99740097  0.38536662
   0.49627027  0.50610981  0.51282217
   0.99644665  0.49656755  0.44937526
   0.50058925  0.99767067  0.32219910
   0.98789115  0.22828932  0.54340255
   0.98367849  0.72447808  0.54365448
   0.50531178  0.14037184  0.57075503
  -0.00158157  0.23234024  0.48527195
   0.50058925  0.72426545  0.35464748
   0.50058925  0.27107537  0.35464748
  -0.00282146  0.76039829  0.48538378
   0.77399447  0.49766954  0.29318964
   0.72319361  0.99783771  0.42032196
   0.48738219  0.23327917  0.47874752
   0.00058986  0.72426545  0.35120881
   0.00058986  0.27107537  0.35120881
   0.48733835  0.76398713  0.47790468
   0.72156498  0.49608267  0.41471440
   0.77399447  0.99767067  0.28975097
   0.26487751  0.49615401  0.41374430
   0.22718577  0.99767067  0.28975097
   0.26794860  0.99717825  0.41969019
   0.22718577  0.49766954  0.29318964
   0.74927025  0.45466280  0.55044628
   0.22522308  0.99421147  0.54415676
   0.22875142  0.47390345  0.55253698
   0.75245115  0.98807195  0.54388126
   0.34652202  0.32389708  0.60935629
   0.35446805  0.48738618  0.27144965
   0.27788262  0.44576440  0.58012296
   0.43514201  0.41130976  0.62643734
Direct configuration=    16
   0.00058986  0.24767071  0.29147031
   0.49305682  0.74618241  0.41681489
   0.49287760  0.24680768  0.41657001
   0.00058986  0.74767011  0.29147031
   0.75058982  0.49766954  0.35292815
   0.74260794  0.99796664  0.48074413
   0.25059042  0.49766954  0.35292815
   0.24377763  0.99749751  0.48242341
   0.99618298  0.99740097  0.38536662
   0.49627027  0.50610981  0.51282218
   0.99644661  0.49656754  0.44937525
   0.50058925  0.99767067  0.32219910
   0.98789114  0.22828933  0.54340256
   0.98367849  0.72447813  0.54365449
   0.50531172  0.14037189  0.57075505
  -0.00158172  0.23234003  0.48527195
   0.50058925  0.72426545  0.35464748
   0.50058925  0.27107537  0.35464748
  -0.00282159  0.76039848  0.48538378
   0.77399447  0.49766954  0.29318964
   0.72319361  0.99783771  0.42032196
   0.48738233  0.23327895  0.47874752
   0.00058986  0.72426545  0.35120881
   0.00058986  0.27107537  0.35120881
   0.48733852  0.76398740  0.47790468
   0.72156498  0.49608267  0.41471440
   0.77399447  0.99767067  0.28975097
   0.26487751  0.49615401  0.41374430
   0.22718577  0.99767067  0.28975097
   0.26794860  0.99717825  0.41969019
   0.22718577  0.49766954  0.29318964
   0.74927009  0.45466256  0.55044628
   0.22522313  0.99421170  0.54415675
   0.22875149  0.47390320  0.55253697
   0.75245128  0.98807206  0.54388125
   0.34652193  0.32389711  0.60935632
   0.35446805  0.48738618  0.27144965
   0.27788263  0.44576441  0.58012297
   0.43514204  0.41130981  0.62643735
Direct configuration=    17
   0.00058986  0.24767071  0.29147031
   0.49305682  0.74618241  0.41681489
   0.49287760  0.24680768  0.41657001
   0.00058986  0.74767011  0.29147031
   0.75058982  0.49766954  0.35292815
   0.74260793  0.99796665  0.48074414
   0.25059042  0.49766954  0.35292815
   0.24377763  0.99749751  0.48242341
   0.99618298  0.99740097  0.38536662
   0.49627028  0.50610981  0.51282219
   0.99644659  0.49656754  0.44937524
   0.50058925  0.99767067  0.32219910
   0.98789113  0.22828934  0.54340257
   0.98367849  0.72447815  0.54365450
   0.50531169  0.14037192  0.57075506
  -0.00158179  0.23233993  0.48527195
   0.50058925  0.72426545  0.35464748
   0.50058925  0.27107537  0.35464748
  -0.00282166  0.76039856  0.48538378
   0.77399447  0.49766954  0.29318964
   0.72319361  0.99783771  0.42032196
   0.48738240  0.23327884  0.47874752
   0.00058986  0.72426545  0.35120881
   0.00058986  0.27107537  0.35120881
   0.48733860  0.76398752  0.47790468
   0.72156498  0.49608267  0.41471440
   0.77399447  0.99767067  0.28975097
   0.26487751  0.49615401  0.41374430
   0.22718577  0.99767067  0.28975097
   0.26794860  0.99717825  0.41969019
   0.22718577  0.49766954  0.29318964
   0.74927002  0.45466245  0.55044629
   0.22522315  0.99421181  0.54415675
   0.22875152  0.47390308  0.55253697
   0.75245134  0.98807212  0.54388125
   0.34652188  0.32389713  0.60935633
   0.35446805  0.48738618  0.27144965
   0.27788263  0.44576441  0.58012297
   0.43514205  0.41130983  0.62643736
Direct configuration=    18
   0.00058986  0.24767071  0.29147031
   0.49305682  0.74618241  0.41681489
   0.49287760  0.24680768  0.41657001
   0.00058986  0.74767011  0.29147031
   0.75058982  0.49766954  0.35292815
   0.74260792  0.99796665  0.48074414
   0.25059042  0.49766954  0.35292815
   0.24377763  0.99749752  0.48242341
   0.99618298  0.99740097  0.38536662
   0.49627028  0.50610981  0.51282219
   0.99644658  0.49656754  0.44937524
   0.50058925  0.99767067  0.32219910
   0.98789113  0.22828934  0.54340257
   0.98367849  0.72447816  0.54365450
   0.50531168  0.14037193  0.57075507
  -0.00158182  0.23233989  0.48527195
   0.50058925  0.72426545  0.35464748
   0.50058925  0.27107537  0.35464748
  -0.00282169  0.76039861  0.48538378
   0.77399447  0.49766954  0.29318964
   0.72319361  0.99783771  0.42032196
   0.48738243  0.23327879  0.47874752
   0.00058986  0.72426545  0.35120881
   0.00058986  0.27107537  0.35120881
   0.48733864  0.76398758  0.47790468
   0.72156498  0.49608267  0.41471440
   0.77399447  0.99767067  0.28975097
   0.26487751  0.49615401  0.41374430
   0.22718577  0.99767067  0.28975097
   0.26794860  0.99717825  0.41969019
   0.22718577  0.49766954  0.29318964
   0.74926999  0.45466240  0.55044629
   0.22522316  0.99421186  0.54415675
   0.22875153  0.47390302  0.55253697
   0.75245137  0.98807214  0.54388125
   0.34652186  0.32389714  0.60935634
   0.35446805  0.48738618  0.27144965
   0.27788263  0.44576441  0.58012298
   0.43514206  0.41130984  0.62643736
Direct configuration=    19
   0.00058986  0.24767071  0.29147031
   0.49305682  0.74618241  0.41681489
   0.49287760  0.24680768  0.41657001
   0.00058986  0.74767011  0.29147031
   0.75058982  0.49766954  0.35292815
   0.74260792  0.99796666  0.48074414
   0.25059042  0.49766954  0.35292815
   0.24377763  0.99749752  0.48242341
   0.99618298  0.99740097  0.38536662
   0.49627028  0.50610981  0.51282219
   0.99644658  0.49656753  0.44937524
   0.50058925  0.99767067  0.32219910
   0.98789113  0.22828934  0.54340258
   0.98367849  0.72447817  0.54365450
   0.50531167  0.14037193  0.57075507
  -0.00158184  0.23233987  0.48527195
   0.50058925  0.72426545  0.35464748
   0.50058925  0.27107537  0.35464748
  -0.00282170  0.76039863  0.48538378
   0.77399447  0.49766954  0.29318964
   0.72319361  0.99783771  0.42032196
   0.48738244  0.23327877  0.47874752
   0.00058986  0.72426545  0.35120881
   0.00058986  0.27107537  0.35120881
   0.48733865  0.76398761  0.47790468
   0.72156498  0.49608267  0.41471440
   0.77399447  0.99767067  0.28975097
   0.26487751  0.49615401  0.41374430
   0.22718577  0.99767067  0.28975097
   0.26794860  0.99717825  0.41969019
   0.22718577  0.49766954  0.29318964
   0.74926997  0.45466237  0.55044629
   0.22522316  0.99421188  0.54415675
   0.22875154  0.47390299  0.55253697
   0.75245138  0.98807216  0.54388124
   0.34652185  0.32389714  0.60935634
   0.35446805  0.48738618  0.27144965
   0.27788263  0.44576441  0.58012298
   0.43514206  0.41130984  0.62643736
