Mn  O  H                                
   1.00000000000000     
     5.7471469900000001    0.0000000000000000    0.0000000000000000
     0.0000000000000000    5.7471469900000001    0.0000000000000000
     0.0000000000000000    0.0000000000000000   38.3054457869999965
   Mn   O    H 
    15    22     4
Selective dynamics
Direct
  0.0005898578905175  0.2476707142651335  0.2914703058693817   F   F   F
  0.4930568167006300  0.7461824114576885  0.4168148855069234   F   F   F
  0.4928775973415611  0.2468076773515762  0.4165700117087638   F   F   F
  0.0005898578905175  0.7476701061373063  0.2914703058693817   F   F   F
  0.7505898156956690  0.4976695402043276  0.3529281469578436   F   F   F
  0.7408925652747912  0.0066462153028216  0.4807832994641902   T   T   T
  0.2505904238234891  0.4976695402043276  0.3529281469578436   F   F   F
  0.2448263977078817  0.0068271011544797  0.4822759264629090   T   T   T
  0.9961829773906672  0.9974009730347930  0.3853666155481648   F   F   F
  0.4982893615286361  0.5081820061259633  0.5137726521782755   T   T   T
  0.9935213768901736  0.5028006226886815  0.4500000249256768   T   T   T
  0.5005892497626903  0.9976706720702850  0.3221990958838745   F   F   F
  0.9888854589217880  0.2598225645343843  0.5441649972069397   T   T   T
  0.9998215446451071  0.7418171005608851  0.5425813395497249   T   T   T
  0.2904526082362932  0.0624627501738822  0.5930768054765780   T   T   T
  0.9903714606073536  0.2357520553364911  0.4875967724736743   T   T   T
  0.5005892497626903  0.7242654498384411  0.3546474847346772   F   F   F
  0.5005892497626903  0.2710753705639917  0.3546474847346772   F   F   F
  0.9924914220461781  0.7810886027695810  0.4838970616153239   T   T   T
  0.7739944719945271  0.4976695402043276  0.2931896436462154   F   F   F
  0.7231936136716044  0.9978377114729042  0.4203219586459994   F   F   F
  0.4932458439829130  0.2336714526085158  0.4780939203484570   T   T   T
  0.0005898578905175  0.7242654498384411  0.3512088091810099   F   F   F
  0.0005898578905175  0.2710753705639917  0.3512088091810099   F   F   F
  0.4925111160944652  0.7778765118512146  0.4774594694096513   T   T   T
  0.7215649794960228  0.4960826658794062  0.4147144008800794   F   F   F
  0.7739944719945271  0.9976706720702850  0.2897509680925552   F   F   F
  0.2648775127291429  0.4961540056242768  0.4137443038289561   F   F   F
  0.2271857675246238  0.9976706720702850  0.2897509680925552   F   F   F
  0.2679486017461343  0.9971782538313008  0.4196901946891316   F   F   F
  0.2271857675246238  0.4976695402043276  0.2931896436462154   F   F   F
  0.7737462462321832  0.5096241825453739  0.5460102677690077   T   T   T
  0.2205058741087355  0.0009298742719754  0.5439009278024406   T   T   T
  0.2187679396374941  0.5032750799079364  0.5456546592321578   T   T   T
  0.7613178976557808  0.9943720471801651  0.5408640391397508   T   T   T
  0.5970381479460396 -0.0312104653569147  0.6077034716658826   T   T   T
  0.9973467484421693  0.2286878176501402  0.5964910999008487   T   T   T
  0.3544680523300840  0.4873861769803085  0.2714496538643303   F   F   F
  0.6653867523636057  0.9787602038967265  0.5624394335397741   T   T   T
  0.6268050040503764  0.8089056237464983  0.6151386017174311   T   T   T
  0.8539253349759548  0.1447515628970203  0.6036260149392292   T   T   T
 
  0.00000000E+00  0.00000000E+00  0.00000000E+00
  0.00000000E+00  0.00000000E+00  0.00000000E+00
  0.00000000E+00  0.00000000E+00  0.00000000E+00
  0.00000000E+00  0.00000000E+00  0.00000000E+00
  0.00000000E+00  0.00000000E+00  0.00000000E+00
  0.00000000E+00  0.00000000E+00  0.00000000E+00
  0.00000000E+00  0.00000000E+00  0.00000000E+00
  0.00000000E+00  0.00000000E+00  0.00000000E+00
  0.00000000E+00  0.00000000E+00  0.00000000E+00
  0.00000000E+00  0.00000000E+00  0.00000000E+00
  0.00000000E+00  0.00000000E+00  0.00000000E+00
  0.00000000E+00  0.00000000E+00  0.00000000E+00
  0.00000000E+00  0.00000000E+00  0.00000000E+00
  0.00000000E+00  0.00000000E+00  0.00000000E+00
  0.00000000E+00  0.00000000E+00  0.00000000E+00
  0.00000000E+00  0.00000000E+00  0.00000000E+00
  0.00000000E+00  0.00000000E+00  0.00000000E+00
  0.00000000E+00  0.00000000E+00  0.00000000E+00
  0.00000000E+00  0.00000000E+00  0.00000000E+00
  0.00000000E+00  0.00000000E+00  0.00000000E+00
  0.00000000E+00  0.00000000E+00  0.00000000E+00
  0.00000000E+00  0.00000000E+00  0.00000000E+00
  0.00000000E+00  0.00000000E+00  0.00000000E+00
  0.00000000E+00  0.00000000E+00  0.00000000E+00
  0.00000000E+00  0.00000000E+00  0.00000000E+00
  0.00000000E+00  0.00000000E+00  0.00000000E+00
  0.00000000E+00  0.00000000E+00  0.00000000E+00
  0.00000000E+00  0.00000000E+00  0.00000000E+00
  0.00000000E+00  0.00000000E+00  0.00000000E+00
  0.00000000E+00  0.00000000E+00  0.00000000E+00
  0.00000000E+00  0.00000000E+00  0.00000000E+00
  0.00000000E+00  0.00000000E+00  0.00000000E+00
  0.00000000E+00  0.00000000E+00  0.00000000E+00
  0.00000000E+00  0.00000000E+00  0.00000000E+00
  0.00000000E+00  0.00000000E+00  0.00000000E+00
  0.00000000E+00  0.00000000E+00  0.00000000E+00
  0.00000000E+00  0.00000000E+00  0.00000000E+00
  0.00000000E+00  0.00000000E+00  0.00000000E+00
  0.00000000E+00  0.00000000E+00  0.00000000E+00
  0.00000000E+00  0.00000000E+00  0.00000000E+00
  0.00000000E+00  0.00000000E+00  0.00000000E+00
