Mn  O  H 
 1.0000000000000000
     5.7471469900000001    0.0000000000000000    0.0000000000000000
     0.0000000000000000    5.7471469900000001    0.0000000000000000
     0.0000000000000000    0.0000000000000000   38.3054457869999965
 Mn  O   H  
  15  21   2
Selective dynamics
Cartesian
  0.0033900000000154  1.4234000000000122 11.1649000000000012   F   F   F
  2.8336700000000077  4.2884199999999959 15.9662799999999905   F   F   F
  2.8326399999999849  1.4184400000000024 15.9569000000000418   F   F   F
  0.0033900000000154  4.2969700000000008 11.1649000000000012   F   F   F
  4.3137500000000184  2.8601799999999851 13.5190699999999993   F   F   F
  4.2699666410180086  5.7283726784261786 18.4269761848643689   T   T   T
  1.4401799999999898  2.8601799999999851 13.5190699999999993   F   F   F
  1.4062971283001706  5.7293991329164422 18.4415917864255796   T   T   T
  5.7252100000000112  5.7322099999999816 14.7616400000000993   F   F   F
  2.8387566936897279  2.9016012381381002 19.6955292197366276   T   T   T
  5.7161235783812518  2.8581060457933454 17.2059817889266107   T   T   T
  2.8769600000000035  5.7337600000000162 12.3419800000000421   F   F   F
  5.7080034657917365  1.3954885684550680 20.8229069741081645   T   T   T
  5.7094825971273186  4.2247072466786637 20.8823141983276557   T   T   T
  2.8343987710051044  0.5621331985309941 22.0363498351885916   T   T   T
  5.7128722347126546  1.2883506287291167 18.5580169983121017   T   T   T
  2.8769600000000035  4.1624599999999932 13.5849299999999928   F   F   F
  2.8769600000000035  1.5579100000000201 13.5849299999999928   F   F   F
  5.7135119550563305  4.4109572110600501 18.5709248555847815   T   T   T
  4.4482599999999861  2.8601799999999851 11.2307599999999965   F   F   F
  4.1562999999999839  5.7347199999999905 16.1006200000000916   F   F   F
  2.8349101143128155  1.3017946734645420 18.3585320096719187   T   T   T
  0.0033900000000154  4.1624599999999932 13.4532100000000057   F   F   F
  0.0033900000000154  1.5579100000000201 13.4532100000000057   F   F   F
  2.8341740681018548  4.4185195059865441 18.3206757174236934   T   T   T
  4.1469400000000203  2.8510600000000053 15.8858200000000593   F   F   F
  4.4482599999999861  5.7337600000000162 11.0990400000000040   F   F   F
  1.5222899999999804  2.8514700000000057 15.8486600000000788   F   F   F
  1.3056699999999815  5.7337600000000162 11.0990400000000040   F   F   F
  1.5399400000000043  5.7309300000000158 16.0764200000000237   F   F   F
  1.3056699999999815  2.8601799999999851 11.2307599999999965   F   F   F
  4.4086233281784040  2.7867513710510208 21.0047766784984482   T   T   T
  1.2687970935763315  5.6975499066376640 20.8453331253681249   T   T   T
  1.2626519333597022  2.7892021036572570 21.0005379268384473   T   T   T
  4.4043403447046705  5.6927818602124187 20.8387029362176719   T   T   T
  2.9311875643096457  0.8017113811602691 23.9031769885067895   T   T   T
  2.0371800000000047  2.8010799999999874 10.3979999999999873   F   F   F
  3.3323630942015843  1.5559833860998766 24.3601417530400539   T   T   T
