Mn O  H 
 1.0000000000000000
     5.7471469900000001    0.0000000000000000    0.0000000000000000
     0.0000000000000000    5.7471469900000001    0.0000000000000000
     0.0000000000000000    0.0000000000000000   38.3523056924327008
 Mn  O   H  
  14  19   1
Selective dynamics
Direct
 -0.0093835343744717  0.2391760241319369  0.2623916092900749   F   F   F
  0.7489864879576713  0.4968346817732093  0.3235847127412249   F   F   F
  0.4962915677760886  0.2521736684243087  0.3916339795433527   T   T   T
  0.7370314893450071  0.0050733640714515  0.4597632471820240   T   T   T
  0.2376043263264228  0.0070981922945206  0.4528086055871124   T   T   T
  0.2510151206674320  0.4955812159049278  0.3269556710605909   F   F   F
  0.4970282894705400  0.7530359734370752  0.3912616052387303   T   T   T
 -0.0100916428494874  0.7513987945614823  0.2627757334990781   F   F   F
  0.0024768544779153 -0.0045784375955736  0.3571699137271092   F   F   F
 -0.0091131499013390  0.5065354272609822  0.4233982369682652   T   T   T
  0.4454498568729154  0.5091722524501041  0.4885535617947503   T   T   T
  0.4872487909802456 -0.0043314717839424  0.2917774653642574   F   F   F
  0.9745911631241015  0.2571634184587184  0.5212688000488471   T   T   T
  0.9745230458485178  0.7508564736004514  0.5210536154906455   T   T   T
 -0.0062710379006489  0.2351570412830265  0.4591471634355412   T   T   T
  0.7747574636748692  0.4958631552600724  0.2647010163483396   F   F   F
  0.4994775423373534  0.2678073900728424  0.3280746410023943   F   F   F
  0.7199812480584097  0.0012662060902937  0.3953915889729090   T   T   T
  0.0037645548922136  0.2690184215424850  0.3222536979589821   F   F   F
  0.7692367725186661 -0.0055241815224737  0.2597891457639432   F   F   F
  0.4871463604299324  0.2336297393829655  0.4537354628525113   T   T   T
  0.7297530461533674  0.5022624376355525  0.3849234033508793   T   T   T
  0.2111692605782599 -0.0057975698878655  0.2583053953367737   F   F   F
  0.2730989143535995  0.5044362212782840  0.3907256232487535   T   T   T
  0.2272536477132092  0.4962741366236937  0.2626329689737672   F   F   F
  0.2669067945157760  0.0016503816367544  0.3957767784286222   T   T   T
  0.4987015056994976  0.7247605740973498  0.3278246169346272   F   F   F
 -0.0052232176794458  0.7766519519869658  0.4589400182634340   T   T   T
  0.4861350663008272  0.7786625467787706  0.4533873401784792   T   T   T
  0.0041034282560547  0.7236694402594225  0.3222276800561435   F   F   F
  0.7048574097237914  0.5042011766995582  0.5275711098689245   T   T   T
  0.2059690926295968  0.5043474116046487  0.5267575543124974   T   T   T
  0.7641687774263158  0.0046885983509701  0.5159668435785777   T   T   T
  0.3862807976787250  0.4992215041381847  0.2532026820654570   F   F   F
