Mn  O  H                                
   1.00000000000000     
     2.8735734950000000   -2.8735734950000000    4.7083351100000002
     5.7471469900000001    0.0000000000000000    0.0000000000000000
     0.0000000000000000   33.0656910066415008   20.1805290088081009
   Mn   O    H 
    15    24     9
Selective dynamics
Direct
  0.2206712106837827  0.8924024101981232  0.0890155841539979   F   F   F
  0.6824153037044467  0.1577402494588464  0.2188032052469725   T   T   T
  0.9492761232251894  0.0280999539274163  0.1523349856625060   F   F   F
  0.4151736334597234  0.2858010231696095  0.2850680958853430   T   T   T
  0.4492761232251894  0.5280999539274163  0.1523349856625060   F   F   F
  0.9207250826361670  0.2857972336430793  0.2850803666119958   T   T   T
  0.4492761232251894  0.0280999539274163  0.1523349856625060   F   F   F
  0.9199655657119659  0.7864877508135448  0.2847158949543465   T   T   T
  0.9028224388191362  0.5513267961304464  0.1048454345311214   F   F   F
  0.3698387914820840  0.8109494633233226  0.2332414766029126   T   T   T
 -0.0001920344509458  0.5010013290153934  0.2036671886044981   T   T   T
  0.4637012928056031  0.7624005341097456  0.3304408579279682   T   T   T
  0.5385199825484293  0.2334780242657999  0.0731857337768673   F   F   F
  0.1362066546903638  0.4308514527932115  0.3541360827756888   T   T   T
  0.8039336571254913  0.1011419639820673  0.3655209042200234   T   T   T
  0.8137328126617233  0.5921763306900145  0.3159974690904542   T   T   T
  0.8792642171272149  0.0631059069764035  0.0552776342656358   F   F   F
  0.3435475632616727  0.3306668885421794  0.1834715870077251   T   T   T
  0.5824613929758371  0.2115073190520960  0.1245249348239739   F   F   F
  0.0547745147278549  0.4682224800796091  0.2566863625739420   T   T   T
  0.4632451116259498  0.7706772795556747  0.3871870304159535   T   T   T
  0.0951652613222294  0.7285601348788973  0.1215609852990625   F   F   F
  0.5642728398435130  0.4409100314312293  0.2535175153718741   T   T   T
  0.7793377026670836  0.1053838910757273  0.3130641633720592   T   T   T
  0.8588810283917283  0.5732975013441504  0.0535062334840219   F   F   F
  0.3123134386430538  0.8464297228559849  0.1806735122028161   T   T   T
  0.5620782042403505  0.7216989134198428  0.1227535340423529   F   F   F
  0.0266693830132635  0.9830661376321432  0.2542762562084809   T   T   T
  0.8014556522921796  0.3268433946595916  0.1849176100273717   T   T   T
  0.2689568374726131  0.5829726264070967  0.3173329351739320   T   T   T
  0.3461771600453361  0.6030541855173510  0.0564701830089334   F   F   F
  0.2631792871601862  0.1361505283193227  0.3170823661936509   T   T   T
  0.8028774849265364  0.8734510488748011  0.1845956760133806   T   T   T
  0.3461771600453361  0.0562446855173491  0.0564701830089334   F   F   F
  0.5662981144604924  0.9856952963230630  0.2530262531017129   T   T   T
  0.0951652613222294  0.1817506348788953  0.1215609852990625   F   F   F
  0.0515049480822730  0.7486002724900321  0.3880465444840790   T   T   T
  0.4675471790740713  0.2075757749251963  0.3879952065807890   T   T   T
 -0.0685181955325574  0.3361596816562387  0.3874385871032874   T   T   T
  0.3404706169097480  0.6039120138460916  0.0278288297643030   F   F   F
  0.9243468113422040  0.6852365052266407  0.0369688146645331   F   F   F
  0.3436334761770041  0.0639996102436484  0.0278342118600037   F   F   F
  0.8883812645227351  0.0556090842097916  0.0266559720288981   F   F   F
  0.3040954299918576  0.7719696510558033  0.3926554277235259   T   T   T
  0.4414583652718614  0.3036734333283638  0.4095226589086646   T   T   T
 -0.0052963190736538  0.7015497462684488  0.4090308985598201   T   T   T
 -0.2200738361099829  0.4965098750049360  0.3923632194127349   T   T   T
  0.4497807083022141  0.9539834020457213  0.3920732175912243   T   T   T
 
  0.00000000E+00  0.00000000E+00  0.00000000E+00
  0.00000000E+00  0.00000000E+00  0.00000000E+00
  0.00000000E+00  0.00000000E+00  0.00000000E+00
  0.00000000E+00  0.00000000E+00  0.00000000E+00
  0.00000000E+00  0.00000000E+00  0.00000000E+00
  0.00000000E+00  0.00000000E+00  0.00000000E+00
  0.00000000E+00  0.00000000E+00  0.00000000E+00
  0.00000000E+00  0.00000000E+00  0.00000000E+00
  0.00000000E+00  0.00000000E+00  0.00000000E+00
  0.00000000E+00  0.00000000E+00  0.00000000E+00
  0.00000000E+00  0.00000000E+00  0.00000000E+00
  0.00000000E+00  0.00000000E+00  0.00000000E+00
  0.00000000E+00  0.00000000E+00  0.00000000E+00
  0.00000000E+00  0.00000000E+00  0.00000000E+00
  0.00000000E+00  0.00000000E+00  0.00000000E+00
  0.00000000E+00  0.00000000E+00  0.00000000E+00
  0.00000000E+00  0.00000000E+00  0.00000000E+00
  0.00000000E+00  0.00000000E+00  0.00000000E+00
  0.00000000E+00  0.00000000E+00  0.00000000E+00
  0.00000000E+00  0.00000000E+00  0.00000000E+00
  0.00000000E+00  0.00000000E+00  0.00000000E+00
  0.00000000E+00  0.00000000E+00  0.00000000E+00
  0.00000000E+00  0.00000000E+00  0.00000000E+00
  0.00000000E+00  0.00000000E+00  0.00000000E+00
  0.00000000E+00  0.00000000E+00  0.00000000E+00
  0.00000000E+00  0.00000000E+00  0.00000000E+00
  0.00000000E+00  0.00000000E+00  0.00000000E+00
  0.00000000E+00  0.00000000E+00  0.00000000E+00
  0.00000000E+00  0.00000000E+00  0.00000000E+00
  0.00000000E+00  0.00000000E+00  0.00000000E+00
  0.00000000E+00  0.00000000E+00  0.00000000E+00
  0.00000000E+00  0.00000000E+00  0.00000000E+00
  0.00000000E+00  0.00000000E+00  0.00000000E+00
  0.00000000E+00  0.00000000E+00  0.00000000E+00
  0.00000000E+00  0.00000000E+00  0.00000000E+00
  0.00000000E+00  0.00000000E+00  0.00000000E+00
  0.00000000E+00  0.00000000E+00  0.00000000E+00
  0.00000000E+00  0.00000000E+00  0.00000000E+00
  0.00000000E+00  0.00000000E+00  0.00000000E+00
  0.00000000E+00  0.00000000E+00  0.00000000E+00
  0.00000000E+00  0.00000000E+00  0.00000000E+00
  0.00000000E+00  0.00000000E+00  0.00000000E+00
  0.00000000E+00  0.00000000E+00  0.00000000E+00
  0.00000000E+00  0.00000000E+00  0.00000000E+00
  0.00000000E+00  0.00000000E+00  0.00000000E+00
  0.00000000E+00  0.00000000E+00  0.00000000E+00
  0.00000000E+00  0.00000000E+00  0.00000000E+00
  0.00000000E+00  0.00000000E+00  0.00000000E+00
