unknown system                          
           1
     2.873573   -2.873573    4.708335
     5.747147    0.000000    0.000000
     0.000000   33.065691   20.180529
   Mn   O    H 
  15  24   9
Direct configuration=     1
   0.22067121  0.89240241  0.08901558
   0.68241530  0.15774025  0.21880321
   0.94927612  0.02809995  0.15233499
   0.41517363  0.28580102  0.28506810
   0.44927612  0.52809995  0.15233499
   0.92072508  0.28579723  0.28508037
   0.44927612  0.02809995  0.15233499
   0.91996557  0.78648775  0.28471589
   0.90282244  0.55132680  0.10484543
   0.36983879  0.81094946  0.23324148
   0.99980797  0.50100133  0.20366719
   0.46370129  0.76240053  0.33044086
   0.53851998  0.23347802  0.07318573
   0.13620665  0.43085145  0.35413608
   0.80393366  0.10114196  0.36552090
   0.81373281  0.59217633  0.31599747
   0.87926422  0.06310591  0.05527763
   0.34354756  0.33066689  0.18347159
   0.58246139  0.21150732  0.12452493
   0.05477451  0.46822248  0.25668636
   0.46324511  0.77067728  0.38718703
   0.09516526  0.72856013  0.12156099
   0.56427284  0.44091003  0.25351752
   0.77933770  0.10538389  0.31306416
   0.85888103  0.57329750  0.05350623
   0.31231344  0.84642972  0.18067351
   0.56207820  0.72169891  0.12275353
   0.02666938  0.98306614  0.25427626
   0.80145565  0.32684339  0.18491761
   0.26895684  0.58297263  0.31733294
   0.34617716  0.60305419  0.05647018
   0.26317929  0.13615053  0.31708237
   0.80287748  0.87345105  0.18459568
   0.34617716  0.05624469  0.05647018
   0.56629811  0.98569530  0.25302625
   0.09516526  0.18175063  0.12156099
   0.05150495  0.74860027  0.38804654
   0.46754718  0.20757577  0.38799521
   0.93148180  0.33615968  0.38743859
   0.34047062  0.60391201  0.02782883
   0.92434681  0.68523651  0.03696881
   0.34363348  0.06399961  0.02783421
   0.88838126  0.05560908  0.02665597
   0.30409543  0.77196965  0.39265543
   0.44145837  0.30367343  0.40952266
   0.99470368  0.70154975  0.40903090
   0.77992616  0.49650988  0.39236322
   0.44978071  0.95398340  0.39207322
Direct configuration=     2
   0.22067121  0.89240241  0.08901558
   0.68207596  0.15745801  0.21972680
   0.94927612  0.02809995  0.15233499
   0.41734318  0.28529872  0.28442217
   0.44927612  0.52809995  0.15233499
   0.92139319  0.28420377  0.28474519
   0.44927612  0.02809995  0.15233499
   0.92037099  0.78765570  0.28421916
   0.90282244  0.55132680  0.10484543
   0.36946151  0.81111628  0.23379921
   0.99993965  0.50110322  0.20421585
   0.45568103  0.76643327  0.32952169
   0.53851998  0.23347802  0.07318573
   0.13749591  0.43150013  0.35358893
   0.80820797  0.10459529  0.36617677
   0.81290974  0.59461797  0.31711135
   0.87926422  0.06310591  0.05527763
   0.34375809  0.33081598  0.18288893
   0.58246139  0.21150732  0.12452493
   0.05437394  0.46892682  0.25661235
   0.46362257  0.77178033  0.38680828
   0.09516526  0.72856013  0.12156099
   0.56602046  0.43964909  0.25354869
   0.78033369  0.10423606  0.31455042
   0.85888103  0.57329750  0.05350623
   0.31318434  0.84541686  0.18007620
   0.56207820  0.72169891  0.12275353
   0.02602045  0.98286996  0.25420131
   0.80157018  0.32609703  0.18413866
   0.27122674  0.59042267  0.31774420
   0.34617716  0.60305419  0.05647018
   0.26312985  0.12639660  0.31760665
   0.80351715  0.87316365  0.18386217
   0.34617716  0.05624469  0.05647018
   0.56630050  0.98665315  0.25301315
   0.09516526  0.18175063  0.12156099
   0.04958025  0.75436526  0.38682872
   0.47070766  0.20795450  0.38708937
   0.93058705  0.32219387  0.38677156
   0.34047062  0.60391201  0.02782883
   0.92434681  0.68523651  0.03696881
   0.34363348  0.06399961  0.02783421
   0.88838126  0.05560908  0.02665597
   0.30356177  0.77200192  0.39263437
   0.44137981  0.30494805  0.40970092
   0.99228750  0.70228001  0.40946895
   0.77597525  0.50050996  0.39245960
   0.44981030  0.95218166  0.39206100
Direct configuration=     3
   0.22067121  0.89240241  0.08901558
   0.68226578  0.15761589  0.21921016
   0.94927612  0.02809995  0.15233499
   0.41612957  0.28557970  0.28478349
   0.44927612  0.52809995  0.15233499
   0.92101946  0.28509513  0.28493268
   0.44927612  0.02809995  0.15233499
   0.92014420  0.78700237  0.28449702
   0.90282244  0.55132680  0.10484543
   0.36967256  0.81102297  0.23348722
   0.99986599  0.50104622  0.20390894
   0.46016743  0.76417743  0.33003586
   0.53851998  0.23347802  0.07318573
   0.13677472  0.43113727  0.35389500
   0.80581699  0.10266356  0.36580989
   0.81337015  0.59325216  0.31648827
   0.87926422  0.06310591  0.05527763
   0.34364032  0.33073258  0.18321486
   0.58246139  0.21150732  0.12452493
   0.05459802  0.46853282  0.25665375
   0.46341143  0.77116330  0.38702015
   0.09516526  0.72856013  0.12156099
   0.56504287  0.44035444  0.25353125
   0.77977655  0.10487814  0.31371904
   0.85888103  0.57329750  0.05350623
   0.31269717  0.84598344  0.18041033
   0.56207820  0.72169891  0.12275353
   0.02638345  0.98297970  0.25424323
   0.80150611  0.32651453  0.18457439
   0.26995700  0.58625524  0.31751414
   0.34617716  0.60305419  0.05647018
   0.26315750  0.13185278  0.31731337
   0.80315933  0.87332442  0.18427248
   0.34617716  0.05624469  0.05647018
   0.56629917  0.98611734  0.25302048
   0.09516526  0.18175063  0.12156099
   0.05065689  0.75114043  0.38750995
   0.46893974  0.20774265  0.38759608
   0.93108756  0.33000611  0.38714468
   0.34047062  0.60391201  0.02782883
   0.92434681  0.68523651  0.03696881
   0.34363348  0.06399961  0.02783421
   0.88838126  0.05560908  0.02665597
   0.30386029  0.77198387  0.39264615
   0.44142375  0.30423505  0.40960120
   0.99363907  0.70187151  0.40922391
   0.77818532  0.49827238  0.39240568
   0.44979375  0.95318952  0.39206784
Direct configuration=     4
   0.22067121  0.89240241  0.08901558
   0.68232406  0.15766436  0.21905154
   0.94927612  0.02809995  0.15233499
   0.41575698  0.28566596  0.28489442
   0.44927612  0.52809995  0.15233499
   0.92090472  0.28536879  0.28499025
   0.44927612  0.02809995  0.15233499
   0.92007458  0.78680179  0.28458233
   0.90282244  0.55132680  0.10484543
   0.36973735  0.81099432  0.23339144
   0.99984337  0.50102872  0.20381471
   0.46154482  0.76348485  0.33019371
   0.53851998  0.23347802  0.07318573
   0.13655331  0.43102587  0.35398897
   0.80508293  0.10207049  0.36569725
   0.81351151  0.59283283  0.31629697
   0.87926422  0.06310591  0.05527763
   0.34360417  0.33070698  0.18331492
   0.58246139  0.21150732  0.12452493
   0.05466681  0.46841186  0.25666646
   0.46334660  0.77097387  0.38708519
   0.09516526  0.72856013  0.12156099
   0.56474274  0.44057099  0.25352590
   0.77960550  0.10507526  0.31346379
   0.85888103  0.57329750  0.05350623
   0.31254760  0.84615739  0.18051291
   0.56207820  0.72169891  0.12275353
   0.02649490  0.98301339  0.25425610
   0.80148645  0.32664271  0.18470817
   0.26956717  0.58497578  0.31744351
   0.34617716  0.60305419  0.05647018
   0.26316599  0.13352791  0.31722333
   0.80304948  0.87337377  0.18439845
   0.34617716  0.05624469  0.05647018
   0.56629876  0.98595284  0.25302273
   0.09516526  0.18175063  0.12156099
   0.05098744  0.75015035  0.38771910
   0.46839696  0.20767761  0.38775165
   0.93124122  0.33240458  0.38725924
   0.34047062  0.60391201  0.02782883
   0.92434681  0.68523651  0.03696881
   0.34363348  0.06399961  0.02783421
   0.88838126  0.05560908  0.02665597
   0.30395194  0.77197833  0.39264977
   0.44143724  0.30401615  0.40957059
   0.99405402  0.70174610  0.40914868
   0.77886385  0.49758541  0.39238913
   0.44978866  0.95349895  0.39206993
Direct configuration=     5
   0.22067121  0.89240241  0.08901558
   0.68239173  0.15772064  0.21886738
   0.94927612  0.02809995  0.15233499
   0.41532438  0.28576612  0.28502322
   0.44927612  0.52809995  0.15233499
   0.92077150  0.28568652  0.28505708
   0.44927612  0.02809995  0.15233499
   0.91999374  0.78656890  0.28468138
   0.90282244  0.55132680  0.10484543
   0.36981258  0.81096105  0.23328023
   0.99981712  0.50100841  0.20370531
   0.46314403  0.76268074  0.33037699
   0.53851998  0.23347802  0.07318573
   0.13629623  0.43089652  0.35409807
   0.80423065  0.10138191  0.36556648
   0.81367562  0.59234598  0.31607486
   0.87926422  0.06310591  0.05527763
   0.34356219  0.33067725  0.18343110
   0.58246139  0.21150732  0.12452493
   0.05474668  0.46827142  0.25668122
   0.46327134  0.77075392  0.38716071
   0.09516526  0.72856013  0.12156099
   0.56439427  0.44082242  0.25351968
   0.77940691  0.10530414  0.31316743
   0.85888103  0.57329750  0.05350623
   0.31237395  0.84635935  0.18063201
   0.56207820  0.72169891  0.12275353
   0.02662429  0.98305251  0.25427105
   0.80146361  0.32679154  0.18486349
   0.26911456  0.58349027  0.31736151
   0.34617716  0.60305419  0.05647018
   0.26317585  0.13547280  0.31711879
   0.80292193  0.87343108  0.18454471
   0.34617716  0.05624469  0.05647018
   0.56629828  0.98576185  0.25302534
   0.09516526  0.18175063  0.12156099
   0.05137122  0.74900084  0.38796193
   0.46776678  0.20760209  0.38793227
   0.93141963  0.33518931  0.38739224
   0.34047062  0.60391201  0.02782883
   0.92434681  0.68523651  0.03696881
   0.34363348  0.06399961  0.02783421
   0.88838126  0.05560908  0.02665597
   0.30405835  0.77197189  0.39265396
   0.44145291  0.30376200  0.40953504
   0.99453580  0.70160049  0.40906134
   0.77965165  0.49678781  0.39236992
   0.44978276  0.95385821  0.39207237
Direct configuration=     6
   0.22067121  0.89240241  0.08901558
   0.68239984  0.15772739  0.21884529
   0.94927612  0.02809995  0.15233499
   0.41527250  0.28577813  0.28503866
   0.44927612  0.52809995  0.15233499
   0.92075553  0.28572462  0.28506509
   0.44927612  0.02809995  0.15233499
   0.91998404  0.78654097  0.28469326
   0.90282244  0.55132680  0.10484543
   0.36982160  0.81095707  0.23326689
   0.99981397  0.50100597  0.20369219
   0.46333582  0.76258430  0.33039897
   0.53851998  0.23347802  0.07318573
   0.13626540  0.43088101  0.35411115
   0.80412843  0.10129933  0.36555079
   0.81369531  0.59228759  0.31604823
   0.87926422  0.06310591  0.05527763
   0.34355716  0.33067368  0.18344504
   0.58246139  0.21150732  0.12452493
   0.05475626  0.46825458  0.25668299
   0.46326231  0.77072754  0.38716977
   0.09516526  0.72856013  0.12156099
   0.56435248  0.44085257  0.25351894
   0.77938309  0.10533159  0.31313189
   0.85888103  0.57329750  0.05350623
   0.31235312  0.84638357  0.18064629
   0.56207820  0.72169891  0.12275353
   0.02663981  0.98305720  0.25427284
   0.80146087  0.32680938  0.18488211
   0.26906027  0.58331212  0.31735168
   0.34617716  0.60305419  0.05647018
   0.26317703  0.13570605  0.31710626
   0.80290663  0.87343795  0.18456225
   0.34617716  0.05624469  0.05647018
   0.56629822  0.98573894  0.25302566
   0.09516526  0.18175063  0.12156099
   0.05141724  0.74886298  0.38799105
   0.46769120  0.20759303  0.38795393
   0.93144103  0.33552328  0.38740819
   0.34047062  0.60391201  0.02782883
   0.92434681  0.68523651  0.03696881
   0.34363348  0.06399961  0.02783421
   0.88838126  0.05560908  0.02665597
   0.30407111  0.77197112  0.39265447
   0.44145479  0.30373152  0.40953078
   0.99459358  0.70158302  0.40905086
   0.77974613  0.49669215  0.39236761
   0.44978206  0.95390130  0.39207266
Direct configuration=     7
   0.22067121  0.89240241  0.08901558
   0.68240757  0.15773382  0.21882425
   0.94927612  0.02809995  0.15233499
   0.41522307  0.28578958  0.28505338
   0.44927612  0.52809995  0.15233499
   0.92074031  0.28576093  0.28507273
   0.44927612  0.02809995  0.15233499
   0.91997480  0.78651436  0.28470458
   0.90282244  0.55132680  0.10484543
   0.36983020  0.81095326  0.23325418
   0.99981097  0.50100365  0.20367969
   0.46351856  0.76249242  0.33041992
   0.53851998  0.23347802  0.07318573
   0.13623603  0.43086623  0.35412362
   0.80403104  0.10122065  0.36553585
   0.81371406  0.59223196  0.31602285
   0.87926422  0.06310591  0.05527763
   0.34355236  0.33067029  0.18345831
   0.58246139  0.21150732  0.12452493
   0.05476539  0.46823853  0.25668468
   0.46325371  0.77070241  0.38717840
   0.09516526  0.72856013  0.12156099
   0.56431266  0.44088130  0.25351823
   0.77936040  0.10535774  0.31309803
   0.85888103  0.57329750  0.05350623
   0.31233328  0.84640665  0.18065990
   0.56207820  0.72169891  0.12275353
   0.02665460  0.98306167  0.25427455
   0.80145826  0.32682639  0.18489986
   0.26900856  0.58314237  0.31734231
   0.34617716  0.60305419  0.05647018
   0.26317816  0.13592829  0.31709431
   0.80289206  0.87344450  0.18457896
   0.34617716  0.05624469  0.05647018
   0.56629817  0.98571712  0.25302595
   0.09516526  0.18175063  0.12156099
   0.05146110  0.74873162  0.38801880
   0.46761919  0.20758440  0.38797457
   0.93146142  0.33584148  0.38742339
   0.34047062  0.60391201  0.02782883
   0.92434681  0.68523651  0.03696881
   0.34363348  0.06399961  0.02783421
   0.88838126  0.05560908  0.02665597
   0.30408327  0.77197039  0.39265495
   0.44145658  0.30370247  0.40952672
   0.99464863  0.70156638  0.40904088
   0.77983614  0.49660101  0.39236542
   0.44978138  0.95394235  0.39207294
Direct configuration=     8
   0.22067121  0.89240241  0.08901558
   0.68261720  0.15735155  0.21894269
   0.94927612  0.02809995  0.15233499
   0.41406234  0.28651834  0.28524187
   0.44927612  0.52809995  0.15233499
   0.92121756  0.28578246  0.28525905
   0.44927612  0.02809995  0.15233499
   0.92045313  0.78611860  0.28473501
   0.90282244  0.55132680  0.10484543
   0.36944789  0.81133496  0.23337491
   0.00004435  0.50098540  0.20375029
   0.46313657  0.76258264  0.33036427
   0.53851998  0.23347802  0.07318573
   0.13698231  0.42906030  0.35404317
   0.80473914  0.10214414  0.36555876
   0.81448336  0.59282137  0.31594335
   0.87926422  0.06310591  0.05527763
   0.34407281  0.32935200  0.18324019
   0.58246139  0.21150732  0.12452493
   0.05456336  0.46895358  0.25666889
   0.46330668  0.77103174  0.38722730
   0.09516526  0.72856013  0.12156099
   0.56404235  0.43972032  0.25356595
   0.78011071  0.10390566  0.31348802
   0.85888103  0.57329750  0.05350623
   0.31294645  0.84675659  0.18048207
   0.56207820  0.72169891  0.12275353
   0.02603482  0.98272125  0.25428639
   0.80183550  0.32512072  0.18465965
   0.27011571  0.58355698  0.31677556
   0.34617716  0.60305419  0.05647018
   0.26415594  0.13593714  0.31665287
   0.80316045  0.87436298  0.18437050
   0.34617716  0.05624469  0.05647018
   0.56600511  0.98691249  0.25305959
   0.09516526  0.18175063  0.12156099
   0.04890249  0.75234526  0.38811298
   0.46965303  0.20757801  0.38781321
   0.92776737  0.33430837  0.38747700
   0.34047062  0.60391201  0.02782883
   0.92434681  0.68523651  0.03696881
   0.34363348  0.06399961  0.02783421
   0.88838126  0.05560908  0.02665597
   0.30406925  0.77205429  0.39264557
   0.44167855  0.30366391  0.40950274
   0.99447709  0.70268865  0.40890079
   0.78029913  0.49552288  0.39234727
   0.44984056  0.95322580  0.39204674
Direct configuration=     9
   0.22067121  0.89240241  0.08901558
   0.68264053  0.15730900  0.21895587
   0.94927612  0.02809995  0.15233499
   0.41393315  0.28659945  0.28526285
   0.44927612  0.52809995  0.15233499
   0.92127067  0.28578486  0.28527979
   0.44927612  0.02809995  0.15233499
   0.92050637  0.78607455  0.28473840
   0.90282244  0.55132680  0.10484543
   0.36940534  0.81137744  0.23338835
   0.00007033  0.50098337  0.20375815
   0.46309406  0.76259269  0.33035808
   0.53851998  0.23347802  0.07318573
   0.13706538  0.42885930  0.35403422
   0.80481795  0.10224692  0.36556131
   0.81456898  0.59288697  0.31593450
   0.87926422  0.06310591  0.05527763
   0.34413074  0.32920527  0.18321591
   0.58246139  0.21150732  0.12452493
   0.05454087  0.46903316  0.25666714
   0.46331257  0.77106839  0.38723274
   0.09516526  0.72856013  0.12156099
   0.56401226  0.43959111  0.25357126
   0.78019422  0.10374405  0.31353143
   0.85888103  0.57329750  0.05350623
   0.31301469  0.84679554  0.18046227
   0.56207820  0.72169891  0.12275353
   0.02596584  0.98268336  0.25428771
   0.80187749  0.32493087  0.18463292
   0.27023894  0.58360313  0.31671248
   0.34617716  0.60305419  0.05647018
   0.26426477  0.13593812  0.31660373
   0.80319032  0.87446521  0.18434730
   0.34617716  0.05624469  0.05647018
   0.56597249  0.98704554  0.25306333
   0.09516526  0.18175063  0.12156099
   0.04861771  0.75274746  0.38812347
   0.46987940  0.20757730  0.38779525
   0.92735621  0.33413773  0.38748296
   0.34047062  0.60391201  0.02782883
   0.92434681  0.68523651  0.03696881
   0.34363348  0.06399961  0.02783421
   0.88838126  0.05560908  0.02665597
   0.30406769  0.77206363  0.39264453
   0.44170325  0.30365962  0.40950008
   0.99445799  0.70281356  0.40888520
   0.78035067  0.49540289  0.39234525
   0.44984714  0.95314605  0.39204382
Direct configuration=    10
   0.22067121  0.89240241  0.08901558
   0.68268719  0.15722391  0.21898224
   0.94927612  0.02809995  0.15233499
   0.41367476  0.28676168  0.28530481
   0.44927612  0.52809995  0.15233499
   0.92137691  0.28578965  0.28532127
   0.44927612  0.02809995  0.15233499
   0.92061285  0.78598645  0.28474517
   0.90282244  0.55132680  0.10484543
   0.36932024  0.81146241  0.23341522
   0.00012228  0.50097931  0.20377387
   0.46300903  0.76261277  0.33034569
   0.53851998  0.23347802  0.07318573
   0.13723150  0.42845729  0.35401631
   0.80497558  0.10245250  0.36556641
   0.81474023  0.59301818  0.31591680
   0.87926422  0.06310591  0.05527763
   0.34424660  0.32891181  0.18316736
   0.58246139  0.21150732  0.12452493
   0.05449590  0.46919234  0.25666362
   0.46332436  0.77114170  0.38724363
   0.09516526  0.72856013  0.12156099
   0.56395209  0.43933267  0.25358189
   0.78036124  0.10342081  0.31361825
   0.85888103  0.57329750  0.05350623
   0.31315119  0.84687344  0.18042269
   0.56207820  0.72169891  0.12275353
   0.02582788  0.98260759  0.25429034
   0.80196146  0.32455118  0.18457944
   0.27048540  0.58369542  0.31658633
   0.34617716  0.60305419  0.05647018
   0.26448243  0.13594009  0.31650547
   0.80325007  0.87466967  0.18430089
   0.34617716  0.05624469  0.05647018
   0.56590725  0.98731164  0.25307082
   0.09516526  0.18175063  0.12156099
   0.04804816  0.75355188  0.38814443
   0.47033214  0.20757587  0.38775933
   0.92653390  0.33379645  0.38749490
   0.34047062  0.60391201  0.02782883
   0.92434681  0.68523651  0.03696881
   0.34363348  0.06399961  0.02783421
   0.88838126  0.05560908  0.02665597
   0.30406457  0.77208230  0.39264244
   0.44175267  0.30365104  0.40949474
   0.99441981  0.70306339  0.40885402
   0.78045373  0.49516289  0.39234122
   0.44986032  0.95298654  0.39203799
Direct configuration=    11
   0.22067121  0.89240241  0.08901558
   0.68265811  0.15727694  0.21896581
   0.94927612  0.02809995  0.15233499
   0.41383579  0.28666058  0.28527866
   0.44927612  0.52809995  0.15233499
   0.92131070  0.28578666  0.28529542
   0.44927612  0.02809995  0.15233499
   0.92054649  0.78604136  0.28474095
   0.90282244  0.55132680  0.10484543
   0.36937328  0.81140946  0.23339847
   0.00008990  0.50098184  0.20376407
   0.46306202  0.76260025  0.33035341
   0.53851998  0.23347802  0.07318573
   0.13712797  0.42870783  0.35402747
   0.80487734  0.10232438  0.36556323
   0.81463350  0.59293641  0.31592783
   0.87926422  0.06310591  0.05527763
   0.34417439  0.32909470  0.18319762
   0.58246139  0.21150732  0.12452493
   0.05452393  0.46909314  0.25666581
   0.46331701  0.77109601  0.38723684
   0.09516526  0.72856013  0.12156099
   0.56398959  0.43949373  0.25357527
   0.78025715  0.10362225  0.31356414
   0.85888103  0.57329750  0.05350623
   0.31306612  0.84682489  0.18044736
   0.56207820  0.72169891  0.12275353
   0.02591386  0.98265481  0.25428870
   0.80190913  0.32478781  0.18461277
   0.27033180  0.58363790  0.31666495
   0.34617716  0.60305419  0.05647018
   0.26434678  0.13593886  0.31656671
   0.80321284  0.87454225  0.18432981
   0.34617716  0.05624469  0.05647018
   0.56594791  0.98714580  0.25306615
   0.09516526  0.18175063  0.12156099
   0.04840312  0.75305055  0.38813137
   0.47004999  0.20757676  0.38778172
   0.92704638  0.33400914  0.38748746
   0.34047062  0.60391201  0.02782883
   0.92434681  0.68523651  0.03696881
   0.34363348  0.06399961  0.02783421
   0.88838126  0.05560908  0.02665597
   0.30406651  0.77207066  0.39264374
   0.44172187  0.30365639  0.40949806
   0.99444360  0.70290769  0.40887345
   0.78038950  0.49531246  0.39234373
   0.44985211  0.95308595  0.39204162
Direct configuration=    12
   0.22067121  0.89240241  0.08901558
   0.68267265  0.15725042  0.21897402
   0.94927612  0.02809995  0.15233499
   0.41375528  0.28671113  0.28529174
   0.44927612  0.52809995  0.15233499
   0.92134381  0.28578816  0.28530834
   0.44927612  0.02809995  0.15233499
   0.92057967  0.78601390  0.28474306
   0.90282244  0.55132680  0.10484543
   0.36934676  0.81143593  0.23340685
   0.00010609  0.50098057  0.20376897
   0.46303552  0.76260651  0.33034955
   0.53851998  0.23347802  0.07318573
   0.13717974  0.42858256  0.35402189
   0.80492646  0.10238844  0.36556482
   0.81468687  0.59297729  0.31592231
   0.87926422  0.06310591  0.05527763
   0.34421050  0.32900325  0.18318249
   0.58246139  0.21150732  0.12452493
   0.05450992  0.46914274  0.25666472
   0.46332069  0.77111886  0.38724024
   0.09516526  0.72856013  0.12156099
   0.56397084  0.43941320  0.25357858
   0.78030920  0.10352153  0.31359120
   0.85888103  0.57329750  0.05350623
   0.31310865  0.84684916  0.18043502
   0.56207820  0.72169891  0.12275353
   0.02587087  0.98263120  0.25428952
   0.80193529  0.32466950  0.18459611
   0.27040860  0.58366666  0.31662564
   0.34617716  0.60305419  0.05647018
   0.26441461  0.13593948  0.31653609
   0.80323145  0.87460596  0.18431535
   0.34617716  0.05624469  0.05647018
   0.56592758  0.98722872  0.25306848
   0.09516526  0.18175063  0.12156099
   0.04822564  0.75330122  0.38813790
   0.47019106  0.20757632  0.38777052
   0.92679014  0.33390280  0.38749118
   0.34047062  0.60391201  0.02782883
   0.92434681  0.68523651  0.03696881
   0.34363348  0.06399961  0.02783421
   0.88838126  0.05560908  0.02665597
   0.30406554  0.77207648  0.39264309
   0.44173727  0.30365371  0.40949640
   0.99443170  0.70298554  0.40886374
   0.78042161  0.49523767  0.39234247
   0.44985621  0.95303624  0.39203980
Direct configuration=    13
   0.22067121  0.89240241  0.08901558
   0.68267992  0.15723716  0.21897813
   0.94927612  0.02809995  0.15233499
   0.41371502  0.28673640  0.28529827
   0.44927612  0.52809995  0.15233499
   0.92136036  0.28578891  0.28531480
   0.44927612  0.02809995  0.15233499
   0.92059626  0.78600018  0.28474412
   0.90282244  0.55132680  0.10484543
   0.36933350  0.81144917  0.23341103
   0.00011419  0.50097994  0.20377142
   0.46302228  0.76260964  0.33034762
   0.53851998  0.23347802  0.07318573
   0.13720562  0.42851992  0.35401910
   0.80495102  0.10242047  0.36556561
   0.81471355  0.59299773  0.31591956
   0.87926422  0.06310591  0.05527763
   0.34422855  0.32895753  0.18317492
   0.58246139  0.21150732  0.12452493
   0.05450291  0.46916754  0.25666417
   0.46332252  0.77113028  0.38724193
   0.09516526  0.72856013  0.12156099
   0.56396147  0.43937293  0.25358023
   0.78033522  0.10347117  0.31360472
   0.85888103  0.57329750  0.05350623
   0.31312992  0.84686130  0.18042885
   0.56207820  0.72169891  0.12275353
   0.02584937  0.98261939  0.25428993
   0.80194838  0.32461034  0.18458777
   0.27044700  0.58368104  0.31660598
   0.34617716  0.60305419  0.05647018
   0.26444852  0.13593978  0.31652078
   0.80324076  0.87463781  0.18430812
   0.34617716  0.05624469  0.05647018
   0.56591742  0.98727018  0.25306965
   0.09516526  0.18175063  0.12156099
   0.04813690  0.75342655  0.38814117
   0.47026160  0.20757609  0.38776493
   0.92666202  0.33384963  0.38749304
   0.34047062  0.60391201  0.02782883
   0.92434681  0.68523651  0.03696881
   0.34363348  0.06399961  0.02783421
   0.88838126  0.05560908  0.02665597
   0.30406505  0.77207939  0.39264277
   0.44174497  0.30365238  0.40949557
   0.99442575  0.70302446  0.40885888
   0.78043767  0.49520028  0.39234184
   0.44985826  0.95301139  0.39203889
Direct configuration=    14
   0.22067121  0.89240241  0.08901558
   0.68267589  0.15724451  0.21897585
   0.94927612  0.02809995  0.15233499
   0.41373733  0.28672240  0.28529465
   0.44927612  0.52809995  0.15233499
   0.92135119  0.28578849  0.28531122
   0.44927612  0.02809995  0.15233499
   0.92058707  0.78600778  0.28474353
   0.90282244  0.55132680  0.10484543
   0.36934085  0.81144184  0.23340871
   0.00010970  0.50098029  0.20377006
   0.46302962  0.76260791  0.33034869
   0.53851998  0.23347802  0.07318573
   0.13719128  0.42855463  0.35402064
   0.80493741  0.10240272  0.36556517
   0.81469876  0.59298641  0.31592108
   0.87926422  0.06310591  0.05527763
   0.34421855  0.32898287  0.18317911
   0.58246139  0.21150732  0.12452493
   0.05450679  0.46915380  0.25666447
   0.46332151  0.77112395  0.38724099
   0.09516526  0.72856013  0.12156099
   0.56396666  0.43939524  0.25357932
   0.78032080  0.10349907  0.31359723
   0.85888103  0.57329750  0.05350623
   0.31311814  0.84685457  0.18043227
   0.56207820  0.72169891  0.12275353
   0.02586128  0.98262593  0.25428971
   0.80194113  0.32464312  0.18459239
   0.27042573  0.58367307  0.31661687
   0.34617716  0.60305419  0.05647018
   0.26442973  0.13593961  0.31652926
   0.80323560  0.87462016  0.18431213
   0.34617716  0.05624469  0.05647018
   0.56592305  0.98724721  0.25306900
   0.09516526  0.18175063  0.12156099
   0.04818606  0.75335710  0.38813936
   0.47022252  0.20757622  0.38776803
   0.92673300  0.33387909  0.38749201
   0.34047062  0.60391201  0.02782883
   0.92434681  0.68523651  0.03696881
   0.34363348  0.06399961  0.02783421
   0.88838126  0.05560908  0.02665597
   0.30406532  0.77207778  0.39264295
   0.44174070  0.30365312  0.40949603
   0.99442905  0.70300290  0.40886157
   0.78042877  0.49522100  0.39234219
   0.44985713  0.95302516  0.39203940
Direct configuration=    15
   0.22067121  0.89240241  0.08901558
   0.68313598  0.15672694  0.21900864
   0.94927612  0.02809995  0.15233499
   0.41349404  0.28704869  0.28534297
   0.44927612  0.52809995  0.15233499
   0.92154215  0.28540120  0.28552463
   0.44927612  0.02809995  0.15233499
   0.92088914  0.78612264  0.28482028
   0.90282244  0.55132680  0.10484543
   0.36898915  0.81181885  0.23352648
   0.00020696  0.50093546  0.20376821
   0.46403465  0.76224245  0.33039691
   0.53851998  0.23347802  0.07318573
   0.13792491  0.42742615  0.35394728
   0.80502960  0.10279653  0.36546510
   0.81544477  0.59332948  0.31581718
   0.87926422  0.06310591  0.05527763
   0.34432421  0.32786205  0.18300481
   0.58246139  0.21150732  0.12452493
   0.05409429  0.46974354  0.25662112
   0.46306951  0.77070153  0.38728785
   0.09516526  0.72856013  0.12156099
   0.56342169  0.43850112  0.25362934
   0.78152425  0.10193204  0.31389613
   0.85888103  0.57329750  0.05350623
   0.31380243  0.84706678  0.18036199
   0.56207820  0.72169891  0.12275353
   0.02511067  0.98265910  0.25432100
   0.80247573  0.32321063  0.18442475
   0.27024399  0.58346521  0.31609786
   0.34617716  0.60305419  0.05647018
   0.26468541  0.13718293  0.31611245
   0.80367541  0.87505052  0.18416403
   0.34617716  0.05624469  0.05647018
   0.56533195  0.98835395  0.25311906
   0.09516526  0.18175063  0.12156099
   0.04676474  0.75647971  0.38783209
   0.47185993  0.20855673  0.38776644
   0.92709383  0.33011361  0.38744828
   0.34047062  0.60391201  0.02782883
   0.92434681  0.68523651  0.03696881
   0.34363348  0.06399961  0.02783421
   0.88838126  0.05560908  0.02665597
   0.30417568  0.77230846  0.39263760
   0.44237387  0.30288259  0.40930686
   0.99321976  0.70375481  0.40903409
   0.77779603  0.49726840  0.39241694
   0.44993762  0.95289657  0.39203008
Direct configuration=    16
   0.22067121  0.89240241  0.08901558
   0.68286314  0.15703386  0.21898920
   0.94927612  0.02809995  0.15233499
   0.41363831  0.28685520  0.28531431
   0.44927612  0.52809995  0.15233499
   0.92142891  0.28563087  0.28539808
   0.44927612  0.02809995  0.15233499
   0.92071001  0.78605453  0.28477477
   0.90282244  0.55132680  0.10484543
   0.36919771  0.81159528  0.23345664
   0.00014929  0.50096205  0.20376931
   0.46343866  0.76245917  0.33036832
   0.53851998  0.23347802  0.07318573
   0.13748986  0.42809535  0.35399079
   0.80497493  0.10256300  0.36552444
   0.81500238  0.59312603  0.31587880
   0.87926422  0.06310591  0.05527763
   0.34426155  0.32852670  0.18310817
   0.58246139  0.21150732  0.12452493
   0.05433891  0.46939382  0.25664683
   0.46321895  0.77095203  0.38726006
   0.09516526  0.72856013  0.12156099
   0.56374486  0.43903134  0.25359968
   0.78081059  0.10286131  0.31371888
   0.85888103  0.57329750  0.05350623
   0.31339664  0.84694094  0.18040367
   0.56207820  0.72169891  0.12275353
   0.02555579  0.98263943  0.25430244
   0.80215871  0.32406011  0.18452416
   0.27035176  0.58358847  0.31640564
   0.34617716  0.60305419  0.05647018
   0.26453379  0.13644563  0.31635962
   0.80341460  0.87479532  0.18425185
   0.34617716  0.05624469  0.05647018
   0.56568248  0.98769764  0.25308937
   0.09516526  0.18175063  0.12156099
   0.04760760  0.75462797  0.38801430
   0.47088893  0.20797527  0.38776738
   0.92687986  0.33234658  0.38747421
   0.34047062  0.60391201  0.02782883
   0.92434681  0.68523651  0.03696881
   0.34363348  0.06399961  0.02783421
   0.88838126  0.05560908  0.02665597
   0.30411024  0.77217167  0.39264077
   0.44199839  0.30333952  0.40941904
   0.99393688  0.70330892  0.40893178
   0.77935728  0.49605427  0.39237261
   0.44988989  0.95297282  0.39203560
Direct configuration=    17
   0.22067121  0.89240241  0.08901558
   0.68290032  0.15699204  0.21899185
   0.94927612  0.02809995  0.15233499
   0.41361865  0.28688157  0.28531822
   0.44927612  0.52809995  0.15233499
   0.92144434  0.28559957  0.28541532
   0.44927612  0.02809995  0.15233499
   0.92073442  0.78606381  0.28478097
   0.90282244  0.55132680  0.10484543
   0.36916929  0.81162574  0.23346616
   0.00015715  0.50095842  0.20376916
   0.46351988  0.76242964  0.33037222
   0.53851998  0.23347802  0.07318573
   0.13754914  0.42800415  0.35398486
   0.80498238  0.10259482  0.36551636
   0.81506267  0.59315376  0.31587040
   0.87926422  0.06310591  0.05527763
   0.34427009  0.32843613  0.18309409
   0.58246139  0.21150732  0.12452493
   0.05430557  0.46944148  0.25664332
   0.46319858  0.77091789  0.38726385
   0.09516526  0.72856013  0.12156099
   0.56370082  0.43895909  0.25360372
   0.78090785  0.10273467  0.31374303
   0.85888103  0.57329750  0.05350623
   0.31345194  0.84695809  0.18039799
   0.56207820  0.72169891  0.12275353
   0.02549513  0.98264211  0.25430497
   0.80220191  0.32394435  0.18451062
   0.27033708  0.58357168  0.31636370
   0.34617716  0.60305419  0.05647018
   0.26455445  0.13654611  0.31632594
   0.80345014  0.87483009  0.18423989
   0.34617716  0.05624469  0.05647018
   0.56563471  0.98778708  0.25309342
   0.09516526  0.18175063  0.12156099
   0.04749274  0.75488032  0.38798947
   0.47102125  0.20805451  0.38776725
   0.92690902  0.33204228  0.38747068
   0.34047062  0.60391201  0.02782883
   0.92434681  0.68523651  0.03696881
   0.34363348  0.06399961  0.02783421
   0.88838126  0.05560908  0.02665597
   0.30411916  0.77219031  0.39264034
   0.44204956  0.30327725  0.40940375
   0.99383915  0.70336968  0.40894573
   0.77914452  0.49621973  0.39237865
   0.44989639  0.95296243  0.39203485
Direct configuration=    18
   0.22067121  0.89240241  0.08901558
   0.68323932  0.15669304  0.21896876
   0.94927612  0.02809995  0.15233499
   0.41450213  0.28650821  0.28515538
   0.44927612  0.52809995  0.15233499
   0.92119804  0.28524782  0.28547491
   0.44927612  0.02809995  0.15233499
   0.92068793  0.78641307  0.28481274
   0.90282244  0.55132680  0.10484543
   0.36905350  0.81174629  0.23352681
   0.00007722  0.50089567  0.20372917
   0.46512383  0.76190277  0.33048909
   0.53851998  0.23347802  0.07318573
   0.13772477  0.42889557  0.35386815
   0.80443396  0.10245651  0.36538168
   0.81519525  0.59308815  0.31583752
   0.87926422  0.06310591  0.05527763
   0.34395383  0.32824689  0.18305741
   0.58246139  0.21150732  0.12452493
   0.05386524  0.46958718  0.25660432
   0.46327000  0.77049515  0.38728151
   0.09516526  0.72856013  0.12156099
   0.56334062  0.43890319  0.25360841
   0.78168338  0.10210499  0.31379944
   0.85888103  0.57329750  0.05350623
   0.31378277  0.84684581  0.18045516
   0.56207820  0.72169891  0.12275353
   0.02512213  0.98300155  0.25433155
   0.80252766  0.32367150  0.18449795
   0.26857986  0.58281266  0.31637858
   0.34617716  0.60305419  0.05647018
   0.26346339  0.13849226  0.31633732
   0.80377713  0.87450747  0.18422162
   0.34617716  0.05624469  0.05647018
   0.56519516  0.98803775  0.25311304
   0.09516526  0.18175063  0.12156099
   0.04743300  0.75401831  0.38769574
   0.47164794  0.20827231  0.38771247
   0.92885503  0.33110425  0.38739666
   0.34047062  0.60391201  0.02782883
   0.92434681  0.68523651  0.03696881
   0.34363348  0.06399961  0.02783421
   0.88838126  0.05560908  0.02665597
   0.30397485  0.77236980  0.39265107
   0.44244607  0.30314107  0.40937518
   0.99314152  0.70395919  0.40900757
   0.77776931  0.49726996  0.39238446
   0.44998506  0.95312257  0.39204179
Direct configuration=    19
   0.22067121  0.89240241  0.08901558
   0.68329750  0.15664173  0.21896480
   0.94927612  0.02809995  0.15233499
   0.41465376  0.28644413  0.28512743
   0.44927612  0.52809995  0.15233499
   0.92115577  0.28518745  0.28548513
   0.44927612  0.02809995  0.15233499
   0.92067996  0.78647302  0.28481819
   0.90282244  0.55132680  0.10484543
   0.36903362  0.81176698  0.23353722
   0.00006351  0.50088490  0.20372231
   0.46539911  0.76181234  0.33050914
   0.53851998  0.23347802  0.07318573
   0.13775491  0.42904856  0.35384812
   0.80433984  0.10243277  0.36535857
   0.81521801  0.59307689  0.31583188
   0.87926422  0.06310591  0.05527763
   0.34389955  0.32821441  0.18305112
   0.58246139  0.21150732  0.12452493
   0.05378966  0.46961219  0.25659762
   0.46328226  0.77042259  0.38728454
   0.09516526  0.72856013  0.12156099
   0.56327880  0.43889360  0.25360922
   0.78181649  0.10199692  0.31380912
   0.85888103  0.57329750  0.05350623
   0.31383955  0.84682654  0.18046497
   0.56207820  0.72169891  0.12275353
   0.02505811  0.98306324  0.25433611
   0.80258357  0.32362467  0.18449577
   0.26827828  0.58268239  0.31638113
   0.34617716  0.60305419  0.05647018
   0.26327613  0.13882628  0.31633927
   0.80383325  0.87445210  0.18421849
   0.34617716  0.05624469  0.05647018
   0.56511973  0.98808077  0.25311641
   0.09516526  0.18175063  0.12156099
   0.04742274  0.75387036  0.38764533
   0.47175549  0.20830968  0.38770307
   0.92918902  0.33094326  0.38738395
   0.34047062  0.60391201  0.02782883
   0.92434681  0.68523651  0.03696881
   0.34363348  0.06399961  0.02783421
   0.88838126  0.05560908  0.02665597
   0.30395008  0.77240061  0.39265291
   0.44251413  0.30311770  0.40937028
   0.99302179  0.70406037  0.40901819
   0.77753328  0.49745021  0.39238545
   0.45000028  0.95315005  0.39204298
Direct configuration=    20
   0.22067121  0.89240241  0.08901558
   0.68325874  0.15667591  0.21896744
   0.94927612  0.02809995  0.15233499
   0.41455275  0.28648682  0.28514605
   0.44927612  0.52809995  0.15233499
   0.92118393  0.28522767  0.28547832
   0.44927612  0.02809995  0.15233499
   0.92068527  0.78643308  0.28481456
   0.90282244  0.55132680  0.10484543
   0.36904686  0.81175320  0.23353029
   0.00007265  0.50089208  0.20372688
   0.46521572  0.76187258  0.33049578
   0.53851998  0.23347802  0.07318573
   0.13773483  0.42894664  0.35386147
   0.80440255  0.10244859  0.36537397
   0.81520285  0.59308439  0.31583564
   0.87926422  0.06310591  0.05527763
   0.34393571  0.32823605  0.18305531
   0.58246139  0.21150732  0.12452493
   0.05384001  0.46959553  0.25660208
   0.46327410  0.77047093  0.38728252
   0.09516526  0.72856013  0.12156099
   0.56331998  0.43889999  0.25360868
   0.78172782  0.10206891  0.31380267
   0.85888103  0.57329750  0.05350623
   0.31380172  0.84683938  0.18045843
   0.56207820  0.72169891  0.12275353
   0.02510076  0.98302215  0.25433307
   0.80254632  0.32365587  0.18449722
   0.26847919  0.58276918  0.31637943
   0.34617716  0.60305419  0.05647018
   0.26340088  0.13860376  0.31633797
   0.80379586  0.87448899  0.18422058
   0.34617716  0.05624469  0.05647018
   0.56516998  0.98805211  0.25311416
   0.09516526  0.18175063  0.12156099
   0.04742957  0.75396892  0.38767892
   0.47168384  0.20828478  0.38770934
   0.92896652  0.33105051  0.38739242
   0.34047062  0.60391201  0.02782883
   0.92434681  0.68523651  0.03696881
   0.34363348  0.06399961  0.02783421
   0.88838126  0.05560908  0.02665597
   0.30396658  0.77238008  0.39265168
   0.44246879  0.30313327  0.40937355
   0.99310155  0.70399297  0.40901112
   0.77769052  0.49733013  0.39238479
   0.44999014  0.95313174  0.39204218
Direct configuration=    21
   0.22067121  0.89240241  0.08901558
   0.68324622  0.15668696  0.21896829
   0.94927612  0.02809995  0.15233499
   0.41452011  0.28650061  0.28515206
   0.44927612  0.52809995  0.15233499
   0.92119303  0.28524066  0.28547612
   0.44927612  0.02809995  0.15233499
   0.92068699  0.78642018  0.28481339
   0.90282244  0.55132680  0.10484543
   0.36905114  0.81174874  0.23352805
   0.00007560  0.50089439  0.20372835
   0.46515646  0.76189205  0.33049146
   0.53851998  0.23347802  0.07318573
   0.13772834  0.42891371  0.35386578
   0.80442280  0.10245369  0.36537894
   0.81519795  0.59308681  0.31583685
   0.87926422  0.06310591  0.05527763
   0.34394739  0.32824304  0.18305667
   0.58246139  0.21150732  0.12452493
   0.05385628  0.46959015  0.25660352
   0.46327146  0.77048655  0.38728187
   0.09516526  0.72856013  0.12156099
   0.56333329  0.43890205  0.25360851
   0.78169917  0.10209218  0.31380058
   0.85888103  0.57329750  0.05350623
   0.31378950  0.84684352  0.18045632
   0.56207820  0.72169891  0.12275353
   0.02511454  0.98300887  0.25433209
   0.80253429  0.32366595  0.18449769
   0.26854411  0.58279721  0.31637888
   0.34617716  0.60305419  0.05647018
   0.26344119  0.13853186  0.31633755
   0.80378378  0.87450091  0.18422125
   0.34617716  0.05624469  0.05647018
   0.56518622  0.98804285  0.25311344
   0.09516526  0.18175063  0.12156099
   0.04743178  0.75400077  0.38768977
   0.47166069  0.20827674  0.38771136
   0.92889463  0.33108516  0.38739515
   0.34047062  0.60391201  0.02782883
   0.92434681  0.68523651  0.03696881
   0.34363348  0.06399961  0.02783421
   0.88838126  0.05560908  0.02665597
   0.30397191  0.77237345  0.39265128
   0.44245414  0.30313830  0.40937460
   0.99312732  0.70397119  0.40900883
   0.77774132  0.49729133  0.39238457
   0.44998686  0.95312583  0.39204193
Direct configuration=    22
   0.22067121  0.89240241  0.08901558
   0.68324131  0.15669129  0.21896862
   0.94927612  0.02809995  0.15233499
   0.41450732  0.28650602  0.28515442
   0.44927612  0.52809995  0.15233499
   0.92119659  0.28524575  0.28547526
   0.44927612  0.02809995  0.15233499
   0.92068766  0.78641513  0.28481293
   0.90282244  0.55132680  0.10484543
   0.36905282  0.81174700  0.23352717
   0.00007676  0.50089530  0.20372893
   0.46513325  0.76189967  0.33048977
   0.53851998  0.23347802  0.07318573
   0.13772580  0.42890081  0.35386747
   0.80443074  0.10245570  0.36538089
   0.81519603  0.59308776  0.31583733
   0.87926422  0.06310591  0.05527763
   0.34395197  0.32824578  0.18305720
   0.58246139  0.21150732  0.12452493
   0.05386265  0.46958804  0.25660409
   0.46327042  0.77049267  0.38728162
   0.09516526  0.72856013  0.12156099
   0.56333850  0.43890286  0.25360844
   0.78168794  0.10210129  0.31379977
   0.85888103  0.57329750  0.05350623
   0.31378471  0.84684515  0.18045549
   0.56207820  0.72169891  0.12275353
   0.02511994  0.98300366  0.25433170
   0.80252957  0.32366990  0.18449787
   0.26856954  0.58280820  0.31637866
   0.34617716  0.60305419  0.05647018
   0.26345698  0.13850370  0.31633739
   0.80377905  0.87450558  0.18422152
   0.34617716  0.05624469  0.05647018
   0.56519258  0.98803922  0.25311315
   0.09516526  0.18175063  0.12156099
   0.04743265  0.75401325  0.38769402
   0.47165162  0.20827358  0.38771215
   0.92886646  0.33109874  0.38739622
   0.34047062  0.60391201  0.02782883
   0.92434681  0.68523651  0.03696881
   0.34363348  0.06399961  0.02783421
   0.88838126  0.05560908  0.02665597
   0.30397400  0.77237085  0.39265113
   0.44244840  0.30314027  0.40937502
   0.99313742  0.70396266  0.40900794
   0.77776123  0.49727613  0.39238449
   0.44998558  0.95312351  0.39204183
Direct configuration=    23
   0.22067121  0.89240241  0.08901558
   0.68324005  0.15669240  0.21896871
   0.94927612  0.02809995  0.15233499
   0.41450403  0.28650741  0.28515503
   0.44927612  0.52809995  0.15233499
   0.92119751  0.28524706  0.28547504
   0.44927612  0.02809995  0.15233499
   0.92068783  0.78641383  0.28481281
   0.90282244  0.55132680  0.10484543
   0.36905325  0.81174655  0.23352694
   0.00007705  0.50089554  0.20372908
   0.46512728  0.76190163  0.33048934
   0.53851998  0.23347802  0.07318573
   0.13772515  0.42889749  0.35386790
   0.80443278  0.10245621  0.36538139
   0.81519554  0.59308801  0.31583745
   0.87926422  0.06310591  0.05527763
   0.34395315  0.32824649  0.18305734
   0.58246139  0.21150732  0.12452493
   0.05386429  0.46958750  0.25660423
   0.46327016  0.77049424  0.38728155
   0.09516526  0.72856013  0.12156099
   0.56333984  0.43890307  0.25360842
   0.78168505  0.10210363  0.31379956
   0.85888103  0.57329750  0.05350623
   0.31378348  0.84684557  0.18045528
   0.56207820  0.72169891  0.12275353
   0.02512133  0.98300233  0.25433161
   0.80252836  0.32367091  0.18449792
   0.26857608  0.58281103  0.31637861
   0.34617716  0.60305419  0.05647018
   0.26346104  0.13849645  0.31633734
   0.80377783  0.87450678  0.18422158
   0.34617716  0.05624469  0.05647018
   0.56519422  0.98803829  0.25311308
   0.09516526  0.18175063  0.12156099
   0.04743287  0.75401645  0.38769511
   0.47164928  0.20827277  0.38771236
   0.92885922  0.33110223  0.38739650
   0.34047062  0.60391201  0.02782883
   0.92434681  0.68523651  0.03696881
   0.34363348  0.06399961  0.02783421
   0.88838126  0.05560908  0.02665597
   0.30397454  0.77237019  0.39265109
   0.44244693  0.30314078  0.40937512
   0.99314002  0.70396046  0.40900771
   0.77776635  0.49727222  0.39238447
   0.44998525  0.95312291  0.39204180
Direct configuration=    24
   0.22067121  0.89240241  0.08901558
   0.68359271  0.15638900  0.21891716
   0.94927612  0.02809995  0.15233499
   0.41511420  0.28622451  0.28499873
   0.44927612  0.52809995  0.15233499
   0.92109836  0.28501477  0.28549875
   0.44927612  0.02809995  0.15233499
   0.92076707  0.78648639  0.28482087
   0.90282244  0.55132680  0.10484543
   0.36891771  0.81184968  0.23357587
  -0.00001169  0.50080275  0.20367775
   0.46618426  0.76156322  0.33057488
   0.53851998  0.23347802  0.07318573
   0.13778523  0.42977047  0.35377858
   0.80395493  0.10231779  0.36525671
   0.81515356  0.59297321  0.31581656
   0.87926422  0.06310591  0.05527763
   0.34359673  0.32821789  0.18304638
   0.58246139  0.21150732  0.12452493
   0.05329444  0.46970026  0.25657266
   0.46343277  0.77036465  0.38731080
   0.09516526  0.72856013  0.12156099
   0.56306288  0.43902936  0.25359469
   0.78236017  0.10162818  0.31381075
   0.85888103  0.57329750  0.05350623
   0.31410028  0.84664163  0.18054208
   0.56207820  0.72169891  0.12275353
   0.02477265  0.98343459  0.25435547
   0.80279035  0.32356630  0.18451977
   0.26720584  0.58260917  0.31642734
   0.34617716  0.60305419  0.05647018
   0.26265391  0.13971424  0.31638238
   0.80408168  0.87409296  0.18423376
   0.34617716  0.05624469  0.05647018
   0.56485385  0.98807151  0.25311746
   0.09516526  0.18175063  0.12156099
   0.04701059  0.75241306  0.38761025
   0.47210581  0.20830764  0.38764669
   0.92889334  0.33265517  0.38738448
   0.34047062  0.60391201  0.02782883
   0.92434681  0.68523651  0.03696881
   0.34363348  0.06399961  0.02783421
   0.88838126  0.05560908  0.02665597
   0.30370232  0.77254385  0.39265917
   0.44285418  0.30311090  0.40936904
   0.99293955  0.70502809  0.40885818
   0.77842176  0.49606018  0.39232013
   0.45013010  0.95312670  0.39204152
Direct configuration=    25
   0.22067121  0.89240241  0.08901558
   0.68362864  0.15635809  0.21891191
   0.94927612  0.02809995  0.15233499
   0.41517636  0.28619569  0.28498280
   0.44927612  0.52809995  0.15233499
   0.92108826  0.28499110  0.28550117
   0.44927612  0.02809995  0.15233499
   0.92077514  0.78649379  0.28482170
   0.90282244  0.55132680  0.10484543
   0.36890390  0.81186019  0.23358086
  -0.00002073  0.50079330  0.20367252
   0.46629195  0.76152874  0.33058360
   0.53851998  0.23347802  0.07318573
   0.13779135  0.42985941  0.35376948
   0.80390625  0.10230369  0.36524401
   0.81514928  0.59296152  0.31581443
   0.87926422  0.06310591  0.05527763
   0.34356042  0.32821498  0.18304527
   0.58246139  0.21150732  0.12452493
   0.05323638  0.46971175  0.25656945
   0.46344934  0.77035145  0.38731378
   0.09516526  0.72856013  0.12156099
   0.56303466  0.43904223  0.25359329
   0.78242895  0.10157974  0.31381189
   0.85888103  0.57329750  0.05350623
   0.31413256  0.84662085  0.18055092
   0.56207820  0.72169891  0.12275353
   0.02473712  0.98347863  0.25435790
   0.80281704  0.32355564  0.18452200
   0.26706624  0.58258861  0.31643231
   0.34617716  0.60305419  0.05647018
   0.26257168  0.13983831  0.31638697
   0.80411264  0.87405080  0.18423500
   0.34617716  0.05624469  0.05647018
   0.56481917  0.98807490  0.25311790
   0.09516526  0.18175063  0.12156099
   0.04696757  0.75224970  0.38760160
   0.47215232  0.20831119  0.38764000
   0.92889682  0.33281338  0.38738325
   0.34047062  0.60391201  0.02782883
   0.92434681  0.68523651  0.03696881
   0.34363348  0.06399961  0.02783421
   0.88838126  0.05560908  0.02665597
   0.30367459  0.77256155  0.39265999
   0.44289568  0.30310785  0.40936842
   0.99291912  0.70513687  0.40884295
   0.77848854  0.49593670  0.39231357
   0.45014485  0.95312709  0.39204149
Direct configuration=    26
   0.22067121  0.89240241  0.08901558
   0.68360955  0.15637452  0.21891470
   0.94927612  0.02809995  0.15233499
   0.41514333  0.28621100  0.28499127
   0.44927612  0.52809995  0.15233499
   0.92109363  0.28500368  0.28549988
   0.44927612  0.02809995  0.15233499
   0.92077085  0.78648986  0.28482126
   0.90282244  0.55132680  0.10484543
   0.36891124  0.81185460  0.23357821
  -0.00001592  0.50079832  0.20367530
   0.46623472  0.76154706  0.33057896
   0.53851998  0.23347802  0.07318573
   0.13778810  0.42981215  0.35377432
   0.80393212  0.10231119  0.36525076
   0.81515156  0.59296773  0.31581556
   0.87926422  0.06310591  0.05527763
   0.34357972  0.32821653  0.18304586
   0.58246139  0.21150732  0.12452493
   0.05326723  0.46970565  0.25657115
   0.46344053  0.77035847  0.38731220
   0.09516526  0.72856013  0.12156099
   0.56304965  0.43903539  0.25359404
   0.78239240  0.10160549  0.31381129
   0.85888103  0.57329750  0.05350623
   0.31411541  0.84663189  0.18054622
   0.56207820  0.72169891  0.12275353
   0.02475600  0.98345522  0.25435661
   0.80280285  0.32356130  0.18452081
   0.26714043  0.58259953  0.31642967
   0.34617716  0.60305419  0.05647018
   0.26261538  0.13977238  0.31638453
   0.80409619  0.87407320  0.18423434
   0.34617716  0.05624469  0.05647018
   0.56483760  0.98807310  0.25311767
   0.09516526  0.18175063  0.12156099
   0.04699043  0.75233651  0.38760620
   0.47212760  0.20830931  0.38764356
   0.92889497  0.33272931  0.38738390
   0.34047062  0.60391201  0.02782883
   0.92434681  0.68523651  0.03696881
   0.34363348  0.06399961  0.02783421
   0.88838126  0.05560908  0.02665597
   0.30368933  0.77255214  0.39265955
   0.44287363  0.30310947  0.40936875
   0.99292998  0.70507906  0.40885104
   0.77845305  0.49600232  0.39231706
   0.45013701  0.95312688  0.39204151
Direct configuration=    27
   0.22067121  0.89240241  0.08901558
   0.68370234  0.15628278  0.21888163
   0.94927612  0.02809995  0.15233499
   0.41477540  0.28636602  0.28499246
   0.44927612  0.52809995  0.15233499
   0.92125629  0.28512168  0.28548014
   0.44927612  0.02809995  0.15233499
   0.92094541  0.78615188  0.28479977
   0.90282244  0.55132680  0.10484543
   0.36880401  0.81189517  0.23358381
  -0.00002036  0.50072488  0.20365373
   0.46580161  0.76171359  0.33056957
   0.53851998  0.23347802  0.07318573
   0.13765108  0.42987377  0.35379031
   0.80407098  0.10233958  0.36524984
   0.81500314  0.59292262  0.31581064
   0.87926422  0.06310591  0.05527763
   0.34351497  0.32829115  0.18305677
   0.58246139  0.21150732  0.12452493
   0.05297155  0.46974951  0.25656800
   0.46321370  0.77061175  0.38733997
   0.09516526  0.72856013  0.12156099
   0.56306947  0.43916317  0.25356813
   0.78247949  0.10155908  0.31377840
   0.85888103  0.57329750  0.05350623
   0.31423413  0.84649810  0.18058685
   0.56207820  0.72169891  0.12275353
   0.02466563  0.98359165  0.25435672
   0.80281930  0.32357591  0.18454908
   0.26738700  0.58319614  0.31643227
   0.34617716  0.60305419  0.05647018
   0.26285048  0.13924462  0.31640293
   0.80415920  0.87395570  0.18425719
   0.34617716  0.05624469  0.05647018
   0.56488053  0.98791417  0.25309957
   0.09516526  0.18175063  0.12156099
   0.04697409  0.75212725  0.38753947
   0.47209330  0.20836370  0.38765524
   0.92864451  0.33330843  0.38735942
   0.34047062  0.60391201  0.02782883
   0.92434681  0.68523651  0.03696881
   0.34363348  0.06399961  0.02783421
   0.88838126  0.05560908  0.02665597
   0.30370924  0.77262056  0.39265010
   0.44309454  0.30300841  0.40934002
   0.99271414  0.70533867  0.40883030
   0.77894967  0.49534442  0.39229106
   0.45023180  0.95298180  0.39203474
Direct configuration=    28
   0.22067121  0.89240241  0.08901558
   0.68372640  0.15625900  0.21887306
   0.94927612  0.02809995  0.15233499
   0.41468003  0.28640621  0.28499277
   0.44927612  0.52809995  0.15233499
   0.92129845  0.28515227  0.28547502
   0.44927612  0.02809995  0.15233499
   0.92099066  0.78606427  0.28479420
   0.90282244  0.55132680  0.10484543
   0.36877621  0.81190569  0.23358527
  -0.00002151  0.50070584  0.20364814
   0.46568934  0.76175675  0.33056713
   0.53851998  0.23347802  0.07318573
   0.13761557  0.42988974  0.35379445
   0.80410697  0.10234694  0.36524960
   0.81496467  0.59291093  0.31580937
   0.87926422  0.06310591  0.05527763
   0.34349819  0.32831049  0.18305960
   0.58246139  0.21150732  0.12452493
   0.05289491  0.46976088  0.25656719
   0.46315490  0.77067740  0.38734717
   0.09516526  0.72856013  0.12156099
   0.56307461  0.43919630  0.25356142
   0.78250207  0.10154705  0.31376988
   0.85888103  0.57329750  0.05350623
   0.31426490  0.84646342  0.18059739
   0.56207820  0.72169891  0.12275353
   0.02464220  0.98362702  0.25435674
   0.80282357  0.32357970  0.18455640
   0.26745091  0.58335079  0.31643295
   0.34617716  0.60305419  0.05647018
   0.26291143  0.13910782  0.31640770
   0.80417553  0.87392524  0.18426311
   0.34617716  0.05624469  0.05647018
   0.56489167  0.98787297  0.25309488
   0.09516526  0.18175063  0.12156099
   0.04696985  0.75207300  0.38752217
   0.47208441  0.20837779  0.38765827
   0.92857959  0.33345855  0.38735308
   0.34047062  0.60391201  0.02782883
   0.92434681  0.68523651  0.03696881
   0.34363348  0.06399961  0.02783421
   0.88838126  0.05560908  0.02665597
   0.30371440  0.77263830  0.39264765
   0.44315180  0.30298221  0.40933257
   0.99265819  0.70540597  0.40882493
   0.77907840  0.49517388  0.39228432
   0.45025637  0.95294419  0.39203298
Direct configuration=    29
   0.22067121  0.89240241  0.08901558
   0.68377451  0.15621144  0.21885592
   0.94927612  0.02809995  0.15233499
   0.41448928  0.28648658  0.28499339
   0.44927612  0.52809995  0.15233499
   0.92138278  0.28521345  0.28546478
   0.44927612  0.02809995  0.15233499
   0.92108115  0.78588905  0.28478306
   0.90282244  0.55132680  0.10484543
   0.36872062  0.81192672  0.23358817
  -0.00002382  0.50066777  0.20363696
   0.46546480  0.76184308  0.33056226
   0.53851998  0.23347802  0.07318573
   0.13754453  0.42992169  0.35380274
   0.80417896  0.10236166  0.36524912
   0.81488773  0.59288754  0.31580682
   0.87926422  0.06310591  0.05527763
   0.34346462  0.32834918  0.18306526
   0.58246139  0.21150732  0.12452493
   0.05274161  0.46978363  0.25656555
   0.46303730  0.77080872  0.38736157
   0.09516526  0.72856013  0.12156099
   0.56308489  0.43926254  0.25354799
   0.78254723  0.10152299  0.31375283
   0.85888103  0.57329750  0.05350623
   0.31432645  0.84639406  0.18061845
   0.56207820  0.72169891  0.12275353
   0.02459535  0.98369774  0.25435680
   0.80283210  0.32358728  0.18457106
   0.26757874  0.58366009  0.31643430
   0.34617716  0.60305419  0.05647018
   0.26303332  0.13883421  0.31641724
   0.80420819  0.87386432  0.18427495
   0.34617716  0.05624469  0.05647018
   0.56491393  0.98779058  0.25308550
   0.09516526  0.18175063  0.12156099
   0.04696138  0.75196451  0.38748757
   0.47206663  0.20840599  0.38766433
   0.92844974  0.33375879  0.38734038
   0.34047062  0.60391201  0.02782883
   0.92434681  0.68523651  0.03696881
   0.34363348  0.06399961  0.02783421
   0.88838126  0.05560908  0.02665597
   0.30372472  0.77267377  0.39264275
   0.44326633  0.30292982  0.40931768
   0.99254629  0.70554056  0.40881417
   0.77933587  0.49483279  0.39227085
   0.45030551  0.95286898  0.39202947
Direct configuration=    30
   0.22067121  0.89240241  0.08901558
   0.68382444  0.15614028  0.21884028
   0.94927612  0.02809995  0.15233499
   0.41414957  0.28666468  0.28499079
   0.44927612  0.52809995  0.15233499
   0.92148278  0.28526338  0.28544972
   0.44927612  0.02809995  0.15233499
   0.92118793  0.78567459  0.28476741
   0.90282244  0.55132680  0.10484543
   0.36858354  0.81197566  0.23359992
  -0.00002030  0.50057155  0.20361432
   0.46505997  0.76201033  0.33055573
   0.53851998  0.23347802  0.07318573
   0.13743937  0.42994042  0.35381219
   0.80433479  0.10242247  0.36523938
   0.81472729  0.59282812  0.31580096
   0.87926422  0.06310591  0.05527763
   0.34342068  0.32841355  0.18307262
   0.58246139  0.21150732  0.12452493
   0.05245662  0.46981067  0.25655012
   0.46290917  0.77092668  0.38738534
   0.09516526  0.72856013  0.12156099
   0.56307873  0.43933072  0.25351731
   0.78266943  0.10145602  0.31371095
   0.85888103  0.57329750  0.05350623
   0.31448208  0.84624046  0.18065477
   0.56207820  0.72169891  0.12275353
   0.02450494  0.98383304  0.25435121
   0.80286384  0.32357126  0.18459433
   0.26782663  0.58421793  0.31642157
   0.34617716  0.60305419  0.05647018
   0.26329012  0.13836957  0.31643113
   0.80430046  0.87373253  0.18429212
   0.34617716  0.05624469  0.05647018
   0.56494614  0.98768047  0.25306457
   0.09516526  0.18175063  0.12156099
   0.04683572  0.75175658  0.38743435
   0.47211299  0.20830285  0.38763338
   0.92895802  0.33345863  0.38728179
   0.34047062  0.60391201  0.02782883
   0.92434681  0.68523651  0.03696881
   0.34363348  0.06399961  0.02783421
   0.88838126  0.05560908  0.02665597
   0.30361981  0.77281424  0.39263550
   0.44350046  0.30298754  0.40932201
   0.99231856  0.70592909  0.40876119
   0.77910700  0.49495796  0.39226864
   0.45037193  0.95284898  0.39202851
Direct configuration=    31
   0.22067121  0.89240241  0.08901558
   0.68385203  0.15610096  0.21883164
   0.94927612  0.02809995  0.15233499
   0.41396185  0.28676310  0.28498936
   0.44927612  0.52809995  0.15233499
   0.92153804  0.28529097  0.28544141
   0.44927612  0.02809995  0.15233499
   0.92124693  0.78555608  0.28475877
   0.90282244  0.55132680  0.10484543
   0.36850780  0.81200271  0.23360641
  -0.00001836  0.50051838  0.20360182
   0.46483627  0.76210275  0.33055213
   0.53851998  0.23347802  0.07318573
   0.13738125  0.42995078  0.35381741
   0.80442090  0.10245608  0.36523401
   0.81463864  0.59279528  0.31579772
   0.87926422  0.06310591  0.05527763
   0.34339639  0.32844913  0.18307668
   0.58246139  0.21150732  0.12452493
   0.05229914  0.46982562  0.25654159
   0.46283837  0.77099187  0.38739847
   0.09516526  0.72856013  0.12156099
   0.56307532  0.43936839  0.25350035
   0.78273696  0.10141901  0.31368781
   0.85888103  0.57329750  0.05350623
   0.31456807  0.84615559  0.18067484
   0.56207820  0.72169891  0.12275353
   0.02445497  0.98390781  0.25434813
   0.80288139  0.32356242  0.18460719
   0.26796361  0.58452619  0.31641454
   0.34617716  0.60305419  0.05647018
   0.26343202  0.13811282  0.31643880
   0.80435145  0.87365971  0.18430160
   0.34617716  0.05624469  0.05647018
   0.56496394  0.98761962  0.25305301
   0.09516526  0.18175063  0.12156099
   0.04676628  0.75164168  0.38740493
   0.47213861  0.20824586  0.38761627
   0.92923889  0.33329277  0.38724941
   0.34047062  0.60391201  0.02782883
   0.92434681  0.68523651  0.03696881
   0.34363348  0.06399961  0.02783421
   0.88838126  0.05560908  0.02665597
   0.30356184  0.77289187  0.39263149
   0.44362984  0.30301943  0.40932440
   0.99219273  0.70614379  0.40873191
   0.77898053  0.49502712  0.39226742
   0.45040863  0.95283793  0.39202798
Direct configuration=    32
   0.22067121  0.89240241  0.08901558
   0.68381514  0.15609344  0.21885046
   0.94927612  0.02809995  0.15233499
   0.41395291  0.28682166  0.28497381
   0.44927612  0.52809995  0.15233499
   0.92145045  0.28521595  0.28544141
   0.44927612  0.02809995  0.15233499
   0.92116022  0.78567327  0.28475962
   0.90282244  0.55132680  0.10484543
   0.36842299  0.81202972  0.23362066
  -0.00000676  0.50044948  0.20359228
   0.46486635  0.76212483  0.33056061
   0.53851998  0.23347802  0.07318573
   0.13741748  0.42996373  0.35379179
   0.80449341  0.10248366  0.36520468
   0.81457799  0.59275986  0.31579402
   0.87926422  0.06310591  0.05527763
   0.34341982  0.32843917  0.18307107
   0.58246139  0.21150732  0.12452493
   0.05222013  0.46981838  0.25652067
   0.46292547  0.77083777  0.38740713
   0.09516526  0.72856013  0.12156099
   0.56301359  0.43930145  0.25348541
   0.78282441  0.10136356  0.31366410
   0.85888103  0.57329750  0.05350623
   0.31468129  0.84608245  0.18067858
   0.56207820  0.72169891  0.12275353
   0.02441826  0.98394408  0.25433821
   0.80291907  0.32349321  0.18460492
   0.26790689  0.58453291  0.31639689
   0.34617716  0.60305419  0.05647018
   0.26345241  0.13823305  0.31644421
   0.80442712  0.87360415  0.18429652
   0.34617716  0.05624469  0.05647018
   0.56493495  0.98767474  0.25304510
   0.09516526  0.18175063  0.12156099
   0.04669012  0.75160328  0.38735226
   0.47220209  0.20827469  0.38761274
   0.92946643  0.33312905  0.38722056
   0.34047062  0.60391201  0.02782883
   0.92434681  0.68523651  0.03696881
   0.34363348  0.06399961  0.02783421
   0.88838126  0.05560908  0.02665597
   0.30337332  0.77303637  0.39263150
   0.44382936  0.30297789  0.40930704
   0.99197124  0.70638637  0.40870787
   0.77890780  0.49505364  0.39226089
   0.45040405  0.95298989  0.39203419
Direct configuration=    33
   0.22067121  0.89240241  0.08901558
   0.68370821  0.15607163  0.21890502
   0.94927612  0.02809995  0.15233499
   0.41392698  0.28699145  0.28492875
   0.44927612  0.52809995  0.15233499
   0.92119653  0.28499846  0.28544140
   0.44927612  0.02809995  0.15233499
   0.92090883  0.78601300  0.28476210
   0.90282244  0.55132680  0.10484543
   0.36817711  0.81210802  0.23366200
   0.00002688  0.50024975  0.20356462
   0.46495355  0.76218885  0.33058520
   0.53851998  0.23347802  0.07318573
   0.13752252  0.43000126  0.35371751
   0.80470364  0.10256361  0.36511968
   0.81440217  0.59265719  0.31578329
   0.87926422  0.06310591  0.05527763
   0.34348773  0.32841031  0.18305480
   0.58246139  0.21150732  0.12452493
   0.05199107  0.46979740  0.25646005
   0.46317799  0.77039102  0.38743225
   0.09516526  0.72856013  0.12156099
   0.56283461  0.43910738  0.25344209
   0.78307795  0.10120279  0.31359536
   0.85888103  0.57329750  0.05350623
   0.31500952  0.84587041  0.18068942
   0.56207820  0.72169891  0.12275353
   0.02431181  0.98404923  0.25430945
   0.80302834  0.32329258  0.18459833
   0.26774243  0.58455238  0.31634572
   0.34617716  0.60305419  0.05647018
   0.26351151  0.13858162  0.31645989
   0.80464648  0.87344308  0.18428179
   0.34617716  0.05624469  0.05647018
   0.56485090  0.98783457  0.25302216
   0.09516526  0.18175063  0.12156099
   0.04646933  0.75149195  0.38719956
   0.47238612  0.20835827  0.38760250
   0.93012607  0.33265439  0.38713693
   0.34047062  0.60391201  0.02782883
   0.92434681  0.68523651  0.03696881
   0.34363348  0.06399961  0.02783421
   0.88838126  0.05560908  0.02665597
   0.30282678  0.77345528  0.39263151
   0.44440778  0.30285744  0.40925670
   0.99132910  0.70708965  0.40863816
   0.77869693  0.49513053  0.39224196
   0.45039076  0.95343043  0.39205220
