 running on   64 total cores
 distrk:  each k-point on   64 cores,    1 groups
 distr:  one band on   32 cores,    2 groups
 using from now: INCAR     
 vasp.5.4.4.18Apr17-6-g9f103f2a35 (build Sep 24 2019 09:38:50) complex          
  
 POSCAR found type information on POSCAR  Mn O  H 
 POSCAR found :  3 types and      42 ions

 ----------------------------------------------------------------------------- 
|                                                                             |
|           W    W    AA    RRRRR   N    N  II  N    N   GGGG   !!!           |
|           W    W   A  A   R    R  NN   N  II  NN   N  G    G  !!!           |
|           W    W  A    A  R    R  N N  N  II  N N  N  G       !!!           |
|           W WW W  AAAAAA  RRRRR   N  N N  II  N  N N  G  GGG   !            |
|           WW  WW  A    A  R   R   N   NN  II  N   NN  G    G                |
|           W    W  A    A  R    R  N    N  II  N    N   GGGG   !!!           |
|                                                                             |
|      For optimal performance we recommend to set                            |
|        NCORE= 4 - approx SQRT( number of cores)                             |
|      NCORE specifies how many cores store one orbital (NPAR=cpu/NCORE).     |
|      This setting can  greatly improve the performance of VASP for DFT.     |
|      The default,   NCORE=1            might be grossly inefficient         |
|      on modern multi-core architectures or massively parallel machines.     |
|      Do your own testing !!!!                                               |
|      Unfortunately you need to use the default for GW and RPA calculations. |
|      (for HF NCORE is supported but not extensively tested yet)             |
|                                                                             |
 ----------------------------------------------------------------------------- 

 LDA part: xc-table for Pade appr. of Perdew
 POSCAR found type information on POSCAR  Mn O  H 
 POSCAR found :  3 types and      42 ions
 POSCAR, INCAR and KPOINTS ok, starting setup
 FFT: planning ...
 WAVECAR not read
 entering main loop
       N       E                     dE             d eps       ncg     rms          rms(c)
DAV:   1     0.335832657749E+04    0.33583E+04   -0.16356E+05  8992   0.146E+03
DAV:   2     0.239315625337E+03   -0.31190E+04   -0.29387E+04  8436   0.400E+02
DAV:   3    -0.295772488026E+03   -0.53509E+03   -0.52602E+03  9240   0.161E+02
DAV:   4    -0.320119602007E+03   -0.24347E+02   -0.24081E+02  9320   0.351E+01
DAV:   5    -0.320682120967E+03   -0.56252E+00   -0.56059E+00  9072   0.613E+00    0.774E+01
RMM:   6    -0.437861674953E+03   -0.11718E+03   -0.87881E+02  9704   0.618E+01    0.153E+02
RMM:   7    -0.333312145374E+03    0.10455E+03   -0.65270E+01  8323   0.191E+01    0.978E+01
RMM:   8    -0.325073461177E+03    0.82387E+01   -0.10361E+02  8087   0.205E+01    0.866E+01
RMM:   9    -0.318467230873E+03    0.66062E+01   -0.47294E+01  8623   0.136E+01    0.697E+01
RMM:  10    -0.299234466327E+03    0.19233E+02   -0.88888E+00  8249   0.762E+00    0.529E+01
RMM:  11    -0.277140508329E+03    0.22094E+02   -0.40998E+01  7824   0.114E+01    0.332E+01
RMM:  12    -0.285187724511E+03   -0.80472E+01   -0.16513E+01  8364   0.888E+00    0.494E+01
RMM:  13    -0.274237821072E+03    0.10950E+02   -0.11924E+01  8220   0.746E+00    0.188E+01
RMM:  14    -0.277734909303E+03   -0.34971E+01   -0.19749E+00  8556   0.284E+00    0.156E+01
RMM:  15    -0.278608625637E+03   -0.87372E+00   -0.14738E+00  7973   0.248E+00    0.125E+01
RMM:  16    -0.279076314556E+03   -0.46769E+00   -0.79644E-01  7750   0.191E+00    0.133E+01
RMM:  17    -0.278955277356E+03    0.12104E+00   -0.39213E-01  7919   0.137E+00    0.115E+01
RMM:  18    -0.278611158021E+03    0.34412E+00   -0.79305E-01  7736   0.197E+00    0.765E+00
RMM:  19    -0.278534345862E+03    0.76812E-01   -0.35726E-01  8136   0.115E+00    0.885E+00
RMM:  20    -0.278166848026E+03    0.36750E+00   -0.29975E-01  7774   0.115E+00    0.688E+00
RMM:  21    -0.277829554161E+03    0.33729E+00   -0.19166E-01  7994   0.864E-01    0.493E+00
RMM:  22    -0.277800107366E+03    0.29447E-01   -0.77705E-02  7759   0.601E-01    0.495E+00
RMM:  23    -0.277818851773E+03   -0.18744E-01   -0.88770E-02  7779   0.589E-01    0.357E+00
RMM:  24    -0.277733824037E+03    0.85028E-01   -0.63637E-02  7830   0.481E-01    0.358E+00
RMM:  25    -0.277676873378E+03    0.56951E-01   -0.68377E-02  7851   0.515E-01    0.269E+00
RMM:  26    -0.277773435031E+03   -0.96562E-01   -0.25196E-02  7764   0.305E-01    0.462E+00
RMM:  27    -0.277837358580E+03   -0.63924E-01   -0.57954E-02  8054   0.521E-01    0.104E+01
RMM:  28    -0.277871941180E+03   -0.34583E-01   -0.17953E-02  7848   0.289E-01    0.108E+01
RMM:  29    -0.277866810827E+03    0.51304E-02   -0.10425E-02  7508   0.190E-01    0.107E+01
RMM:  30    -0.277748992943E+03    0.11782E+00   -0.61175E-02  7620   0.456E-01    0.102E+01
RMM:  31    -0.277702190583E+03    0.46802E-01   -0.94876E-03  8026   0.191E-01    0.103E+01
RMM:  32    -0.277709510580E+03   -0.73200E-02   -0.81901E-03  7643   0.160E-01    0.100E+01
RMM:  33    -0.277753840909E+03   -0.44330E-01   -0.79350E-03  7285   0.181E-01    0.103E+01
RMM:  34    -0.277896861713E+03   -0.14302E+00   -0.30824E-02  7263   0.317E-01    0.135E+01
RMM:  35    -0.278162793785E+03   -0.26593E+00   -0.62512E-02  7550   0.463E-01    0.150E+01
RMM:  36    -0.278181123118E+03   -0.18329E-01   -0.14982E-02  7519   0.207E-01    0.150E+01
RMM:  37    -0.278218292871E+03   -0.37170E-01   -0.73309E-03  8149   0.138E-01    0.153E+01
RMM:  38    -0.278156161130E+03    0.62132E-01   -0.60553E-03  7797   0.156E-01    0.150E+01
RMM:  39    -0.277943755893E+03    0.21241E+00   -0.87862E-02  8006   0.570E-01    0.136E+01
RMM:  40    -0.277866124353E+03    0.77632E-01   -0.31836E-02  8251   0.359E-01    0.129E+01
RMM:  41    -0.277803276956E+03    0.62847E-01   -0.30310E-02  8296   0.325E-01    0.121E+01
RMM:  42    -0.277806588394E+03   -0.33114E-02   -0.37108E-03  8964   0.133E-01    0.119E+01
RMM:  43    -0.277783470540E+03    0.23118E-01   -0.16346E-02  8184   0.242E-01    0.115E+01
RMM:  44    -0.277804353408E+03   -0.20883E-01   -0.45848E-03  7562   0.167E-01    0.119E+01
RMM:  45    -0.277898258023E+03   -0.93905E-01   -0.28089E-02  8269   0.334E-01    0.149E+01
RMM:  46    -0.278059289093E+03   -0.16103E+00   -0.22779E-02  7534   0.365E-01    0.182E+01
RMM:  47    -0.278107418310E+03   -0.48129E-01   -0.15444E-02  7322   0.293E-01    0.190E+01
RMM:  48    -0.278112057739E+03   -0.46394E-02   -0.31315E-03  7741   0.124E-01    0.191E+01
RMM:  49    -0.278179853577E+03   -0.67796E-01   -0.67806E-03  7917   0.162E-01    0.190E+01
RMM:  50    -0.278486083418E+03   -0.30623E+00   -0.71319E-02  8111   0.500E-01    0.190E+01
RMM:  51    -0.278733488751E+03   -0.24741E+00   -0.38472E-02  8205   0.389E-01    0.189E+01
RMM:  52    -0.278850198233E+03   -0.11671E+00   -0.90139E-03  8006   0.201E-01    0.190E+01
RMM:  53    -0.279528914335E+03   -0.67872E+00   -0.91269E-02  7724   0.550E-01    0.215E+01
RMM:  54    -0.279683534397E+03   -0.15462E+00   -0.35803E-02  7403   0.377E-01    0.233E+01
RMM:  55    -0.279789274717E+03   -0.10574E+00   -0.18330E-02  7485   0.293E-01    0.239E+01
RMM:  56    -0.279967391195E+03   -0.17812E+00   -0.24966E-02  7750   0.320E-01    0.242E+01
RMM:  57    -0.279950597776E+03    0.16793E-01   -0.27109E-03  9021   0.978E-02    0.242E+01
RMM:  58    -0.279963419559E+03   -0.12822E-01   -0.75395E-04  7939   0.517E-02    0.242E+01
RMM:  59    -0.279946972119E+03    0.16447E-01   -0.19098E-03  7634   0.845E-02    0.242E+01
RMM:  60    -0.279892048501E+03    0.54924E-01   -0.81112E-04  7733   0.591E-02
   1 F= -.27989205E+03 E0= -.27989970E+03  d E =-.279892E+03  mag=    18.7763
 curvature:   0.00 expect dE= 0.000E+00 dE for cont linesearch  0.000E+00
 trial: gam= 0.00000 g(F)=  0.295E+00 g(S)=  0.000E+00 ort = 0.000E+00 (trialstep = 0.100E+01)
 search vector abs. value=  0.295E+00
 bond charge predicted
       N       E                     dE             d eps       ncg     rms          rms(c)
DAV:   1    -0.278876401060E+03    0.10706E+01   -0.76966E+01  9368   0.435E+01    0.243E+01
RMM:   2    -0.299350073464E+03   -0.20474E+02   -0.88149E+01  9852   0.179E+01    0.632E+01
RMM:   3    -0.281172561536E+03    0.18178E+02   -0.35487E+01  8028   0.128E+01    0.439E+01
RMM:   4    -0.275980002896E+03    0.51926E+01   -0.65343E+00  8904   0.586E+00    0.264E+01
RMM:   5    -0.276197924435E+03   -0.21792E+00   -0.28119E+00  8220   0.329E+00    0.174E+01
RMM:   6    -0.277465292788E+03   -0.12674E+01   -0.79931E-01  8824   0.171E+00    0.134E+01
RMM:   7    -0.277605569335E+03   -0.14028E+00   -0.42660E-01  8227   0.129E+00    0.114E+01
RMM:   8    -0.277609749880E+03   -0.41805E-02   -0.27700E-01  7998   0.112E+00    0.924E+00
RMM:   9    -0.277568326749E+03    0.41423E-01   -0.33973E-01  7951   0.120E+00    0.651E+00
RMM:  10    -0.277643493793E+03   -0.75167E-01   -0.12250E-01  8332   0.706E-01    0.629E+00
RMM:  11    -0.277780528294E+03   -0.13703E+00   -0.47294E-02  8205   0.433E-01    0.106E+01
RMM:  12    -0.278182907175E+03   -0.40238E+00   -0.18721E-01  7957   0.865E-01    0.102E+01
RMM:  13    -0.278211790540E+03   -0.28883E-01   -0.51988E-02  8212   0.473E-01    0.106E+01
RMM:  14    -0.278224945900E+03   -0.13155E-01   -0.39534E-02  8054   0.399E-01    0.121E+01
RMM:  15    -0.278290696246E+03   -0.65750E-01   -0.25426E-02  7830   0.355E-01    0.127E+01
RMM:  16    -0.278480057140E+03   -0.18936E+00   -0.48645E-02  7747   0.469E-01    0.124E+01
RMM:  17    -0.278504361859E+03   -0.24305E-01   -0.34629E-02  7767   0.416E-01    0.117E+01
RMM:  18    -0.278419669103E+03    0.84693E-01   -0.90410E-02  7988   0.626E-01    0.951E+00
RMM:  19    -0.278359478601E+03    0.60191E-01   -0.84761E-02  8039   0.598E-01    0.728E+00
RMM:  20    -0.278497655413E+03   -0.13818E+00   -0.45813E-02  7767   0.455E-01    0.742E+00
RMM:  21    -0.278505067733E+03   -0.74123E-02   -0.64976E-02  7838   0.517E-01    0.593E+00
RMM:  22    -0.278614647824E+03   -0.10958E+00   -0.57420E-02  7750   0.487E-01    0.717E+00
RMM:  23    -0.278805976595E+03   -0.19133E+00   -0.11268E-01  7760   0.636E-01    0.843E+00
RMM:  24    -0.278734960301E+03    0.71016E-01   -0.34785E-02  7908   0.382E-01    0.823E+00
RMM:  25    -0.278699734424E+03    0.35226E-01   -0.44732E-03  8772   0.132E-01    0.820E+00
RMM:  26    -0.278680482819E+03    0.19252E-01   -0.14181E-03  7597   0.815E-02    0.814E+00
RMM:  27    -0.278669383940E+03    0.11099E-01   -0.44819E-04  7563   0.430E-02    0.810E+00
RMM:  28    -0.278572479400E+03    0.96905E-01   -0.86927E-02  7954   0.580E-01    0.602E+00
RMM:  29    -0.278593472951E+03   -0.20994E-01   -0.69109E-02  7990   0.498E-01    0.240E+00
RMM:  30    -0.278751476741E+03   -0.15800E+00   -0.29369E-02  7811   0.340E-01    0.152E+00
RMM:  31    -0.278911709680E+03   -0.16023E+00   -0.12892E-02  7461   0.262E-01    0.502E+00
RMM:  32    -0.278907884068E+03    0.38256E-02   -0.32730E-02  7454   0.418E-01    0.112E+01
RMM:  33    -0.278975735964E+03   -0.67852E-01   -0.38038E-02  7473   0.484E-01    0.125E+01
RMM:  34    -0.278918947504E+03    0.56788E-01   -0.79851E-03  7560   0.202E-01    0.126E+01
RMM:  35    -0.278967634033E+03   -0.48687E-01   -0.33551E-03  8388   0.108E-01    0.126E+01
RMM:  36    -0.279122307727E+03   -0.15467E+00   -0.15865E-02  8058   0.231E-01    0.127E+01
RMM:  37    -0.279061388898E+03    0.60919E-01   -0.11964E-03  8275   0.833E-02    0.127E+01
RMM:  38    -0.279015758357E+03    0.45631E-01   -0.34344E-03  7501   0.114E-01    0.125E+01
RMM:  39    -0.278975551318E+03    0.40207E-01   -0.23637E-02  7848   0.308E-01    0.120E+01
RMM:  40    -0.278997140398E+03   -0.21589E-01   -0.25863E-02  7985   0.331E-01    0.113E+01
RMM:  41    -0.279055685292E+03   -0.58545E-01   -0.45928E-03  8105   0.129E-01    0.111E+01
RMM:  42    -0.279069556907E+03   -0.13872E-01   -0.51915E-04  8309   0.454E-02    0.111E+01
RMM:  43    -0.279077263580E+03   -0.77067E-02   -0.98231E-05  6976   0.198E-02    0.111E+01
RMM:  44    -0.279103169636E+03   -0.25906E-01   -0.11972E-02  7636   0.210E-01    0.106E+01
RMM:  45    -0.279243410365E+03   -0.14024E+00   -0.62200E-02  7789   0.510E-01    0.923E+00
RMM:  46    -0.279380128743E+03   -0.13672E+00   -0.52217E-02  7907   0.460E-01    0.782E+00
RMM:  47    -0.279135949571E+03    0.24418E+00   -0.67926E-02  7836   0.555E-01    0.941E+00
RMM:  48    -0.279154472595E+03   -0.18523E-01   -0.42998E-03  8815   0.154E-01    0.923E+00
RMM:  49    -0.279175507071E+03   -0.21034E-01   -0.38817E-03  7581   0.120E-01    0.892E+00
RMM:  50    -0.279186533440E+03   -0.11026E-01   -0.22136E-02  7847   0.267E-01    0.811E+00
RMM:  51    -0.279218080731E+03   -0.31547E-01   -0.11061E-02  7813   0.204E-01    0.794E+00
RMM:  52    -0.278972221630E+03    0.24586E+00   -0.31160E-02  7912   0.384E-01    0.869E+00
RMM:  53    -0.278990957727E+03   -0.18736E-01   -0.11985E-02  8229   0.202E-01    0.855E+00
RMM:  54    -0.279022115244E+03   -0.31158E-01   -0.37112E-03  7733   0.132E-01    0.913E+00
RMM:  55    -0.279022814527E+03   -0.69928E-03   -0.34475E-03  7088   0.152E-01    0.108E+01
RMM:  56    -0.279005330073E+03    0.17484E-01   -0.57540E-03  7138   0.192E-01    0.127E+01
RMM:  57    -0.279014703799E+03   -0.93737E-02   -0.11910E-02  7454   0.251E-01    0.135E+01
RMM:  58    -0.279035116242E+03   -0.20412E-01   -0.34576E-03  7513   0.143E-01    0.144E+01
RMM:  59    -0.279115182653E+03   -0.80066E-01   -0.54774E-03  7614   0.170E-01    0.150E+01
RMM:  60    -0.279103485217E+03    0.11697E-01   -0.64898E-03  7173   0.176E-01
   2 F= -.27910349E+03 E0= -.27910499E+03  d E =0.788563E+00  mag=    21.1988
 trial-energy change:    0.788563  1 .order    0.000682   -0.294852    0.296215
 step:   0.4988(harm=  0.4988)  dis= 0.01949  next Energy=  -279.965591 (dE=-0.735E-01)
 bond charge predicted
       N       E                     dE             d eps       ncg     rms          rms(c)
DAV:   1    -0.279123040498E+03   -0.78578E-02   -0.19864E+01  9078   0.221E+01    0.150E+01
RMM:   2    -0.281708314072E+03   -0.25853E+01   -0.98395E+00  8610   0.764E+00    0.308E+01
RMM:   3    -0.280390842115E+03    0.13175E+01   -0.46493E+00  8388   0.415E+00    0.120E+01
RMM:   4    -0.279992031035E+03    0.39881E+00   -0.11101E+00  8038   0.241E+00    0.516E+00
RMM:   5    -0.280019945492E+03   -0.27914E-01   -0.44722E-01  8436   0.125E+00    0.317E+00
RMM:   6    -0.280031796403E+03   -0.11851E-01   -0.85525E-02  8307   0.635E-01    0.248E+00
RMM:   7    -0.280202398272E+03   -0.17060E+00   -0.60667E-02  7842   0.550E-01    0.248E+00
RMM:   8    -0.280237348020E+03   -0.34950E-01   -0.34936E-02  7905   0.382E-01    0.145E+00
RMM:   9    -0.280431980096E+03   -0.19463E+00   -0.35949E-02  7894   0.338E-01    0.172E+00
RMM:  10    -0.280616816552E+03   -0.18484E+00   -0.16597E-02  7749   0.276E-01    0.103E+00
RMM:  11    -0.280829710027E+03   -0.21289E+00   -0.19695E-02  7690   0.245E-01    0.254E+00
RMM:  12    -0.280724343299E+03    0.10537E+00   -0.71893E-03  7280   0.183E-01    0.318E+00
RMM:  13    -0.280669907020E+03    0.54436E-01   -0.14898E-03  7445   0.857E-02    0.362E+00
RMM:  14    -0.280688677517E+03   -0.18770E-01   -0.98700E-03  7504   0.177E-01    0.370E+00
RMM:  15    -0.280724046348E+03   -0.35369E-01   -0.90119E-03  7831   0.146E-01    0.543E+00
RMM:  16    -0.280760103390E+03   -0.36057E-01   -0.10781E-02  7606   0.173E-01    0.720E+00
RMM:  17    -0.280765203104E+03   -0.50997E-02   -0.60053E-03  7991   0.148E-01    0.807E+00
RMM:  18    -0.280697873550E+03    0.67330E-01   -0.40996E-03  7941   0.125E-01    0.765E+00
RMM:  19    -0.280735797562E+03   -0.37924E-01   -0.10780E-03  8168   0.675E-02    0.801E+00
RMM:  20    -0.280914660661E+03   -0.17886E+00   -0.32452E-02  8201   0.317E-01    0.866E+00
RMM:  21    -0.280994620233E+03   -0.79960E-01   -0.13266E-02  8381   0.214E-01    0.980E+00
RMM:  22    -0.281153889043E+03   -0.15927E+00   -0.14415E-02  8467   0.232E-01    0.141E+01
RMM:  23    -0.281187795643E+03   -0.33907E-01   -0.14027E-02  7568   0.252E-01    0.180E+01
RMM:  24    -0.281217088195E+03   -0.29293E-01   -0.10769E-02  7337   0.215E-01    0.195E+01
RMM:  25    -0.281300129421E+03   -0.83041E-01   -0.42722E-03  7869   0.126E-01    0.197E+01
RMM:  26    -0.281463566540E+03   -0.16344E+00   -0.39606E-03  8323   0.114E-01    0.199E+01
RMM:  27    -0.281415869161E+03    0.47697E-01   -0.75122E-04  7119   0.738E-02    0.201E+01
RMM:  28    -0.281533435228E+03   -0.11757E+00   -0.30085E-03  8249   0.107E-01    0.207E+01
RMM:  29    -0.281448202025E+03    0.85233E-01   -0.28500E-03  7192   0.125E-01    0.212E+01
RMM:  30    -0.281665019261E+03   -0.21682E+00   -0.62750E-03  8165   0.162E-01    0.230E+01
RMM:  31    -0.281804413622E+03   -0.13939E+00   -0.75823E-03  7509   0.194E-01    0.252E+01
RMM:  32    -0.281988019707E+03   -0.18361E+00   -0.97186E-03  7566   0.208E-01    0.267E+01
RMM:  33    -0.281964495928E+03    0.23524E-01   -0.40304E-03  7183   0.129E-01    0.269E+01
RMM:  34    -0.281998669039E+03   -0.34173E-01   -0.73276E-04  8333   0.501E-02    0.269E+01
RMM:  35    -0.281990115973E+03    0.85531E-02   -0.61354E-05  6036   0.169E-02    0.269E+01
RMM:  36    -0.282045417007E+03   -0.55301E-01   -0.22285E-04  7714   0.280E-02    0.269E+01
RMM:  37    -0.281807377652E+03    0.23804E+00   -0.31219E-03  8010   0.986E-02    0.268E+01
RMM:  38    -0.280250053815E+03    0.15573E+01   -0.18648E-01  8302   0.755E-01    0.147E+01
RMM:  39    -0.280427620302E+03   -0.17757E+00   -0.62383E-02  7983   0.596E-01    0.925E+00
RMM:  40    -0.280591563705E+03   -0.16394E+00   -0.53588E-02  7912   0.567E-01    0.781E+00
RMM:  41    -0.280573193883E+03    0.18370E-01   -0.76888E-02  8188   0.559E-01    0.214E+00
RMM:  42    -0.280717374462E+03   -0.14418E+00   -0.19705E-02  8232   0.330E-01    0.425E+00
RMM:  43    -0.280845907035E+03   -0.12853E+00   -0.18600E-02  8208   0.309E-01    0.716E+00
RMM:  44    -0.280822158236E+03    0.23749E-01   -0.73395E-03  7256   0.207E-01    0.769E+00
RMM:  45    -0.280835383510E+03   -0.13225E-01   -0.15261E-03  8130   0.955E-02    0.787E+00
RMM:  46    -0.280939519858E+03   -0.10414E+00   -0.93652E-03  8047   0.184E-01    0.820E+00
RMM:  47    -0.281215679258E+03   -0.27616E+00   -0.57316E-02  8171   0.451E-01    0.914E+00
RMM:  48    -0.281419843654E+03   -0.20416E+00   -0.35826E-02  8239   0.367E-01    0.998E+00
RMM:  49    -0.281690274558E+03   -0.27043E+00   -0.51188E-02  8353   0.403E-01    0.110E+01
RMM:  50    -0.281831477600E+03   -0.14120E+00   -0.17112E-02  8414   0.257E-01    0.115E+01
RMM:  51    -0.281923883712E+03   -0.92406E-01   -0.64929E-03  8840   0.152E-01    0.118E+01
RMM:  52    -0.281913849434E+03    0.10034E-01   -0.20570E-03  7977   0.876E-02    0.119E+01
RMM:  53    -0.282205848097E+03   -0.29200E+00   -0.30764E-02  8055   0.338E-01    0.144E+01
RMM:  54    -0.282335279381E+03   -0.12943E+00   -0.99663E-03  8053   0.234E-01    0.182E+01
RMM:  55    -0.282695235765E+03   -0.35996E+00   -0.24325E-02  7726   0.363E-01    0.237E+01
RMM:  56    -0.283257970287E+03   -0.56273E+00   -0.39078E-02  7914   0.463E-01    0.254E+01
RMM:  57    -0.281808160769E+03    0.14498E+01   -0.18410E-01  8210   0.775E-01    0.233E+01
RMM:  58    -0.281673926622E+03    0.13423E+00   -0.16165E-02  9534   0.252E-01    0.215E+01
RMM:  59    -0.281704738608E+03   -0.30812E-01   -0.30347E-03  7870   0.124E-01    0.199E+01
RMM:  60    -0.281880953130E+03   -0.17621E+00   -0.78667E-03  7555   0.194E-01
   3 F= -.28188095E+03 E0= -.28187613E+03  d E =-.198890E+01  mag=    23.0223
 curvature:  -0.25 expect dE=-0.293E-01 dE for cont linesearch -0.370E-03
 trial: gam= 0.32682 g(F)=  0.117E+00 g(S)=  0.000E+00 ort = 0.209E-01 (trialstep = 0.900E+00)
 search vector abs. value=  0.162E+00
 bond charge predicted
       N       E                     dE             d eps       ncg     rms          rms(c)
DAV:   1    -0.281749622427E+03   -0.44884E-01   -0.28863E+01  8664   0.208E+01    0.190E+01
RMM:   2    -0.293563635060E+03   -0.11814E+02   -0.45509E+01  9563   0.115E+01    0.502E+01
RMM:   3    -0.280084571638E+03    0.13479E+02   -0.15658E+01  8239   0.824E+00    0.152E+01
RMM:   4    -0.281217346497E+03   -0.11328E+01   -0.13992E+00  8591   0.286E+00    0.770E+00
RMM:   5    -0.280662110368E+03    0.55524E+00   -0.87244E-01  7946   0.187E+00    0.504E+00
RMM:   6    -0.280671128212E+03   -0.90178E-02   -0.39236E-01  8588   0.102E+00    0.140E+01
RMM:   7    -0.280970678516E+03   -0.29955E+00   -0.22240E-01  7907   0.102E+00    0.124E+01
RMM:   8    -0.280929115835E+03    0.41563E-01   -0.12188E-01  8191   0.709E-01    0.105E+01
RMM:   9    -0.280890418657E+03    0.38697E-01   -0.11839E-01  8132   0.695E-01    0.887E+00
RMM:  10    -0.280915649573E+03   -0.25231E-01   -0.78285E-02  8245   0.557E-01    0.702E+00
RMM:  11    -0.280962615902E+03   -0.46966E-01   -0.15225E-01  7984   0.786E-01    0.253E+00
RMM:  12    -0.280994581024E+03   -0.31965E-01   -0.25739E-02  8292   0.356E-01    0.338E+00
RMM:  13    -0.280989495744E+03    0.50853E-02   -0.59394E-02  7888   0.519E-01    0.307E+00
RMM:  14    -0.281069555732E+03   -0.80060E-01   -0.17393E-02  7889   0.283E-01    0.545E+00
RMM:  15    -0.281066724035E+03    0.28317E-02   -0.22211E-02  7798   0.303E-01    0.380E+00
RMM:  16    -0.281108883861E+03   -0.42160E-01   -0.31312E-02  8110   0.346E-01    0.163E+00
RMM:  17    -0.281151335143E+03   -0.42451E-01   -0.17922E-02  7816   0.299E-01    0.194E+00
RMM:  18    -0.281169473324E+03   -0.18138E-01   -0.49145E-03  7845   0.154E-01    0.179E+00
RMM:  19    -0.281188607902E+03   -0.19135E-01   -0.53336E-03  8149   0.135E-01    0.670E-01
RMM:  20    -0.281212505707E+03   -0.23898E-01   -0.32859E-03  7825   0.111E-01    0.196E+00
RMM:  21    -0.281241510715E+03   -0.29005E-01   -0.45649E-03  7141   0.147E-01    0.225E+00
RMM:  22    -0.281273280434E+03   -0.31770E-01   -0.16594E-02  7889   0.251E-01    0.823E-01
RMM:  23    -0.281327246663E+03   -0.53966E-01   -0.39911E-03  7286   0.140E-01    0.295E+00
RMM:  24    -0.281347944982E+03   -0.20698E-01   -0.30745E-03  7075   0.131E-01    0.380E+00
RMM:  25    -0.281397228765E+03   -0.49284E-01   -0.38834E-03  7764   0.133E-01    0.547E+00
RMM:  26    -0.281381121153E+03    0.16108E-01   -0.36822E-03  7604   0.129E-01    0.543E+00
RMM:  27    -0.281372630596E+03    0.84906E-02   -0.39354E-03  7881   0.121E-01    0.454E+00
RMM:  28    -0.281397624899E+03   -0.24994E-01   -0.12645E-02  8239   0.208E-01    0.123E+00
RMM:  29    -0.281472936615E+03   -0.75312E-01   -0.71458E-03  7645   0.192E-01    0.288E+00
RMM:  30    -0.281554369539E+03   -0.81433E-01   -0.10445E-02  7619   0.227E-01    0.627E+00
RMM:  31    -0.281584093889E+03   -0.29724E-01   -0.63937E-03  7095   0.174E-01    0.737E+00
RMM:  32    -0.281588601729E+03   -0.45078E-02   -0.15204E-03  7277   0.767E-02    0.754E+00
RMM:  33    -0.281591834338E+03   -0.32326E-02   -0.16469E-04  6998   0.275E-02    0.758E+00
RMM:  34    -0.281583703963E+03    0.81304E-02   -0.56482E-04  7401   0.461E-02    0.744E+00
RMM:  35    -0.281579141753E+03    0.45622E-02   -0.75100E-03  8007   0.164E-01    0.628E+00
RMM:  36    -0.281563435990E+03    0.15706E-01   -0.57264E-03  8186   0.143E-01    0.439E+00
RMM:  37    -0.281578149550E+03   -0.14714E-01   -0.19270E-03  7806   0.958E-02    0.298E+00
RMM:  38    -0.281620261813E+03   -0.42112E-01   -0.34634E-03  7944   0.117E-01    0.637E-01
RMM:  39    -0.281665924546E+03   -0.45663E-01   -0.29353E-03  7357   0.123E-01    0.176E+00
RMM:  40    -0.281686591262E+03   -0.20667E-01   -0.38450E-03  7419   0.143E-01    0.242E+00
RMM:  41    -0.281685945286E+03    0.64598E-03   -0.10977E-02  8168   0.202E-01    0.364E-01
RMM:  42    -0.281705338457E+03   -0.19393E-01   -0.18787E-03  7914   0.944E-02    0.152E+00
RMM:  43    -0.281708163556E+03   -0.28251E-02   -0.19502E-03  7296   0.102E-01    0.201E+00
RMM:  44    -0.281700899102E+03    0.72645E-02   -0.20490E-03  7741   0.896E-02    0.131E+00
RMM:  45    -0.281701234804E+03   -0.33570E-03   -0.17350E-03  7744   0.794E-02    0.456E-01
RMM:  46    -0.281711135154E+03   -0.99003E-02   -0.10681E-03  6993   0.773E-02    0.186E+00
RMM:  47    -0.281712478629E+03   -0.13435E-02   -0.13236E-03  7001   0.868E-02    0.251E+00
RMM:  48    -0.281708057622E+03    0.44210E-02   -0.84855E-04  7037   0.670E-02    0.264E+00
RMM:  49    -0.281705342946E+03    0.27147E-02   -0.23478E-04  7040   0.340E-02    0.261E+00
RMM:  50    -0.281704573523E+03    0.76942E-03   -0.32857E-05  5376   0.126E-02    0.256E+00
RMM:  51    -0.281701969274E+03    0.26042E-02   -0.14364E-04  7358   0.208E-02    0.222E+00
RMM:  52    -0.281697359141E+03    0.46101E-02   -0.13280E-03  7820   0.687E-02    0.882E-01
RMM:  53    -0.281706969418E+03   -0.96103E-02   -0.16623E-03  7718   0.896E-02    0.131E+00
RMM:  54    -0.281716691918E+03   -0.97225E-02   -0.21343E-03  6920   0.106E-01    0.261E+00
RMM:  55    -0.281707288604E+03    0.94033E-02   -0.29073E-03  7514   0.118E-01    0.251E+00
RMM:  56    -0.281698127655E+03    0.91609E-02   -0.20660E-03  7783   0.864E-02    0.133E+00
RMM:  57    -0.281701829950E+03   -0.37023E-02   -0.54538E-04  7133   0.544E-02    0.313E-01
RMM:  58    -0.281705474636E+03   -0.36447E-02   -0.63194E-04  6836   0.598E-02    0.133E-01
RMM:  59    -0.281706103048E+03   -0.62841E-03   -0.33807E-04  6883   0.419E-02    0.107E-01
RMM:  60    -0.281706183587E+03   -0.80539E-04   -0.40681E-05  5631   0.147E-02
   4 F= -.28170618E+03 E0= -.28170369E+03  d E =0.174770E+00  mag=    23.9725
 trial-energy change:    0.174770  1 .order    0.012425   -0.111682    0.136531
 step:   0.4048(harm=  0.4048)  dis= 0.01355  next Energy=  -281.906078 (dE=-0.251E-01)
 bond charge predicted
       N       E                     dE             d eps       ncg     rms          rms(c)
DAV:   1    -0.281696219000E+03    0.98840E-02   -0.88206E+00  8616   0.116E+01    0.121E+00
RMM:   2    -0.281755140664E+03   -0.58922E-01   -0.59348E-01  9414   0.225E+00    0.145E+00
RMM:   3    -0.281753474964E+03    0.16657E-02   -0.37077E-02  8167   0.549E-01    0.118E+00
RMM:   4    -0.281753186186E+03    0.28878E-03   -0.57071E-03  8340   0.182E-01    0.577E-01
RMM:   5    -0.281754930146E+03   -0.17440E-02   -0.46547E-03  8031   0.156E-01    0.144E+00
RMM:   6    -0.281754926530E+03    0.36160E-05   -0.21501E-03  7810   0.111E-01    0.172E+00
RMM:   7    -0.281749764646E+03    0.51619E-02   -0.13277E-02  8224   0.231E-01    0.107E+00
RMM:   8    -0.281762344225E+03   -0.12580E-01   -0.28613E-03  7874   0.124E-01    0.255E+00
RMM:   9    -0.281754864977E+03    0.74792E-02   -0.27870E-03  7419   0.122E-01    0.259E+00
RMM:  10    -0.281750713794E+03    0.41512E-02   -0.56073E-04  7352   0.492E-02    0.239E+00
RMM:  11    -0.281746558955E+03    0.41548E-02   -0.51299E-04  7651   0.423E-02    0.167E+00
RMM:  12    -0.281747192608E+03   -0.63365E-03   -0.47366E-04  7335   0.476E-02    0.786E-01
RMM:  13    -0.281750206887E+03   -0.30143E-02   -0.34082E-04  6536   0.447E-02    0.169E-01
RMM:  14    -0.281751820466E+03   -0.16136E-02   -0.27343E-04  6553   0.410E-02    0.231E-01
RMM:  15    -0.281752268540E+03   -0.44807E-03   -0.16404E-04  6297   0.312E-02    0.462E-01
RMM:  16    -0.281752244782E+03    0.23758E-04   -0.70408E-05  5579   0.205E-02    0.622E-01
RMM:  17    -0.281752276015E+03   -0.31233E-04   -0.24008E-05  4624   0.133E-02    0.790E-01
RMM:  18    -0.281752058814E+03    0.21720E-03   -0.23859E-05  4688   0.122E-02    0.877E-01
RMM:  19    -0.281752012940E+03    0.45874E-04   -0.87758E-06  4230   0.782E-03    0.966E-01
RMM:  20    -0.281751927019E+03    0.85922E-04   -0.61786E-06  4152   0.660E-03    0.103E+00
RMM:  21    -0.281751835272E+03    0.91747E-04   -0.40753E-06  3998   0.521E-03    0.109E+00
RMM:  22    -0.281751776937E+03    0.58335E-04   -0.23793E-06  3816   0.397E-03    0.113E+00
RMM:  23    -0.281751701957E+03    0.74980E-04   -0.16031E-06  3714   0.334E-03    0.116E+00
RMM:  24    -0.281751648167E+03    0.53790E-04   -0.94095E-07  3332   0.270E-03    0.118E+00
RMM:  25    -0.281751628594E+03    0.19573E-04   -0.48624E-07  2750   0.226E-03    0.120E+00
RMM:  26    -0.281751602979E+03    0.25615E-04   -0.43833E-07  2850   0.222E-03    0.122E+00
RMM:  27    -0.281751547801E+03    0.55178E-04   -0.33810E-07  2561   0.205E-03    0.123E+00
RMM:  28    -0.281751385325E+03    0.16248E-03   -0.13098E-06  3535   0.281E-03    0.121E+00
RMM:  29    -0.281751344423E+03    0.40902E-04   -0.50177E-07  2801   0.194E-03    0.118E+00
RMM:  30    -0.281751192856E+03    0.15157E-03   -0.24154E-06  3943   0.367E-03    0.111E+00
RMM:  31    -0.281751113947E+03    0.78909E-04   -0.33116E-06  3957   0.419E-03    0.103E+00
RMM:  32    -0.281751033102E+03    0.80845E-04   -0.58414E-06  4128   0.582E-03    0.907E-01
RMM:  33    -0.281750943594E+03    0.89508E-04   -0.11525E-05  4400   0.766E-03    0.737E-01
RMM:  34    -0.281750965063E+03   -0.21469E-04   -0.19544E-05  4624   0.102E-02    0.521E-01
RMM:  35    -0.281751164105E+03   -0.19904E-03   -0.25451E-05  4724   0.120E-02    0.284E-01
RMM:  36    -0.281751495831E+03   -0.33173E-03   -0.28561E-05  4561   0.131E-02    0.100E-01
RMM:  37    -0.281751720157E+03   -0.22433E-03   -0.23075E-05  4591   0.117E-02    0.199E-02
RMM:  38    -0.281751826998E+03   -0.10684E-03   -0.17414E-05  4559   0.938E-03    0.540E-02
RMM:  39    -0.281751882852E+03   -0.55854E-04   -0.95764E-06  4292   0.627E-03    0.211E-02
RMM:  40    -0.281751959050E+03   -0.76198E-04   -0.71483E-06  3971   0.465E-03    0.629E-02
RMM:  41    -0.281752002661E+03   -0.43611E-04   -0.32432E-06  3734   0.437E-03    0.128E-01
RMM:  42    -0.281752004376E+03   -0.17150E-05   -0.23295E-06  3738   0.392E-03
   5 F= -.28175200E+03 E0= -.28174916E+03  d E =0.128949E+00  mag=    23.9867
 curvature:  -0.26 expect dE=-0.321E-01 dE for cont linesearch -0.197E-02
 ZBRENT: interpolating
 opt :   0.3163  next Energy=  -281.753544 (dE= 0.127E+00)
 bond charge predicted
       N       E                     dE             d eps       ncg     rms          rms(c)
DAV:   1    -0.281752394240E+03   -0.39158E-03   -0.28188E-01  8636   0.207E+00    0.287E-01
RMM:   2    -0.281755223146E+03   -0.28289E-02   -0.20016E-02  9361   0.417E-01    0.916E-01
RMM:   3    -0.281753914527E+03    0.13086E-02   -0.21169E-03  8039   0.115E-01    0.441E-01
RMM:   4    -0.281754320160E+03   -0.40563E-03   -0.97400E-04  7802   0.677E-02    0.554E-01
RMM:   5    -0.281754742883E+03   -0.42272E-03   -0.61508E-04  7115   0.578E-02    0.650E-01
RMM:   6    -0.281753675783E+03    0.10671E-02   -0.52357E-04  7235   0.481E-02    0.262E-01
RMM:   7    -0.281754421880E+03   -0.74610E-03   -0.38625E-04  7414   0.392E-02    0.501E-01
RMM:   8    -0.281754761364E+03   -0.33948E-03   -0.39465E-04  6883   0.454E-02    0.696E-01
RMM:   9    -0.281753914843E+03    0.84652E-03   -0.23152E-04  6962   0.331E-02    0.534E-01
RMM:  10    -0.281753713438E+03    0.20141E-03   -0.19592E-04  7228   0.254E-02    0.625E-02
RMM:  11    -0.281754432724E+03   -0.71929E-03   -0.76612E-05  5405   0.213E-02    0.288E-01
RMM:  12    -0.281754462600E+03   -0.29876E-04   -0.10363E-04  6204   0.246E-02    0.376E-01
RMM:  13    -0.281754257882E+03    0.20472E-03   -0.43134E-05  5448   0.147E-02    0.359E-01
RMM:  14    -0.281754132668E+03    0.12521E-03   -0.14943E-05  4409   0.797E-03    0.275E-01
RMM:  15    -0.281754100887E+03    0.31782E-04   -0.14913E-05  4501   0.760E-03    0.117E-01
RMM:  16    -0.281754216064E+03   -0.11518E-03   -0.15696E-05  4412   0.930E-03    0.834E-02
RMM:  17    -0.281754311423E+03   -0.95359E-04   -0.24992E-05  4502   0.127E-02    0.140E-01
RMM:  18    -0.281754289052E+03    0.22371E-04   -0.14655E-05  4479   0.829E-03    0.115E-01
RMM:  19    -0.281754292509E+03   -0.34579E-05   -0.10248E-05  4103   0.592E-03
   6 F= -.28175429E+03 E0= -.28175129E+03  d E =0.126661E+00  mag=    23.9886
 curvature:  -0.21 expect dE=-0.280E-01 dE for cont linesearch -0.288E-03
 trial: gam= 0.82685 g(F)=  0.135E+00 g(S)=  0.000E+00 ort =-0.150E-01 (trialstep = 0.574E+00)
 search vector abs. value=  0.222E+00
 bond charge predicted
       N       E                     dE             d eps       ncg     rms          rms(c)
DAV:   1    -0.281558653679E+03    0.19564E+00   -0.13406E+01  9554   0.182E+01    0.208E+00
RMM:   2    -0.281735721906E+03   -0.17707E+00   -0.16333E+00  9475   0.336E+00    0.408E+00
RMM:   3    -0.281701684766E+03    0.34037E-01   -0.11048E-01  8274   0.848E-01    0.118E+00
RMM:   4    -0.281720591558E+03   -0.18907E-01   -0.21429E-02  8309   0.317E-01    0.278E+00
RMM:   5    -0.281705639474E+03    0.14952E-01   -0.25458E-02  8067   0.341E-01    0.102E+00
RMM:   6    -0.281711643809E+03   -0.60043E-02   -0.78870E-03  8129   0.186E-01    0.156E+00
RMM:   7    -0.281718320417E+03   -0.66766E-02   -0.36549E-03  7584   0.144E-01    0.241E+00
RMM:   8    -0.281702788841E+03    0.15532E-01   -0.96522E-03  8088   0.205E-01    0.104E+00
RMM:   9    -0.281709867239E+03   -0.70784E-02   -0.39449E-03  8026   0.124E-01    0.151E+00
RMM:  10    -0.281713281148E+03   -0.34139E-02   -0.42093E-03  7358   0.145E-01    0.191E+00
RMM:  11    -0.281708966565E+03    0.43146E-02   -0.12109E-03  7373   0.766E-02    0.180E+00
RMM:  12    -0.281707187451E+03    0.17791E-02   -0.24689E-04  7690   0.304E-02    0.153E+00
RMM:  13    -0.281706168011E+03    0.10194E-02   -0.21411E-04  7276   0.286E-02    0.981E-01
RMM:  14    -0.281707008211E+03   -0.84020E-03   -0.27654E-04  7192   0.376E-02    0.237E-01
RMM:  15    -0.281709334378E+03   -0.23262E-02   -0.26755E-04  6678   0.399E-02    0.506E-01
RMM:  16    -0.281710616839E+03   -0.12825E-02   -0.28538E-04  6393   0.413E-02    0.984E-01
RMM:  17    -0.281710056863E+03    0.55998E-03   -0.25680E-04  6640   0.380E-02    0.118E+00
RMM:  18    -0.281710072957E+03   -0.16094E-04   -0.61661E-05  5291   0.201E-02    0.140E+00
RMM:  19    -0.281709545244E+03    0.52771E-03   -0.49244E-05  5360   0.167E-02    0.151E+00
RMM:  20    -0.281709439704E+03    0.10554E-03   -0.14761E-05  4437   0.100E-02    0.162E+00
RMM:  21    -0.281709205389E+03    0.23432E-03   -0.10133E-05  4254   0.808E-03    0.170E+00
RMM:  22    -0.281709124778E+03    0.80611E-04   -0.51649E-06  4101   0.602E-03    0.177E+00
RMM:  23    -0.281709000622E+03    0.12416E-03   -0.37166E-06  4031   0.505E-03    0.183E+00
RMM:  24    -0.281708924742E+03    0.75880E-04   -0.23140E-06  3815   0.412E-03    0.188E+00
RMM:  25    -0.281708820476E+03    0.10427E-03   -0.17094E-06  3708   0.352E-03    0.191E+00
RMM:  26    -0.281708767541E+03    0.52935E-04   -0.10234E-06  3348   0.291E-03    0.194E+00
RMM:  27    -0.281708684194E+03    0.83346E-04   -0.78081E-07  3174   0.265E-03    0.196E+00
RMM:  28    -0.281708638546E+03    0.45648E-04   -0.42440E-07  2644   0.221E-03    0.198E+00
RMM:  29    -0.281708620236E+03    0.18310E-04   -0.31467E-07  2598   0.203E-03    0.200E+00
RMM:  30    -0.281708511607E+03    0.10863E-03   -0.36777E-07  2621   0.205E-03    0.200E+00
RMM:  31    -0.281708227493E+03    0.28411E-03   -0.14101E-06  3420   0.279E-03    0.197E+00
RMM:  32    -0.281708219952E+03    0.75407E-05   -0.10453E-06  3331   0.291E-03
   7 F= -.28170822E+03 E0= -.28170747E+03  d E =0.460726E-01  mag=    23.9963
 trial-energy change:    0.046073  1 .order    0.052613   -0.070611    0.175838
 step:   0.1844(harm=  0.1644)  dis= 0.00565  next Energy=  -281.765851 (dE=-0.116E-01)
 bond charge predicted
       N       E                     dE             d eps       ncg     rms          rms(c)
DAV:   1    -0.281694200507E+03    0.14027E-01   -0.61352E+00  9444   0.124E+01    0.272E+00
RMM:   2    -0.281984175769E+03   -0.28998E+00   -0.10611E+00  9379   0.262E+00    0.110E+01
RMM:   3    -0.281799443178E+03    0.18473E+00   -0.20702E-01  8170   0.992E-01    0.703E+00
RMM:   4    -0.281748672977E+03    0.50770E-01   -0.31662E-02  8208   0.396E-01    0.471E+00
RMM:   5    -0.281731463918E+03    0.17209E-01   -0.33954E-02  8464   0.367E-01    0.513E-01
RMM:   6    -0.281771855490E+03   -0.40392E-01   -0.10771E-02  7717   0.237E-01    0.204E+00
RMM:   7    -0.281771828872E+03    0.26618E-04   -0.74724E-03  7702   0.202E-01    0.230E+00
RMM:   8    -0.281758832290E+03    0.12997E-01   -0.73155E-03  8023   0.165E-01    0.101E+00
RMM:   9    -0.281765778130E+03   -0.69458E-02   -0.32261E-03  7904   0.120E-01    0.147E+00
RMM:  10    -0.281772063220E+03   -0.62851E-02   -0.41717E-03  7366   0.146E-01    0.225E+00
RMM:  11    -0.281761950522E+03    0.10113E-01   -0.40273E-03  7834   0.138E-01    0.146E+00
RMM:  12    -0.281761418479E+03    0.53204E-03   -0.14481E-03  7715   0.738E-02    0.107E-01
RMM:  13    -0.281766669859E+03   -0.52514E-02   -0.64621E-04  6793   0.615E-02    0.821E-01
RMM:  14    -0.281767376146E+03   -0.70629E-03   -0.63118E-04  6866   0.603E-02    0.117E+00
RMM:  15    -0.281766778443E+03    0.59770E-03   -0.23383E-04  6645   0.367E-02    0.138E+00
RMM:  16    -0.281767580671E+03   -0.80223E-03   -0.70458E-05  5772   0.214E-02    0.174E+00
RMM:  17    -0.281768570951E+03   -0.99028E-03   -0.87233E-05  6163   0.226E-02    0.214E+00
RMM:  18    -0.281767393100E+03    0.11779E-02   -0.10252E-04  5756   0.248E-02    0.233E+00
RMM:  19    -0.281766924155E+03    0.46895E-03   -0.41179E-05  4864   0.163E-02    0.248E+00
RMM:  20    -0.281766385460E+03    0.53870E-03   -0.20680E-05  4583   0.114E-02    0.257E+00
RMM:  21    -0.281766350445E+03    0.35015E-04   -0.93223E-06  4241   0.821E-03    0.267E+00
RMM:  22    -0.281765726732E+03    0.62371E-03   -0.10079E-05  4304   0.803E-03    0.270E+00
RMM:  23    -0.281766760228E+03   -0.10335E-02   -0.13616E-05  4307   0.948E-03    0.284E+00
RMM:  24    -0.281767848513E+03   -0.10883E-02   -0.27104E-05  5099   0.106E-02    0.302E+00
RMM:  25    -0.281767281765E+03    0.56675E-03   -0.16588E-05  4385   0.102E-02    0.312E+00
RMM:  26    -0.281767378398E+03   -0.96633E-04   -0.94574E-06  4212   0.805E-03    0.323E+00
RMM:  27    -0.281766885767E+03    0.49263E-03   -0.77904E-06  4194   0.723E-03    0.328E+00
RMM:  28    -0.281766237142E+03    0.64863E-03   -0.53175E-06  4001   0.537E-03    0.329E+00
RMM:  29    -0.281766518132E+03   -0.28099E-03   -0.14300E-06  3512   0.345E-03    0.333E+00
RMM:  30    -0.281766258665E+03    0.25947E-03   -0.12099E-06  3535   0.328E-03    0.335E+00
RMM:  31    -0.281766532080E+03   -0.27342E-03   -0.90194E-07  3455   0.286E-03    0.338E+00
RMM:  32    -0.281765976567E+03    0.55551E-03   -0.18124E-06  3508   0.381E-03    0.337E+00
RMM:  33    -0.281757158975E+03    0.88176E-02   -0.76682E-04  7637   0.479E-02    0.271E+00
RMM:  34    -0.281754832866E+03    0.23261E-02   -0.63187E-04  7544   0.526E-02    0.171E+00
RMM:  35    -0.281759322264E+03   -0.44894E-02   -0.47780E-04  6674   0.536E-02    0.789E-01
RMM:  36    -0.281763561880E+03   -0.42396E-02   -0.47420E-04  6654   0.533E-02    0.125E-01
RMM:  37    -0.281766770097E+03   -0.32082E-02   -0.44983E-04  6543   0.518E-02    0.870E-01
RMM:  38    -0.281767411253E+03   -0.64116E-03   -0.40103E-04  6606   0.478E-02    0.131E+00
RMM:  39    -0.281767020509E+03    0.39074E-03   -0.20230E-04  6362   0.343E-02    0.158E+00
RMM:  40    -0.281766889433E+03    0.13108E-03   -0.79378E-05  5390   0.219E-02    0.182E+00
RMM:  41    -0.281766237582E+03    0.65185E-03   -0.54483E-05  5288   0.173E-02    0.195E+00
RMM:  42    -0.281765942659E+03    0.29492E-03   -0.17696E-05  4509   0.105E-02    0.204E+00
RMM:  43    -0.281765436901E+03    0.50576E-03   -0.11938E-05  4397   0.790E-03    0.206E+00
RMM:  44    -0.281764971694E+03    0.46521E-03   -0.63440E-06  4203   0.518E-03    0.202E+00
RMM:  45    -0.281765149724E+03   -0.17803E-03   -0.15787E-06  3559   0.346E-03    0.202E+00
RMM:  46    -0.281764811475E+03    0.33825E-03   -0.24523E-06  3369   0.358E-03    0.198E+00
RMM:  47    -0.281765420934E+03   -0.60946E-03   -0.88577E-06  3658   0.760E-03    0.203E+00
RMM:  48    -0.281765373072E+03    0.47862E-04   -0.14412E-06  3276   0.338E-03    0.206E+00
RMM:  49    -0.281765289639E+03    0.83434E-04   -0.54608E-07  2614   0.239E-03    0.207E+00
RMM:  50    -0.281765253130E+03    0.36508E-04   -0.23487E-07  2299   0.187E-03    0.208E+00
RMM:  51    -0.281765058072E+03    0.19506E-03   -0.87379E-07  3081   0.262E-03    0.207E+00
RMM:  52    -0.281765295056E+03   -0.23698E-03   -0.21032E-06  3716   0.321E-03    0.209E+00
RMM:  53    -0.281765043828E+03    0.25123E-03   -0.84439E-07  3125   0.256E-03    0.207E+00
RMM:  54    -0.281764650919E+03    0.39291E-03   -0.32376E-06  3951   0.371E-03    0.199E+00
RMM:  55    -0.281764209395E+03    0.44152E-03   -0.76682E-06  4331   0.559E-03    0.186E+00
RMM:  56    -0.281763782063E+03    0.42733E-03   -0.16441E-05  4749   0.835E-03    0.165E+00
RMM:  57    -0.281763585301E+03    0.19676E-03   -0.29842E-05  5162   0.118E-02    0.139E+00
RMM:  58    -0.281764009833E+03   -0.42453E-03   -0.32023E-05  4679   0.136E-02    0.116E+00
RMM:  59    -0.281764357621E+03   -0.34779E-03   -0.29412E-05  4721   0.132E-02    0.938E-01
RMM:  60    -0.281764571139E+03   -0.21352E-03   -0.33961E-05  4947   0.141E-02
   8 F= -.28176457E+03 E0= -.28176134E+03  d E =-.102786E-01  mag=    23.9972
 curvature:  -0.15 expect dE=-0.104E-01 dE for cont linesearch -0.355E-05
 trial: gam= 0.07520 g(F)=  0.703E-01 g(S)=  0.000E+00 ort = 0.231E-02 (trialstep = 0.496E+00)
 search vector abs. value=  0.719E-01
 bond charge predicted
       N       E                     dE             d eps       ncg     rms          rms(c)
DAV:   1    -0.281713518767E+03    0.50839E-01   -0.45398E+00 10124   0.129E+01    0.154E+00
RMM:   2    -0.281819001916E+03   -0.10548E+00   -0.70947E-01  9481   0.238E+00    0.475E+00
RMM:   3    -0.281791135471E+03    0.27866E-01   -0.62506E-02  8025   0.669E-01    0.326E+00
RMM:   4    -0.281772845235E+03    0.18290E-01   -0.41485E-02  8409   0.407E-01    0.167E+00
RMM:   5    -0.281787703326E+03   -0.14858E-01   -0.28210E-02  8138   0.361E-01    0.590E-01
RMM:   6    -0.281786931339E+03    0.77199E-03   -0.38098E-03  8398   0.129E-01    0.604E-01
RMM:   7    -0.281788637005E+03   -0.17057E-02   -0.79009E-04  7686   0.688E-02    0.110E+00
RMM:   8    -0.281785570088E+03    0.30669E-02   -0.30759E-03  7936   0.120E-01    0.349E-01
RMM:   9    -0.281787405262E+03   -0.18352E-02   -0.10895E-03  7794   0.648E-02    0.800E-01
RMM:  10    -0.281787663324E+03   -0.25806E-03   -0.73484E-04  6986   0.638E-02    0.990E-01
RMM:  11    -0.281786637219E+03    0.10261E-02   -0.22997E-04  6903   0.342E-02    0.963E-01
RMM:  12    -0.281786072374E+03    0.56485E-03   -0.65701E-05  6574   0.163E-02    0.818E-01
RMM:  13    -0.281785435440E+03    0.63693E-03   -0.51160E-04  7457   0.413E-02    0.658E-02
RMM:  14    -0.281787594257E+03   -0.21588E-02   -0.25094E-04  6934   0.377E-02    0.707E-01
RMM:  15    -0.281788112765E+03   -0.51851E-03   -0.33476E-04  6644   0.438E-02    0.105E+00
RMM:  16    -0.281787874886E+03    0.23788E-03   -0.14220E-04  6119   0.296E-02    0.129E+00
RMM:  17    -0.281787608624E+03    0.26626E-03   -0.58597E-05  5181   0.193E-02    0.147E+00
RMM:  18    -0.281787498790E+03    0.10983E-03   -0.28157E-05  4684   0.134E-02    0.163E+00
RMM:  19    -0.281787020957E+03    0.47783E-03   -0.23590E-05  4615   0.119E-02    0.171E+00
RMM:  20    -0.281786834868E+03    0.18609E-03   -0.90004E-06  4184   0.759E-03    0.178E+00
RMM:  21    -0.281786755631E+03    0.79237E-04   -0.44602E-06  4061   0.569E-03    0.185E+00
RMM:  22    -0.281786405005E+03    0.35063E-03   -0.46613E-06  4074   0.529E-03    0.186E+00
RMM:  23    -0.281786764652E+03   -0.35965E-03   -0.62558E-06  4195   0.659E-03    0.194E+00
RMM:  24    -0.281787251006E+03   -0.48635E-03   -0.12327E-05  4352   0.726E-03    0.206E+00
RMM:  25    -0.281786864182E+03    0.38682E-03   -0.75245E-06  4040   0.727E-03    0.212E+00
RMM:  26    -0.281786731200E+03    0.13298E-03   -0.33417E-06  3875   0.501E-03    0.217E+00
RMM:  27    -0.281786682981E+03    0.48219E-04   -0.19293E-06  3672   0.365E-03    0.221E+00
RMM:  28    -0.281786697376E+03   -0.14395E-04   -0.14349E-06  3579   0.328E-03    0.226E+00
RMM:  29    -0.281786830879E+03   -0.13350E-03   -0.17029E-06  3653   0.344E-03    0.231E+00
RMM:  30    -0.281786441507E+03    0.38937E-03   -0.25275E-06  3727   0.434E-03    0.232E+00
RMM:  31    -0.281785867227E+03    0.57428E-03   -0.44692E-06  3784   0.420E-03    0.228E+00
RMM:  32    -0.281783715006E+03    0.21522E-02   -0.97150E-05  7013   0.168E-02    0.201E+00
RMM:  33    -0.281781928485E+03    0.17865E-02   -0.20190E-04  7186   0.284E-02    0.145E+00
RMM:  34    -0.281782545794E+03   -0.61731E-03   -0.22372E-04  6979   0.344E-02    0.750E-01
RMM:  35    -0.281784773059E+03   -0.22273E-02   -0.23353E-04  6269   0.373E-02    0.112E-01
RMM:  36    -0.281786370978E+03   -0.15979E-02   -0.27010E-04  6539   0.394E-02    0.242E-01
RMM:  37    -0.281786497965E+03   -0.12699E-03   -0.43620E-04  7163   0.427E-02    0.369E-02
RMM:  38    -0.281786867816E+03   -0.36985E-03   -0.14462E-04  6910   0.229E-02    0.373E-01
RMM:  39    -0.281787203158E+03   -0.33534E-03   -0.51438E-05  5026   0.181E-02    0.660E-01
RMM:  40    -0.281787195944E+03    0.72141E-05   -0.45087E-05  4780   0.175E-02
   9 F= -.28178720E+03 E0= -.28178502E+03  d E =-.226248E-01  mag=    24.0101
 trial-energy change:   -0.022625  1 .order   -0.020986   -0.034975   -0.006997
 step:   0.5837(harm=  0.6200)  dis= 0.00787  next Energy=  -281.787824 (dE=-0.233E-01)
 bond charge predicted
       N       E                     dE             d eps       ncg     rms          rms(c)
DAV:   1    -0.281785173213E+03    0.20299E-02   -0.14024E-01 10034   0.230E+00    0.921E-01
RMM:   2    -0.281819426692E+03   -0.34253E-01   -0.69952E-02  8749   0.627E-01    0.481E+00
RMM:   3    -0.281792317882E+03    0.27109E-01   -0.30000E-02  8177   0.363E-01    0.351E+00
RMM:   4    -0.281777525263E+03    0.14793E-01   -0.44181E-03  8583   0.135E-01    0.228E+00
RMM:   5    -0.281778257911E+03   -0.73265E-03   -0.23491E-03  8156   0.101E-01    0.653E-01
RMM:   6    -0.281786959009E+03   -0.87011E-02   -0.11942E-03  7221   0.826E-02    0.719E-01
RMM:   7    -0.281791399059E+03   -0.44400E-02   -0.10899E-03  6858   0.805E-02    0.146E+00
RMM:   8    -0.281791493299E+03   -0.94239E-04   -0.65435E-04  6827   0.610E-02    0.190E+00
RMM:   9    -0.281793418522E+03   -0.19252E-02   -0.26246E-04  6909   0.402E-02    0.247E+00
RMM:  10    -0.281789904729E+03    0.35138E-02   -0.40008E-04  7033   0.451E-02    0.256E+00
RMM:  11    -0.281786375703E+03    0.35290E-02   -0.25397E-04  7183   0.326E-02    0.239E+00
RMM:  12    -0.281783452208E+03    0.29235E-02   -0.26357E-04  7248   0.298E-02    0.195E+00
RMM:  13    -0.281780932875E+03    0.25193E-02   -0.74257E-04  7481   0.532E-02    0.927E-01
RMM:  14    -0.281785449282E+03   -0.45164E-02   -0.10615E-03  7456   0.718E-02    0.644E-01
RMM:  15    -0.281793755457E+03   -0.83062E-02   -0.10129E-03  6819   0.767E-02    0.200E+00
RMM:  16    -0.281795984525E+03   -0.22291E-02   -0.10146E-03  6794   0.762E-02    0.283E+00
RMM:  17    -0.281795057760E+03    0.92676E-03   -0.55502E-04  6691   0.558E-02    0.331E+00
RMM:  18    -0.281793857251E+03    0.12005E-02   -0.23176E-04  6268   0.346E-02    0.359E+00
RMM:  19    -0.281793431868E+03    0.42538E-03   -0.74942E-05  5316   0.206E-02    0.378E+00
RMM:  20    -0.281790466855E+03    0.29650E-02   -0.70883E-05  6543   0.178E-02    0.373E+00
RMM:  21    -0.281780003890E+03    0.10463E-01   -0.95395E-04  7525   0.566E-02    0.290E+00
RMM:  22    -0.281776801650E+03    0.32022E-02   -0.11392E-03  7615   0.686E-02    0.160E+00
RMM:  23    -0.281782087971E+03   -0.52863E-02   -0.81007E-04  7136   0.669E-02    0.362E-01
RMM:  24    -0.281787952724E+03   -0.58648E-02   -0.70848E-04  6735   0.651E-02    0.631E-01
RMM:  25    -0.281790044821E+03   -0.20921E-02   -0.63685E-04  6746   0.611E-02    0.116E+00
RMM:  26    -0.281788895087E+03    0.11497E-02   -0.46540E-04  6875   0.492E-02    0.130E+00
RMM:  27    -0.281787650892E+03    0.12442E-02   -0.16909E-04  6854   0.285E-02    0.126E+00
RMM:  28    -0.281787049065E+03    0.60183E-03   -0.40927E-05  5643   0.130E-02    0.116E+00
RMM:  29    -0.281786706883E+03    0.34218E-03   -0.25834E-05  5082   0.103E-02    0.985E-01
RMM:  30    -0.281786450948E+03    0.25594E-03   -0.52335E-05  6236   0.147E-02    0.696E-01
RMM:  31    -0.281786848747E+03   -0.39780E-03   -0.35623E-05  4724   0.153E-02    0.447E-01
RMM:  32    -0.281787439398E+03   -0.59065E-03   -0.63092E-05  5515   0.188E-02    0.384E-01
RMM:  33    -0.281788011690E+03   -0.57229E-03   -0.11596E-04  6824   0.201E-02    0.567E-01
RMM:  34    -0.281788424997E+03   -0.41331E-03   -0.43944E-05  5650   0.139E-02    0.817E-01
RMM:  35    -0.281788097454E+03    0.32754E-03   -0.32068E-05  4602   0.143E-02    0.901E-01
RMM:  36    -0.281787884625E+03    0.21283E-03   -0.11878E-05  4178   0.869E-03    0.948E-01
RMM:  37    -0.281787855401E+03    0.29224E-04   -0.33502E-06  3830   0.467E-03    0.100E+00
RMM:  38    -0.281787810191E+03    0.45210E-04   -0.20830E-06  3718   0.384E-03    0.104E+00
RMM:  39    -0.281787771677E+03    0.38514E-04   -0.13662E-06  3542   0.320E-03    0.108E+00
RMM:  40    -0.281787762362E+03    0.93144E-05   -0.86125E-07  3210   0.269E-03
  10 F= -.28178776E+03 E0= -.28178591E+03  d E =-.231912E-01  mag=    24.0177
 curvature:  -0.29 expect dE=-0.736E-02 dE for cont linesearch -0.695E-04
 trial: gam= 0.29244 g(F)=  0.254E-01 g(S)=  0.000E+00 ort = 0.416E-02 (trialstep = 0.514E+00)
 search vector abs. value=  0.340E-01
 bond charge predicted
       N       E                     dE             d eps       ncg     rms          rms(c)
DAV:   1    -0.281770683397E+03    0.17088E-01   -0.20828E+00  8926   0.705E+00    0.152E+00
RMM:   2    -0.281851316116E+03   -0.80633E-01   -0.29478E-01  9414   0.153E+00    0.648E+00
RMM:   3    -0.281795401113E+03    0.55915E-01   -0.64530E-02  8160   0.574E-01    0.408E+00
RMM:   4    -0.281769136612E+03    0.26265E-01   -0.15181E-02  8192   0.261E-01    0.107E+00
RMM:   5    -0.281792151491E+03   -0.23015E-01   -0.52800E-03  8264   0.172E-01    0.137E+00
RMM:   6    -0.281799644184E+03   -0.74927E-02   -0.45216E-03  7407   0.156E-01    0.202E+00
RMM:   7    -0.281793328663E+03    0.63155E-02   -0.29477E-03  7558   0.116E-01    0.182E+00
RMM:   8    -0.281786916914E+03    0.64117E-02   -0.43735E-03  8091   0.124E-01    0.285E-01
RMM:   9    -0.281796012043E+03   -0.90951E-02   -0.12940E-03  7691   0.837E-02    0.152E+00
RMM:  10    -0.281795345008E+03    0.66703E-03   -0.27477E-03  7396   0.120E-01    0.176E+00
RMM:  11    -0.281789416954E+03    0.59281E-02   -0.21190E-03  7635   0.942E-02    0.965E-01
RMM:  12    -0.281790751358E+03   -0.13344E-02   -0.76862E-04  7515   0.554E-02    0.149E-01
RMM:  13    -0.281794456695E+03   -0.37053E-02   -0.44911E-04  6704   0.520E-02    0.930E-01
RMM:  14    -0.281794544661E+03   -0.87966E-04   -0.46399E-04  6748   0.514E-02    0.125E+00
RMM:  15    -0.281794429747E+03    0.11491E-03   -0.14441E-04  6118   0.297E-02    0.152E+00
RMM:  16    -0.281794314056E+03    0.11569E-03   -0.61576E-05  5139   0.201E-02    0.174E+00
RMM:  17    -0.281794097692E+03    0.21636E-03   -0.38393E-05  4853   0.155E-02    0.191E+00
RMM:  18    -0.281793848659E+03    0.24903E-03   -0.22457E-05  4589   0.120E-02    0.204E+00
RMM:  19    -0.281793658820E+03    0.18984E-03   -0.13272E-05  4318   0.923E-03    0.214E+00
RMM:  20    -0.281793498586E+03    0.16023E-03   -0.81376E-06  4231   0.738E-03    0.222E+00
RMM:  21    -0.281793291752E+03    0.20683E-03   -0.51345E-06  4064   0.580E-03    0.227E+00
RMM:  22    -0.281793187456E+03    0.10430E-03   -0.26798E-06  3835   0.438E-03    0.232E+00
RMM:  23    -0.281793196205E+03   -0.87496E-05   -0.15494E-06  3617   0.350E-03
  11 F= -.28179320E+03 E0= -.28179326E+03  d E =-.543384E-02  mag=    24.0225
 trial-energy change:   -0.005434  1 .order   -0.005946   -0.013684    0.001792
 step:   0.4418(harm=  0.4541)  dis= 0.00563  next Energy=  -281.793323 (dE=-0.556E-02)
 bond charge predicted
       N       E                     dE             d eps       ncg     rms          rms(c)
DAV:   1    -0.281792822170E+03    0.36529E-03   -0.40598E-02  9104   0.982E-01    0.238E+00
RMM:   2    -0.282005984842E+03   -0.21316E+00   -0.32670E-01  8369   0.108E+00    0.108E+01
RMM:   3    -0.281852228134E+03    0.15376E+00   -0.17286E-01  8390   0.814E-01    0.752E+00
RMM:   4    -0.281782829946E+03    0.69398E-01   -0.24522E-02  8575   0.307E-01    0.541E+00
RMM:   5    -0.281764788462E+03    0.18041E-01   -0.10560E-02  8768   0.199E-01    0.303E+00
RMM:   6    -0.281777387065E+03   -0.12599E-01   -0.31724E-03  7816   0.123E-01    0.133E+00
RMM:   7    -0.281788262074E+03   -0.10875E-01   -0.15026E-03  7032   0.933E-02    0.314E-01
RMM:   8    -0.281792762543E+03   -0.45005E-02   -0.79529E-04  6845   0.686E-02    0.359E-01
RMM:   9    -0.281794543989E+03   -0.17814E-02   -0.36465E-04  6562   0.473E-02    0.894E-01
RMM:  10    -0.281795246774E+03   -0.70279E-03   -0.22289E-04  6240   0.366E-02    0.133E+00
RMM:  11    -0.281795298559E+03   -0.51785E-04   -0.14081E-04  5891   0.302E-02    0.166E+00
RMM:  12    -0.281795735735E+03   -0.43718E-03   -0.84752E-05  5448   0.235E-02    0.199E+00
RMM:  13    -0.281795159571E+03    0.57616E-03   -0.71793E-05  5314   0.213E-02    0.219E+00
RMM:  14    -0.281794811116E+03    0.34846E-03   -0.37233E-05  4841   0.156E-02    0.234E+00
RMM:  15    -0.281794450929E+03    0.36019E-03   -0.19443E-05  4595   0.113E-02    0.244E+00
RMM:  16    -0.281794259215E+03    0.19171E-03   -0.10300E-05  4333   0.844E-03    0.253E+00
RMM:  17    -0.281794188770E+03    0.70445E-04   -0.58367E-06  4143   0.649E-03    0.260E+00
RMM:  18    -0.281794371463E+03   -0.18269E-03   -0.43206E-06  4034   0.571E-03    0.268E+00
RMM:  19    -0.281793524450E+03    0.84701E-03   -0.72362E-06  4230   0.701E-03    0.268E+00
RMM:  20    -0.281790632170E+03    0.28923E-02   -0.88315E-05  6901   0.155E-02    0.244E+00
RMM:  21    -0.281787707857E+03    0.29243E-02   -0.20735E-04  7195   0.281E-02    0.191E+00
RMM:  22    -0.281787475016E+03    0.23284E-03   -0.23797E-04  7046   0.348E-02    0.121E+00
RMM:  23    -0.281789700034E+03   -0.22250E-02   -0.22387E-04  6363   0.369E-02    0.603E-01
RMM:  24    -0.281791685753E+03   -0.19857E-02   -0.21573E-04  6117   0.363E-02    0.182E-01
RMM:  25    -0.281792675134E+03   -0.98938E-03   -0.16196E-04  6363   0.304E-02    0.248E-02
RMM:  26    -0.281792948010E+03   -0.27288E-03   -0.65250E-05  5573   0.191E-02    0.117E-01
RMM:  27    -0.281792997684E+03   -0.49674E-04   -0.22277E-05  4707   0.112E-02    0.149E-01
RMM:  28    -0.281793013844E+03   -0.16160E-04   -0.18095E-05  4875   0.850E-03    0.869E-02
RMM:  29    -0.281793132749E+03   -0.11891E-03   -0.26647E-05  5356   0.900E-03    0.966E-02
RMM:  30    -0.281793248298E+03   -0.11555E-03   -0.11137E-05  4151   0.863E-03    0.227E-01
RMM:  31    -0.281793269671E+03   -0.21372E-04   -0.91382E-06  4094   0.795E-03    0.315E-01
RMM:  32    -0.281793213837E+03    0.55833E-04   -0.63576E-06  4070   0.647E-03    0.354E-01
RMM:  33    -0.281793173100E+03    0.40738E-04   -0.25793E-06  3884   0.392E-03    0.377E-01
RMM:  34    -0.281793171715E+03    0.13847E-05   -0.71990E-07  2980   0.243E-03
  12 F= -.28179317E+03 E0= -.28179070E+03  d E =-.540935E-02  mag=    24.0307
 curvature:  -0.28 expect dE=-0.278E-02 dE for cont linesearch -0.533E-05
 trial: gam= 0.49313 g(F)=  0.100E-01 g(S)=  0.000E+00 ort =-0.808E-03 (trialstep = 0.499E+00)
 search vector abs. value=  0.175E-01
 bond charge predicted
       N       E                     dE             d eps       ncg     rms          rms(c)
DAV:   1    -0.281784672360E+03    0.85007E-02   -0.11309E+00  8754   0.506E+00    0.669E-01
RMM:   2    -0.281801188388E+03   -0.16516E-01   -0.11297E-01  9465   0.988E-01    0.206E+00
RMM:   3    -0.281794777592E+03    0.64108E-02   -0.12598E-02  8270   0.271E-01    0.928E-01
RMM:   4    -0.281797448309E+03   -0.26707E-02   -0.51174E-03  8128   0.157E-01    0.127E+00
RMM:   5    -0.281798633994E+03   -0.11857E-02   -0.32414E-03  7699   0.132E-01    0.133E+00
RMM:   6    -0.281795170344E+03    0.34636E-02   -0.13077E-03  7586   0.752E-02    0.893E-01
RMM:   7    -0.281795120919E+03    0.49425E-04   -0.18282E-03  7954   0.805E-02    0.471E-01
RMM:   8    -0.281799329019E+03   -0.42081E-02   -0.80772E-04  7261   0.681E-02    0.133E+00
RMM:   9    -0.281796556924E+03    0.27721E-02   -0.11455E-03  7421   0.789E-02    0.123E+00
RMM:  10    -0.281794278717E+03    0.22782E-02   -0.73684E-04  7367   0.514E-02    0.527E-01
RMM:  11    -0.281795907632E+03   -0.16289E-02   -0.28976E-04  7086   0.390E-02    0.220E-01
RMM:  12    -0.281796960559E+03   -0.10529E-02   -0.32099E-04  6731   0.421E-02    0.458E-01
RMM:  13    -0.281796441184E+03    0.51938E-03   -0.24526E-04  6947   0.336E-02    0.342E-01
RMM:  14    -0.281796231305E+03    0.20988E-03   -0.13187E-04  6925   0.213E-02    0.215E-02
RMM:  15    -0.281796696942E+03   -0.46564E-03   -0.70320E-05  6412   0.189E-02    0.392E-01
RMM:  16    -0.281796771705E+03   -0.74763E-04   -0.99136E-05  5894   0.235E-02    0.532E-01
RMM:  17    -0.281796444109E+03    0.32760E-03   -0.71376E-05  6261   0.183E-02    0.484E-01
RMM:  18    -0.281796255964E+03    0.18815E-03   -0.46942E-05  5884   0.128E-02    0.297E-01
RMM:  19    -0.281796398086E+03   -0.14212E-03   -0.28679E-05  4852   0.117E-02    0.523E-02
RMM:  20    -0.281796686061E+03   -0.28798E-03   -0.26713E-05  4731   0.129E-02    0.182E-01
RMM:  21    -0.281796821085E+03   -0.13502E-03   -0.26199E-05  4469   0.131E-02    0.344E-01
RMM:  22    -0.281796779397E+03    0.41688E-04   -0.19704E-05  4454   0.113E-02    0.440E-01
RMM:  23    -0.281796716020E+03    0.63377E-04   -0.97833E-06  4191   0.768E-03    0.508E-01
RMM:  24    -0.281796687117E+03    0.28903E-04   -0.43784E-06  3962   0.537E-03    0.570E-01
RMM:  25    -0.281796633579E+03    0.53539E-04   -0.31151E-06  3931   0.455E-03    0.612E-01
RMM:  26    -0.281796605856E+03    0.27723E-04   -0.15716E-06  3633   0.341E-03    0.649E-01
RMM:  27    -0.281796577446E+03    0.28410E-04   -0.10464E-06  3476   0.292E-03    0.679E-01
RMM:  28    -0.281796553469E+03    0.23977E-04   -0.68605E-07  3035   0.251E-03    0.702E-01
RMM:  29    -0.281796535695E+03    0.17775E-04   -0.44453E-07  2806   0.225E-03    0.722E-01
RMM:  30    -0.281796514273E+03    0.21421E-04   -0.33274E-07  2587   0.203E-03    0.736E-01
RMM:  31    -0.281796501596E+03    0.12677E-04   -0.21135E-07  2150   0.175E-03    0.748E-01
RMM:  32    -0.281796488550E+03    0.13046E-04   -0.16239E-07  2042   0.169E-03    0.757E-01
RMM:  33    -0.281796466639E+03    0.21912E-04   -0.16354E-07  1921   0.162E-03    0.759E-01
RMM:  34    -0.281796423187E+03    0.43452E-04   -0.32194E-07  2150   0.177E-03    0.748E-01
RMM:  35    -0.281796389144E+03    0.34042E-04   -0.38167E-07  2044   0.171E-03    0.726E-01
RMM:  36    -0.281796393023E+03   -0.38786E-05   -0.34630E-07  2213   0.186E-03
  13 F= -.28179639E+03 E0= -.28179424E+03  d E =-.322131E-02  mag=    24.0341
 trial-energy change:   -0.003221  1 .order   -0.003061   -0.004797   -0.001326
 step:   0.6399(harm=  0.6899)  dis= 0.00664  next Energy=  -281.796583 (dE=-0.341E-02)
 bond charge predicted
       N       E                     dE             d eps       ncg     rms          rms(c)
DAV:   1    -0.281795728118E+03    0.66103E-03   -0.89876E-02  8830   0.143E+00    0.694E-01
RMM:   2    -0.281816359380E+03   -0.20631E-01   -0.33100E-02  8936   0.435E-01    0.383E+00
RMM:   3    -0.281800049877E+03    0.16310E-01   -0.17601E-02  8060   0.275E-01    0.290E+00
RMM:   4    -0.281791039426E+03    0.90105E-02   -0.23873E-03  8250   0.991E-02    0.209E+00
RMM:   5    -0.281790513753E+03    0.52567E-03   -0.10076E-03  8021   0.658E-02    0.105E+00
RMM:   6    -0.281794135449E+03   -0.36217E-02   -0.64754E-04  7267   0.591E-02    0.813E-02
RMM:   7    -0.281797902649E+03   -0.37672E-02   -0.57289E-04  6697   0.585E-02    0.725E-01
RMM:   8    -0.281798613654E+03   -0.71101E-03   -0.44007E-04  6750   0.503E-02    0.109E+00
RMM:   9    -0.281798073752E+03    0.53990E-03   -0.22168E-04  6694   0.352E-02    0.128E+00
RMM:  10    -0.281799408881E+03   -0.13351E-02   -0.13159E-04  6991   0.268E-02    0.171E+00
RMM:  11    -0.281796814148E+03    0.25947E-02   -0.29788E-04  7097   0.366E-02    0.163E+00
RMM:  12    -0.281795047747E+03    0.17664E-02   -0.13526E-04  6985   0.226E-02    0.134E+00
RMM:  13    -0.281794446242E+03    0.60150E-03   -0.11923E-04  7051   0.219E-02    0.884E-01
RMM:  14    -0.281794920733E+03   -0.47449E-03   -0.35920E-04  7241   0.397E-02    0.531E-02
RMM:  15    -0.281798104001E+03   -0.31833E-02   -0.39271E-04  7008   0.472E-02    0.914E-01
RMM:  16    -0.281800126311E+03   -0.20223E-02   -0.40590E-04  6547   0.494E-02    0.160E+00
RMM:  17    -0.281799198895E+03    0.92742E-03   -0.36473E-04  6617   0.462E-02    0.191E+00
RMM:  18    -0.281798304394E+03    0.89450E-03   -0.14001E-04  6111   0.277E-02    0.208E+00
RMM:  19    -0.281797698920E+03    0.60547E-03   -0.43608E-05  5123   0.161E-02    0.219E+00
RMM:  20    -0.281797508302E+03    0.19062E-03   -0.12616E-05  4369   0.921E-03    0.227E+00
RMM:  21    -0.281796711203E+03    0.79710E-03   -0.16626E-05  4552   0.925E-03    0.226E+00
RMM:  22    -0.281795476985E+03    0.12342E-02   -0.42835E-05  5918   0.109E-02    0.209E+00
RMM:  23    -0.281794480325E+03    0.99666E-03   -0.57505E-05  6424   0.147E-02    0.179E+00
RMM:  24    -0.281793648663E+03    0.83166E-03   -0.15210E-04  7009   0.252E-02    0.129E+00
RMM:  25    -0.281794309823E+03   -0.66116E-03   -0.16563E-04  6840   0.302E-02    0.707E-01
RMM:  26    -0.281795800143E+03   -0.14903E-02   -0.15385E-04  5925   0.311E-02    0.223E-01
RMM:  27    -0.281796864681E+03   -0.10645E-02   -0.13022E-04  5616   0.283E-02    0.118E-01
RMM:  28    -0.281797191662E+03   -0.32698E-03   -0.11509E-04  6137   0.250E-02    0.260E-01
RMM:  29    -0.281797092389E+03    0.99274E-04   -0.52692E-05  5500   0.168E-02    0.289E-01
RMM:  30    -0.281796943101E+03    0.14929E-03   -0.33355E-05  5356   0.113E-02    0.215E-01
RMM:  31    -0.281796953814E+03   -0.10713E-04   -0.44860E-06  3921   0.521E-03    0.156E-01
RMM:  32    -0.281797008274E+03   -0.54460E-04   -0.25476E-06  3644   0.472E-03    0.151E-01
RMM:  33    -0.281797050071E+03   -0.41797E-04   -0.22549E-06  3586   0.341E-03    0.188E-01
RMM:  34    -0.281797057352E+03   -0.72813E-05   -0.56589E-07  2837   0.222E-03
  14 F= -.28179706E+03 E0= -.28179447E+03  d E =-.388564E-02  mag=    24.0360
 curvature:  -0.58 expect dE=-0.363E-02 dE for cont linesearch -0.366E-04
 trial: gam= 0.35421 g(F)=  0.621E-02 g(S)=  0.000E+00 ort = 0.105E-02 (trialstep = 0.527E+00)
 search vector abs. value=  0.915E-02
 bond charge predicted
       N       E                     dE             d eps       ncg     rms          rms(c)
DAV:   1    -0.281793371581E+03    0.36785E-02   -0.60503E-01  8680   0.328E+00    0.403E-01
RMM:   2    -0.281800756578E+03   -0.73850E-02   -0.51392E-02  9337   0.636E-01    0.139E+00
RMM:   3    -0.281797978628E+03    0.27779E-02   -0.50590E-03  8043   0.174E-01    0.817E-01
RMM:   4    -0.281797829925E+03    0.14870E-03   -0.26024E-03  8025   0.107E-01    0.657E-01
RMM:   5    -0.281798985678E+03   -0.11558E-02   -0.15104E-03  7555   0.890E-02    0.661E-01
RMM:   6    -0.281797813651E+03    0.11720E-02   -0.65071E-04  7397   0.526E-02    0.268E-01
RMM:   7    -0.281798502114E+03   -0.68846E-03   -0.42822E-04  7448   0.404E-02    0.455E-01
RMM:   8    -0.281799019809E+03   -0.51770E-03   -0.34865E-04  6872   0.433E-02    0.695E-01
RMM:   9    -0.281798193472E+03    0.82634E-03   -0.22101E-04  6919   0.334E-02    0.581E-01
RMM:  10    -0.281797782583E+03    0.41089E-03   -0.16632E-04  7091   0.235E-02    0.201E-01
RMM:  11    -0.281798305130E+03   -0.52255E-03   -0.70639E-05  6231   0.198E-02    0.186E-01
RMM:  12    -0.281798601605E+03   -0.29648E-03   -0.82234E-05  5544   0.224E-02    0.342E-01
RMM:  13    -0.281798439261E+03    0.16234E-03   -0.59272E-05  5853   0.172E-02    0.347E-01
RMM:  14    -0.281798250215E+03    0.18905E-03   -0.44284E-05  5883   0.128E-02    0.212E-01
RMM:  15    -0.281798291350E+03   -0.41136E-04   -0.47823E-05  6066   0.129E-02    0.585E-02
RMM:  16    -0.281798506039E+03   -0.21469E-03   -0.25653E-05  4435   0.127E-02    0.225E-01
RMM:  17    -0.281798470026E+03    0.36013E-04   -0.26362E-05  4685   0.127E-02    0.270E-01
RMM:  18    -0.281798413902E+03    0.56125E-04   -0.78842E-06  4165   0.648E-03    0.284E-01
RMM:  19    -0.281798403997E+03    0.99042E-05   -0.15617E-06  3437   0.321E-03
  15 F= -.28179840E+03 E0= -.28179545E+03  d E =-.134665E-02  mag=    24.0353
 trial-energy change:   -0.001347  1 .order   -0.001313   -0.003471    0.000845
 step:   0.4241(harm=  0.4241)  dis= 0.00265  next Energy=  -281.798453 (dE=-0.140E-02)
 bond charge predicted
       N       E                     dE             d eps       ncg     rms          rms(c)
DAV:   1    -0.281798286712E+03    0.12719E-03   -0.23203E-02  8844   0.647E-01    0.328E-01
RMM:   2    -0.281802833588E+03   -0.45469E-02   -0.75487E-03  8774   0.199E-01    0.179E+00
RMM:   3    -0.281799360942E+03    0.34726E-02   -0.38896E-03  7682   0.130E-01    0.141E+00
RMM:   4    -0.281796996629E+03    0.23643E-02   -0.66003E-04  7679   0.510E-02    0.108E+00
RMM:   5    -0.281796584303E+03    0.41233E-03   -0.27875E-04  7644   0.337E-02    0.586E-01
RMM:   6    -0.281797507545E+03   -0.92324E-03   -0.18343E-04  7046   0.309E-02    0.675E-02
RMM:   7    -0.281798837002E+03   -0.13295E-02   -0.20314E-04  6267   0.349E-02    0.460E-01
RMM:   8    -0.281798746025E+03    0.90977E-04   -0.19013E-04  6645   0.323E-02    0.548E-01
RMM:   9    -0.281798443040E+03    0.30298E-03   -0.59354E-05  5922   0.173E-02    0.528E-01
RMM:  10    -0.281798222157E+03    0.22088E-03   -0.30036E-05  5291   0.106E-02    0.406E-01
RMM:  11    -0.281798218465E+03    0.36921E-05   -0.18465E-05  4491   0.951E-03
  16 F= -.28179822E+03 E0= -.28179531E+03  d E =-.116111E-02  mag=    24.0347
 curvature:  -0.29 expect dE=-0.958E-03 dE for cont linesearch -0.699E-08
 trial: gam= 0.61972 g(F)=  0.325E-02 g(S)=  0.000E+00 ort =-0.147E-04 (trialstep = 0.507E+00)
 search vector abs. value=  0.675E-02
 bond charge predicted
       N       E                     dE             d eps       ncg     rms          rms(c)
DAV:   1    -0.281794847282E+03    0.33749E-02   -0.43670E-01  9176   0.321E+00    0.359E-01
RMM:   2    -0.281800465323E+03   -0.56180E-02   -0.44700E-02  9489   0.610E-01    0.904E-01
RMM:   3    -0.281799114943E+03    0.13504E-02   -0.37259E-03  7853   0.157E-01    0.333E-01
RMM:   4    -0.281799923377E+03   -0.80843E-03   -0.10227E-03  7907   0.678E-02    0.591E-01
RMM:   5    -0.281799591102E+03    0.33227E-03   -0.96385E-04  7459   0.698E-02    0.398E-01
RMM:   6    -0.281799307937E+03    0.28317E-03   -0.16239E-04  7151   0.262E-02    0.160E-01
RMM:   7    -0.281799467235E+03   -0.15930E-03   -0.45201E-05  5584   0.172E-02    0.521E-02
RMM:   8    -0.281799508672E+03   -0.41437E-04   -0.59150E-05  6165   0.179E-02    0.175E-02
RMM:   9    -0.281799511020E+03   -0.23479E-05   -0.85232E-06  4510   0.866E-03
  17 F= -.28179951E+03 E0= -.28179671E+03  d E =-.129256E-02  mag=    24.0325
 trial-energy change:   -0.001293  1 .order   -0.001194   -0.001643   -0.000745
 step:   0.7231(harm=  0.9265)  dis= 0.00293  next Energy=  -281.799678 (dE=-0.146E-02)
 bond charge predicted
       N       E                     dE             d eps       ncg     rms          rms(c)
DAV:   1    -0.281798886406E+03    0.62227E-03   -0.79597E-02  9270   0.137E+00    0.139E-01
RMM:   2    -0.281799716894E+03   -0.83049E-03   -0.77911E-03  9148   0.256E-01    0.158E-01
RMM:   3    -0.281799706133E+03    0.10760E-04   -0.52241E-04  7946   0.582E-02    0.155E-01
RMM:   4    -0.281799702061E+03    0.40724E-05   -0.74232E-05  6424   0.214E-02
  18 F= -.28179970E+03 E0= -.28179693E+03  d E =-.148360E-02  mag=    24.0318
 curvature:  -0.74 expect dE=-0.220E-02 dE for cont linesearch -0.459E-04
 ZBRENT: increasing intervall
 opt :   1.1559  next Energy=  -281.799627 (dE=-0.141E-02)
 bond charge predicted
       N       E                     dE             d eps       ncg     rms          rms(c)
DAV:   1    -0.281796339690E+03    0.33664E-02   -0.31825E-01  9080   0.273E+00    0.272E-01
RMM:   2    -0.281799531363E+03   -0.31917E-02   -0.30781E-02  9365   0.512E-01    0.228E-01
RMM:   3    -0.281799739858E+03   -0.20850E-03   -0.18818E-03  7903   0.113E-01    0.283E-01
RMM:   4    -0.281799598843E+03    0.14101E-03   -0.23519E-04  7740   0.374E-02    0.157E-01
RMM:   5    -0.281799530451E+03    0.68392E-04   -0.89635E-05  6830   0.215E-02    0.124E-01
RMM:   6    -0.281799564486E+03   -0.34035E-04   -0.38760E-05  5307   0.163E-02    0.161E-01
RMM:   7    -0.281799541078E+03    0.23408E-04   -0.21550E-04  7017   0.296E-02    0.152E-01
RMM:   8    -0.281799655172E+03   -0.11409E-03   -0.45462E-05  5378   0.170E-02    0.319E-01
RMM:   9    -0.281799478168E+03    0.17700E-03   -0.35926E-05  5288   0.153E-02    0.325E-01
RMM:  10    -0.281799379826E+03    0.98342E-04   -0.89707E-06  4338   0.697E-03    0.294E-01
RMM:  11    -0.281799351665E+03    0.28161E-04   -0.30142E-06  3928   0.403E-03    0.250E-01
RMM:  12    -0.281799257104E+03    0.94561E-04   -0.25528E-05  5259   0.948E-03    0.686E-02
RMM:  13    -0.281799384699E+03   -0.12759E-03   -0.17942E-05  4457   0.100E-02    0.138E-01
RMM:  14    -0.281799472773E+03   -0.88074E-04   -0.20130E-05  4368   0.115E-02    0.244E-01
RMM:  15    -0.281799429937E+03    0.42836E-04   -0.13763E-05  4344   0.903E-03    0.280E-01
RMM:  16    -0.281799373289E+03    0.56647E-04   -0.72621E-06  4017   0.565E-03    0.266E-01
RMM:  17    -0.281799335661E+03    0.37628E-04   -0.75332E-05  6740   0.151E-02    0.150E-02
RMM:  18    -0.281799602216E+03   -0.26656E-03   -0.24536E-05  4568   0.125E-02    0.237E-01
RMM:  19    -0.281799761486E+03   -0.15927E-03   -0.27500E-05  4521   0.135E-02    0.441E-01
RMM:  20    -0.281799667917E+03    0.93569E-04   -0.26698E-05  4511   0.129E-02    0.555E-01
RMM:  21    -0.281799625748E+03    0.42169E-04   -0.11371E-05  4237   0.861E-03    0.658E-01
RMM:  22    -0.281799512039E+03    0.11371E-03   -0.87048E-06  4154   0.731E-03    0.720E-01
RMM:  23    -0.281799443446E+03    0.68593E-04   -0.40719E-06  3931   0.501E-03    0.768E-01
RMM:  24    -0.281799376678E+03    0.66768E-04   -0.23948E-06  3794   0.398E-03    0.801E-01
RMM:  25    -0.281799320487E+03    0.56191E-04   -0.12396E-06  3445   0.291E-03    0.823E-01
RMM:  26    -0.281799349767E+03   -0.29281E-04   -0.55186E-07  2884   0.235E-03    0.858E-01
RMM:  27    -0.281799363245E+03   -0.13477E-04   -0.79515E-07  3313   0.273E-03    0.897E-01
RMM:  28    -0.281799297984E+03    0.65261E-04   -0.88641E-07  3411   0.283E-03    0.917E-01
RMM:  29    -0.281799269493E+03    0.28491E-04   -0.36633E-07  2360   0.206E-03    0.935E-01
RMM:  30    -0.281799247076E+03    0.22417E-04   -0.31416E-07  2649   0.200E-03    0.950E-01
RMM:  31    -0.281799235742E+03    0.11334E-04   -0.19054E-07  2124   0.169E-03    0.962E-01
RMM:  32    -0.281799202347E+03    0.33395E-04   -0.17149E-07  2008   0.169E-03    0.968E-01
RMM:  33    -0.281799335551E+03   -0.13320E-03   -0.88680E-07  3303   0.262E-03    0.101E+00
RMM:  34    -0.281799357443E+03   -0.21891E-04   -0.95843E-07  3359   0.275E-03    0.105E+00
RMM:  35    -0.281799317149E+03    0.40294E-04   -0.94707E-07  3248   0.287E-03    0.109E+00
RMM:  36    -0.281799279337E+03    0.37812E-04   -0.70670E-07  3059   0.258E-03    0.112E+00
RMM:  37    -0.281799242283E+03    0.37054E-04   -0.47722E-07  2726   0.230E-03    0.114E+00
RMM:  38    -0.281799218459E+03    0.23824E-04   -0.34685E-07  2576   0.204E-03    0.116E+00
RMM:  39    -0.281799194906E+03    0.23553E-04   -0.25504E-07  2241   0.185E-03    0.117E+00
RMM:  40    -0.281799168671E+03    0.26236E-04   -0.20015E-07  2151   0.175E-03    0.118E+00
RMM:  41    -0.281799207752E+03   -0.39082E-04   -0.19182E-07  2230   0.175E-03    0.120E+00
RMM:  42    -0.281799128493E+03    0.79259E-04   -0.33752E-07  2370   0.202E-03    0.120E+00
RMM:  43    -0.281798846319E+03    0.28217E-03   -0.34043E-06  3497   0.400E-03    0.114E+00
RMM:  44    -0.281798381279E+03    0.46504E-03   -0.19239E-05  4769   0.813E-03    0.963E-01
RMM:  45    -0.281798173408E+03    0.20787E-03   -0.43500E-05  5931   0.131E-02    0.669E-01
RMM:  46    -0.281798475354E+03   -0.30195E-03   -0.56141E-05  5692   0.174E-02    0.309E-01
RMM:  47    -0.281799094644E+03   -0.61929E-03   -0.57948E-05  4897   0.187E-02    0.163E-02
RMM:  48    -0.281799515684E+03   -0.42104E-03   -0.57435E-05  5019   0.186E-02    0.189E-01
RMM:  49    -0.281799548393E+03   -0.32710E-04   -0.47472E-05  5397   0.154E-02    0.230E-01
RMM:  50    -0.281799477810E+03    0.70583E-04   -0.53643E-05  6174   0.136E-02    0.957E-02
RMM:  51    -0.281799606921E+03   -0.12911E-03   -0.20123E-05  4559   0.954E-03    0.100E-01
RMM:  52    -0.281799815644E+03   -0.20872E-03   -0.19164E-05  4466   0.105E-02    0.308E-01
RMM:  53    -0.281799907240E+03   -0.91597E-04   -0.19783E-05  4409   0.112E-02    0.480E-01
RMM:  54    -0.281799833928E+03    0.73313E-04   -0.17803E-05  4370   0.106E-02    0.583E-01
RMM:  55    -0.281799702600E+03    0.13133E-03   -0.10858E-05  4256   0.793E-03    0.635E-01
RMM:  56    -0.281799647622E+03    0.54977E-04   -0.38119E-06  3903   0.465E-03    0.679E-01
RMM:  57    -0.281799536321E+03    0.11130E-03   -0.31503E-06  3887   0.426E-03    0.684E-01
RMM:  58    -0.281799590607E+03   -0.54287E-04   -0.95013E-07  3566   0.305E-03    0.722E-01
RMM:  59    -0.281799616547E+03   -0.25940E-04   -0.89851E-07  3349   0.269E-03    0.767E-01
RMM:  60    -0.281799589019E+03    0.27528E-04   -0.99994E-07  3357   0.289E-03
  19 F= -.28179959E+03 E0= -.28179643E+03  d E =-.137055E-02  mag=    24.0206
 curvature:   1.21 expect dE= 0.543E-02 dE for cont linesearch  0.871E-05
 trial: gam= 1.17007 g(F)=  0.449E-02 g(S)=  0.000E+00 ort =-0.220E-03 (trialstep = 0.325E+00)
 search vector abs. value=  0.132E-01
 bond charge predicted
       N       E                     dE             d eps       ncg     rms          rms(c)
DAV:   1    -0.281796760536E+03    0.28560E-02   -0.32840E-01  8892   0.283E+00    0.905E-01
RMM:   2    -0.281828921274E+03   -0.32161E-01   -0.73586E-02  9333   0.688E-01    0.433E+00
RMM:   3    -0.281808221077E+03    0.20700E-01   -0.24917E-02  8060   0.342E-01    0.331E+00
RMM:   4    -0.281790148649E+03    0.18072E-01   -0.63719E-03  8059   0.157E-01    0.216E+00
RMM:   5    -0.281790263632E+03   -0.11498E-03   -0.27169E-03  8239   0.108E-01    0.485E-01
RMM:   6    -0.281800857712E+03   -0.10594E-01   -0.13660E-03  7101   0.882E-02    0.961E-01
RMM:   7    -0.281804114953E+03   -0.32572E-02   -0.14370E-03  7122   0.922E-02    0.157E+00
RMM:   8    -0.281803801035E+03    0.31392E-03   -0.48443E-04  6795   0.533E-02    0.199E+00
RMM:   9    -0.281803165347E+03    0.63569E-03   -0.25631E-04  6790   0.378E-02    0.227E+00
RMM:  10    -0.281805408341E+03   -0.22430E-02   -0.14584E-04  6929   0.273E-02    0.276E+00
RMM:  11    -0.281810011328E+03   -0.46030E-02   -0.26197E-04  7105   0.351E-02    0.343E+00
RMM:  12    -0.281807983466E+03    0.20279E-02   -0.20511E-04  6267   0.334E-02    0.368E+00
RMM:  13    -0.281808095149E+03   -0.11168E-03   -0.62037E-05  5252   0.193E-02    0.388E+00
RMM:  14    -0.281805413253E+03    0.26819E-02   -0.62331E-05  6156   0.169E-02    0.386E+00
RMM:  15    -0.281799601951E+03    0.58113E-02   -0.21991E-04  7175   0.272E-02    0.350E+00
RMM:  16    -0.281791588669E+03    0.80133E-02   -0.85795E-04  7465   0.562E-02    0.259E+00
RMM:  17    -0.281789692818E+03    0.18959E-02   -0.12404E-03  7627   0.728E-02    0.116E+00
RMM:  18    -0.281796626640E+03   -0.69338E-02   -0.10095E-03  7227   0.753E-02    0.315E-01
RMM:  19    -0.281804270840E+03   -0.76442E-02   -0.92990E-04  6796   0.742E-02    0.148E+00
RMM:  20    -0.281807579803E+03   -0.33090E-02   -0.75957E-04  6711   0.686E-02    0.232E+00
RMM:  21    -0.281808489470E+03   -0.90967E-03   -0.48041E-04  6579   0.556E-02    0.292E+00
RMM:  22    -0.281806936471E+03    0.15530E-02   -0.32164E-04  6550   0.441E-02    0.324E+00
RMM:  23    -0.281805016657E+03    0.19198E-02   -0.15630E-04  6302   0.303E-02    0.340E+00
RMM:  24    -0.281802886556E+03    0.21301E-02   -0.93724E-05  6446   0.215E-02    0.342E+00
RMM:  25    -0.281792599141E+03    0.10287E-01   -0.13342E-03  7655   0.672E-02    0.273E+00
RMM:  26    -0.281787784840E+03    0.48143E-02   -0.16241E-03  7707   0.796E-02    0.133E+00
RMM:  27    -0.281795496626E+03   -0.77118E-02   -0.11096E-03  7259   0.792E-02    0.261E-01
RMM:  28    -0.281804707894E+03   -0.92113E-02   -0.11680E-03  6808   0.819E-02    0.154E+00
RMM:  29    -0.281807453360E+03   -0.27455E-02   -0.95356E-04  6769   0.742E-02    0.237E+00
RMM:  30    -0.281807240685E+03    0.21268E-03   -0.52353E-04  6655   0.554E-02    0.291E+00
RMM:  31    -0.281806751342E+03    0.48934E-03   -0.23851E-04  6192   0.362E-02    0.326E+00
RMM:  32    -0.281806195204E+03    0.55614E-03   -0.10506E-04  5439   0.239E-02    0.349E+00
RMM:  33    -0.281805678398E+03    0.51681E-03   -0.41386E-05  4934   0.154E-02    0.362E+00
RMM:  34    -0.281805331407E+03    0.34699E-03   -0.15743E-05  4521   0.962E-03    0.370E+00
RMM:  35    -0.281805078962E+03    0.25245E-03   -0.58629E-06  4245   0.610E-03    0.375E+00
RMM:  36    -0.281804880402E+03    0.19856E-03   -0.22164E-06  3946   0.395E-03    0.377E+00
RMM:  37    -0.281804797049E+03    0.83353E-04   -0.78581E-07  3100   0.255E-03    0.378E+00
RMM:  38    -0.281804747228E+03    0.49820E-04   -0.33173E-07  2722   0.202E-03    0.379E+00
RMM:  39    -0.281804086318E+03    0.66091E-03   -0.54120E-06  3850   0.548E-03    0.375E+00
RMM:  40    -0.281802462870E+03    0.16234E-02   -0.30059E-05  5173   0.964E-03    0.362E+00
RMM:  41    -0.281800166767E+03    0.22961E-02   -0.74568E-05  6606   0.159E-02    0.339E+00
RMM:  42    -0.281798534245E+03    0.16325E-02   -0.77276E-05  6578   0.184E-02    0.309E+00
RMM:  43    -0.281797378416E+03    0.11558E-02   -0.91733E-05  6712   0.206E-02    0.275E+00
RMM:  44    -0.281796920444E+03    0.45797E-03   -0.89957E-05  6467   0.216E-02    0.238E+00
RMM:  45    -0.281797384640E+03   -0.46420E-03   -0.69789E-05  5494   0.200E-02    0.207E+00
RMM:  46    -0.281798101013E+03   -0.71637E-03   -0.51548E-05  5060   0.174E-02    0.183E+00
RMM:  47    -0.281799429650E+03   -0.13286E-02   -0.48667E-05  5188   0.162E-02    0.178E+00
RMM:  48    -0.281799496994E+03   -0.67344E-04   -0.82908E-06  4159   0.775E-03    0.170E+00
RMM:  49    -0.281799774449E+03   -0.27746E-03   -0.60886E-06  4139   0.675E-03    0.166E+00
RMM:  50    -0.281800031400E+03   -0.25695E-03   -0.32917E-06  3957   0.424E-03    0.166E+00
RMM:  51    -0.281801798853E+03   -0.17675E-02   -0.98226E-05  6906   0.186E-02    0.193E+00
RMM:  52    -0.281801744411E+03    0.54442E-04   -0.29389E-05  4780   0.132E-02    0.211E+00
RMM:  53    -0.281799432333E+03    0.23121E-02   -0.11108E-04  6711   0.216E-02    0.197E+00
RMM:  54    -0.281797779644E+03    0.16527E-02   -0.13052E-04  6996   0.213E-02    0.162E+00
RMM:  55    -0.281797398834E+03    0.38081E-03   -0.12500E-04  6861   0.244E-02    0.117E+00
RMM:  56    -0.281798226624E+03   -0.82779E-03   -0.10106E-04  5938   0.247E-02    0.756E-01
RMM:  57    -0.281799203567E+03   -0.97694E-03   -0.87903E-05  5360   0.239E-02    0.424E-01
RMM:  58    -0.281799925474E+03   -0.72191E-03   -0.67102E-05  5145   0.203E-02    0.222E-01
RMM:  59    -0.281800277797E+03   -0.35232E-03   -0.40880E-05  5063   0.153E-02    0.128E-01
RMM:  60    -0.281800465716E+03   -0.18792E-03   -0.31575E-05  5296   0.117E-02
  20 F= -.28180047E+03 E0= -.28179750E+03  d E =-.876697E-03  mag=    24.0177
 trial-energy change:   -0.000877  1 .order   -0.000952   -0.001376   -0.000528
 step:   0.5278(harm=  0.5278)  dis= 0.00292  next Energy=  -281.800706 (dE=-0.112E-02)
 bond charge predicted
       N       E                     dE             d eps       ncg     rms          rms(c)
DAV:   1    -0.281799268356E+03    0.10094E-02   -0.12753E-01  9080   0.177E+00    0.320E-01
RMM:   2    -0.281803200109E+03   -0.39318E-02   -0.16870E-02  9427   0.365E-01    0.143E+00
RMM:   3    -0.281800705865E+03    0.24942E-02   -0.31201E-03  7720   0.132E-01    0.102E+00
RMM:   4    -0.281798836078E+03    0.18698E-02   -0.11370E-03  7673   0.688E-02    0.230E-01
RMM:   5    -0.281800450625E+03   -0.16145E-02   -0.26882E-04  6980   0.417E-02    0.140E-01
RMM:   6    -0.281800959866E+03   -0.50924E-03   -0.12859E-04  6202   0.295E-02    0.361E-01
RMM:   7    -0.281800733772E+03    0.22609E-03   -0.11330E-04  6596   0.241E-02    0.366E-01
RMM:   8    -0.281800473029E+03    0.26074E-03   -0.60412E-05  6277   0.157E-02    0.210E-01
RMM:   9    -0.281800544163E+03   -0.71134E-04   -0.12103E-04  7094   0.211E-02    0.168E-01
RMM:  10    -0.281800983847E+03   -0.43968E-03   -0.55663E-05  5281   0.192E-02    0.475E-01
RMM:  11    -0.281800746817E+03    0.23703E-03   -0.93852E-05  6260   0.231E-02    0.517E-01
RMM:  12    -0.281800408960E+03    0.33786E-03   -0.66301E-05  6363   0.163E-02    0.396E-01
RMM:  13    -0.281800366735E+03    0.42225E-04   -0.11909E-04  6950   0.201E-02    0.195E-02
RMM:  14    -0.281800826747E+03   -0.46001E-03   -0.47392E-05  4875   0.171E-02    0.242E-01
RMM:  15    -0.281800825846E+03    0.90048E-06   -0.53636E-05  5297   0.183E-02
  21 F= -.28180083E+03 E0= -.28179778E+03  d E =-.123683E-02  mag=    24.0163
 curvature:  -0.82 expect dE=-0.202E-02 dE for cont linesearch -0.728E-05
 trial: gam= 0.23407 g(F)=  0.245E-02 g(S)=  0.000E+00 ort = 0.342E-03 (trialstep = 0.366E+00)
 search vector abs. value=  0.333E-02
 bond charge predicted
       N       E                     dE             d eps       ncg     rms          rms(c)
DAV:   1    -0.281798721589E+03    0.21052E-02   -0.10504E-01 10338   0.234E+00    0.420E-01
RMM:   2    -0.281806434732E+03   -0.77131E-02   -0.30008E-02  9171   0.438E-01    0.195E+00
RMM:   3    -0.281802174005E+03    0.42607E-02   -0.55631E-03  8001   0.172E-01    0.150E+00
RMM:   4    -0.281797919474E+03    0.42545E-02   -0.19030E-03  7756   0.899E-02    0.586E-01
RMM:   5    -0.281800291579E+03   -0.23721E-02   -0.41141E-04  7316   0.505E-02    0.611E-02
RMM:   6    -0.281801819610E+03   -0.15280E-02   -0.24748E-04  6548   0.404E-02    0.467E-01
RMM:   7    -0.281801595899E+03    0.22371E-03   -0.32445E-04  6982   0.414E-02    0.482E-01
RMM:   8    -0.281801094778E+03    0.50112E-03   -0.16111E-04  6938   0.255E-02    0.241E-01
RMM:   9    -0.281801252124E+03   -0.15735E-03   -0.78563E-05  6646   0.186E-02    0.833E-02
RMM:  10    -0.281801585537E+03   -0.33341E-03   -0.46191E-05  5174   0.176E-02    0.303E-01
RMM:  11    -0.281801491269E+03    0.94267E-04   -0.55042E-05  5740   0.183E-02    0.329E-01
RMM:  12    -0.281801347338E+03    0.14393E-03   -0.32049E-05  5355   0.117E-02    0.250E-01
RMM:  13    -0.281801336875E+03    0.10464E-04   -0.20972E-05  4770   0.895E-03    0.848E-02
RMM:  14    -0.281801477015E+03   -0.14014E-03   -0.14038E-05  4475   0.904E-03    0.896E-02
RMM:  15    -0.281801540444E+03   -0.63429E-04   -0.15560E-05  4291   0.102E-02    0.168E-01
RMM:  16    -0.281801485269E+03    0.55174E-04   -0.10847E-05  4234   0.793E-03    0.173E-01
RMM:  17    -0.281801449954E+03    0.35315E-04   -0.35515E-06  3815   0.384E-03    0.152E-01
RMM:  18    -0.281801434350E+03    0.15604E-04   -0.26650E-06  3580   0.341E-03    0.993E-02
RMM:  19    -0.281801443299E+03   -0.89493E-05   -0.61223E-06  4144   0.511E-03
  22 F= -.28180144E+03 E0= -.28179861E+03  d E =-.617453E-03  mag=    24.0162
 trial-energy change:   -0.000617  1 .order   -0.000706   -0.000925   -0.000487
 step:   0.7717(harm=  0.7717)  dis= 0.00189  next Energy=  -281.801802 (dE=-0.976E-03)
 bond charge predicted
       N       E                     dE             d eps       ncg     rms          rms(c)
DAV:   1    -0.281798562647E+03    0.28717E-02   -0.13028E-01 10470   0.260E+00    0.297E-01
RMM:   2    -0.281801641946E+03   -0.30793E-02   -0.28403E-02  9217   0.437E-01    0.249E-01
RMM:   3    -0.281801874708E+03   -0.23276E-03   -0.17503E-03  7960   0.982E-02    0.327E-01
RMM:   4    -0.281801770827E+03    0.10388E-03   -0.29347E-04  7585   0.410E-02    0.188E-01
RMM:   5    -0.281801715550E+03    0.55277E-04   -0.42550E-05  5790   0.152E-02    0.694E-02
RMM:   6    -0.281801775239E+03   -0.59689E-04   -0.16134E-05  4818   0.122E-02    0.656E-02
RMM:   7    -0.281801784268E+03   -0.90290E-05   -0.20896E-05  4782   0.119E-02
  23 F= -.28180178E+03 E0= -.28179901E+03  d E =-.958422E-03  mag=    24.0173
 curvature:  -0.51 expect dE=-0.103E-02 dE for cont linesearch -0.489E-05
 trial: gam= 0.78804 g(F)=  0.203E-02 g(S)=  0.000E+00 ort = 0.179E-03 (trialstep = 0.340E+00)
 search vector abs. value=  0.438E-02
 bond charge predicted
       N       E                     dE             d eps       ncg     rms          rms(c)
DAV:   1    -0.281800290721E+03    0.14845E-02   -0.10192E-01 10524   0.213E+00    0.244E-01
RMM:   2    -0.281802347432E+03   -0.20567E-02   -0.17737E-02  9257   0.369E-01    0.452E-01
RMM:   3    -0.281802102926E+03    0.24451E-03   -0.15602E-03  7835   0.980E-02    0.113E-01
RMM:   4    -0.281802382929E+03   -0.28000E-03   -0.15094E-04  7786   0.305E-02    0.244E-01
RMM:   5    -0.281802208083E+03    0.17485E-03   -0.12838E-04  6757   0.279E-02    0.120E-01
RMM:   6    -0.281802209526E+03   -0.14433E-05   -0.39671E-05  5667   0.138E-02
  24 F= -.28180221E+03 E0= -.28179937E+03  d E =-.425258E-03  mag=    24.0183
 trial-energy change:   -0.000425  1 .order   -0.000527   -0.000737   -0.000317
 step:   0.5962(harm=  0.5962)  dis= 0.00180  next Energy=  -281.802430 (dE=-0.646E-03)
 reached required accuracy - stopping structural energy minimisation
