unknown system                          
           1
     2.873573   -2.873573    4.708335
     5.747147    0.000000    0.000000
     0.000000   33.065691   20.180529
   Mn   O    H 
  13  21   8
Direct configuration=     1
   0.22067121  0.89240241  0.08901558
   0.67349194  0.16915896  0.21848477
   0.94927612  0.02809995  0.15233499
   0.38706744  0.30807136  0.28364228
   0.44927612  0.52809995  0.15233499
   0.90320185  0.30796569  0.28470544
   0.44927612  0.02809995  0.15233499
   0.89511345  0.81086422  0.28482142
   0.90282244  0.55132680  0.10484543
   0.35332062  0.83133974  0.23375830
   0.99456849  0.50601306  0.20280253
   0.39887015  0.83271430  0.33902393
   0.53851998  0.23347802  0.07318573
   0.75682741  0.62208689  0.31506821
   0.87926422  0.06310591  0.05527763
   0.33947166  0.33283261  0.18316233
   0.58246139  0.21150732  0.12452493
   0.03719351  0.48361433  0.25568329
   0.61140441  0.59054958  0.37564124
   0.09516526  0.72856013  0.12156099
   0.54300414  0.45757101  0.25283109
   0.73894824  0.15088517  0.31423948
   0.85888103  0.57329750  0.05350623
   0.31136562  0.84740454  0.18073529
   0.56207820  0.72169891  0.12275353
   0.00900078  0.01104188  0.25423425
   0.79753919  0.33083267  0.18427240
   0.23198730  0.62071213  0.31742258
   0.34617716  0.60305419  0.05647018
   0.23457360  0.16501133  0.31375453
   0.79887956  0.87970866  0.18472828
   0.34617716  0.05624469  0.05647018
   0.55659485  0.00038491  0.25287481
   0.09516526  0.18175063  0.12156099
   0.34047062  0.60391201  0.02782883
   0.92434681  0.68523651  0.03696881
   0.34363348  0.06399961  0.02783421
   0.88838126  0.05560908  0.02665597
   0.62160488  0.63348315  0.39956751
   0.73486338  0.19064073  0.33884739
   0.80478247  0.56987900  0.33962696
   0.20110612  0.51091491  0.33416303
Direct configuration=     2
   0.22067121  0.89240241  0.08901558
   0.67398970  0.16995282  0.21944572
   0.94927612  0.02809995  0.15233499
   0.38531526  0.30734683  0.28400313
   0.44927612  0.52809995  0.15233499
   0.90299972  0.30847258  0.28510425
   0.44927612  0.02809995  0.15233499
   0.89607032  0.80875286  0.28506752
   0.90282244  0.55132680  0.10484543
   0.35258089  0.83034777  0.23430463
   0.99472627  0.50605949  0.20334333
   0.39939370  0.83349174  0.33914608
   0.53851998  0.23347802  0.07318573
   0.75670648  0.62360224  0.31462303
   0.87926422  0.06310591  0.05527763
   0.34072631  0.33134364  0.18249878
   0.58246139  0.21150732  0.12452493
   0.03661806  0.48703319  0.25568573
   0.61133076  0.59023805  0.37573708
   0.09516526  0.72856013  0.12156099
   0.54242611  0.45620428  0.25254490
   0.73946739  0.14908262  0.31356803
   0.85888103  0.57329750  0.05350623
   0.31197481  0.84751414  0.18008987
   0.56207820  0.72169891  0.12275353
   0.00831108  0.00919277  0.25389697
   0.79821515  0.32823735  0.18341770
   0.22667414  0.62493732  0.31634445
   0.34617716  0.60305419  0.05647018
   0.23659768  0.16654575  0.31345128
   0.79949840  0.88091153  0.18389995
   0.34617716  0.05624469  0.05647018
   0.56306368 -0.00249325  0.25330118
   0.09516526  0.18175063  0.12156099
   0.34047062  0.60391201  0.02782883
   0.92434681  0.68523651  0.03696881
   0.34363348  0.06399961  0.02783421
   0.88838126  0.05560908  0.02665597
   0.62154418  0.63337776  0.39955992
   0.73528863  0.19008553  0.33906465
   0.80544938  0.56964008  0.33978016
   0.19975822  0.50949470  0.33438593
Direct configuration=     3
   0.22067121  0.89240241  0.08901558
   0.67374025  0.16955498  0.21896414
   0.94927612  0.02809995  0.15233499
   0.38619337  0.30770993  0.28382229
   0.44927612  0.52809995  0.15233499
   0.90310102  0.30821855  0.28490439
   0.44927612  0.02809995  0.15233499
   0.89559078  0.80981097  0.28494418
   0.90282244  0.55132680  0.10484543
   0.35295161  0.83084490  0.23403083
   0.99464720  0.50603622  0.20307231
   0.39913132  0.83310213  0.33908487
   0.53851998  0.23347802  0.07318573
   0.75676708  0.62284282  0.31484613
   0.87926422  0.06310591  0.05527763
   0.34009754  0.33208984  0.18283132
   0.58246139  0.21150732  0.12452493
   0.03690645  0.48531982  0.25568451
   0.61136767  0.59039418  0.37568905
   0.09516526  0.72856013  0.12156099
   0.54271580  0.45688922  0.25268832
   0.73920722  0.14998598  0.31390453
   0.85888103  0.57329750  0.05350623
   0.31166951  0.84745921  0.18041333
   0.56207820  0.72169891  0.12275353
   0.00865673  0.01011946  0.25406600
   0.79787639  0.32953800  0.18384604
   0.22933685  0.62281985  0.31688476
   0.34617716  0.60305419  0.05647018
   0.23558331  0.16577677  0.31360325
   0.79918827  0.88030871  0.18431507
   0.34617716  0.05624469  0.05647018
   0.55982180 -0.00105085  0.25308750
   0.09516526  0.18175063  0.12156099
   0.34047062  0.60391201  0.02782883
   0.92434681  0.68523651  0.03696881
   0.34363348  0.06399961  0.02783421
   0.88838126  0.05560908  0.02665597
   0.62157460  0.63343058  0.39956372
   0.73507551  0.19036377  0.33895577
   0.80511516  0.56975982  0.33970338
   0.20043372  0.51020644  0.33427422
Direct configuration=     4
   0.22067121  0.89240241  0.08901558
   0.67602857  0.16860568  0.21912291
   0.94927612  0.02809995  0.15233499
   0.38570670  0.30696607  0.28377745
   0.44927612  0.52809995  0.15233499
   0.90373411  0.30781279  0.28490522
   0.44927612  0.02809995  0.15233499
   0.89639899  0.80887196  0.28489613
   0.90282244  0.55132680  0.10484543
   0.35239991  0.83044502  0.23430616
   0.99448345  0.50615936  0.20326843
   0.39955054  0.83344552  0.33915580
   0.53851998  0.23347802  0.07318573
   0.75708496  0.62384412  0.31488639
   0.87926422  0.06310591  0.05527763
   0.34048113  0.33067040  0.18244815
   0.58246139  0.21150732  0.12452493
   0.03675756  0.48789106  0.25600751
   0.61123350  0.58984098  0.37561718
   0.09516526  0.72856013  0.12156099
   0.54114175  0.45556908  0.25278867
   0.73909591  0.14966504  0.31408908
   0.85888103  0.57329750  0.05350623
   0.31225591  0.84772524  0.18011639
   0.56207820  0.72169891  0.12275353
   0.00702324  0.00882882  0.25403814
   0.79834806  0.32778110  0.18339945
   0.22468949  0.62176811  0.31672259
   0.34617716  0.60305419  0.05647018
   0.23778067  0.16705175  0.31339757
   0.79952818  0.88119751  0.18389142
   0.34617716  0.05624469  0.05647018
   0.56365151 -0.00281818  0.25368612
   0.09516526  0.18175063  0.12156099
   0.34047062  0.60391201  0.02782883
   0.92434681  0.68523651  0.03696881
   0.34363348  0.06399961  0.02783421
   0.88838126  0.05560908  0.02665597
   0.62157955  0.63347972  0.39967707
   0.73554675  0.18856120  0.33842064
   0.80483337  0.57051575  0.33950023
   0.20016914  0.51341479  0.33377092
Direct configuration=     5
   0.22067121  0.89240241  0.08901558
   0.67476986  0.16912785  0.21903557
   0.94927612  0.02809995  0.15233499
   0.38597440  0.30737523  0.28380211
   0.44927612  0.52809995  0.15233499
   0.90338588  0.30803598  0.28490476
   0.44927612  0.02809995  0.15233499
   0.89595443  0.80938847  0.28492256
   0.90282244  0.55132680  0.10484543
   0.35270337  0.83066498  0.23415472
   0.99457352  0.50609162  0.20316055
   0.39931995  0.83325663  0.33911678
   0.53851998  0.23347802  0.07318573
   0.75691011  0.62329335  0.31486424
   0.87926422  0.06310591  0.05527763
   0.34027013  0.33145117  0.18265892
   0.58246139  0.21150732  0.12452493
   0.03683946  0.48647673  0.25582984
   0.61130730  0.59014527  0.37565671
   0.09516526  0.72856013  0.12156099
   0.54200756  0.45629523  0.25273347
   0.73915713  0.14984157  0.31398757
   0.85888103  0.57329750  0.05350623
   0.31193336  0.84757891  0.18027972
   0.56207820  0.72169891  0.12275353
   0.00792175  0.00953874  0.25405347
   0.79808862  0.32874750  0.18364510
   0.22724580  0.62234663  0.31681179
   0.34617716  0.60305419  0.05647018
   0.23657200  0.16635044  0.31351071
   0.79934121  0.88070862  0.18412445
   0.34617716  0.05624469  0.05647018
   0.56154495 -0.00184605  0.25335685
   0.09516526  0.18175063  0.12156099
   0.34047062  0.60391201  0.02782883
   0.92434681  0.68523651  0.03696881
   0.34363348  0.06399961  0.02783421
   0.88838126  0.05560908  0.02665597
   0.62157683  0.63345269  0.39961472
   0.73528754  0.18955272  0.33871499
   0.80498837  0.57009994  0.33961198
   0.20031467  0.51165001  0.33404776
Direct configuration=     6
   0.22067121  0.89240241  0.08901558
   0.67454461  0.16922129  0.21901995
   0.94927612  0.02809995  0.15233499
   0.38602230  0.30744846  0.28380653
   0.44927612  0.52809995  0.15233499
   0.90332356  0.30807592  0.28490468
   0.44927612  0.02809995  0.15233499
   0.89587487  0.80948090  0.28492729
   0.90282244  0.55132680  0.10484543
   0.35275768  0.83070434  0.23412761
   0.99458964  0.50607950  0.20314125
   0.39927868  0.83322283  0.33910980
   0.53851998  0.23347802  0.07318573
   0.75687882  0.62319478  0.31486028
   0.87926422  0.06310591  0.05527763
   0.34023237  0.33159090  0.18269664
   0.58246139  0.21150732  0.12452493
   0.03685411  0.48622363  0.25579805
   0.61132051  0.59019972  0.37566379
   0.09516526  0.72856013  0.12156099
   0.54216251  0.45642518  0.25272359
   0.73916809  0.14987317  0.31396940
   0.85888103  0.57329750  0.05350623
   0.31187563  0.84755272  0.18030895
   0.56207820  0.72169891  0.12275353
   0.00808255  0.00966579  0.25405621
   0.79804219  0.32892044  0.18368906
   0.22770327  0.62245016  0.31682776
   0.34617716  0.60305419  0.05647018
   0.23635569  0.16622493  0.31353095
   0.79930775  0.88062113  0.18416615
   0.34617716  0.05624469  0.05647018
   0.56116797 -0.00167208  0.25329792
   0.09516526  0.18175063  0.12156099
   0.34047062  0.60391201  0.02782883
   0.92434681  0.68523651  0.03696881
   0.34363348  0.06399961  0.02783421
   0.88838126  0.05560908  0.02665597
   0.62157634  0.63344785  0.39960356
   0.73524116  0.18973016  0.33876767
   0.80501611  0.57002553  0.33963197
   0.20034072  0.51133419  0.33409731
Direct configuration=     7
   0.22067121  0.89240241  0.08901558
   0.67672460  0.16728302  0.21870176
   0.94927612  0.02809995  0.15233499
   0.38665052  0.30686693  0.28348915
   0.44927612  0.52809995  0.15233499
   0.90423504  0.30756685  0.28468122
   0.44927612  0.02809995  0.15233499
   0.89638343  0.80979132  0.28476937
   0.90282244  0.55132680  0.10484543
   0.35259261  0.83116279  0.23414371
   0.99444289  0.50611861  0.20308069
   0.39919082  0.83320079  0.33905224
   0.53851998  0.23347802  0.07318573
   0.75692143  0.62295117  0.31525742
   0.87926422  0.06310591  0.05527763
   0.33992400  0.33061822  0.18260407
   0.58246139  0.21150732  0.12452493
   0.03687980  0.48585371  0.25600157
   0.61136785  0.58982219  0.37564884
   0.09516526  0.72856013  0.12156099
   0.54095421  0.45550309  0.25297546
   0.73906325  0.15071884  0.31440354
   0.85888103  0.57329750  0.05350623
   0.31230160  0.84787709  0.18034609
   0.56207820  0.72169891  0.12275353
   0.00715913  0.01017910  0.25408696
   0.79839737  0.32801227  0.18362975
   0.22607197  0.62081453  0.31707150
   0.34617716  0.60305419  0.05647018
   0.23767819  0.16628204  0.31350374
   0.79953901  0.88104665  0.18412881
   0.34617716  0.05624469  0.05647018
   0.56153970 -0.00198915  0.25362336
   0.09516526  0.18175063  0.12156099
   0.34047062  0.60391201  0.02782883
   0.92434681  0.68523651  0.03696881
   0.34363348  0.06399961  0.02783421
   0.88838126  0.05560908  0.02665597
   0.62154637  0.63337935  0.39962385
   0.73547510  0.18851390  0.33825008
   0.80428791  0.57087274  0.33930907
   0.20039611  0.51436438  0.33361225
Direct configuration=     8
   0.22067121  0.89240241  0.08901558
   0.67524490  0.16859865  0.21891773
   0.94927612  0.02809995  0.15233499
   0.38622411  0.30726165  0.28370457
   0.44927612  0.52809995  0.15233499
   0.90361636  0.30791239  0.28483290
   0.44927612  0.02809995  0.15233499
   0.89603824  0.80958062  0.28487656
   0.90282244  0.55132680  0.10484543
   0.35270466  0.83085161  0.23413278
   0.99454250  0.50609206  0.20312179
   0.39925046  0.83321575  0.33909131
   0.53851998  0.23347802  0.07318573
   0.75689250  0.62311652  0.31498786
   0.87926422  0.06310591  0.05527763
   0.34013331  0.33127844  0.18266690
   0.58246139  0.21150732  0.12452493
   0.03686237  0.48610480  0.25586343
   0.61133572  0.59007845  0.37565899
   0.09516526  0.72856013  0.12156099
   0.54177436  0.45612897  0.25280450
   0.73913441  0.15014483  0.31410886
   0.85888103  0.57329750  0.05350623
   0.31201247  0.84765692  0.18032088
   0.56207820  0.72169891  0.12275353
   0.00778591  0.00983068  0.25406609
   0.79815629  0.32862870  0.18367001
   0.22717924  0.62192474  0.31690606
   0.34617716  0.60305419  0.05647018
   0.23678053  0.16624328  0.31352221
   0.79938204  0.88075782  0.18415416
   0.34617716  0.05624469  0.05647018
   0.56128738 -0.00177393  0.25340246
   0.09516526  0.18175063  0.12156099
   0.34047062  0.60391201  0.02782883
   0.92434681  0.68523651  0.03696881
   0.34363348  0.06399961  0.02783421
   0.88838126  0.05560908  0.02665597
   0.62156671  0.63342584  0.39961008
   0.73531631  0.18933945  0.33860140
   0.80478218  0.57029768  0.33952824
   0.20035851  0.51230760  0.33394149
Direct configuration=     9
   0.22067121  0.89240241  0.08901558
   0.67593600  0.16745561  0.21863670
   0.94927612  0.02809995  0.15233499
   0.38684320  0.30710766  0.28351021
   0.44927612  0.52809995  0.15233499
   0.90393804  0.30778494  0.28471223
   0.44927612  0.02809995  0.15233499
   0.89596844  0.81030589  0.28482531
   0.90282244  0.55132680  0.10484543
   0.35283303  0.83140354  0.23404145
   0.99452640  0.50602977  0.20299776
   0.39900121  0.83295216  0.33901689
   0.53851998  0.23347802  0.07318573
   0.75652746  0.62267884  0.31512241
   0.87926422  0.06310591  0.05527763
   0.33967241  0.33112998  0.18276080
   0.58246139  0.21150732  0.12452493
   0.03702095  0.48445050  0.25583649
   0.61136194  0.59008302  0.37569943
   0.09516526  0.72856013  0.12156099
   0.54154094  0.45596277  0.25292828
   0.73925309  0.15054815  0.31406228
   0.85888103  0.57329750  0.05350623
   0.31212915  0.84776840  0.18049046
   0.56207820  0.72169891  0.12275353
   0.00788161  0.01094613  0.25405760
   0.79827139  0.32870456  0.18381762
   0.22823112  0.62253762  0.31694141
   0.34617716  0.60305419  0.05647018
   0.23695295  0.16565938  0.31356462
   0.79948872  0.88057893  0.18430708
   0.34617716  0.05624469  0.05647018
   0.56002144 -0.00140258  0.25337645
   0.09516526  0.18175063  0.12156099
   0.34047062  0.60391201  0.02782883
   0.92434681  0.68523651  0.03696881
   0.34363348  0.06399961  0.02783421
   0.88838126  0.05560908  0.02665597
   0.62150508  0.63332362  0.39955990
   0.73525963  0.18959369  0.33869518
   0.80464891  0.57029851  0.33949508
   0.20012917  0.51212371  0.33397024
Direct configuration=    10
   0.22067121  0.89240241  0.08901558
   0.67605828  0.16725338  0.21858698
   0.94927612  0.02809995  0.15233499
   0.38695274  0.30708041  0.28347582
   0.44927612  0.52809995  0.15233499
   0.90399495  0.30776239  0.28469088
   0.44927612  0.02809995  0.15233499
   0.89595609  0.81043421  0.28481624
   0.90282244  0.55132680  0.10484543
   0.35285574  0.83150119  0.23402529
   0.99452356  0.50601875  0.20297581
   0.39895711  0.83290552  0.33900372
   0.53851998  0.23347802  0.07318573
   0.75646287  0.62260140  0.31514622
   0.87926422  0.06310591  0.05527763
   0.33959087  0.33110372  0.18277742
   0.58246139  0.21150732  0.12452493
   0.03704900  0.48415781  0.25583172
   0.61136658  0.59008383  0.37570659
   0.09516526  0.72856013  0.12156099
   0.54149964  0.45593337  0.25295017
   0.73927409  0.15061951  0.31405404
   0.85888103  0.57329750  0.05350623
   0.31214980  0.84778812  0.18052046
   0.56207820  0.72169891  0.12275353
   0.00789854  0.01114348  0.25405609
   0.79829175  0.32871798  0.18384374
   0.22841723  0.62264606  0.31694766
   0.34617716  0.60305419  0.05647018
   0.23698346  0.16555607  0.31357212
   0.79950760  0.88054728  0.18433414
   0.34617716  0.05624469  0.05647018
   0.55979746 -0.00133688  0.25337185
   0.09516526  0.18175063  0.12156099
   0.34047062  0.60391201  0.02782883
   0.92434681  0.68523651  0.03696881
   0.34363348  0.06399961  0.02783421
   0.88838126  0.05560908  0.02665597
   0.62149417  0.63330554  0.39955103
   0.73524960  0.18963867  0.33871178
   0.80462533  0.57029865  0.33948921
   0.20008859  0.51209118  0.33397532
Direct configuration=    11
   0.22067121  0.89240241  0.08901558
   0.67606397  0.16673355  0.21848500
   0.94927612  0.02809995  0.15233499
   0.38706127  0.30698238  0.28340843
   0.44927612  0.52809995  0.15233499
   0.90394181  0.30801588  0.28470851
   0.44927612  0.02809995  0.15233499
   0.89594580  0.81065633  0.28479476
   0.90282244  0.55132680  0.10484543
   0.35322977  0.83173815  0.23396221
   0.99456716  0.50589765  0.20286603
   0.39880479  0.83253439  0.33897815
   0.53851998  0.23347802  0.07318573
   0.75620139  0.62286885  0.31495088
   0.87926422  0.06310591  0.05527763
   0.33936198  0.33089307  0.18284587
   0.58246139  0.21150732  0.12452493
   0.03694984  0.48352707  0.25581393
   0.61125151  0.58991600  0.37561835
   0.09516526  0.72856013  0.12156099
   0.54152021  0.45572858  0.25296965
   0.73957204  0.15083612  0.31403581
   0.85888103  0.57329750  0.05350623
   0.31233482  0.84782461  0.18064294
   0.56207820  0.72169891  0.12275353
   0.00783144  0.01144366  0.25404589
   0.79844631  0.32866427  0.18395370
   0.22933470  0.62224881  0.31705768
   0.34617716  0.60305419  0.05647018
   0.23715879  0.16542274  0.31355117
   0.79976434  0.88017009  0.18443949
   0.34617716  0.05624469  0.05647018
   0.55872673 -0.00098663  0.25325729
   0.09516526  0.18175063  0.12156099
   0.34047062  0.60391201  0.02782883
   0.92434681  0.68523651  0.03696881
   0.34363348  0.06399961  0.02783421
   0.88838126  0.05560908  0.02665597
   0.62146999  0.63340407  0.39961552
   0.73527741  0.18969983  0.33872172
   0.80500230  0.56983079  0.33966157
   0.20011510  0.51249686  0.33389151
Direct configuration=    12
   0.22067121  0.89240241  0.08901558
   0.67606317  0.16680615  0.21849924
   0.94927612  0.02809995  0.15233499
   0.38704611  0.30699607  0.28341784
   0.44927612  0.52809995  0.15233499
   0.90394923  0.30798047  0.28470605
   0.44927612  0.02809995  0.15233499
   0.89594724  0.81062531  0.28479776
   0.90282244  0.55132680  0.10484543
   0.35317753  0.83170506  0.23397102
   0.99456107  0.50591457  0.20288136
   0.39882606  0.83258622  0.33898172
   0.53851998  0.23347802  0.07318573
   0.75623791  0.62283150  0.31497816
   0.87926422  0.06310591  0.05527763
   0.33939394  0.33092249  0.18283631
   0.58246139  0.21150732  0.12452493
   0.03696369  0.48361516  0.25581642
   0.61126759  0.58993944  0.37563067
   0.09516526  0.72856013  0.12156099
   0.54151734  0.45575718  0.25296693
   0.73953043  0.15080587  0.31403836
   0.85888103  0.57329750  0.05350623
   0.31230898  0.84781951  0.18062584
   0.56207820  0.72169891  0.12275353
   0.00784082  0.01140174  0.25404732
   0.79842472  0.32867177  0.18393834
   0.22920656  0.62230429  0.31704232
   0.34617716  0.60305419  0.05647018
   0.23713430  0.16544137  0.31355409
   0.79972848  0.88022277  0.18442477
   0.34617716  0.05624469  0.05647018
   0.55887627 -0.00103555  0.25327329
   0.09516526  0.18175063  0.12156099
   0.34047062  0.60391201  0.02782883
   0.92434681  0.68523651  0.03696881
   0.34363348  0.06399961  0.02783421
   0.88838126  0.05560908  0.02665597
   0.62147337  0.63339031  0.39960651
   0.73527353  0.18969129  0.33872033
   0.80494966  0.56989613  0.33963750
   0.20011140  0.51244020  0.33390322
Direct configuration=    13
   0.22067121  0.89240241  0.08901558
   0.67578138  0.16662969  0.21849864
   0.94927612  0.02809995  0.15233499
   0.38693201  0.30693696  0.28339004
   0.44927612  0.52809995  0.15233499
   0.90385231  0.30821715  0.28473630
   0.44927612  0.02809995  0.15233499
   0.89603996  0.81068784  0.28476399
   0.90282244  0.55132680  0.10484543
   0.35352265  0.83179664  0.23393122
   0.99467472  0.50570453  0.20280038
   0.39867494  0.83229678  0.33894891
   0.53851998  0.23347802  0.07318573
   0.75645844  0.62274453  0.31498522
   0.87926422  0.06310591  0.05527763
   0.33936365  0.33064887  0.18287830
   0.58246139  0.21150732  0.12452493
   0.03683276  0.48322066  0.25577818
   0.61131748  0.58986951  0.37565566
   0.09516526  0.72856013  0.12156099
   0.54161732  0.45550968  0.25293874
   0.73986860  0.15107005  0.31407245
   0.85888103  0.57329750  0.05350623
   0.31256639  0.84778896  0.18070289
   0.56207820  0.72169891  0.12275353
   0.00779621  0.01154015  0.25402386
   0.79858176  0.32846888  0.18401669
   0.23015497  0.62209464  0.31707776
   0.34617716  0.60305419  0.05647018
   0.23735823  0.16542199  0.31351235
   0.80006430  0.87979300  0.18448989
   0.34617716  0.05624469  0.05647018
   0.55796969 -0.00067163  0.25312747
   0.09516526  0.18175063  0.12156099
   0.34047062  0.60391201  0.02782883
   0.92434681  0.68523651  0.03696881
   0.34363348  0.06399961  0.02783421
   0.88838126  0.05560908  0.02665597
   0.62141300  0.63327724  0.39955489
   0.73530284  0.18970867  0.33867928
   0.80482433  0.56987004  0.33962272
   0.20010489  0.51250569  0.33386358
Direct configuration=    14
   0.22067121  0.89240241  0.08901558
   0.67570194  0.16657994  0.21849847
   0.94927612  0.02809995  0.15233499
   0.38689984  0.30692030  0.28338220
   0.44927612  0.52809995  0.15233499
   0.90382498  0.30828387  0.28474483
   0.44927612  0.02809995  0.15233499
   0.89606609  0.81070547  0.28475447
   0.90282244  0.55132680  0.10484543
   0.35361994  0.83182246  0.23392000
   0.99470676  0.50564531  0.20277755
   0.39863233  0.83221518  0.33893966
   0.53851998  0.23347802  0.07318573
   0.75652062  0.62272001  0.31498721
   0.87926422  0.06310591  0.05527763
   0.33935511  0.33057173  0.18289014
   0.58246139  0.21150732  0.12452493
   0.03679585  0.48310945  0.25576741
   0.61133155  0.58984980  0.37566270
   0.09516526  0.72856013  0.12156099
   0.54164551  0.45543990  0.25293080
   0.73996394  0.15114453  0.31408207
   0.85888103  0.57329750  0.05350623
   0.31263896  0.84778035  0.18072461
   0.56207820  0.72169891  0.12275353
   0.00778363  0.01157917  0.25401725
   0.79862603  0.32841168  0.18403877
   0.23042234  0.62203554  0.31708776
   0.34617716  0.60305419  0.05647018
   0.23742136  0.16541652  0.31350058
   0.80015897  0.87967184  0.18450824
   0.34617716  0.05624469  0.05647018
   0.55771411 -0.00056903  0.25308636
   0.09516526  0.18175063  0.12156099
   0.34047062  0.60391201  0.02782883
   0.92434681  0.68523651  0.03696881
   0.34363348  0.06399961  0.02783421
   0.88838126  0.05560908  0.02665597
   0.62139598  0.63324536  0.39954033
   0.73531110  0.18971358  0.33866771
   0.80478900  0.56986269  0.33961856
   0.20010306  0.51252415  0.33385241
Direct configuration=    15
   0.22067121  0.89240241  0.08901558
   0.67541410  0.16668354  0.21854795
   0.94927612  0.02809995  0.15233499
   0.38677378  0.30693715  0.28336492
   0.44927612  0.52809995  0.15233499
   0.90380167  0.30828866  0.28474710
   0.44927612  0.02809995  0.15233499
   0.89621667  0.81068192  0.28471514
   0.90282244  0.55132680  0.10484543
   0.35371930  0.83171491  0.23391095
   0.99486170  0.50537311  0.20274989
   0.39862280  0.83206871  0.33892422
   0.53851998  0.23347802  0.07318573
   0.75686510  0.62265614  0.31507030
   0.87926422  0.06310591  0.05527763
   0.33956549  0.33031337  0.18288525
   0.58246139  0.21150732  0.12452493
   0.03665490  0.48301791  0.25573032
   0.61136599  0.58968467  0.37561053
   0.09516526  0.72856013  0.12156099
   0.54169163  0.45527194  0.25289029
   0.74028616  0.15109029  0.31400869
   0.85888103  0.57329750  0.05350623
   0.31291430  0.84766011  0.18072234
   0.56207820  0.72169891  0.12275353
   0.00776398  0.01161107  0.25399932
   0.79870739  0.32806405  0.18405970
   0.23103844  0.62188795  0.31704910
   0.34617716  0.60305419  0.05647018
   0.23763380  0.16540522  0.31346336
   0.80045212  0.87942619  0.18451093
   0.34617716  0.05624469  0.05647018
   0.55723393 -0.00027645  0.25298840
   0.09516526  0.18175063  0.12156099
   0.34047062  0.60391201  0.02782883
   0.92434681  0.68523651  0.03696881
   0.34363348  0.06399961  0.02783421
   0.88838126  0.05560908  0.02665597
   0.62137940  0.63325425  0.39955478
   0.73530446  0.18990805  0.33872662
   0.80448714  0.57000714  0.33954610
   0.20011330  0.51236931  0.33384817
Direct configuration=    16
   0.22067121  0.89240241  0.08901558
   0.67547046  0.16666326  0.21853826
   0.94927612  0.02809995  0.15233499
   0.38679846  0.30693385  0.28336830
   0.44927612  0.52809995  0.15233499
   0.90380623  0.30828772  0.28474665
   0.44927612  0.02809995  0.15233499
   0.89618719  0.81068653  0.28472284
   0.90282244  0.55132680  0.10484543
   0.35369985  0.83173597  0.23391272
   0.99483136  0.50542641  0.20275530
   0.39862467  0.83209739  0.33892724
   0.53851998  0.23347802  0.07318573
   0.75679766  0.62266865  0.31505403
   0.87926422  0.06310591  0.05527763
   0.33952430  0.33036395  0.18288621
   0.58246139  0.21150732  0.12452493
   0.03668250  0.48303583  0.25573758
   0.61135925  0.58971700  0.37562075
   0.09516526  0.72856013  0.12156099
   0.54168260  0.45530483  0.25289822
   0.74022307  0.15110091  0.31402305
   0.85888103  0.57329750  0.05350623
   0.31286039  0.84768365  0.18072279
   0.56207820  0.72169891  0.12275353
   0.00776783  0.01160483  0.25400283
   0.79869146  0.32813211  0.18405561
   0.23091782  0.62191685  0.31705667
   0.34617716  0.60305419  0.05647018
   0.23759220  0.16540743  0.31347065
   0.80039473  0.87947428  0.18451040
   0.34617716  0.05624469  0.05647018
   0.55732794 -0.00033373  0.25300758
   0.09516526  0.18175063  0.12156099
   0.34047062  0.60391201  0.02782883
   0.92434681  0.68523651  0.03696881
   0.34363348  0.06399961  0.02783421
   0.88838126  0.05560908  0.02665597
   0.62138265  0.63325251  0.39955195
   0.73530576  0.18986998  0.33871509
   0.80454624  0.56997885  0.33956028
   0.20011130  0.51239962  0.33384900
Direct configuration=    17
   0.22067121  0.89240241  0.08901558
   0.67526707  0.16677899  0.21858267
   0.94927612  0.02809995  0.15233499
   0.38669446  0.30698399  0.28334098
   0.44927612  0.52809995  0.15233499
   0.90386171  0.30824250  0.28472710
   0.44927612  0.02809995  0.15233499
   0.89636668  0.81058882  0.28467852
   0.90282244  0.55132680  0.10484543
   0.35364224  0.83156101  0.23391050
   0.99501981  0.50507825  0.20274480
   0.39868029  0.83202742  0.33891218
   0.53851998  0.23347802  0.07318573
   0.75700304  0.62277013  0.31507122
   0.87926422  0.06310591  0.05527763
   0.33983323  0.33011333  0.18286478
   0.58246139  0.21150732  0.12452493
   0.03654848  0.48289825  0.25568925
   0.61141143  0.58958580  0.37560855
   0.09516526  0.72856013  0.12156099
   0.54167137  0.45520885  0.25285735
   0.74050772  0.15117810  0.31404194
   0.85888103  0.57329750  0.05350623
   0.31316911  0.84750634  0.18069229
   0.56207820  0.72169891  0.12275353
   0.00782624  0.01172928  0.25396952
   0.79874413  0.32772074  0.18405850
   0.23137862  0.62149782  0.31702138
   0.34617716  0.60305419  0.05647018
   0.23782787  0.16536258  0.31343549
   0.80069229  0.87929891  0.18449322
   0.34617716  0.05624469  0.05647018
   0.55696024 -0.00005696  0.25293017
   0.09516526  0.18175063  0.12156099
   0.34047062  0.60391201  0.02782883
   0.92434681  0.68523651  0.03696881
   0.34363348  0.06399961  0.02783421
   0.88838126  0.05560908  0.02665597
   0.62134136  0.63318360  0.39952694
   0.73528631  0.19002113  0.33869789
   0.80437468  0.56996020  0.33955643
   0.20021465  0.51239109  0.33381522
Direct configuration=    18
   0.22067121  0.89240241  0.08901558
   0.67518020  0.16682842  0.21860163
   0.94927612  0.02809995  0.15233499
   0.38665005  0.30700541  0.28332932
   0.44927612  0.52809995  0.15233499
   0.90388541  0.30822319  0.28471874
   0.44927612  0.02809995  0.15233499
   0.89644334  0.81054709  0.28465959
   0.90282244  0.55132680  0.10484543
   0.35361763  0.83148628  0.23390955
   0.99510030  0.50492954  0.20274032
   0.39870405  0.83199753  0.33890575
   0.53851998  0.23347802  0.07318573
   0.75709077  0.62281347  0.31507856
   0.87926422  0.06310591  0.05527763
   0.33996518  0.33000628  0.18285562
   0.58246139  0.21150732  0.12452493
   0.03649124  0.48283949  0.25566861
   0.61143372  0.58952976  0.37560334
   0.09516526  0.72856013  0.12156099
   0.54166657  0.45516786  0.25283989
   0.74062930  0.15121106  0.31405001
   0.85888103  0.57329750  0.05350623
   0.31330097  0.84743060  0.18067926
   0.56207820  0.72169891  0.12275353
   0.00785119  0.01178243  0.25395530
   0.79876663  0.32754503  0.18405973
   0.23157544  0.62131884  0.31700631
   0.34617716  0.60305419  0.05647018
   0.23792852  0.16534343  0.31342047
   0.80081939  0.87922400  0.18448587
   0.34617716  0.05624469  0.05647018
   0.55680318  0.00006126  0.25289710
   0.09516526  0.18175063  0.12156099
   0.34047062  0.60391201  0.02782883
   0.92434681  0.68523651  0.03696881
   0.34363348  0.06399961  0.02783421
   0.88838126  0.05560908  0.02665597
   0.62132372  0.63315416  0.39951626
   0.73527800  0.19008570  0.33869054
   0.80430140  0.56995223  0.33955478
   0.20025879  0.51238744  0.33380080
Direct configuration=    19
   0.22067121  0.89240241  0.08901558
   0.67500646  0.16692729  0.21863956
   0.94927612  0.02809995  0.15233499
   0.38656121  0.30704825  0.28330598
   0.44927612  0.52809995  0.15233499
   0.90393280  0.30818456  0.28470204
   0.44927612  0.02809995  0.15233499
   0.89659666  0.81046363  0.28462173
   0.90282244  0.55132680  0.10484543
   0.35356842  0.83133682  0.23390765
   0.99526128  0.50463213  0.20273134
   0.39875156  0.83193776  0.33889289
   0.53851998  0.23347802  0.07318573
   0.75726622  0.62290016  0.31509323
   0.87926422  0.06310591  0.05527763
   0.34022908  0.32979218  0.18283732
   0.58246139  0.21150732  0.12452493
   0.03637675  0.48272196  0.25562733
   0.61147829  0.58941768  0.37559293
   0.09516526  0.72856013  0.12156099
   0.54165698  0.45508587  0.25280498
   0.74087247  0.15127700  0.31406614
   0.85888103  0.57329750  0.05350623
   0.31356469  0.84727913  0.18065320
   0.56207820  0.72169891  0.12275353
   0.00790109  0.01188875  0.25392684
   0.79881163  0.32719361  0.18406220
   0.23196908  0.62096088  0.31697617
   0.34617716  0.60305419  0.05647018
   0.23812984  0.16530511  0.31339044
   0.80107358  0.87907418  0.18447119
   0.34617716  0.05624469  0.05647018
   0.55648906  0.00029770  0.25283098
   0.09516526  0.18175063  0.12156099
   0.34047062  0.60391201  0.02782883
   0.92434681  0.68523651  0.03696881
   0.34363348  0.06399961  0.02783421
   0.88838126  0.05560908  0.02665597
   0.62128845  0.63309530  0.39949489
   0.73526139  0.19021483  0.33867584
   0.80415485  0.56993630  0.33955149
   0.20034708  0.51238015  0.33377195
Direct configuration=    20
   0.22067121  0.89240241  0.08901558
   0.67503965  0.16683495  0.21862030
   0.94927612  0.02809995  0.15233499
   0.38657433  0.30703783  0.28327027
   0.44927612  0.52809995  0.15233499
   0.90401102  0.30819380  0.28468429
   0.44927612  0.02809995  0.15233499
   0.89670811  0.81043374  0.28458782
   0.90282244  0.55132680  0.10484543
   0.35341750  0.83118365  0.23389483
   0.99541881  0.50428937  0.20271445
   0.39885499  0.83190671  0.33887482
   0.53851998  0.23347802  0.07318573
   0.75733823  0.62302109  0.31505535
   0.87926422  0.06310591  0.05527763
   0.34045207  0.32964461  0.18282378
   0.58246139  0.21150732  0.12452493
   0.03629512  0.48248129  0.25557550
   0.61150154  0.58928305  0.37557583
   0.09516526  0.72856013  0.12156099
   0.54157756  0.45512065  0.25278304
   0.74114320  0.15130462  0.31406137
   0.85888103  0.57329750  0.05350623
   0.31381006  0.84711004  0.18063216
   0.56207820  0.72169891  0.12275353
   0.00799378  0.01209731  0.25388188
   0.79885475  0.32691591  0.18406581
   0.23233131  0.62062002  0.31692628
   0.34617716  0.60305419  0.05647018
   0.23833985  0.16517993  0.31336179
   0.80132528  0.87893022  0.18446327
   0.34617716  0.05624469  0.05647018
   0.55620179  0.00049296  0.25278972
   0.09516526  0.18175063  0.12156099
   0.34047062  0.60391201  0.02782883
   0.92434681  0.68523651  0.03696881
   0.34363348  0.06399961  0.02783421
   0.88838126  0.05560908  0.02665597
   0.62124731  0.63303101  0.39947557
   0.73521829  0.19046446  0.33868252
   0.80411327  0.56978386  0.33960219
   0.20046431  0.51232820  0.33374159
Direct configuration=    21
   0.22067121  0.89240241  0.08901558
   0.67506036  0.16677737  0.21860829
   0.94927612  0.02809995  0.15233499
   0.38658252  0.30703133  0.28324800
   0.44927612  0.52809995  0.15233499
   0.90405980  0.30819956  0.28467322
   0.44927612  0.02809995  0.15233499
   0.89677761  0.81041511  0.28456667
   0.90282244  0.55132680  0.10484543
   0.35332339  0.83108814  0.23388684
   0.99551706  0.50407562  0.20270391
   0.39891949  0.83188735  0.33886354
   0.53851998  0.23347802  0.07318573
   0.75738314  0.62309650  0.31503172
   0.87926422  0.06310591  0.05527763
   0.34059112  0.32955258  0.18281534
   0.58246139  0.21150732  0.12452493
   0.03624422  0.48233121  0.25554318
   0.61151604  0.58919910  0.37556517
   0.09516526  0.72856013  0.12156099
   0.54152804  0.45514233  0.25276935
   0.74131203  0.15132185  0.31405839
   0.85888103  0.57329750  0.05350623
   0.31396307  0.84700460  0.18061904
   0.56207820  0.72169891  0.12275353
   0.00805158  0.01222738  0.25385383
   0.79888164  0.32674274  0.18406806
   0.23255720  0.62040746  0.31689516
   0.34617716  0.60305419  0.05647018
   0.23847081  0.16510186  0.31334393
   0.80148225  0.87884045  0.18445834
   0.34617716  0.05624469  0.05647018
   0.55602264  0.00061472  0.25276399
   0.09516526  0.18175063  0.12156099
   0.34047062  0.60391201  0.02782883
   0.92434681  0.68523651  0.03696881
   0.34363348  0.06399961  0.02783421
   0.88838126  0.05560908  0.02665597
   0.62122165  0.63299092  0.39946352
   0.73519142  0.19062013  0.33868668
   0.80408734  0.56968881  0.33963381
   0.20053741  0.51229580  0.33372266
Direct configuration=    22
   0.22067121  0.89240241  0.08901558
   0.67524777  0.16655679  0.21854970
   0.94927612  0.02809995  0.15233499
   0.38672484  0.30693602  0.28322319
   0.44927612  0.52809995  0.15233499
   0.90409233  0.30826484  0.28467313
   0.44927612  0.02809995  0.15233499
   0.89677920  0.81048057  0.28455237
   0.90282244  0.55132680  0.10484543
   0.35324315  0.83101391  0.23386764
   0.99554852  0.50393651  0.20268008
   0.39898636  0.83192217  0.33884564
   0.53851998  0.23347802  0.07318573
   0.75749504  0.62303431  0.31503978
   0.87926422  0.06310591  0.05527763
   0.34057817  0.32959431  0.18282041
   0.58246139  0.21150732  0.12452493
   0.03621108  0.48232298  0.25552999
   0.61152374  0.58910378  0.37554604
   0.09516526  0.72856013  0.12156099
   0.54145667  0.45523963  0.25277180
   0.74145688  0.15123008  0.31403818
   0.85888103  0.57329750  0.05350623
   0.31399027  0.84695521  0.18062363
   0.56207820  0.72169891  0.12275353
   0.00800762  0.01226827  0.25383623
   0.79891216  0.32678389  0.18406698
   0.23263850  0.62034520  0.31686012
   0.34617716  0.60305419  0.05647018
   0.23853744  0.16495626  0.31333693
   0.80157408  0.87874321  0.18446281
   0.34617716  0.05624469  0.05647018
   0.55599479  0.00060025  0.25277555
   0.09516526  0.18175063  0.12156099
   0.34047062  0.60391201  0.02782883
   0.92434681  0.68523651  0.03696881
   0.34363348  0.06399961  0.02783421
   0.88838126  0.05560908  0.02665597
   0.62121483  0.63295658  0.39945976
   0.73517286  0.19078557  0.33869488
   0.80401561  0.56969261  0.33962869
   0.20061805  0.51222691  0.33370677
Direct configuration=    23
   0.22067121  0.89240241  0.08901558
   0.67545592  0.16631182  0.21848463
   0.94927612  0.02809995  0.15233499
   0.38688290  0.30683018  0.28319564
   0.44927612  0.52809995  0.15233499
   0.90412847  0.30833733  0.28467303
   0.44927612  0.02809995  0.15233499
   0.89678095  0.81055327  0.28453649
   0.90282244  0.55132680  0.10484543
   0.35315402  0.83093147  0.23384631
   0.99558345  0.50378201  0.20265362
   0.39906062  0.83196084  0.33882576
   0.53851998  0.23347802  0.07318573
   0.75761930  0.62296525  0.31504874
   0.87926422  0.06310591  0.05527763
   0.34056379  0.32964067  0.18282604
   0.58246139  0.21150732  0.12452493
   0.03617427  0.48231383  0.25551534
   0.61153230  0.58899793  0.37552480
   0.09516526  0.72856013  0.12156099
   0.54137742  0.45534769  0.25277452
   0.74161775  0.15112816  0.31401574
   0.85888103  0.57329750  0.05350623
   0.31402047  0.84690036  0.18062873
   0.56207820  0.72169891  0.12275353
   0.00795879  0.01231369  0.25381668
   0.79894605  0.32682960  0.18406577
   0.23272878  0.62027605  0.31682121
   0.34617716  0.60305419  0.05647018
   0.23861144  0.16479455  0.31332916
   0.80167607  0.87863521  0.18446777
   0.34617716  0.05624469  0.05647018
   0.55596387  0.00058418  0.25278838
   0.09516526  0.18175063  0.12156099
   0.34047062  0.60391201  0.02782883
   0.92434681  0.68523651  0.03696881
   0.34363348  0.06399961  0.02783421
   0.88838126  0.05560908  0.02665597
   0.62120727  0.63291844  0.39945560
   0.73515224  0.19096930  0.33870398
   0.80393596  0.56969683  0.33962300
   0.20070760  0.51215040  0.33368913
Direct configuration=    24
   0.22067121  0.89240241  0.08901558
   0.67560015  0.16612905  0.21844601
   0.94927612  0.02809995  0.15233499
   0.38704068  0.30670183  0.28317364
   0.44927612  0.52809995  0.15233499
   0.90416531  0.30840428  0.28467649
   0.44927612  0.02809995  0.15233499
   0.89678379  0.81059657  0.28452227
   0.90282244  0.55132680  0.10484543
   0.35310924  0.83083771  0.23382752
   0.99561002  0.50365018  0.20262710
   0.39913667  0.83199075  0.33880341
   0.53851998  0.23347802  0.07318573
   0.75776084  0.62295095  0.31503355
   0.87926422  0.06310591  0.05527763
   0.34052744  0.32970035  0.18283274
   0.58246139  0.21150732  0.12452493
   0.03610373  0.48247881  0.25551131
   0.61154691  0.58891221  0.37552412
   0.09516526  0.72856013  0.12156099
   0.54135755  0.45539255  0.25276637
   0.74177828  0.15103395  0.31402931
   0.85888103  0.57329750  0.05350623
   0.31399746  0.84688647  0.18063399
   0.56207820  0.72169891  0.12275353
   0.00781514  0.01227985  0.25380473
   0.79898815  0.32692138  0.18405217
   0.23277031  0.62016803  0.31678889
   0.34617716  0.60305419  0.05647018
   0.23866466  0.16465753  0.31331655
   0.80177468  0.87848647  0.18446467
   0.34617716  0.05624469  0.05647018
   0.55602248  0.00049585  0.25279877
   0.09516526  0.18175063  0.12156099
   0.34047062  0.60391201  0.02782883
   0.92434681  0.68523651  0.03696881
   0.34363348  0.06399961  0.02783421
   0.88838126  0.05560908  0.02665597
   0.62119600  0.63282376  0.39942677
   0.73515814  0.19107822  0.33866805
   0.80391036  0.56968280  0.33962927
   0.20083596  0.51212955  0.33365600
