Mn  O  H                                
   1.00000000000000     
     2.8735734950000000   -2.8735734950000000    4.7083351100000002
     5.7471469900000001    0.0000000000000000    0.0000000000000000
     0.0000000000000000   33.0656910066415008   20.1805290088081009
   Mn   O    H 
    13    21     7
Selective dynamics
Direct
  0.2206712106837827  0.8924024101981232  0.0890155841539979   F   F   F
  0.6757640552425218  0.1638026286191766  0.2179923885867667   T   T   T
  0.9492761232251894  0.0280999539274163  0.1523349856625060   F   F   F
  0.3945743335598528  0.3213937024943856  0.2823755962754079   T   T   T
  0.4492761232251894  0.5280999539274163  0.1523349856625060   F   F   F
  0.8945109410587397  0.3097597457599728  0.2843575854557636   T   T   T
  0.4492761232251894  0.0280999539274163  0.1523349856625060   F   F   F
  0.9063320635738991  0.7956917699033966  0.2850558116596738   T   T   T
  0.9028224388191362  0.5513267961304464  0.1048454345311214   F   F   F
  0.3500851062906176  0.8312135865328630  0.2340219837135535   T   T   T
  0.9954415726343576  0.5049641770157114  0.2027184989411065   T   T   T
  0.4442327669609195  0.7827466080988312  0.3329904081331173   T   T   T
  0.5385199825484293  0.2334780242657999  0.0731857337768673   F   F   F
  0.7737730679611488  0.6139080766941486  0.3123049066396530   T   T   T
  0.8792642171272149  0.0631059069764035  0.0552776342656358   F   F   F
  0.3404551382347492  0.3312856428856055  0.1828285219346687   T   T   T
  0.5824613929758371  0.2115073190520960  0.1245249348239739   F   F   F
  0.0366901830161143  0.4874118905931370  0.2556404267430524   T   T   T
  0.5250044747573123  0.9317496315935130  0.3725318280672011   T   T   T
  0.0951652613222294  0.7285601348788973  0.1215609852990625   F   F   F
  0.5586334653569311  0.4522520840879654  0.2511972060700309   T   T   T
  0.7474473832301776  0.1190285724208265  0.3131944611019699   T   T   T
  0.8588810283917283  0.5732975013441504  0.0535062334840219   F   F   F
  0.3124904530837929  0.8460836748748471  0.1807362168162206   T   T   T
  0.5620782042403505  0.7216989134198428  0.1227535340423529   F   F   F
  0.0048840559000832  0.0005365002249966  0.2547931840003930   T   T   T
  0.8019777202936583  0.3242294430029569  0.1838640994484419   T   T   T
  0.2655111138128412  0.6222392950150463  0.3112960440210440   T   T   T
  0.3461771600453361  0.6030541855173510  0.0564701830089334   F   F   F
  0.2369322947504410  0.1653600434697221  0.3147793684948465   T   T   T
  0.7994612289596952  0.8776754132065885  0.1839802286608526   T   T   T
  0.3461771600453361  0.0562446855173491  0.0564701830089334   F   F   F
  0.5433909812724655  0.0124089123129793  0.2523993817587398   T   T   T
  0.0951652613222294  0.1817506348788953  0.1215609852990625   F   F   F
  0.3404706169097480  0.6039120138460916  0.0278288297643030   F   F   F
  0.9243468113422040  0.6852365052266407  0.0369688146645331   F   F   F
  0.3436334761770041  0.0639996102436484  0.0278342118600037   F   F   F
  0.8883812645227351  0.0556090842097916  0.0266559720288981   F   F   F
  0.6551174228624790  0.8085907580577490  0.3872410351455859   T   T   T
  0.7226725066403566  0.0942338929150351  0.3375168920971388   T   T   T
  0.1988917328918472  0.2847687131926643  0.3345974583603586   T   T   T
 
  0.00000000E+00  0.00000000E+00  0.00000000E+00
  0.00000000E+00  0.00000000E+00  0.00000000E+00
  0.00000000E+00  0.00000000E+00  0.00000000E+00
  0.00000000E+00  0.00000000E+00  0.00000000E+00
  0.00000000E+00  0.00000000E+00  0.00000000E+00
  0.00000000E+00  0.00000000E+00  0.00000000E+00
  0.00000000E+00  0.00000000E+00  0.00000000E+00
  0.00000000E+00  0.00000000E+00  0.00000000E+00
  0.00000000E+00  0.00000000E+00  0.00000000E+00
  0.00000000E+00  0.00000000E+00  0.00000000E+00
  0.00000000E+00  0.00000000E+00  0.00000000E+00
  0.00000000E+00  0.00000000E+00  0.00000000E+00
  0.00000000E+00  0.00000000E+00  0.00000000E+00
  0.00000000E+00  0.00000000E+00  0.00000000E+00
  0.00000000E+00  0.00000000E+00  0.00000000E+00
  0.00000000E+00  0.00000000E+00  0.00000000E+00
  0.00000000E+00  0.00000000E+00  0.00000000E+00
  0.00000000E+00  0.00000000E+00  0.00000000E+00
  0.00000000E+00  0.00000000E+00  0.00000000E+00
  0.00000000E+00  0.00000000E+00  0.00000000E+00
  0.00000000E+00  0.00000000E+00  0.00000000E+00
  0.00000000E+00  0.00000000E+00  0.00000000E+00
  0.00000000E+00  0.00000000E+00  0.00000000E+00
  0.00000000E+00  0.00000000E+00  0.00000000E+00
  0.00000000E+00  0.00000000E+00  0.00000000E+00
  0.00000000E+00  0.00000000E+00  0.00000000E+00
  0.00000000E+00  0.00000000E+00  0.00000000E+00
  0.00000000E+00  0.00000000E+00  0.00000000E+00
  0.00000000E+00  0.00000000E+00  0.00000000E+00
  0.00000000E+00  0.00000000E+00  0.00000000E+00
  0.00000000E+00  0.00000000E+00  0.00000000E+00
  0.00000000E+00  0.00000000E+00  0.00000000E+00
  0.00000000E+00  0.00000000E+00  0.00000000E+00
  0.00000000E+00  0.00000000E+00  0.00000000E+00
  0.00000000E+00  0.00000000E+00  0.00000000E+00
  0.00000000E+00  0.00000000E+00  0.00000000E+00
  0.00000000E+00  0.00000000E+00  0.00000000E+00
  0.00000000E+00  0.00000000E+00  0.00000000E+00
  0.00000000E+00  0.00000000E+00  0.00000000E+00
  0.00000000E+00  0.00000000E+00  0.00000000E+00
  0.00000000E+00  0.00000000E+00  0.00000000E+00
