Mn  O  H 
 1.0000000000000000
     5.7471469900000001    0.0000000000000000    0.0000000000000000
     0.0000000000000000    5.7471469900000001    0.0000000000000000
     0.0000000000000000    0.0000000000000000   38.3054457869999965
 Mn  O   H  
  14  21   5
Selective dynamics
Cartesian
  0.0033900000000154  1.4234000000000122 11.1649000000000012   F   F   F
  2.8336700000000077  4.2884199999999959 15.9662799999999905   T   T   T
  2.8326399999999849  1.4184400000000024 15.9569000000000418   T   T   T
  0.0033900000000154  4.2969700000000008 11.1649000000000012   F   F   F
  4.3137500000000184  2.8601799999999851 13.5190699999999993   F   F   F
  4.2773012529724328  0.0048815223321967 18.3187524545975329   T   T   T
  1.4401799999999898  2.8601799999999851 13.5190699999999993   F   F   F
  1.3667172909235819  0.0158671052724611 18.5253672967371834   T   T   T
  5.7252100000000112  5.7322099999999816 14.7616399999998986   T   T   T
  3.1241803900819063  2.8601823960143307 19.5854424031821530   T   T   T
  5.7380822230283073  2.9081352886065068 17.2410291189933496   T   T   T
  2.8769600000000035  5.7337600000000162 12.3419800000000421   F   F   F
 -0.0415603018551630  1.4626444195158936 21.9459957849496696   T   T   T
  0.0099883037462015  4.1629978423655505 21.1882022467707358   T   T   T
 -0.0706542254865463  1.2885665849962602 18.4709064793548450   T   T   T
  2.8769600000000035  4.1624599999999932 13.5849299999999928   F   F   F
  2.8769600000000035  1.5579099999999797 13.5849299999999928   F   F   F
 -0.0763556204367522  4.4455851496980738 18.6667129058924637   T   T   T
  4.4482599999999861  2.8601799999999851 11.2307599999999965   F   F   F
  4.1562999999999839  5.7347199999999905 16.1006200000000916   T   T   T
  2.8241474292841326  1.2995497367714486 18.3219814398228067   T   T   T
  0.0033900000000154  4.1624599999999932 13.4532100000000057   F   F   F
  0.0033900000000154  1.5579099999999797 13.4532100000000057   F   F   F
  2.8217258356821864  4.4592240973472945 18.3473170031528561   T   T   T
  4.1469399999999794  2.8510600000000053 15.8858200000000593   T   T   T
  4.4482599999999861  5.7337600000000162 11.0990400000000040   F   F   F
  1.5222899999999804  2.8514700000000057 15.8486600000000788   T   T   T
  1.3056699999999815  5.7337600000000162 11.0990400000000040   F   F   F
  1.5399400000000043  5.7309300000000158 16.0764200000000237   T   T   T
  1.3056699999999815  2.8601799999999851 11.2307599999999965   F   F   F
  4.4671368159221876  2.8259748789940495 21.0296852819766009   T   T   T
  1.2448172730780980 -0.0287307237462362 21.0365759357593980   T   T   T
  1.5420662607936169  2.8978588382134398 20.9451106904393747   T   T   T
  0.4665460504775357  3.0093424657524901 23.2323424263261984   T   T   T
  4.4223894669951198 -0.2356672513967803 21.8319793769683876   T   T   T
  2.0371800000000047  2.8010799999999874 10.3979999999999873   F   F   F
  2.1813337848158998 -0.1285479582137385 21.3029317602600550   T   T   T
  1.9994782324029476  2.9886671589095113 21.8091105670700891   T   T   T
  3.9904368716844609  5.0993741843922695 22.6012373323203484   T   T   T
  0.0373874773951468  3.1681132203166795 24.0878252853044543   T   T   T
