Mn O  H 
 1.0000000000000000
     5.7471469900000001    0.0000000000000000    0.0000000000000000
     0.0000000000000000    5.7471469900000001    0.0000000000000000
     0.0000000000000000    0.0000000000000000   38.3523056924327008
 Mn  O   H  
  15  21   2
Selective dynamics
Direct
 -0.0093835343744717  0.2391760241319369  0.2623916092900749   F   F   F
  0.7489864879576713  0.4968346817732093  0.3235847127412249   F   F   F
  0.4836924637340926  0.2574360406853053  0.3939712797250507   T   T   T
  0.7296334852896718  0.0102378322362945  0.4590030035895659   T   T   T
  0.2286670302966288  0.0116791152282076  0.4564288502017349   T   T   T
  0.2510151206674320  0.4955812159049278  0.3269556710605909   F   F   F
  0.4846838158562459  0.7569700451606349  0.3940058557253280   T   T   T
 -0.0100916428494874  0.7513987945614823  0.2627757334990781   F   F   F
  0.0024768544779153 -0.0045784375955736  0.3571699137271092   F   F   F
 -0.0175672843401934  0.5100717164648942  0.4265472789175089   T   T   T
  0.4538155698715565  0.5151885754082002  0.4907909231172748   T   T   T
  0.4872487909802456 -0.0043314717839424  0.2917774653642574   F   F   F
  0.4847861934132938  0.0973387032419833  0.5512172272226596   T   T   T
  0.9577113058596615  0.2549019131037258  0.5276820066381102   T   T   T
 -0.0315186353301281  0.7489843422584188  0.5214885319505265   T   T   T
 -0.0172915202449928  0.2343322340775888  0.4605307276104568   T   T   T
  0.7747574636748692  0.4958631552600724  0.2647010163483396   F   F   F
  0.4994775423373534  0.2678073900728424  0.3280746410023943   F   F   F
  0.7113661812444897  0.0062618099734959  0.3973796231920858   T   T   T
  0.0037645548922136  0.2690184215424850  0.3222536979589821   F   F   F
  0.7692367725186661 -0.0055241815224737  0.2597891457639432   F   F   F
  0.4760072752396490  0.2393980381024213  0.4556043844554882   T   T   T
  0.7105189397511144  0.5082689800778890  0.3914522366881474   T   T   T
  0.2111692605782599 -0.0057975698878655  0.2583053953367737   F   F   F
  0.2546753603993710  0.5084821855116747  0.3910629686275245   T   T   T
  0.2272536477132092  0.4962741366236937  0.2626329689737672   F   F   F
  0.2552144773869165  0.0059307481589441  0.3967715477895074   T   T   T
  0.4987015056994976  0.7247605740973498  0.3278246169346272   F   F   F
 -0.0128877472034688  0.7819594320225578  0.4618438790869738   T   T   T
  0.4765676183271455  0.7831571249587725  0.4553024789606906   T   T   T
  0.0041034282560547  0.7236694402594225  0.3222276800561435   F   F   F
  0.7404861048037120  0.5073364545212573  0.5221042808544625   T   T   T
  0.1906206609252337  0.4996030859720749  0.5278884288429219   T   T   T
  0.7396073906817489 -0.0022433653375697  0.5159335116616734   T   T   T
  0.7575348501166737  0.1816990601371367  0.5802900191929242   T   T   T
  0.1866587010726251  0.0052567542832283  0.5293406568662722   T   T   T
  0.3862807976787250  0.4992215041381847  0.2532026820654570   F   F   F
  0.7476936770918616  0.3084350655629030  0.5969467273004974   T   T   T
