Mn O  H 
 1.0000000000000000
     5.7471469900000001    0.0000000000000000    0.0000000000000000
     0.0000000000000000    5.7471469900000001    0.0000000000000000
     0.0000000000000000    0.0000000000000000   38.3523056924327008
 Mn  O   H  
  14  20   4
Selective dynamics
Direct
 -0.0093835343744717  0.2391760241319369  0.2623916092900749   F   F   F
  0.7489864879576713  0.4968346817732093  0.3235847127412249   F   F   F
  0.4845436938289701  0.2538516442145157  0.3937791534692047   T   T   T
  0.7457174960146885  0.0076179831277758  0.4551233546919121   T   T   T
  0.2477095525038905  0.0082355850647460  0.4619576390436170   T   T   T
  0.2510151206674320  0.4955812159049278  0.3269556710605909   F   F   F
  0.4855235333014640  0.7536016985088320  0.3940140012034981   T   T   T
 -0.0100916428494874  0.7513987945614823  0.2627757334990781   F   F   F
  0.0024768544779153 -0.0045784375955736  0.3571699137271092   F   F   F
 -0.0163998710880731  0.4989132427656213  0.4262262921757863   T   T   T
  0.4735120029445469  0.5022282345044496  0.4904261024610814   T   T   T
  0.4872487909802456 -0.0043314717839424  0.2917774653642574   F   F   F
  0.0223877050340096  0.2225173911379374  0.5328126433030218   T   T   T
 -0.0150612550232283  0.7457973764562154  0.5171849114999780   T   T   T
 -0.0056698567702292  0.2306150035158668  0.4624838497724315   T   T   T
  0.7747574636748692  0.4958631552600724  0.2647010163483396   F   F   F
  0.4994775423373534  0.2678073900728424  0.3280746410023943   F   F   F
  0.7156346092003515  0.0025748846836280  0.3969016646514890   T   T   T
  0.0037645548922136  0.2690184215424850  0.3222536979589821   F   F   F
  0.7692367725186661 -0.0055241815224737  0.2597891457639432   F   F   F
  0.5003937832249283  0.2400059288459811  0.4541035407543454   T   T   T
  0.7122682688271516  0.5048914579068207  0.3908212362969971   T   T   T
  0.2111692605782599 -0.0057975698878655  0.2583053953367737   F   F   F
  0.2553794520530011  0.5050418530312454  0.3909745358112172   T   T   T
  0.2272536477132092  0.4962741366236937  0.2626329689737672   F   F   F
  0.2592353434934681  0.0019477667416663  0.3966881300550601   T   T   T
  0.4987015056994976  0.7247605740973498  0.3278246169346272   F   F   F
 -0.0176142244419167  0.7723214180967573  0.4611014186828623   T   T   T
  0.4924153310899144  0.7801365239920717  0.4557293194735568   T   T   T
  0.0041034282560547  0.7236694402594225  0.3222276800561435   F   F   F
  0.7485679165762674  0.4706714055434177  0.5261067639730631   T   T   T
  0.2539126091770255  0.5061509487328636  0.5355647582629021   T   T   T
  0.7787318336485106  0.9714138575470287  0.5470160243211413   T   T   T
  0.2553952088103612 -0.0136822273392628  0.5159788906849133   T   T   T
  0.3862807976787250  0.4992215041381847  0.2532026820654570   F   F   F
  0.6729846896089055  0.4931534848647062  0.5485775649989729   T   T   T
  0.3149116978816884  0.6184314012519417  0.5522854308819071   T   T   T
  0.6148043024330160 -0.0042439393980131  0.5406520236230259   T   T   T
