unknown system                          
           1
     2.873573   -2.873573    4.708335
     5.747147    0.000000    0.000000
     0.000000   33.065691   20.180529
   Mn   O    H 
  13  22  10
Direct configuration=     1
   0.22067121  0.89240241  0.08901558
   0.66934534  0.16386901  0.21806762
   0.94927612  0.02809995  0.15233499
   0.36813557  0.31962324  0.28513981
   0.44927612  0.52809995  0.15233499
   0.87511703  0.30130632  0.28538721
   0.44927612  0.02809995  0.15233499
   0.85797888  0.81012753  0.28272099
   0.90282244  0.55132680  0.10484543
   0.34777607  0.81709583  0.23337797
   0.99096927  0.50698809  0.20447052
   0.40155674  0.81908762  0.35040923
   0.53851998  0.23347802  0.07318573
   0.74496284  0.63665930  0.31861339
   0.87926422  0.06310591  0.05527763
   0.33518224  0.33532175  0.18303386
   0.58246139  0.21150732  0.12452493
   0.03524564  0.48704693  0.25868840
   0.55248845  0.59906539  0.38805464
   0.09516526  0.72856013  0.12156099
   0.56163867  0.44931145  0.25175244
   0.71099314  0.11858705  0.31309493
   0.85888103  0.57329750  0.05350623
   0.30940631  0.84767638  0.18028398
   0.56207820  0.72169891  0.12275353
   0.01056896  0.97029256  0.25544292
   0.79977278  0.32708447  0.18456877
   0.25948652  0.59981811  0.33216199
   0.34617716  0.60305419  0.05647018
   0.19797711  0.12311803  0.31998391
   0.79863349  0.87611428  0.18380549
   0.34617716  0.05624469  0.05647018
   0.54928830  0.98853973  0.25027931
   0.09516526  0.18175063  0.12156099
   0.49315710  0.07595241  0.37070445
   0.34047062  0.60391201  0.02782883
   0.92434681  0.68523651  0.03696881
   0.34363348  0.06399961  0.02783421
   0.88838126  0.05560908  0.02665597
   0.53499573  0.43888560  0.38923024
   0.67694777  0.09213046  0.33762209
   0.84865379  0.61649528  0.33856458
   0.31852917  0.45628422  0.34920002
   0.14793730  0.25427435  0.33838346
   0.55820934  0.00537615  0.39343702
Direct configuration=     2
   0.22067121  0.89240241  0.08901558
   0.66926544  0.16371216  0.21808089
   0.94927612  0.02809995  0.15233499
   0.36929003  0.31943694  0.28488428
   0.44927612  0.52809995  0.15233499
   0.87494182  0.30072841  0.28519549
   0.44927612  0.02809995  0.15233499
   0.85821063  0.81076693  0.28249101
   0.90282244  0.55132680  0.10484543
   0.34938836  0.81645451  0.23341014
   0.99088520  0.50717382  0.20445583
   0.40109728  0.81930592  0.35020619
   0.53851998  0.23347802  0.07318573
   0.74566299  0.63621656  0.31850682
   0.87926422  0.06310591  0.05527763
   0.33577141  0.33392577  0.18285904
   0.58246139  0.21150732  0.12452493
   0.03344327  0.48906419  0.25877206
   0.55253565  0.59903550  0.38803721
   0.09516526  0.72856013  0.12156099
   0.56201986  0.44986708  0.25168346
   0.71204206  0.11763341  0.31312106
   0.85888103  0.57329750  0.05350623
   0.31009890  0.84809518  0.18017224
   0.56207820  0.72169891  0.12275353
   0.00929835  0.97110565  0.25572612
   0.80029658  0.32519870  0.18443848
   0.25940037  0.60052807  0.33239314
   0.34617716  0.60305419  0.05647018
   0.19801570  0.12205792  0.32023500
   0.79903721  0.87654772  0.18368392
   0.34617716  0.05624469  0.05647018
   0.54923287  0.98777819  0.25025998
   0.09516526  0.18175063  0.12156099
   0.49301296  0.07565551  0.37072542
   0.34047062  0.60391201  0.02782883
   0.92434681  0.68523651  0.03696881
   0.34363348  0.06399961  0.02783421
   0.88838126  0.05560908  0.02665597
   0.53514752  0.43909942  0.38918567
   0.67703311  0.09194532  0.33760877
   0.84883297  0.61639095  0.33854868
   0.31841164  0.45636439  0.34917254
   0.14799447  0.25418647  0.33837459
   0.55828911  0.00520562  0.39344362
Direct configuration=     3
   0.22067121  0.89240241  0.08901558
   0.66926551  0.16371228  0.21808088
   0.94927612  0.02809995  0.15233499
   0.36928911  0.31943709  0.28488448
   0.44927612  0.52809995  0.15233499
   0.87494196  0.30072887  0.28519564
   0.44927612  0.02809995  0.15233499
   0.85821044  0.81076642  0.28249119
   0.90282244  0.55132680  0.10484543
   0.34938707  0.81645502  0.23341011
   0.99088527  0.50717367  0.20445584
   0.40109765  0.81930574  0.35020635
   0.53851998  0.23347802  0.07318573
   0.74566243  0.63621692  0.31850691
   0.87926422  0.06310591  0.05527763
   0.33577094  0.33392689  0.18285918
   0.58246139  0.21150732  0.12452493
   0.03344471  0.48906257  0.25877200
   0.55253561  0.59903552  0.38803722
   0.09516526  0.72856013  0.12156099
   0.56201955  0.44986664  0.25168351
   0.71204122  0.11763417  0.31312104
   0.85888103  0.57329750  0.05350623
   0.31009834  0.84809484  0.18017233
   0.56207820  0.72169891  0.12275353
   0.00929937  0.97110500  0.25572589
   0.80029616  0.32520021  0.18443859
   0.25940044  0.60052750  0.33239296
   0.34617716  0.60305419  0.05647018
   0.19801567  0.12205877  0.32023480
   0.79903689  0.87654737  0.18368401
   0.34617716  0.05624469  0.05647018
   0.54923292  0.98777880  0.25026000
   0.09516526  0.18175063  0.12156099
   0.49301307  0.07565575  0.37072541
   0.34047062  0.60391201  0.02782883
   0.92434681  0.68523651  0.03696881
   0.34363348  0.06399961  0.02783421
   0.88838126  0.05560908  0.02665597
   0.53514740  0.43909925  0.38918570
   0.67703304  0.09194547  0.33760878
   0.84883282  0.61639104  0.33854869
   0.31841173  0.45636432  0.34917256
   0.14799442  0.25418654  0.33837459
   0.55828904  0.00520575  0.39344362
Direct configuration=     4
   0.22067121  0.89240241  0.08901558
   0.66934470  0.16321543  0.21799935
   0.94927612  0.02809995  0.15233499
   0.37036957  0.31933612  0.28466123
   0.44927612  0.52809995  0.15233499
   0.87483190  0.30073581  0.28516699
   0.44927612  0.02809995  0.15233499
   0.85742802  0.81143876  0.28257501
   0.90282244  0.55132680  0.10484543
   0.35040315  0.81613675  0.23338407
   0.99080161  0.50722617  0.20438622
   0.40177938  0.81866694  0.35027174
   0.53851998  0.23347802  0.07318573
   0.74698076  0.63532947  0.31827127
   0.87926422  0.06310591  0.05527763
   0.33599875  0.33272850  0.18273795
   0.58246139  0.21150732  0.12452493
   0.03211957  0.49027528  0.25873076
   0.55243536  0.60032046  0.38789278
   0.09516526  0.72856013  0.12156099
   0.56251640  0.45008580  0.25155144
   0.71325441  0.11685136  0.31300310
   0.85888103  0.57329750  0.05350623
   0.31096243  0.84826154  0.18014026
   0.56207820  0.72169891  0.12275353
   0.00906362  0.97231643  0.25587921
   0.80103284  0.32349817  0.18437017
   0.25850386  0.60203720  0.33243267
   0.34617716  0.60305419  0.05647018
   0.19788326  0.12076057  0.32025459
   0.79963886  0.87649462  0.18360923
   0.34617716  0.05624469  0.05647018
   0.54909779  0.98750875  0.25021042
   0.09516526  0.18175063  0.12156099
   0.49277670  0.07529704  0.37066329
   0.34047062  0.60391201  0.02782883
   0.92434681  0.68523651  0.03696881
   0.34363348  0.06399961  0.02783421
   0.88838126  0.05560908  0.02665597
   0.53528726  0.43863225  0.38912734
   0.67706317  0.09151818  0.33767199
   0.84891280  0.61625199  0.33847366
   0.31883997  0.45530345  0.34930360
   0.14773361  0.25499444  0.33851617
   0.55845002  0.00476011  0.39346970
Direct configuration=     5
   0.22067121  0.89240241  0.08901558
   0.66930789  0.16344635  0.21803724
   0.94927612  0.02809995  0.15233499
   0.36986740  0.31938305  0.28476499
   0.44927612  0.52809995  0.15233499
   0.87488305  0.30073259  0.28518031
   0.44927612  0.02809995  0.15233499
   0.85779167  0.81112627  0.28253606
   0.90282244  0.55132680  0.10484543
   0.34993090  0.81628467  0.23339617
   0.99084049  0.50720177  0.20441858
   0.40146253  0.81896384  0.35024135
   0.53851998  0.23347802  0.07318573
   0.74636803  0.63574193  0.31838079
   0.87926422  0.06310591  0.05527763
   0.33589287  0.33328548  0.18279429
   0.58246139  0.21150732  0.12452493
   0.03273546  0.48971165  0.25874993
   0.55248196  0.59972325  0.38795991
   0.09516526  0.72856013  0.12156099
   0.56228548  0.44998394  0.25161282
   0.71269055  0.11721519  0.31305791
   0.85888103  0.57329750  0.05350623
   0.31056083  0.84818406  0.18015517
   0.56207820  0.72169891  0.12275353
   0.00917319  0.97175339  0.25580795
   0.80069045  0.32428924  0.18440197
   0.25892057  0.60133553  0.33241421
   0.34617716  0.60305419  0.05647018
   0.19794480  0.12136394  0.32024539
   0.79935908  0.87651914  0.18364399
   0.34617716  0.05624469  0.05647018
   0.54916059  0.98763426  0.25023346
   0.09516526  0.18175063  0.12156099
   0.49288656  0.07546376  0.37069216
   0.34047062  0.60391201  0.02782883
   0.92434681  0.68523651  0.03696881
   0.34363348  0.06399961  0.02783421
   0.88838126  0.05560908  0.02665597
   0.53522226  0.43884930  0.38915446
   0.67704917  0.09171677  0.33764261
   0.84887563  0.61631662  0.33850853
   0.31864094  0.45579652  0.34924269
   0.14785483  0.25461895  0.33845037
   0.55837520  0.00496723  0.39345758
Direct configuration=     6
   0.22067121  0.89240241  0.08901558
   0.66930152  0.16348632  0.21804380
   0.94927612  0.02809995  0.15233499
   0.36978050  0.31939117  0.28478295
   0.44927612  0.52809995  0.15233499
   0.87489191  0.30073203  0.28518261
   0.44927612  0.02809995  0.15233499
   0.85785460  0.81107219  0.28252931
   0.90282244  0.55132680  0.10484543
   0.34984918  0.81631027  0.23339827
   0.99084722  0.50719755  0.20442418
   0.40140770  0.81901522  0.35023609
   0.53851998  0.23347802  0.07318573
   0.74626200  0.63581331  0.31839974
   0.87926422  0.06310591  0.05527763
   0.33587455  0.33338187  0.18280404
   0.58246139  0.21150732  0.12452493
   0.03284204  0.48961411  0.25875324
   0.55249002  0.59961991  0.38797153
   0.09516526  0.72856013  0.12156099
   0.56224552  0.44996631  0.25162345
   0.71259297  0.11727816  0.31306740
   0.85888103  0.57329750  0.05350623
   0.31049133  0.84817065  0.18015775
   0.56207820  0.72169891  0.12275353
   0.00919215  0.97165595  0.25579562
   0.80063120  0.32442613  0.18440747
   0.25899268  0.60121411  0.33241102
   0.34617716  0.60305419  0.05647018
   0.19795545  0.12146835  0.32024380
   0.79931066  0.87652338  0.18365000
   0.34617716  0.05624469  0.05647018
   0.54917146  0.98765598  0.25023745
   0.09516526  0.18175063  0.12156099
   0.49290557  0.07549261  0.37069716
   0.34047062  0.60391201  0.02782883
   0.92434681  0.68523651  0.03696881
   0.34363348  0.06399961  0.02783421
   0.88838126  0.05560908  0.02665597
   0.53521101  0.43888686  0.38915916
   0.67704674  0.09175114  0.33763753
   0.84886920  0.61632780  0.33851457
   0.31860649  0.45588184  0.34923216
   0.14787580  0.25455397  0.33843898
   0.55836226  0.00500308  0.39345548
Direct configuration=     7
   0.22067121  0.89240241  0.08901558
   0.66951985  0.16293594  0.21793584
   0.94927612  0.02809995  0.15233499
   0.37019655  0.31951559  0.28464211
   0.44927612  0.52809995  0.15233499
   0.87505757  0.30107871  0.28523756
   0.44927612  0.02809995  0.15233499
   0.85716204  0.81133736  0.28269598
   0.90282244  0.55132680  0.10484543
   0.34994493  0.81637684  0.23334140
   0.99080648  0.50707878  0.20434115
   0.40201742  0.81857286  0.35033119
   0.53851998  0.23347802  0.07318573
   0.74742263  0.63494461  0.31822085
   0.87926422  0.06310591  0.05527763
   0.33575869  0.33283693  0.18277350
   0.58246139  0.21150732  0.12452493
   0.03231904  0.48995778  0.25866021
   0.55250869  0.59937761  0.38787530
   0.09516526  0.72856013  0.12156099
   0.56265729  0.44980291  0.25149266
   0.71307048  0.11690560  0.31308941
   0.85888103  0.57329750  0.05350623
   0.31114377  0.84802546  0.18019869
   0.56207820  0.72169891  0.12275353
   0.00967732  0.97259005  0.25582363
   0.80124376  0.32358247  0.18441113
   0.25859051  0.60104318  0.33251100
   0.34617716  0.60305419  0.05647018
   0.19736094  0.12178399  0.32031192
   0.79983380  0.87605909  0.18363508
   0.34617716  0.05624469  0.05647018
   0.54909462  0.98786871  0.25019038
   0.09516526  0.18175063  0.12156099
   0.49304746  0.07510756  0.37069262
   0.34047062  0.60391201  0.02782883
   0.92434681  0.68523651  0.03696881
   0.34363348  0.06399961  0.02783421
   0.88838126  0.05560908  0.02665597
   0.53547663  0.43957651  0.38909830
   0.67719392  0.09145452  0.33758970
   0.84884352  0.61617568  0.33840204
   0.31859856  0.45595815  0.34923846
   0.14804821  0.25425090  0.33843943
   0.55831720  0.00477632  0.39340588
Direct configuration=     8
   0.22067121  0.89240241  0.08901558
   0.66949155  0.16300727  0.21794984
   0.94927612  0.02809995  0.15233499
   0.37014263  0.31949947  0.28466036
   0.44927612  0.52809995  0.15233499
   0.87503610  0.30103377  0.28523044
   0.44927612  0.02809995  0.15233499
   0.85725180  0.81130299  0.28267437
   0.90282244  0.55132680  0.10484543
   0.34993252  0.81636821  0.23334877
   0.99081176  0.50709418  0.20435191
   0.40193839  0.81863019  0.35031887
   0.53851998  0.23347802  0.07318573
   0.74727220  0.63505720  0.31824404
   0.87926422  0.06310591  0.05527763
   0.33577371  0.33290756  0.18277746
   0.58246139  0.21150732  0.12452493
   0.03238683  0.48991324  0.25867227
   0.55250627  0.59940901  0.38788777
   0.09516526  0.72856013  0.12156099
   0.56260392  0.44982409  0.25150961
   0.71300859  0.11695389  0.31308656
   0.85888103  0.57329750  0.05350623
   0.31105921  0.84804428  0.18019338
   0.56207820  0.72169891  0.12275353
   0.00961444  0.97246898  0.25582000
   0.80116436  0.32369182  0.18441066
   0.25864264  0.60106533  0.33249804
   0.34617716  0.60305419  0.05647018
   0.19743799  0.12174308  0.32030309
   0.79976600  0.87611926  0.18363701
   0.34617716  0.05624469  0.05647018
   0.54910458  0.98784114  0.25019648
   0.09516526  0.18175063  0.12156099
   0.49302907  0.07515747  0.37069321
   0.34047062  0.60391201  0.02782883
   0.92434681  0.68523651  0.03696881
   0.34363348  0.06399961  0.02783421
   0.88838126  0.05560908  0.02665597
   0.53544221  0.43948712  0.38910619
   0.67717484  0.09149297  0.33759590
   0.84884685  0.61619540  0.33841662
   0.31859959  0.45594826  0.34923765
   0.14802586  0.25429018  0.33843937
   0.55832304  0.00480571  0.39341231
Direct configuration=     9
   0.22067121  0.89240241  0.08901558
   0.66947098  0.16305912  0.21796001
   0.94927612  0.02809995  0.15233499
   0.37010343  0.31948774  0.28467363
   0.44927612  0.52809995  0.15233499
   0.87502049  0.30100111  0.28522526
   0.44927612  0.02809995  0.15233499
   0.85731705  0.81127801  0.28265867
   0.90282244  0.55132680  0.10484543
   0.34992350  0.81636194  0.23335413
   0.99081560  0.50710537  0.20435973
   0.40188095  0.81867187  0.35030991
   0.53851998  0.23347802  0.07318573
   0.74716285  0.63513905  0.31826089
   0.87926422  0.06310591  0.05527763
   0.33578462  0.33295890  0.18278034
   0.58246139  0.21150732  0.12452493
   0.03243610  0.48988086  0.25868103
   0.55250451  0.59943184  0.38789684
   0.09516526  0.72856013  0.12156099
   0.56256513  0.44983948  0.25152193
   0.71296361  0.11698899  0.31308448
   0.85888103  0.57329750  0.05350623
   0.31099774  0.84805796  0.18018952
   0.56207820  0.72169891  0.12275353
   0.00956873  0.97238098  0.25581736
   0.80110665  0.32377130  0.18441031
   0.25868053  0.60108143  0.33248862
   0.34617716  0.60305419  0.05647018
   0.19749400  0.12171334  0.32029667
   0.79971671  0.87616301  0.18363842
   0.34617716  0.05624469  0.05647018
   0.54911182  0.98782110  0.25020092
   0.09516526  0.18175063  0.12156099
   0.49301570  0.07519374  0.37069364
   0.34047062  0.60391201  0.02782883
   0.92434681  0.68523651  0.03696881
   0.34363348  0.06399961  0.02783421
   0.88838126  0.05560908  0.02665597
   0.53541718  0.43942215  0.38911192
   0.67716098  0.09152091  0.33760041
   0.84884927  0.61620973  0.33842722
   0.31860033  0.45594107  0.34923705
   0.14800962  0.25431873  0.33843933
   0.55832729  0.00482707  0.39341698
Direct configuration=    10
   0.22067121  0.89240241  0.08901558
   0.66977844  0.16262098  0.21788986
   0.94927612  0.02809995  0.15233499
   0.37000155  0.31983251  0.28456254
   0.44927612  0.52809995  0.15233499
   0.87544977  0.30111911  0.28524472
   0.44927612  0.02809995  0.15233499
   0.85752017  0.81132109  0.28265965
   0.90282244  0.55132680  0.10484543
   0.34961597  0.81656093  0.23330509
   0.99083048  0.50684650  0.20429134
   0.40173093  0.81880992  0.35029383
   0.53851998  0.23347802  0.07318573
   0.74760452  0.63450081  0.31815438
   0.87926422  0.06310591  0.05527763
   0.33563696  0.33279406  0.18278810
   0.58246139  0.21150732  0.12452493
   0.03226119  0.49021012  0.25861785
   0.55304063  0.59968666  0.38787275
   0.09516526  0.72856013  0.12156099
   0.56290036  0.44952411  0.25141495
   0.71297669  0.11701180  0.31314161
   0.85888103  0.57329750  0.05350623
   0.31147662  0.84772855  0.18023929
   0.56207820  0.72169891  0.12275353
   0.00995473  0.97288921  0.25585415
   0.80155156  0.32342038  0.18443422
   0.25837761  0.60100490  0.33253881
   0.34617716  0.60305419  0.05647018
   0.19727677  0.12163997  0.32029743
   0.80012118  0.87557253  0.18363550
   0.34617716  0.05624469  0.05647018
   0.54915728  0.98815829  0.25017391
   0.09516526  0.18175063  0.12156099
   0.49318815  0.07500120  0.37065632
   0.34047062  0.60391201  0.02782883
   0.92434681  0.68523651  0.03696881
   0.34363348  0.06399961  0.02783421
   0.88838126  0.05560908  0.02665597
   0.53558616  0.43907872  0.38906322
   0.67726161  0.09127255  0.33756321
   0.84908996  0.61594069  0.33834659
   0.31865298  0.45577452  0.34926606
   0.14808463  0.25436212  0.33848875
   0.55843050  0.00450056  0.39341099
Direct configuration=    11
   0.22067121  0.89240241  0.08901558
   0.66978420  0.16261277  0.21788855
   0.94927612  0.02809995  0.15233499
   0.36999965  0.31983897  0.28456046
   0.44927612  0.52809995  0.15233499
   0.87545781  0.30112132  0.28524508
   0.44927612  0.02809995  0.15233499
   0.85752398  0.81132189  0.28265967
   0.90282244  0.55132680  0.10484543
   0.34961021  0.81656466  0.23330417
   0.99083076  0.50684165  0.20429006
   0.40172812  0.81881251  0.35029353
   0.53851998  0.23347802  0.07318573
   0.74761280  0.63448886  0.31815239
   0.87926422  0.06310591  0.05527763
   0.33563419  0.33279097  0.18278825
   0.58246139  0.21150732  0.12452493
   0.03225792  0.49021628  0.25861666
   0.55305067  0.59969143  0.38787230
   0.09516526  0.72856013  0.12156099
   0.56290664  0.44951820  0.25141295
   0.71297694  0.11701222  0.31314268
   0.85888103  0.57329750  0.05350623
   0.31148559  0.84772238  0.18024022
   0.56207820  0.72169891  0.12275353
   0.00996196  0.97289873  0.25585484
   0.80155989  0.32341381  0.18443466
   0.25837193  0.60100347  0.33253975
   0.34617716  0.60305419  0.05647018
   0.19727270  0.12163859  0.32029745
   0.80012876  0.87556147  0.18363545
   0.34617716  0.05624469  0.05647018
   0.54915813  0.98816461  0.25017341
   0.09516526  0.18175063  0.12156099
   0.49319138  0.07499760  0.37065562
   0.34047062  0.60391201  0.02782883
   0.92434681  0.68523651  0.03696881
   0.34363348  0.06399961  0.02783421
   0.88838126  0.05560908  0.02665597
   0.53558933  0.43907229  0.38906231
   0.67726350  0.09126790  0.33756251
   0.84909446  0.61593565  0.33834508
   0.31865397  0.45577140  0.34926660
   0.14808603  0.25436293  0.33848967
   0.55843244  0.00449445  0.39341087
Direct configuration=    12
   0.22067121  0.89240241  0.08901558
   0.67000672  0.16235642  0.21785722
   0.94927612  0.02809995  0.15233499
   0.36988835  0.32010993  0.28448832
   0.44927612  0.52809995  0.15233499
   0.87575900  0.30109309  0.28524511
   0.44927612  0.02809995  0.15233499
   0.85781404  0.81143504  0.28262159
   0.90282244  0.55132680  0.10484543
   0.34941862  0.81668817  0.23328189
   0.99087335  0.50660655  0.20425029
   0.40150181  0.81896555  0.35026155
   0.53851998  0.23347802  0.07318573
   0.74779522  0.63412654  0.31810266
   0.87926422  0.06310591  0.05527763
   0.33559954  0.33270932  0.18279314
   0.58246139  0.21150732  0.12452493
   0.03223448  0.49049793  0.25857515
   0.55347852  0.59933616  0.38786897
   0.09516526  0.72856013  0.12156099
   0.56313329  0.44931574  0.25134186
   0.71297559  0.11712723  0.31312770
   0.85888103  0.57329750  0.05350623
   0.31178628  0.84747076  0.18026404
   0.56207820  0.72169891  0.12275353
   0.01018699  0.97315250  0.25588999
   0.80182870  0.32320480  0.18444573
   0.25816075  0.60100988  0.33256396
   0.34617716  0.60305419  0.05647018
   0.19711512  0.12172647  0.32031204
   0.80037727  0.87517779  0.18362805
   0.34617716  0.05624469  0.05647018
   0.54921022  0.98836103  0.25015750
   0.09516526  0.18175063  0.12156099
   0.49337295  0.07483543  0.37064831
   0.34047062  0.60391201  0.02782883
   0.92434681  0.68523651  0.03696881
   0.34363348  0.06399961  0.02783421
   0.88838126  0.05560908  0.02665597
   0.53577948  0.43923354  0.38902330
   0.67726604  0.09104858  0.33758426
   0.84928837  0.61570855  0.33828244
   0.31872075  0.45556439  0.34929440
   0.14820630  0.25426249  0.33850733
   0.55847359  0.00428895  0.39339118
Direct configuration=    13
   0.22067121  0.89240241  0.08901558
   0.67004546  0.16231178  0.21785177
   0.94927612  0.02809995  0.15233499
   0.36986897  0.32015710  0.28447577
   0.44927612  0.52809995  0.15233499
   0.87581144  0.30108818  0.28524512
   0.44927612  0.02809995  0.15233499
   0.85786455  0.81145474  0.28261495
   0.90282244  0.55132680  0.10484543
   0.34938527  0.81670967  0.23327801
   0.99088077  0.50656563  0.20424336
   0.40146241  0.81899220  0.35025598
   0.53851998  0.23347802  0.07318573
   0.74782698  0.63406346  0.31809401
   0.87926422  0.06310591  0.05527763
   0.33559351  0.33269510  0.18279399
   0.58246139  0.21150732  0.12452493
   0.03223040  0.49054697  0.25856792
   0.55355301  0.59927431  0.38786839
   0.09516526  0.72856013  0.12156099
   0.56317275  0.44928050  0.25132948
   0.71297536  0.11714725  0.31312509
   0.85888103  0.57329750  0.05350623
   0.31183863  0.84742695  0.18026818
   0.56207820  0.72169891  0.12275353
   0.01022616  0.97319668  0.25589611
   0.80187550  0.32316842  0.18444765
   0.25812398  0.60101099  0.33256817
   0.34617716  0.60305419  0.05647018
   0.19708768  0.12174176  0.32031458
   0.80042054  0.87511100  0.18362676
   0.34617716  0.05624469  0.05647018
   0.54921929  0.98839523  0.25015473
   0.09516526  0.18175063  0.12156099
   0.49340456  0.07480720  0.37064704
   0.34047062  0.60391201  0.02782883
   0.92434681  0.68523651  0.03696881
   0.34363348  0.06399961  0.02783421
   0.88838126  0.05560908  0.02665597
   0.53581259  0.43926161  0.38901650
   0.67726648  0.09101040  0.33758804
   0.84932213  0.61566901  0.33827153
   0.31873238  0.45552835  0.34929923
   0.14822724  0.25424501  0.33851040
   0.55848076  0.00425317  0.39338775
Direct configuration=    14
   0.22067121  0.89240241  0.08901558
   0.67012294  0.16222252  0.21784086
   0.94927612  0.02809995  0.15233499
   0.36983022  0.32025145  0.28445065
   0.44927612  0.52809995  0.15233499
   0.87591632  0.30107835  0.28524513
   0.44927612  0.02809995  0.15233499
   0.85796555  0.81149414  0.28260169
   0.90282244  0.55132680  0.10484543
   0.34931855  0.81675267  0.23327025
   0.99089560  0.50648377  0.20422952
   0.40138361  0.81904548  0.35024485
   0.53851998  0.23347802  0.07318573
   0.74789050  0.63393730  0.31807669
   0.87926422  0.06310591  0.05527763
   0.33558145  0.33266667  0.18279569
   0.58246139  0.21150732  0.12452493
   0.03222223  0.49064504  0.25855347
   0.55370199  0.59915060  0.38786723
   0.09516526  0.72856013  0.12156099
   0.56325167  0.44921000  0.25130473
   0.71297489  0.11718730  0.31311988
   0.85888103  0.57329750  0.05350623
   0.31194333  0.84733934  0.18027648
   0.56207820  0.72169891  0.12275353
   0.01030452  0.97328505  0.25590834
   0.80196910  0.32309564  0.18445150
   0.25805044  0.60101322  0.33257660
   0.34617716  0.60305419  0.05647018
   0.19703281  0.12177236  0.32031967
   0.80050707  0.87497740  0.18362418
   0.34617716  0.05624469  0.05647018
   0.54923743  0.98846362  0.25014919
   0.09516526  0.18175063  0.12156099
   0.49346779  0.07475073  0.37064450
   0.34047062  0.60391201  0.02782883
   0.92434681  0.68523651  0.03696881
   0.34363348  0.06399961  0.02783421
   0.88838126  0.05560908  0.02665597
   0.53587880  0.43931776  0.38900292
   0.67726737  0.09093403  0.33759562
   0.84938965  0.61558993  0.33824972
   0.31875563  0.45545627  0.34930891
   0.14826911  0.25421003  0.33851655
   0.55849509  0.00418162  0.39338090
Direct configuration=    15
   0.22067121  0.89240241  0.08901558
   0.67027790  0.16204399  0.21781904
   0.94927612  0.02809995  0.15233499
   0.36975271  0.32044015  0.28440042
   0.44927612  0.52809995  0.15233499
   0.87612607  0.30105869  0.28524516
   0.44927612  0.02809995  0.15233499
   0.85816755  0.81157293  0.28257517
   0.90282244  0.55132680  0.10484543
   0.34918513  0.81683869  0.23325474
   0.99092527  0.50632005  0.20420182
   0.40122600  0.81915206  0.35022258
   0.53851998  0.23347802  0.07318573
   0.74801754  0.63368497  0.31804207
   0.87926422  0.06310591  0.05527763
   0.33555732  0.33260981  0.18279910
   0.58246139  0.21150732  0.12452493
   0.03220591  0.49084118  0.25852456
   0.55399994  0.59890319  0.38786491
   0.09516526  0.72856013  0.12156099
   0.56340951  0.44906901  0.25125523
   0.71297395  0.11726739  0.31310944
   0.85888103  0.57329750  0.05350623
   0.31215273  0.84716411  0.18029306
   0.56207820  0.72169891  0.12275353
   0.01046123  0.97346178  0.25593282
   0.80215630  0.32295009  0.18445921
   0.25790337  0.60101768  0.33259346
   0.34617716  0.60305419  0.05647018
   0.19692308  0.12183356  0.32032983
   0.80068013  0.87471021  0.18361903
   0.34617716  0.05624469  0.05647018
   0.54927370  0.98860041  0.25013812
   0.09516526  0.18175063  0.12156099
   0.49359423  0.07463780  0.37063941
   0.34047062  0.60391201  0.02782883
   0.92434681  0.68523651  0.03696881
   0.34363348  0.06399961  0.02783421
   0.88838126  0.05560908  0.02665597
   0.53601122  0.43943005  0.38897575
   0.67726914  0.09078129  0.33761076
   0.84952468  0.61543178  0.33820609
   0.31880214  0.45531210  0.34932826
   0.14835287  0.25414009  0.33852884
   0.55852375  0.00403851  0.39336718
Direct configuration=    16
   0.22067121  0.89240241  0.08901558
   0.67018851  0.16214697  0.21783162
   0.94927612  0.02809995  0.15233499
   0.36979742  0.32033130  0.28442939
   0.44927612  0.52809995  0.15233499
   0.87600508  0.30107003  0.28524514
   0.44927612  0.02809995  0.15233499
   0.85805103  0.81152748  0.28259047
   0.90282244  0.55132680  0.10484543
   0.34926209  0.81678907  0.23326369
   0.99090816  0.50641448  0.20421780
   0.40131691  0.81909059  0.35023542
   0.53851998  0.23347802  0.07318573
   0.74794426  0.63383052  0.31806204
   0.87926422  0.06310591  0.05527763
   0.33557124  0.33264261  0.18279713
   0.58246139  0.21150732  0.12452493
   0.03221533  0.49072804  0.25854123
   0.55382808  0.59904590  0.38786624
   0.09516526  0.72856013  0.12156099
   0.56331847  0.44915034  0.25128378
   0.71297449  0.11722119  0.31311546
   0.85888103  0.57329750  0.05350623
   0.31203195  0.84726519  0.18028350
   0.56207820  0.72169891  0.12275353
   0.01037083  0.97335984  0.25591870
   0.80204832  0.32303405  0.18445477
   0.25798821  0.60101511  0.33258374
   0.34617716  0.60305419  0.05647018
   0.19698637  0.12179826  0.32032397
   0.80058031  0.87486433  0.18362200
   0.34617716  0.05624469  0.05647018
   0.54925278  0.98852151  0.25014451
   0.09516526  0.18175063  0.12156099
   0.49352130  0.07470294  0.37064234
   0.34047062  0.60391201  0.02782883
   0.92434681  0.68523651  0.03696881
   0.34363348  0.06399961  0.02783421
   0.88838126  0.05560908  0.02665597
   0.53593484  0.43936528  0.38899142
   0.67726812  0.09086939  0.33760202
   0.84944679  0.61552300  0.33823125
   0.31877531  0.45539526  0.34931710
   0.14830456  0.25418043  0.33852175
   0.55850722  0.00412106  0.39337509
Direct configuration=    17
   0.22067121  0.89240241  0.08901558
   0.67035140  0.16200812  0.21782466
   0.94927612  0.02809995  0.15233499
   0.36977068  0.32054992  0.28438047
   0.44927612  0.52809995  0.15233499
   0.87617699  0.30101592  0.28523272
   0.44927612  0.02809995  0.15233499
   0.85824450  0.81174352  0.28254887
   0.90282244  0.55132680  0.10484543
   0.34927074  0.81682377  0.23326538
   0.99100097  0.50615235  0.20419692
   0.40126708  0.81897895  0.35023060
   0.53851998  0.23347802  0.07318573
   0.74792302  0.63374415  0.31802789
   0.87926422  0.06310591  0.05527763
   0.33569298  0.33256372  0.18279281
   0.58246139  0.21150732  0.12452493
   0.03233050  0.49096137  0.25850556
   0.55416478  0.59909314  0.38783556
   0.09516526  0.72856013  0.12156099
   0.56349015  0.44908356  0.25123460
   0.71286967  0.11729779  0.31310152
   0.85888103  0.57329750  0.05350623
   0.31220764  0.84709777  0.18028019
   0.56207820  0.72169891  0.12275353
   0.01056408  0.97347198  0.25594694
   0.80219790  0.32283650  0.18444917
   0.25788269  0.60087841  0.33261307
   0.34617716  0.60305419  0.05647018
   0.19689398  0.12190966  0.32032722
   0.80072191  0.87467959  0.18360604
   0.34617716  0.05624469  0.05647018
   0.54929204  0.98855373  0.25013229
   0.09516526  0.18175063  0.12156099
   0.49364204  0.07459697  0.37061978
   0.34047062  0.60391201  0.02782883
   0.92434681  0.68523651  0.03696881
   0.34363348  0.06399961  0.02783421
   0.88838126  0.05560908  0.02665597
   0.53611566  0.43922831  0.38896088
   0.67727314  0.09071522  0.33760750
   0.84966390  0.61527728  0.33818002
   0.31878476  0.45533972  0.34932352
   0.14841441  0.25412382  0.33853737
   0.55859478  0.00387773  0.39336705
Direct configuration=    18
   0.22067121  0.89240241  0.08901558
   0.67043028  0.16194089  0.21782128
   0.94927612  0.02809995  0.15233499
   0.36975773  0.32065578  0.28435679
   0.44927612  0.52809995  0.15233499
   0.87626023  0.30098972  0.28522671
   0.44927612  0.02809995  0.15233499
   0.85833818  0.81184813  0.28252873
   0.90282244  0.55132680  0.10484543
   0.34927493  0.81684057  0.23326620
   0.99104592  0.50602542  0.20418681
   0.40124295  0.81892490  0.35022827
   0.53851998  0.23347802  0.07318573
   0.74791273  0.63370233  0.31801135
   0.87926422  0.06310591  0.05527763
   0.33575193  0.33252552  0.18279071
   0.58246139  0.21150732  0.12452493
   0.03238627  0.49107435  0.25848828
   0.55432782  0.59911602  0.38782070
   0.09516526  0.72856013  0.12156099
   0.56357328  0.44905122  0.25121079
   0.71281891  0.11733488  0.31309476
   0.85888103  0.57329750  0.05350623
   0.31229271  0.84701670  0.18027859
   0.56207820  0.72169891  0.12275353
   0.01065766  0.97352628  0.25596061
   0.80227033  0.32274084  0.18444646
   0.25783160  0.60081222  0.33262727
   0.34617716  0.60305419  0.05647018
   0.19684924  0.12196360  0.32032880
   0.80079048  0.87459013  0.18359831
   0.34617716  0.05624469  0.05647018
   0.54931106  0.98856934  0.25012637
   0.09516526  0.18175063  0.12156099
   0.49370050  0.07454565  0.37060885
   0.34047062  0.60391201  0.02782883
   0.92434681  0.68523651  0.03696881
   0.34363348  0.06399961  0.02783421
   0.88838126  0.05560908  0.02665597
   0.53620322  0.43916198  0.38894610
   0.67727557  0.09064057  0.33761015
   0.84976902  0.61515829  0.33815521
   0.31878933  0.45531283  0.34932662
   0.14846761  0.25409640  0.33854493
   0.55863718  0.00375991  0.39336315
Direct configuration=    19
   0.22067121  0.89240241  0.08901558
   0.67058803  0.16180642  0.21781454
   0.94927612  0.02809995  0.15233499
   0.36973183  0.32086750  0.28430941
   0.44927612  0.52809995  0.15233499
   0.87642672  0.30093731  0.28521468
   0.44927612  0.02809995  0.15233499
   0.85852554  0.81205736  0.28248845
   0.90282244  0.55132680  0.10484543
   0.34928330  0.81687418  0.23326784
   0.99113580  0.50577155  0.20416658
   0.40119470  0.81881679  0.35022360
   0.53851998  0.23347802  0.07318573
   0.74789216  0.63361869  0.31797827
   0.87926422  0.06310591  0.05527763
   0.33586984  0.33244912  0.18278652
   0.58246139  0.21150732  0.12452493
   0.03249781  0.49130031  0.25845373
   0.55465391  0.59916178  0.38779098
   0.09516526  0.72856013  0.12156099
   0.56373955  0.44898655  0.25116316
   0.71271739  0.11740906  0.31308126
   0.85888103  0.57329750  0.05350623
   0.31246286  0.84685457  0.18027539
   0.56207820  0.72169891  0.12275353
   0.01084481  0.97363489  0.25598795
   0.80241518  0.32254952  0.18444104
   0.25772941  0.60067983  0.33265568
   0.34617716  0.60305419  0.05647018
   0.19675976  0.12207149  0.32033195
   0.80092762  0.87441122  0.18358286
   0.34617716  0.05624469  0.05647018
   0.54934908  0.98860054  0.25011454
   0.09516526  0.18175063  0.12156099
   0.49381743  0.07444303  0.37058700
   0.34047062  0.60391201  0.02782883
   0.92434681  0.68523651  0.03696881
   0.34363348  0.06399961  0.02783421
   0.88838126  0.05560908  0.02665597
   0.53637834  0.43902933  0.38891652
   0.67728044  0.09049126  0.33761544
   0.84997927  0.61492032  0.33810559
   0.31879848  0.45525904  0.34933284
   0.14857400  0.25404157  0.33856006
   0.55872197  0.00352425  0.39335536
Direct configuration=    20
   0.22067121  0.89240241  0.08901558
   0.67052064  0.16186386  0.21781742
   0.94927612  0.02809995  0.15233499
   0.36974289  0.32077705  0.28432965
   0.44927612  0.52809995  0.15233499
   0.87635559  0.30095970  0.28521982
   0.44927612  0.02809995  0.15233499
   0.85844550  0.81196798  0.28250566
   0.90282244  0.55132680  0.10484543
   0.34927973  0.81685982  0.23326714
   0.99109740  0.50588001  0.20417522
   0.40121531  0.81886297  0.35022559
   0.53851998  0.23347802  0.07318573
   0.74790095  0.63365442  0.31799240
   0.87926422  0.06310591  0.05527763
   0.33581947  0.33248176  0.18278831
   0.58246139  0.21150732  0.12452493
   0.03245016  0.49120378  0.25846849
   0.55451460  0.59914223  0.38780368
   0.09516526  0.72856013  0.12156099
   0.56366852  0.44901418  0.25118351
   0.71276076  0.11737737  0.31308703
   0.85888103  0.57329750  0.05350623
   0.31239017  0.84692383  0.18027676
   0.56207820  0.72169891  0.12275353
   0.01076486  0.97358849  0.25597627
   0.80235330  0.32263125  0.18444336
   0.25777307  0.60073639  0.33264355
   0.34617716  0.60305419  0.05647018
   0.19679799  0.12202540  0.32033060
   0.80086903  0.87448765  0.18358946
   0.34617716  0.05624469  0.05647018
   0.54933284  0.98858721  0.25011959
   0.09516526  0.18175063  0.12156099
   0.49376748  0.07448687  0.37059633
   0.34047062  0.60391201  0.02782883
   0.92434681  0.68523651  0.03696881
   0.34363348  0.06399961  0.02783421
   0.88838126  0.05560908  0.02665597
   0.53630352  0.43908600  0.38892916
   0.67727836  0.09055504  0.33761318
   0.84988945  0.61502198  0.33812678
   0.31879457  0.45528202  0.34933018
   0.14852855  0.25406500  0.33855359
   0.55868575  0.00362492  0.39335869
Direct configuration=    21
   0.22067121  0.89240241  0.08901558
   0.67063824  0.16176286  0.21781290
   0.94927612  0.02809995  0.15233499
   0.36977930  0.32093054  0.28429916
   0.44927612  0.52809995  0.15233499
   0.87644054  0.30097985  0.28520829
   0.44927612  0.02809995  0.15233499
   0.85848893  0.81213035  0.28248507
   0.90282244  0.55132680  0.10484543
   0.34939538  0.81684252  0.23327561
   0.99120734  0.50564810  0.20416255
   0.40124439  0.81872494  0.35022280
   0.53851998  0.23347802  0.07318573
   0.74784722  0.63369710  0.31796064
   0.87926422  0.06310591  0.05527763
   0.33598792  0.33240223  0.18278228
   0.58246139  0.21150732  0.12452493
   0.03260994  0.49139345  0.25843563
   0.55478953  0.59898648  0.38777062
   0.09516526  0.72856013  0.12156099
   0.56382320  0.44900557  0.25114738
   0.71260976  0.11742464  0.31308525
   0.85888103  0.57329750  0.05350623
   0.31248992  0.84682495  0.18026749
   0.56207820  0.72169891  0.12275353
   0.01098525  0.97366575  0.25599109
   0.80244547  0.32245700  0.18443221
   0.25765116  0.60071133  0.33265748
   0.34617716  0.60305419  0.05647018
   0.19675333  0.12208447  0.32032611
   0.80096266  0.87439005  0.18357517
   0.34617716  0.05624469  0.05647018
   0.54937202  0.98856377  0.25010820
   0.09516526  0.18175063  0.12156099
   0.49390558  0.07434839  0.37058684
   0.34047062  0.60391201  0.02782883
   0.92434681  0.68523651  0.03696881
   0.34363348  0.06399961  0.02783421
   0.88838126  0.05560908  0.02665597
   0.53651896  0.43912989  0.38890119
   0.67729590  0.09044668  0.33759538
   0.85008163  0.61478416  0.33807675
   0.31884055  0.45513178  0.34934327
   0.14862209  0.25405988  0.33857094
   0.55874660  0.00342442  0.39333737
Direct configuration=    22
   0.22067121  0.89240241  0.08901558
   0.67089547  0.16154195  0.21780301
   0.94927612  0.02809995  0.15233499
   0.36985895  0.32126624  0.28423247
   0.44927612  0.52809995  0.15233499
   0.87662632  0.30102393  0.28518306
   0.44927612  0.02809995  0.15233499
   0.85858392  0.81248551  0.28244003
   0.90282244  0.55132680  0.10484543
   0.34964834  0.81680466  0.23329413
   0.99144780  0.50514086  0.20413484
   0.40130800  0.81842302  0.35021671
   0.53851998  0.23347802  0.07318573
   0.74772970  0.63379045  0.31789118
   0.87926422  0.06310591  0.05527763
   0.33635637  0.33222827  0.18276910
   0.58246139  0.21150732  0.12452493
   0.03295941  0.49180831  0.25836375
   0.55539085  0.59864581  0.38769831
   0.09516526  0.72856013  0.12156099
   0.56416153  0.44898674  0.25106835
   0.71227950  0.11752803  0.31308138
   0.85888103  0.57329750  0.05350623
   0.31270809  0.84660867  0.18024723
   0.56207820  0.72169891  0.12275353
   0.01146729  0.97383472  0.25602350
   0.80264707  0.32207587  0.18440782
   0.25738452  0.60065652  0.33268795
   0.34617716  0.60305419  0.05647018
   0.19665565  0.12221367  0.32031629
   0.80116746  0.87417656  0.18354390
   0.34617716  0.05624469  0.05647018
   0.54945772  0.98851249  0.25008328
   0.09516526  0.18175063  0.12156099
   0.49420763  0.07404551  0.37056608
   0.34047062  0.60391201  0.02782883
   0.92434681  0.68523651  0.03696881
   0.34363348  0.06399961  0.02783421
   0.88838126  0.05560908  0.02665597
   0.53699017  0.43922588  0.38884002
   0.67733427  0.09020968  0.33755644
   0.85050195  0.61426399  0.33796733
   0.31894110  0.45480317  0.34937189
   0.14882669  0.25404868  0.33860889
   0.55887971  0.00298586  0.39329073
Direct configuration=    23
   0.22067121  0.89240241  0.08901558
   0.67101098  0.16141166  0.21778626
   0.94927612  0.02809995  0.15233499
   0.36996665  0.32135981  0.28422526
   0.44927612  0.52809995  0.15233499
   0.87664192  0.30119327  0.28517504
   0.44927612  0.02809995  0.15233499
   0.85845878  0.81252968  0.28244701
   0.90282244  0.55132680  0.10484543
   0.34988239  0.81672809  0.23330094
   0.99158985  0.50494216  0.20412334
   0.40139173  0.81837227  0.35020004
   0.53851998  0.23347802  0.07318573
   0.74765208  0.63396819  0.31784314
   0.87926422  0.06310591  0.05527763
   0.33656954  0.33213220  0.18276762
   0.58246139  0.21150732  0.12452493
   0.03318681  0.49201313  0.25833052
   0.55575507  0.59854448  0.38765447
   0.09516526  0.72856013  0.12156099
   0.56438211  0.44900132  0.25104339
   0.71210526  0.11762708  0.31304920
   0.85888103  0.57329750  0.05350623
   0.31272338  0.84659787  0.18024197
   0.56207820  0.72169891  0.12275353
   0.01176960  0.97394463  0.25602284
   0.80270436  0.32193536  0.18439264
   0.25727755  0.60058916  0.33270818
   0.34617716  0.60305419  0.05647018
   0.19662133  0.12232142  0.32032460
   0.80124491  0.87410457  0.18353504
   0.34617716  0.05624469  0.05647018
   0.54954756  0.98846115  0.25007065
   0.09516526  0.18175063  0.12156099
   0.49430811  0.07387775  0.37054194
   0.34047062  0.60391201  0.02782883
   0.92434681  0.68523651  0.03696881
   0.34363348  0.06399961  0.02783421
   0.88838126  0.05560908  0.02665597
   0.53727852  0.43908200  0.38881189
   0.67732112  0.09008440  0.33753889
   0.85069959  0.61398115  0.33790350
   0.31897823  0.45463962  0.34937729
   0.14898903  0.25395513  0.33861288
   0.55901056  0.00270197  0.39327554
Direct configuration=    24
   0.22067121  0.89240241  0.08901558
   0.67108990  0.16132265  0.21777482
   0.94927612  0.02809995  0.15233499
   0.37004023  0.32142373  0.28422033
   0.44927612  0.52809995  0.15233499
   0.87665257  0.30130896  0.28516956
   0.44927612  0.02809995  0.15233499
   0.85837329  0.81255986  0.28245177
   0.90282244  0.55132680  0.10484543
   0.35004228  0.81667578  0.23330559
   0.99168690  0.50480641  0.20411548
   0.40144893  0.81833760  0.35018866
   0.53851998  0.23347802  0.07318573
   0.74759905  0.63408961  0.31781032
   0.87926422  0.06310591  0.05527763
   0.33671517  0.33206656  0.18276661
   0.58246139  0.21150732  0.12452493
   0.03334215  0.49215305  0.25830782
   0.55600389  0.59847525  0.38762453
   0.09516526  0.72856013  0.12156099
   0.56453281  0.44901128  0.25102634
   0.71198622  0.11769474  0.31302722
   0.85888103  0.57329750  0.05350623
   0.31273383  0.84659049  0.18023837
   0.56207820  0.72169891  0.12275353
   0.01197612  0.97401972  0.25602240
   0.80274350  0.32183937  0.18438227
   0.25720447  0.60054315  0.33272200
   0.34617716  0.60305419  0.05647018
   0.19659789  0.12239503  0.32033027
   0.80129782  0.87405539  0.18352899
   0.34617716  0.05624469  0.05647018
   0.54960894  0.98842607  0.25006203
   0.09516526  0.18175063  0.12156099
   0.49437676  0.07376315  0.37052544
   0.34047062  0.60391201  0.02782883
   0.92434681  0.68523651  0.03696881
   0.34363348  0.06399961  0.02783421
   0.88838126  0.05560908  0.02665597
   0.53747551  0.43898371  0.38879267
   0.67731214  0.08999882  0.33752690
   0.85083461  0.61378793  0.33785989
   0.31900360  0.45452789  0.34938097
   0.14909993  0.25389122  0.33861560
   0.55909996  0.00250802  0.39326516
Direct configuration=    25
   0.22067121  0.89240241  0.08901558
   0.67124772  0.16114462  0.21775194
   0.94927612  0.02809995  0.15233499
   0.37018738  0.32155158  0.28421047
   0.44927612  0.52809995  0.15233499
   0.87667389  0.30154034  0.28515860
   0.44927612  0.02809995  0.15233499
   0.85820232  0.81262021  0.28246129
   0.90282244  0.55132680  0.10484543
   0.35036206  0.81657116  0.23331489
   0.99188100  0.50453493  0.20409975
   0.40156334  0.81826825  0.35016589
   0.53851998  0.23347802  0.07318573
   0.74749299  0.63433245  0.31774469
   0.87926422  0.06310591  0.05527763
   0.33700642  0.33193529  0.18276459
   0.58246139  0.21150732  0.12452493
   0.03365284  0.49243290  0.25826242
   0.55650154  0.59833680  0.38756463
   0.09516526  0.72856013  0.12156099
   0.56483420  0.44903120  0.25099225
   0.71174815  0.11783007  0.31298326
   0.85888103  0.57329750  0.05350623
   0.31275473  0.84657574  0.18023118
   0.56207820  0.72169891  0.12275353
   0.01238916  0.97416989  0.25602150
   0.80282177  0.32164738  0.18436152
   0.25705832  0.60045113  0.33274965
   0.34617716  0.60305419  0.05647018
   0.19655100  0.12254225  0.32034163
   0.80140365  0.87395703  0.18351689
   0.34617716  0.05624469  0.05647018
   0.54973169  0.98835591  0.25004478
   0.09516526  0.18175063  0.12156099
   0.49451404  0.07353396  0.37049246
   0.34047062  0.60391201  0.02782883
   0.92434681  0.68523651  0.03696881
   0.34363348  0.06399961  0.02783421
   0.88838126  0.05560908  0.02665597
   0.53786948  0.43878713  0.38875424
   0.67729417  0.08982765  0.33750293
   0.85110465  0.61340148  0.33777268
   0.31905433  0.45430444  0.34938834
   0.14932173  0.25376340  0.33862105
   0.55927875  0.00212014  0.39324441
Direct configuration=    26
   0.22067121  0.89240241  0.08901558
   0.67137881  0.16101806  0.21773038
   0.94927612  0.02809995  0.15233499
   0.37029480  0.32163835  0.28421145
   0.44927612  0.52809995  0.15233499
   0.87671815  0.30171562  0.28513630
   0.44927612  0.02809995  0.15233499
   0.85814918  0.81266248  0.28244708
   0.90282244  0.55132680  0.10484543
   0.35060382  0.81647547  0.23331283
   0.99203561  0.50438487  0.20408635
   0.40163367  0.81827858  0.35013169
   0.53851998  0.23347802  0.07318573
   0.74739870  0.63454560  0.31770438
   0.87926422  0.06310591  0.05527763
   0.33718411  0.33185187  0.18277194
   0.58246139  0.21150732  0.12452493
   0.03387863  0.49265077  0.25824612
   0.55691923  0.59808601  0.38752232
   0.09516526  0.72856013  0.12156099
   0.56510662  0.44899763  0.25098259
   0.71155332  0.11793536  0.31296232
   0.85888103  0.57329750  0.05350623
   0.31270610  0.84663511  0.18023574
   0.56207820  0.72169891  0.12275353
   0.01261048  0.97425761  0.25602427
   0.80284594  0.32160696  0.18434894
   0.25698449  0.60037799  0.33277196
   0.34617716  0.60305419  0.05647018
   0.19658093  0.12248243  0.32033212
   0.80147406  0.87385505  0.18351535
   0.34617716  0.05624469  0.05647018
   0.54987756  0.98832560  0.25003616
   0.09516526  0.18175063  0.12156099
   0.49465060  0.07332340  0.37048364
   0.34047062  0.60391201  0.02782883
   0.92434681  0.68523651  0.03696881
   0.34363348  0.06399961  0.02783421
   0.88838126  0.05560908  0.02665597
   0.53822258  0.43866882  0.38872555
   0.67726742  0.08973290  0.33746668
   0.85126688  0.61311939  0.33770196
   0.31908425  0.45414691  0.34938858
   0.14946274  0.25379957  0.33864122
   0.55940380  0.00185039  0.39321244
Direct configuration=    27
   0.22067121  0.89240241  0.08901558
   0.67152136  0.16088043  0.21770694
   0.94927612  0.02809995  0.15233499
   0.37041161  0.32173270  0.28421251
   0.44927612  0.52809995  0.15233499
   0.87676628  0.30190625  0.28511204
   0.44927612  0.02809995  0.15233499
   0.85809140  0.81270845  0.28243163
   0.90282244  0.55132680  0.10484543
   0.35086674  0.81637140  0.23331059
   0.99220376  0.50422169  0.20407177
   0.40171015  0.81828982  0.35009449
   0.53851998  0.23347802  0.07318573
   0.74729616  0.63477740  0.31766056
   0.87926422  0.06310591  0.05527763
   0.33737734  0.33176115  0.18277993
   0.58246139  0.21150732  0.12452493
   0.03412416  0.49288770  0.25822840
   0.55737346  0.59781329  0.38747631
   0.09516526  0.72856013  0.12156099
   0.56540286  0.44896113  0.25097208
   0.71134145  0.11804987  0.31293954
   0.85888103  0.57329750  0.05350623
   0.31265321  0.84669967  0.18024071
   0.56207820  0.72169891  0.12275353
   0.01285116  0.97435300  0.25602728
   0.80287224  0.32156301  0.18433526
   0.25690420  0.60029845  0.33279623
   0.34617716  0.60305419  0.05647018
   0.19661349  0.12241737  0.32032178
   0.80155064  0.87374415  0.18351368
   0.34617716  0.05624469  0.05647018
   0.55003619  0.98829264  0.25002680
   0.09516526  0.18175063  0.12156099
   0.49479911  0.07309442  0.37047406
   0.34047062  0.60391201  0.02782883
   0.92434681  0.68523651  0.03696881
   0.34363348  0.06399961  0.02783421
   0.88838126  0.05560908  0.02665597
   0.53860657  0.43854016  0.38869435
   0.67723832  0.08962986  0.33742726
   0.85144331  0.61281262  0.33762505
   0.31911679  0.45397561  0.34938884
   0.14961608  0.25383889  0.33866315
   0.55953978  0.00155704  0.39317767
Direct configuration=    28
   0.22067121  0.89240241  0.08901558
   0.67159995  0.16086071  0.21769908
   0.94927612  0.02809995  0.15233499
   0.37045080  0.32179082  0.28421957
   0.44927612  0.52809995  0.15233499
   0.87685156  0.30194345  0.28508015
   0.44927612  0.02809995  0.15233499
   0.85821054  0.81283238  0.28239054
   0.90282244  0.55132680  0.10484543
   0.35098108  0.81630363  0.23330024
   0.99229902  0.50419840  0.20406306
   0.40177948  0.81824432  0.35006935
   0.53851998  0.23347802  0.07318573
   0.74715581  0.63490058  0.31763168
   0.87926422  0.06310591  0.05527763
   0.33742553  0.33173098  0.18279452
   0.58246139  0.21150732  0.12452493
   0.03427305  0.49299346  0.25823755
   0.55769454  0.59764594  0.38744329
   0.09516526  0.72856013  0.12156099
   0.56563013  0.44885353  0.25098192
   0.71125465  0.11813123  0.31292545
   0.85888103  0.57329750  0.05350623
   0.31256498  0.84680174  0.18025303
   0.56207820  0.72169891  0.12275353
   0.01286659  0.97438399  0.25603585
   0.80285304  0.32167468  0.18433128
   0.25687705  0.60030124  0.33280294
   0.34617716  0.60305419  0.05647018
   0.19658749  0.12246594  0.32032437
   0.80159007  0.87363358  0.18351900
   0.34617716  0.05624469  0.05647018
   0.55018233  0.98831869  0.25002451
   0.09516526  0.18175063  0.12156099
   0.49483892  0.07301777  0.37045921
   0.34047062  0.60391201  0.02782883
   0.92434681  0.68523651  0.03696881
   0.34363348  0.06399961  0.02783421
   0.88838126  0.05560908  0.02665597
   0.53888271  0.43837575  0.38867615
   0.67719076  0.08959904  0.33739868
   0.85156056  0.61264261  0.33759082
   0.31915693  0.45385499  0.34939045
   0.14976546  0.25376859  0.33866108
   0.55968581  0.00132083  0.39316470
Direct configuration=    29
   0.22067121  0.89240241  0.08901558
   0.67179521  0.16081173  0.21767956
   0.94927612  0.02809995  0.15233499
   0.37054815  0.32193520  0.28423711
   0.44927612  0.52809995  0.15233499
   0.87706344  0.30203587  0.28500093
   0.44927612  0.02809995  0.15233499
   0.85850655  0.81314028  0.28228847
   0.90282244  0.55132680  0.10484543
   0.35126514  0.81613524  0.23327453
   0.99253568  0.50414055  0.20404141
   0.40195172  0.81813127  0.35000689
   0.53851998  0.23347802  0.07318573
   0.74680712  0.63520658  0.31755995
   0.87926422  0.06310591  0.05527763
   0.33754528  0.33165602  0.18283076
   0.58246139  0.21150732  0.12452493
   0.03464296  0.49325620  0.25826028
   0.55849223  0.59723018  0.38736127
   0.09516526  0.72856013  0.12156099
   0.56619476  0.44858622  0.25100637
   0.71103901  0.11833338  0.31289047
   0.85888103  0.57329750  0.05350623
   0.31234577  0.84705530  0.18028364
   0.56207820  0.72169891  0.12275353
   0.01290493  0.97446096  0.25605714
   0.80280535  0.32195211  0.18432139
   0.25680961  0.60030815  0.33281961
   0.34617716  0.60305419  0.05647018
   0.19652289  0.12258660  0.32033080
   0.80168803  0.87335885  0.18353223
   0.34617716  0.05624469  0.05647018
   0.55054541  0.98838341  0.25001884
   0.09516526  0.18175063  0.12156099
   0.49493782  0.07282733  0.37042232
   0.34047062  0.60391201  0.02782883
   0.92434681  0.68523651  0.03696881
   0.34363348  0.06399961  0.02783421
   0.88838126  0.05560908  0.02665597
   0.53956877  0.43796728  0.38863093
   0.67707262  0.08952248  0.33732768
   0.85185186  0.61222024  0.33750575
   0.31925666  0.45355532  0.34939444
   0.15013658  0.25359391  0.33865595
   0.56004862  0.00073398  0.39313248
Direct configuration=    30
   0.22067121  0.89240241  0.08901558
   0.67186518  0.16086729  0.21767849
   0.94927612  0.02809995  0.15233499
   0.37060052  0.32199603  0.28425514
   0.44927612  0.52809995  0.15233499
   0.87716827  0.30208250  0.28497077
   0.44927612  0.02809995  0.15233499
   0.85860557  0.81333063  0.28226052
   0.90282244  0.55132680  0.10484543
   0.35140903  0.81604441  0.23326412
   0.99265241  0.50415529  0.20403771
   0.40210478  0.81796651  0.34998707
   0.53851998  0.23347802  0.07318573
   0.74677468  0.63527361  0.31753364
   0.87926422  0.06310591  0.05527763
   0.33758331  0.33162977  0.18284851
   0.58246139  0.21150732  0.12452493
   0.03487009  0.49325870  0.25826667
   0.55888679  0.59699956  0.38731280
   0.09516526  0.72856013  0.12156099
   0.56644721  0.44845323  0.25102198
   0.71105263  0.11845615  0.31284621
   0.85888103  0.57329750  0.05350623
   0.31223040  0.84718050  0.18029302
   0.56207820  0.72169891  0.12275353
   0.01297478  0.97450228  0.25605029
   0.80275628  0.32214378  0.18431831
   0.25682950  0.60022817  0.33282855
   0.34617716  0.60305419  0.05647018
   0.19648707  0.12258164  0.32031404
   0.80171765  0.87328038  0.18353813
   0.34617716  0.05624469  0.05647018
   0.55067421  0.98844347  0.25001097
   0.09516526  0.18175063  0.12156099
   0.49500531  0.07272106  0.37042080
   0.34047062  0.60391201  0.02782883
   0.92434681  0.68523651  0.03696881
   0.34363348  0.06399961  0.02783421
   0.88838126  0.05560908  0.02665597
   0.53994986  0.43776381  0.38860742
   0.67698597  0.08948146  0.33730922
   0.85185566  0.61207528  0.33745044
   0.31928167  0.45352522  0.34938676
   0.15029549  0.25359166  0.33866306
   0.56020999  0.00047432  0.39309899
Direct configuration=    31
   0.22067121  0.89240241  0.08901558
   0.67191783  0.16090910  0.21767769
   0.94927612  0.02809995  0.15233499
   0.37063994  0.32204181  0.28426871
   0.44927612  0.52809995  0.15233499
   0.87724716  0.30211759  0.28494807
   0.44927612  0.02809995  0.15233499
   0.85868009  0.81347388  0.28223949
   0.90282244  0.55132680  0.10484543
   0.35151732  0.81597606  0.23325628
   0.99274025  0.50416637  0.20403492
   0.40221996  0.81784252  0.34997215
   0.53851998  0.23347802  0.07318573
   0.74675027  0.63532405  0.31751384
   0.87926422  0.06310591  0.05527763
   0.33761193  0.33161001  0.18286187
   0.58246139  0.21150732  0.12452493
   0.03504101  0.49326058  0.25827148
   0.55918373  0.59682601  0.38727632
   0.09516526  0.72856013  0.12156099
   0.56663720  0.44835314  0.25103372
   0.71106287  0.11854855  0.31281289
   0.85888103  0.57329750  0.05350623
   0.31214358  0.84727473  0.18030007
   0.56207820  0.72169891  0.12275353
   0.01302735  0.97453338  0.25604513
   0.80271935  0.32228802  0.18431600
   0.25684446  0.60016798  0.33283528
   0.34617716  0.60305419  0.05647018
   0.19646011  0.12257790  0.32030142
   0.80173994  0.87322133  0.18354258
   0.34617716  0.05624469  0.05647018
   0.55077115  0.98848866  0.25000505
   0.09516526  0.18175063  0.12156099
   0.49505610  0.07264109  0.37041966
   0.34047062  0.60391201  0.02782883
   0.92434681  0.68523651  0.03696881
   0.34363348  0.06399961  0.02783421
   0.88838126  0.05560908  0.02665597
   0.54023666  0.43761069  0.38858973
   0.67692077  0.08945059  0.33729533
   0.85185852  0.61196619  0.33740882
   0.31930050  0.45350257  0.34938098
   0.15041508  0.25358997  0.33866840
   0.56033143  0.00027891  0.39307378
Direct configuration=    32
   0.22067121  0.89240241  0.08901558
   0.67193526  0.16102457  0.21768358
   0.94927612  0.02809995  0.15233499
   0.37068229  0.32206717  0.28428850
   0.44927612  0.52809995  0.15233499
   0.87733573  0.30218939  0.28494050
   0.44927612  0.02809995  0.15233499
   0.85869215  0.81354837  0.28224736
   0.90282244  0.55132680  0.10484543
   0.35165573  0.81589871  0.23325581
   0.99281297  0.50421810  0.20404347
   0.40238222  0.81765236  0.34996360
   0.53851998  0.23347802  0.07318573
   0.74675142  0.63533463  0.31747018
   0.87926422  0.06310591  0.05527763
   0.33765208  0.33159347  0.18286927
   0.58246139  0.21150732  0.12452493
   0.03525245  0.49315223  0.25826678
   0.55952732  0.59659986  0.38723285
   0.09516526  0.72856013  0.12156099
   0.56677292  0.44831324  0.25104555
   0.71114056  0.11863075  0.31279503
   0.85888103  0.57329750  0.05350623
   0.31206955  0.84733897  0.18029493
   0.56207820  0.72169891  0.12275353
   0.01320028  0.97458398  0.25601403
   0.80266188  0.32245080  0.18431361
   0.25686730  0.60012698  0.33282858
   0.34617716  0.60305419  0.05647018
   0.19641162  0.12261404  0.32029014
   0.80173755  0.87328041  0.18354358
   0.34617716  0.05624469  0.05647018
   0.55079160  0.98854304  0.24999168
   0.09516526  0.18175063  0.12156099
   0.49506698  0.07261947  0.37040366
   0.34047062  0.60391201  0.02782883
   0.92434681  0.68523651  0.03696881
   0.34363348  0.06399961  0.02783421
   0.88838126  0.05560908  0.02665597
   0.54058360  0.43743302  0.38856905
   0.67687879  0.08945667  0.33726362
   0.85185682  0.61188429  0.33737823
   0.31934331  0.45348999  0.34937934
   0.15055939  0.25352965  0.33866430
   0.56052353  0.00002191  0.39305521
Direct configuration=    33
   0.22067121  0.89240241  0.08901558
   0.67197471  0.16128614  0.21769692
   0.94927612  0.02809995  0.15233499
   0.37077821  0.32212461  0.28433333
   0.44927612  0.52809995  0.15233499
   0.87753635  0.30235203  0.28492336
   0.44927612  0.02809995  0.15233499
   0.85871947  0.81371709  0.28226520
   0.90282244  0.55132680  0.10484543
   0.35196923  0.81572352  0.23325473
   0.99297769  0.50433528  0.20406282
   0.40274976  0.81722164  0.34994424
   0.53851998  0.23347802  0.07318573
   0.74675402  0.63535859  0.31737128
   0.87926422  0.06310591  0.05527763
   0.33774303  0.33155601  0.18288603
   0.58246139  0.21150732  0.12452493
   0.03573135  0.49290680  0.25825611
   0.56030557  0.59608762  0.38713439
   0.09516526  0.72856013  0.12156099
   0.56708034  0.44822285  0.25107234
   0.71131652  0.11881694  0.31275457
   0.85888103  0.57329750  0.05350623
   0.31190188  0.84748447  0.18028330
   0.56207820  0.72169891  0.12275353
   0.01359198  0.97469858  0.25594357
   0.80253172  0.32281950  0.18430821
   0.25691905  0.60003410  0.33281341
   0.34617716  0.60305419  0.05647018
   0.19630176  0.12269589  0.32026458
   0.80173213  0.87341424  0.18354584
   0.34617716  0.05624469  0.05647018
   0.55083794  0.98866619  0.24996137
   0.09516526  0.18175063  0.12156099
   0.49509162  0.07257049  0.37036741
   0.34047062  0.60391201  0.02782883
   0.92434681  0.68523651  0.03696881
   0.34363348  0.06399961  0.02783421
   0.88838126  0.05560908  0.02665597
   0.54136946  0.43703059  0.38852220
   0.67678370  0.08947046  0.33719181
   0.85185297  0.61169876  0.33730896
   0.31944028  0.45346149  0.34937565
   0.15088626  0.25339302  0.33865501
   0.56095866 -0.00056019  0.39301314
Direct configuration=    34
   0.22067121  0.89240241  0.08901558
   0.67200918  0.16141054  0.21769643
   0.94927612  0.02809995  0.15233499
   0.37083707  0.32212745  0.28434678
   0.44927612  0.52809995  0.15233499
   0.87771549  0.30234943  0.28490906
   0.44927612  0.02809995  0.15233499
   0.85886287  0.81367467  0.28224990
   0.90282244  0.55132680  0.10484543
   0.35216370  0.81563359  0.23325384
   0.99302353  0.50443935  0.20407766
   0.40282049  0.81717765  0.34991450
   0.53851998  0.23347802  0.07318573
   0.74682807  0.63535904  0.31733332
   0.87926422  0.06310591  0.05527763
   0.33780354  0.33154873  0.18288415
   0.58246139  0.21150732  0.12452493
   0.03592088  0.49286023  0.25825581
   0.56082481  0.59580023  0.38709095
   0.09516526  0.72856013  0.12156099
   0.56713886  0.44829417  0.25108989
   0.71145024  0.11887850  0.31275811
   0.85888103  0.57329750  0.05350623
   0.31185798  0.84749616  0.18026790
   0.56207820  0.72169891  0.12275353
   0.01375329  0.97475681  0.25590950
   0.80247107  0.32297428  0.18430427
   0.25696353  0.59999566  0.33279822
   0.34617716  0.60305419  0.05647018
   0.19632268  0.12264587  0.32026206
   0.80170117  0.87360632  0.18354573
   0.34617716  0.05624469  0.05647018
   0.55083040  0.98872201  0.24995030
   0.09516526  0.18175063  0.12156099
   0.49516619  0.07246802  0.37036575
   0.34047062  0.60391201  0.02782883
   0.92434681  0.68523651  0.03696881
   0.34363348  0.06399961  0.02783421
   0.88838126  0.05560908  0.02665597
   0.54182749  0.43668582  0.38849524
   0.67676750  0.08951209  0.33714907
   0.85176879  0.61163804  0.33726927
   0.31949955  0.45345421  0.34937740
   0.15106399  0.25328573  0.33864607
   0.56116625 -0.00080472  0.39296794
Direct configuration=    35
   0.22067121  0.89240241  0.08901558
   0.67204932  0.16155542  0.21769585
   0.94927612  0.02809995  0.15233499
   0.37090561  0.32213076  0.28436244
   0.44927612  0.52809995  0.15233499
   0.87792411  0.30234642  0.28489242
   0.44927612  0.02809995  0.15233499
   0.85902987  0.81362527  0.28223209
   0.90282244  0.55132680  0.10484543
   0.35239017  0.81552886  0.23325281
   0.99307691  0.50456055  0.20409494
   0.40290287  0.81712642  0.34987986
   0.53851998  0.23347802  0.07318573
   0.74691431  0.63535957  0.31728910
   0.87926422  0.06310591  0.05527763
   0.33787401  0.33154025  0.18288196
   0.58246139  0.21150732  0.12452493
   0.03614159  0.49280601  0.25825547
   0.56142947  0.59546556  0.38704037
   0.09516526  0.72856013  0.12156099
   0.56720702  0.44837722  0.25111033
   0.71160596  0.11895019  0.31276224
   0.85888103  0.57329750  0.05350623
   0.31180686  0.84750977  0.18024996
   0.56207820  0.72169891  0.12275353
   0.01394114  0.97482461  0.25586983
   0.80240044  0.32315453  0.18429967
   0.25701534  0.59995089  0.33278054
   0.34617716  0.60305419  0.05647018
   0.19634704  0.12258761  0.32025912
   0.80166512  0.87383000  0.18354561
   0.34617716  0.05624469  0.05647018
   0.55082161  0.98878702  0.24993740
   0.09516526  0.18175063  0.12156099
   0.49525303  0.07234870  0.37036382
   0.34047062  0.60391201  0.02782883
   0.92434681  0.68523651  0.03696881
   0.34363348  0.06399961  0.02783421
   0.88838126  0.05560908  0.02665597
   0.54236088  0.43628432  0.38846384
   0.67674863  0.08956057  0.33709929
   0.85167076  0.61156732  0.33722304
   0.31956856  0.45344573  0.34937944
   0.15127097  0.25316079  0.33863565
   0.56140800 -0.00108949  0.39291530
Direct configuration=    36
   0.22067121  0.89240241  0.08901558
   0.67207766  0.16164601  0.21769302
   0.94927612  0.02809995  0.15233499
   0.37097407  0.32211024  0.28436713
   0.44927612  0.52809995  0.15233499
   0.87807729  0.30228791  0.28487925
   0.44927612  0.02809995  0.15233499
   0.85918595  0.81359682  0.28220842
   0.90282244  0.55132680  0.10484543
   0.35253600  0.81547342  0.23324861
   0.99308867  0.50465854  0.20410460
   0.40293697  0.81714096  0.34985593
   0.53851998  0.23347802  0.07318573
   0.74693472  0.63538105  0.31725658
   0.87926422  0.06310591  0.05527763
   0.33790640  0.33154833  0.18287775
   0.58246139  0.21150732  0.12452493
   0.03625853  0.49282219  0.25825593
   0.56184138  0.59518239  0.38700787
   0.09516526  0.72856013  0.12156099
   0.56721789  0.44846252  0.25112430
   0.71175380  0.11897707  0.31275103
   0.85888103  0.57329750  0.05350623
   0.31179297  0.84749396  0.18023870
   0.56207820  0.72169891  0.12275353
   0.01401369  0.97485131  0.25584960
   0.80237138  0.32325581  0.18429666
   0.25707001  0.59988785  0.33277001
   0.34617716  0.60305419  0.05647018
   0.19640950  0.12248308  0.32025565
   0.80163926  0.87398835  0.18354673
   0.34617716  0.05624469  0.05647018
   0.55082643  0.98882910  0.24993319
   0.09516526  0.18175063  0.12156099
   0.49526054  0.07230634  0.37034600
   0.34047062  0.60391201  0.02782883
   0.92434681  0.68523651  0.03696881
   0.34363348  0.06399961  0.02783421
   0.88838126  0.05560908  0.02665597
   0.54273145  0.43604810  0.38844143
   0.67673665  0.08957810  0.33708698
   0.85163208  0.61152411  0.33720432
   0.31960092  0.45347897  0.34937864
   0.15138911  0.25310378  0.33863287
   0.56161692 -0.00131752  0.39289456
Direct configuration=    37
   0.22067121  0.89240241  0.08901558
   0.67216270  0.16191780  0.21768452
   0.94927612  0.02809995  0.15233499
   0.37117944  0.32204866  0.28438120
   0.44927612  0.52809995  0.15233499
   0.87853683  0.30211239  0.28483977
   0.44927612  0.02809995  0.15233499
   0.85965419  0.81351145  0.28213743
   0.90282244  0.55132680  0.10484543
   0.35297350  0.81530709  0.23323598
   0.99312396  0.50495251  0.20413358
   0.40303928  0.81718459  0.34978411
   0.53851998  0.23347802  0.07318573
   0.74699597  0.63544550  0.31715900
   0.87926422  0.06310591  0.05527763
   0.33800360  0.33157257  0.18286512
   0.58246139  0.21150732  0.12452493
   0.03660937  0.49287071  0.25825730
   0.56307712  0.59433289  0.38691040
   0.09516526  0.72856013  0.12156099
   0.56725050  0.44871841  0.25116621
   0.71219733  0.11905770  0.31271742
   0.85888103  0.57329750  0.05350623
   0.31175129  0.84744650  0.18020495
   0.56207820  0.72169891  0.12275353
   0.01423131  0.97493139  0.25578891
   0.80228421  0.32355966  0.18428761
   0.25723402  0.59969872  0.33273843
   0.34617716  0.60305419  0.05647018
   0.19659686  0.12216951  0.32024524
   0.80156169  0.87446340  0.18355009
   0.34617716  0.05624469  0.05647018
   0.55084090  0.98895535  0.24992055
   0.09516526  0.18175063  0.12156099
   0.49528307  0.07217927  0.37029253
   0.34047062  0.60391201  0.02782883
   0.92434681  0.68523651  0.03696881
   0.34363348  0.06399961  0.02783421
   0.88838126  0.05560908  0.02665597
   0.54384316  0.43533945  0.38837422
   0.67670072  0.08963068  0.33705005
   0.85151605  0.61139447  0.33714815
   0.31969798  0.45357870  0.34937625
   0.15174355  0.25293273  0.33862452
   0.56224370 -0.00200160  0.39283234
Direct configuration=    38
   0.22067121  0.89240241  0.08901558
   0.67214735  0.16198085  0.21768534
   0.94927612  0.02809995  0.15233499
   0.37128890  0.32198984  0.28437527
   0.44927612  0.52809995  0.15233499
   0.87860566  0.30202903  0.28483232
   0.44927612  0.02809995  0.15233499
   0.85971239  0.81361048  0.28212133
   0.90282244  0.55132680  0.10484543
   0.35301466  0.81532921  0.23322337
   0.99309656  0.50502825  0.20412881
   0.40313974  0.81707091  0.34978760
   0.53851998  0.23347802  0.07318573
   0.74699981  0.63549814  0.31714427
   0.87926422  0.06310591  0.05527763
   0.33795899  0.33161112  0.18286390
   0.58246139  0.21150732  0.12452493
   0.03667146  0.49290916  0.25824983
   0.56327881  0.59421890  0.38687929
   0.09516526  0.72856013  0.12156099
   0.56724993  0.44874800  0.25116909
   0.71232837  0.11897635  0.31270078
   0.85888103  0.57329750  0.05350623
   0.31176930  0.84741985  0.18020848
   0.56207820  0.72169891  0.12275353
   0.01421331  0.97490156  0.25578311
   0.80232183  0.32359929  0.18428673
   0.25727458  0.59965898  0.33272976
   0.34617716  0.60305419  0.05647018
   0.19664628  0.12214182  0.32024503
   0.80156351  0.87448232  0.18355502
   0.34617716  0.05624469  0.05647018
   0.55089983  0.98899041  0.24992351
   0.09516526  0.18175063  0.12156099
   0.49530493  0.07213025  0.37028213
   0.34047062  0.60391201  0.02782883
   0.92434681  0.68523651  0.03696881
   0.34363348  0.06399961  0.02783421
   0.88838126  0.05560908  0.02665597
   0.54408681  0.43520619  0.38835725
   0.67673041  0.08962556  0.33706084
   0.85149250  0.61138595  0.33714707
   0.31971786  0.45361727  0.34937722
   0.15180229  0.25287333  0.33861919
   0.56236617 -0.00211607  0.39281562
