Mn O  H 
 1.0000000000000000
     5.7471469900000001    0.0000000000000000    0.0000000000000000
     0.0000000000000000    5.7471469900000001    0.0000000000000000
     0.0000000000000000    0.0000000000000000   38.3523056924327008
 Mn  O   H  
  15  23   6
Selective dynamics
Direct
 -0.0093835343744717  0.2391760241319369  0.2623916092900749   F   F   F
  0.7489864879576713  0.4968346817732093  0.3235847127412249   F   F   F
  0.4951426920886097  0.2555193101840312  0.3895582924003093   T   T   T
  0.7572479399000008  0.0013624232344030  0.4509391333383427   T   T   T
  0.2560683383453916 -0.0024741252318708  0.4581634465813303   T   T   T
  0.2510151206674320  0.4955812159049278  0.3269556710605909   F   F   F
  0.4961861093753137  0.7554433169063036  0.3902592898060129   T   T   T
 -0.0100916428494874  0.7513987945614823  0.2627757334990781   F   F   F
  0.0024768544779153 -0.0045784375955736  0.3571699137271092   F   F   F
 -0.0034178054870185  0.4987759215613810  0.4226098799051866   T   T   T
  0.4904348369159983  0.5215582669742629  0.4868123930832973   T   T   T
  0.4872487909802456 -0.0043314717839424  0.2917774653642574   F   F   F
  0.4584525116927277  0.1545712558890079  0.5510296616474564   T   T   T
  0.0106973678679846  0.2530634817041056  0.5165017472391696   T   T   T
  0.0755112438891388  0.7411891216720000  0.5425562463316437   T   T   T
  0.9994576026549405  0.2299556943113493  0.4600148710374564   T   T   T
  0.7747574636748692  0.4958631552600724  0.2647010163483396   F   F   F
  0.4994775423373534  0.2678073900728424  0.3280746410023943   F   F   F
  0.7258401317352285  0.0067238767791143  0.3930333529034508   T   T   T
  0.0037645548922136  0.2690184215424850  0.3222536979589821   F   F   F
  0.7692367725186661 -0.0055241815224737  0.2597891457639432   F   F   F
  0.5052075192508130  0.2275313138399575  0.4538707498284925   T   T   T
  0.7227278760677663  0.5058267987206367  0.3873839811630142   T   T   T
  0.2111692605782599 -0.0057975698878655  0.2583053953367737   F   F   F
  0.2663940376438771  0.5057872326375700  0.3870818540476986   T   T   T
  0.2272536477132092  0.4962741366236937  0.2626329689737672   F   F   F
  0.2705809691087326  0.0055394527633079  0.3924706467309855   T   T   T
  0.4987015056994976  0.7247605740973498  0.3278246169346272   F   F   F
  0.0033891195685739  0.7792420071662698  0.4547824133126664   T   T   T
  0.5063436315426298  0.7737738928520880  0.4497681249362159   T   T   T
  0.0041034282560547  0.7236694402594225  0.3222276800561435   F   F   F
  0.7768560626144294  0.5496289558275852  0.5235312086922631   T   T   T
  0.2957626816596534  0.4559142043561465  0.5302315433338890   T   T   T
  0.3232504146149441  0.0418808044133181  0.6254931737302348   T   T   T
  0.2615939678697115 -0.0230682858433690  0.5148173986326341   T   T   T
  0.8101593508066168  0.0571141514919393  0.5554786625742847   T   T   T
  0.1114979257975222  0.6529802719641635  0.5982764558827232   T   T   T
  0.2489088029851282  0.1912395681910812  0.5955235776336451   T   T   T
  0.3862807976787250  0.4992215041381847  0.2532026820654570   F   F   F
  0.6678411775714420  0.5553649851187366  0.5431439345392768   T   T   T
  0.1843950597707499  0.4959274501757389  0.6012146202689163   T   T   T
  0.2359394735407059  0.1143373535947583  0.6444428511901922   T   T   T
  0.1988693219841608  0.7717007717022243  0.6118131840465671   T   T   T
  0.8876681296310016  0.1052889699325446  0.5771476419336616   T   T   T
