Mn  O  H                                
   1.00000000000000     
     2.8735734950000000   -2.8735734950000000    4.7083351100000002
     5.7471469900000001    0.0000000000000000    0.0000000000000000
     0.0000000000000000   33.0656910066415008   20.1805290088081009
   Mn   O    H 
    13    22     9
Selective dynamics
Direct
  0.2206712106837827  0.8924024101981232  0.0890155841539979   F   F   F
  0.6818586056023641  0.1551289878015837  0.2177277923370919   T   T   T
  0.9492761232251894  0.0280999539274163  0.1523349856625060   F   F   F
  0.4044091441632060  0.2915803855182343  0.2850031384016113   T   T   T
  0.4492761232251894  0.5280999539274163  0.1523349856625060   F   F   F
  0.8903417182197347  0.2932832075552259  0.2843890749611721   T   T   T
  0.4492761232251894  0.0280999539274163  0.1523349856625060   F   F   F
  0.8953597493912007  0.8023903513168106  0.2851584599455340   T   T   T
  0.9028224388191362  0.5513267961304464  0.1048454345311214   F   F   F
  0.3673554966892436  0.8127989774948920  0.2329771786913063   T   T   T
  0.9974819790548978  0.5023661953654412  0.2053929518054128   T   T   T
  0.4062869990627929  0.8027985220671001  0.3474936038011044   T   T   T
  0.5385199825484293  0.2334780242657999  0.0731857337768673   F   F   F
  0.7555549086728265  0.6198765523034863  0.3153941754041009   T   T   T
  0.8792642171272149  0.0631059069764035  0.0552776342656358   F   F   F
  0.3395373841139082  0.3303153855037914  0.1829896776303780   T   T   T
  0.5824613929758371  0.2115073190520960  0.1245249348239739   F   F   F
  0.0606734729844231  0.4659417662130383  0.2604472657472335   T   T   T
  0.5908879426341707  0.5353453476397922  0.3785211484852563   T   T   T
  0.0951652613222294  0.7285601348788973  0.1215609852990625   F   F   F
  0.5727719551436360  0.4429661354056291  0.2506450026642281   T   T   T
  0.7352936481916089  0.1250687283346199  0.3092870207951702   T   T   T
  0.8588810283917283  0.5732975013441504  0.0535062334840219   F   F   F
  0.3130484800104672  0.8467820427873061  0.1802040136940605   T   T   T
  0.5620782042403505  0.7216989134198428  0.1227535340423529   F   F   F
  0.0279283455517943  0.9757394544402815  0.2557983422163194   T   T   T
  0.8064506773474334  0.3224308100268679  0.1843380747514014   T   T   T
  0.2519842688468096  0.6056982190738862  0.3250767156009028   T   T   T
  0.3461771600453361  0.6030541855173510  0.0564701830089334   F   F   F
  0.2175946020523900  0.1177956929084280  0.3183318316367140   T   T   T
  0.8069998728979085  0.8700170234343509  0.1836394479299009   T   T   T
  0.3461771600453361  0.0562446855173491  0.0564701830089334   F   F   F
  0.5747973059641801  0.9727976549635730  0.2502301154964180   T   T   T
  0.0951652613222294  0.1817506348788953  0.1215609852990625   F   F   F
  0.4220870403179358  0.0677051970812607  0.3757272112711574   T   T   T
  0.3404706169097480  0.6039120138460916  0.0278288297643030   F   F   F
  0.9243468113422040  0.6852365052266407  0.0369688146645331   F   F   F
  0.3436334761770041  0.0639996102436484  0.0278342118600037   F   F   F
  0.8883812645227351  0.0556090842097916  0.0266559720288981   F   F   F
  0.5877732124815801  0.3686767343579013  0.3741480983355191   T   T   T
  0.8214196463836316  0.5623720737534129  0.3387220018622180   T   T   T
  0.2525771509154963  0.4979600452397162  0.3447216279566647   T   T   T
  0.4638362329874182  0.0055700324117967  0.3993872172685231   T   T   T
  0.1785682577084534  0.2242810283534474  0.3394181416648191   T   T   T
 
  0.00000000E+00  0.00000000E+00  0.00000000E+00
  0.00000000E+00  0.00000000E+00  0.00000000E+00
  0.00000000E+00  0.00000000E+00  0.00000000E+00
  0.00000000E+00  0.00000000E+00  0.00000000E+00
  0.00000000E+00  0.00000000E+00  0.00000000E+00
  0.00000000E+00  0.00000000E+00  0.00000000E+00
  0.00000000E+00  0.00000000E+00  0.00000000E+00
  0.00000000E+00  0.00000000E+00  0.00000000E+00
  0.00000000E+00  0.00000000E+00  0.00000000E+00
  0.00000000E+00  0.00000000E+00  0.00000000E+00
  0.00000000E+00  0.00000000E+00  0.00000000E+00
  0.00000000E+00  0.00000000E+00  0.00000000E+00
  0.00000000E+00  0.00000000E+00  0.00000000E+00
  0.00000000E+00  0.00000000E+00  0.00000000E+00
  0.00000000E+00  0.00000000E+00  0.00000000E+00
  0.00000000E+00  0.00000000E+00  0.00000000E+00
  0.00000000E+00  0.00000000E+00  0.00000000E+00
  0.00000000E+00  0.00000000E+00  0.00000000E+00
  0.00000000E+00  0.00000000E+00  0.00000000E+00
  0.00000000E+00  0.00000000E+00  0.00000000E+00
  0.00000000E+00  0.00000000E+00  0.00000000E+00
  0.00000000E+00  0.00000000E+00  0.00000000E+00
  0.00000000E+00  0.00000000E+00  0.00000000E+00
  0.00000000E+00  0.00000000E+00  0.00000000E+00
  0.00000000E+00  0.00000000E+00  0.00000000E+00
  0.00000000E+00  0.00000000E+00  0.00000000E+00
  0.00000000E+00  0.00000000E+00  0.00000000E+00
  0.00000000E+00  0.00000000E+00  0.00000000E+00
  0.00000000E+00  0.00000000E+00  0.00000000E+00
  0.00000000E+00  0.00000000E+00  0.00000000E+00
  0.00000000E+00  0.00000000E+00  0.00000000E+00
  0.00000000E+00  0.00000000E+00  0.00000000E+00
  0.00000000E+00  0.00000000E+00  0.00000000E+00
  0.00000000E+00  0.00000000E+00  0.00000000E+00
  0.00000000E+00  0.00000000E+00  0.00000000E+00
  0.00000000E+00  0.00000000E+00  0.00000000E+00
  0.00000000E+00  0.00000000E+00  0.00000000E+00
  0.00000000E+00  0.00000000E+00  0.00000000E+00
  0.00000000E+00  0.00000000E+00  0.00000000E+00
  0.00000000E+00  0.00000000E+00  0.00000000E+00
  0.00000000E+00  0.00000000E+00  0.00000000E+00
  0.00000000E+00  0.00000000E+00  0.00000000E+00
  0.00000000E+00  0.00000000E+00  0.00000000E+00
  0.00000000E+00  0.00000000E+00  0.00000000E+00
