Mn  O  H                                
   1.00000000000000     
     2.8735734950000000   -2.8735734950000000    4.7083351100000002
     5.7471469900000001    0.0000000000000000    0.0000000000000000
     0.0000000000000000   33.0656910066415008   20.1805290088081009
   Mn   O    H 
    13    22     9
Selective dynamics
Direct
  0.2206712106837827  0.8924024101981232  0.0890155841539979   F   F   F
  0.6813664569333050  0.1574645367842495  0.2179104700278580   T   T   T
  0.9492761232251894  0.0280999539274163  0.1523349856625060   F   F   F
  0.4038670991047826  0.2898736273124114  0.2856147328867530   T   T   T
  0.4492761232251894  0.5280999539274163  0.1523349856625060   F   F   F
  0.8903346267674245  0.2941322745171160  0.2842662657393220   T   T   T
  0.4492761232251894  0.0280999539274163  0.1523349856625060   F   F   F
  0.8974273394408819  0.8002047146591079  0.2855685922074458   T   T   T
  0.9028224388191362  0.5513267961304464  0.1048454345311214   F   F   F
  0.3667869424593470  0.8132596518804858  0.2329121815945677   T   T   T
 -0.0022062203892649  0.5026151079946413  0.2054589687136979   T   T   T
  0.4063446012595511  0.8014663052752676  0.3477404338610579   T   T   T
  0.5385199825484293  0.2334780242657999  0.0731857337768673   F   F   F
  0.7544559427272053  0.6201497424595034  0.3158222218814591   T   T   T
  0.8792642171272149  0.0631059069764035  0.0552776342656358   F   F   F
  0.3399896043374392  0.3324290045575515  0.1834517634734888   T   T   T
  0.5824613929758371  0.2115073190520960  0.1245249348239739   F   F   F
  0.0606495198476816  0.4646755334243480  0.2605363163865496   T   T   T
  0.5910821665116452  0.5327292478333439  0.3786446067779998   T   T   T
  0.0951652613222294  0.7285601348788973  0.1215609852990625   F   F   F
  0.5756690266145134  0.4448635575737868  0.2505736896504804   T   T   T
  0.7363040613565681  0.1267284542040601  0.3091094268019267   T   T   T
  0.8588810283917283  0.5732975013441504  0.0535062334840219   F   F   F
  0.3112590444830389  0.8470306376410970  0.1803350075938734   T   T   T
  0.5620782042403505  0.7216989134198428  0.1227535340423529   F   F   F
  0.0305962742769698 -0.0263781368420043  0.2555043341294524   T   T   T
  0.8055818591807613  0.3252594004029078  0.1845459742016019   T   T   T
  0.2520269417972992  0.6040998054135603  0.3249211962215925   T   T   T
  0.3461771600453361  0.6030541855173510  0.0564701830089334   F   F   F
  0.2166195549628915  0.1162757411427517  0.3184340832575651   T   T   T
  0.8050674958231218  0.8705405236831788  0.1840172766761130   T   T   T
  0.3461771600453361  0.0562446855173491  0.0564701830089334   F   F   F
  0.5723451586403216  0.9761462773225443  0.2505135884869850   T   T   T
  0.0951652613222294  0.1817506348788953  0.1215609852990625   F   F   F
  0.4223932513617281  0.0678741988941635  0.3758042704692594   T   T   T
  0.3404706169097480  0.6039120138460916  0.0278288297643030   F   F   F
  0.9243468113422040  0.6852365052266407  0.0369688146645331   F   F   F
  0.3436334761770041  0.0639996102436484  0.0278342118600037   F   F   F
  0.8883812645227351  0.0556090842097916  0.0266559720288981   F   F   F
  0.5884917459379336  0.3659886427897691  0.3741208122331990   T   T   T
  0.8218093079368699  0.5597414175162501  0.3390369406224256   T   T   T
  0.2522335956756779  0.4973386676174700  0.3446789447505337   T   T   T
  0.4637720333557874  0.0063499352593594  0.3994858318962251   T   T   T
  0.1790771034874587  0.2227456310629823  0.3395545942513463   T   T   T
 
  0.00000000E+00  0.00000000E+00  0.00000000E+00
  0.00000000E+00  0.00000000E+00  0.00000000E+00
  0.00000000E+00  0.00000000E+00  0.00000000E+00
  0.00000000E+00  0.00000000E+00  0.00000000E+00
  0.00000000E+00  0.00000000E+00  0.00000000E+00
  0.00000000E+00  0.00000000E+00  0.00000000E+00
  0.00000000E+00  0.00000000E+00  0.00000000E+00
  0.00000000E+00  0.00000000E+00  0.00000000E+00
  0.00000000E+00  0.00000000E+00  0.00000000E+00
  0.00000000E+00  0.00000000E+00  0.00000000E+00
  0.00000000E+00  0.00000000E+00  0.00000000E+00
  0.00000000E+00  0.00000000E+00  0.00000000E+00
  0.00000000E+00  0.00000000E+00  0.00000000E+00
  0.00000000E+00  0.00000000E+00  0.00000000E+00
  0.00000000E+00  0.00000000E+00  0.00000000E+00
  0.00000000E+00  0.00000000E+00  0.00000000E+00
  0.00000000E+00  0.00000000E+00  0.00000000E+00
  0.00000000E+00  0.00000000E+00  0.00000000E+00
  0.00000000E+00  0.00000000E+00  0.00000000E+00
  0.00000000E+00  0.00000000E+00  0.00000000E+00
  0.00000000E+00  0.00000000E+00  0.00000000E+00
  0.00000000E+00  0.00000000E+00  0.00000000E+00
  0.00000000E+00  0.00000000E+00  0.00000000E+00
  0.00000000E+00  0.00000000E+00  0.00000000E+00
  0.00000000E+00  0.00000000E+00  0.00000000E+00
  0.00000000E+00  0.00000000E+00  0.00000000E+00
  0.00000000E+00  0.00000000E+00  0.00000000E+00
  0.00000000E+00  0.00000000E+00  0.00000000E+00
  0.00000000E+00  0.00000000E+00  0.00000000E+00
  0.00000000E+00  0.00000000E+00  0.00000000E+00
  0.00000000E+00  0.00000000E+00  0.00000000E+00
  0.00000000E+00  0.00000000E+00  0.00000000E+00
  0.00000000E+00  0.00000000E+00  0.00000000E+00
  0.00000000E+00  0.00000000E+00  0.00000000E+00
  0.00000000E+00  0.00000000E+00  0.00000000E+00
  0.00000000E+00  0.00000000E+00  0.00000000E+00
  0.00000000E+00  0.00000000E+00  0.00000000E+00
  0.00000000E+00  0.00000000E+00  0.00000000E+00
  0.00000000E+00  0.00000000E+00  0.00000000E+00
  0.00000000E+00  0.00000000E+00  0.00000000E+00
  0.00000000E+00  0.00000000E+00  0.00000000E+00
  0.00000000E+00  0.00000000E+00  0.00000000E+00
  0.00000000E+00  0.00000000E+00  0.00000000E+00
  0.00000000E+00  0.00000000E+00  0.00000000E+00
