unknown system                          
           1
     2.873573   -2.873573    4.708335
     5.747147    0.000000    0.000000
     0.000000   33.065691   20.180529
   Mn   O    H 
  13  22   9
Direct configuration=     1
   0.22067121  0.89240241  0.08901558
   0.68136646  0.15746454  0.21791047
   0.94927612  0.02809995  0.15233499
   0.40386710  0.28987363  0.28561473
   0.44927612  0.52809995  0.15233499
   0.89033463  0.29413227  0.28426627
   0.44927612  0.02809995  0.15233499
   0.89742734  0.80020471  0.28556859
   0.90282244  0.55132680  0.10484543
   0.36678694  0.81325965  0.23291218
   0.99779378  0.50261511  0.20545897
   0.40634460  0.80146631  0.34774043
   0.53851998  0.23347802  0.07318573
   0.75445594  0.62014974  0.31582222
   0.87926422  0.06310591  0.05527763
   0.33998960  0.33242900  0.18345176
   0.58246139  0.21150732  0.12452493
   0.06064952  0.46467553  0.26053632
   0.59108217  0.53272925  0.37864461
   0.09516526  0.72856013  0.12156099
   0.57566903  0.44486356  0.25057369
   0.73630406  0.12672845  0.30910943
   0.85888103  0.57329750  0.05350623
   0.31125904  0.84703064  0.18033501
   0.56207820  0.72169891  0.12275353
   0.03059627  0.97362186  0.25550433
   0.80558186  0.32525940  0.18454597
   0.25202694  0.60409981  0.32492120
   0.34617716  0.60305419  0.05647018
   0.21661955  0.11627574  0.31843408
   0.80506750  0.87054052  0.18401728
   0.34617716  0.05624469  0.05647018
   0.57234516  0.97614628  0.25051359
   0.09516526  0.18175063  0.12156099
   0.42239325  0.06787420  0.37580427
   0.34047062  0.60391201  0.02782883
   0.92434681  0.68523651  0.03696881
   0.34363348  0.06399961  0.02783421
   0.88838126  0.05560908  0.02665597
   0.58849175  0.36598864  0.37412081
   0.82180931  0.55974142  0.33903694
   0.25223360  0.49733867  0.34467894
   0.46377203  0.00634994  0.39948583
   0.17907710  0.22274563  0.33955459
Direct configuration=     2
   0.22067121  0.89240241  0.08901558
   0.68078789  0.15682452  0.21824348
   0.94927612  0.02809995  0.15233499
   0.40279490  0.29089277  0.28542099
   0.44927612  0.52809995  0.15233499
   0.88994635  0.29251230  0.28433507
   0.44927612  0.02809995  0.15233499
   0.89660448  0.80306839  0.28536163
   0.90282244  0.55132680  0.10484543
   0.36839820  0.81286690  0.23307662
   0.99760585  0.50299135  0.20570583
   0.40574155  0.80206463  0.34754229
   0.53851998  0.23347802  0.07318573
   0.75493014  0.62027954  0.31577338
   0.87926422  0.06310591  0.05527763
   0.34080260  0.33124077  0.18312460
   0.58246139  0.21150732  0.12452493
   0.05679322  0.46693745  0.26032781
   0.59097618  0.53333500  0.37864959
   0.09516526  0.72856013  0.12156099
   0.57560419  0.44509137  0.25038407
   0.74260330  0.12351090  0.30919857
   0.85888103  0.57329750  0.05350623
   0.31191660  0.84732467  0.18010537
   0.56207820  0.72169891  0.12275353
   0.02897123  0.97408586  0.25571535
   0.80610188  0.32333573  0.18421432
   0.25168272  0.60565551  0.32524436
   0.34617716  0.60305419  0.05647018
   0.21648041  0.11584523  0.31871471
   0.80563017  0.87168303  0.18371327
   0.34617716  0.05624469  0.05647018
   0.57374475  0.97437679  0.25017819
   0.09516526  0.18175063  0.12156099
   0.42242453  0.06752344  0.37577896
   0.34047062  0.60391201  0.02782883
   0.92434681  0.68523651  0.03696881
   0.34363348  0.06399961  0.02783421
   0.88838126  0.05560908  0.02665597
   0.58844957  0.36627040  0.37410788
   0.82175818  0.56000969  0.33898854
   0.25227858  0.49783069  0.34459728
   0.46381203  0.00637725  0.39948333
   0.17910177  0.22252327  0.33943559
Direct configuration=     3
   0.22067121  0.89240241  0.08901558
   0.68108666  0.15715502  0.21807152
   0.94927612  0.02809995  0.15233499
   0.40334858  0.29036649  0.28552104
   0.44927612  0.52809995  0.15233499
   0.89014686  0.29334885  0.28429954
   0.44927612  0.02809995  0.15233499
   0.89702940  0.80158960  0.28546850
   0.90282244  0.55132680  0.10484543
   0.36756615  0.81306972  0.23299170
   0.99770290  0.50279706  0.20557835
   0.40605296  0.80175566  0.34764461
   0.53851998  0.23347802  0.07318573
   0.75468526  0.62021251  0.31579860
   0.87926422  0.06310591  0.05527763
   0.34038277  0.33185437  0.18329355
   0.58246139  0.21150732  0.12452493
   0.05878460  0.46576941  0.26043548
   0.59103091  0.53302219  0.37864701
   0.09516526  0.72856013  0.12156099
   0.57563767  0.44497373  0.25048199
   0.73935039  0.12517243  0.30915254
   0.85888103  0.57329750  0.05350623
   0.31157704  0.84717283  0.18022395
   0.56207820  0.72169891  0.12275353
   0.02981040  0.97384625  0.25560638
   0.80583334  0.32432911  0.18438558
   0.25186047  0.60485215  0.32507748
   0.34617716  0.60305419  0.05647018
   0.21655226  0.11606754  0.31856980
   0.80533960  0.87109304  0.18387026
   0.34617716  0.05624469  0.05647018
   0.57302200  0.97529055  0.25035139
   0.09516526  0.18175063  0.12156099
   0.42240838  0.06770457  0.37579203
   0.34047062  0.60391201  0.02782883
   0.92434681  0.68523651  0.03696881
   0.34363348  0.06399961  0.02783421
   0.88838126  0.05560908  0.02665597
   0.58847135  0.36612490  0.37411456
   0.82178458  0.55987116  0.33901353
   0.25225535  0.49757661  0.34463945
   0.46379137  0.00636314  0.39948462
   0.17908903  0.22263810  0.33949704
Direct configuration=     4
   0.22067121  0.89240241  0.08901558
   0.68100128  0.15706057  0.21812066
   0.94927612  0.02809995  0.15233499
   0.40319035  0.29051689  0.28549245
   0.44927612  0.52809995  0.15233499
   0.89008956  0.29310978  0.28430969
   0.44927612  0.02809995  0.15233499
   0.89690797  0.80201220  0.28543796
   0.90282244  0.55132680  0.10484543
   0.36780394  0.81301176  0.23301597
   0.99767516  0.50285258  0.20561478
   0.40596397  0.80184395  0.34761537
   0.53851998  0.23347802  0.07318573
   0.75475524  0.62023167  0.31579140
   0.87926422  0.06310591  0.05527763
   0.34050275  0.33167901  0.18324527
   0.58246139  0.21150732  0.12452493
   0.05821550  0.46610321  0.26040471
   0.59101527  0.53311158  0.37864775
   0.09516526  0.72856013  0.12156099
   0.57562810  0.44500735  0.25045401
   0.74028001  0.12469760  0.30916569
   0.85888103  0.57329750  0.05350623
   0.31167408  0.84721623  0.18019006
   0.56207820  0.72169891  0.12275353
   0.02957058  0.97391473  0.25563752
   0.80591008  0.32404522  0.18433664
   0.25180967  0.60508173  0.32512517
   0.34617716  0.60305419  0.05647018
   0.21653173  0.11600401  0.31861121
   0.80542264  0.87126165  0.18382540
   0.34617716  0.05624469  0.05647018
   0.57322855  0.97502941  0.25030189
   0.09516526  0.18175063  0.12156099
   0.42241299  0.06765281  0.37578829
   0.34047062  0.60391201  0.02782883
   0.92434681  0.68523651  0.03696881
   0.34363348  0.06399961  0.02783421
   0.88838126  0.05560908  0.02665597
   0.58846513  0.36616648  0.37411265
   0.82177704  0.55991075  0.33900639
   0.25226199  0.49764922  0.34462740
   0.46379728  0.00636717  0.39948425
   0.17909267  0.22260528  0.33947948
Direct configuration=     5
   0.22067121  0.89240241  0.08901558
   0.68102146  0.15720566  0.21817888
   0.94927612  0.02809995  0.15233499
   0.40295707  0.29123949  0.28524251
   0.44927612  0.52809995  0.15233499
   0.89008830  0.29300145  0.28431507
   0.44927612  0.02809995  0.15233499
   0.89649420  0.80291378  0.28520037
   0.90282244  0.55132680  0.10484543
   0.36852241  0.81262479  0.23303047
   0.99744841  0.50316685  0.20572533
   0.40636276  0.80245460  0.34762616
   0.53851998  0.23347802  0.07318573
   0.75527785  0.62074821  0.31560158
   0.87926422  0.06310591  0.05527763
   0.34023887  0.33081966  0.18299511
   0.58246139  0.21150732  0.12452493
   0.05688771  0.46731672  0.26039572
   0.59081143  0.53352844  0.37857025
   0.09516526  0.72856013  0.12156099
   0.57515883  0.44416735  0.25046247
   0.74205952  0.12322319  0.30920928
   0.85888103  0.57329750  0.05350623
   0.31187967  0.84765959  0.17996637
   0.56207820  0.72169891  0.12275353
   0.02816526  0.97391028  0.25583346
   0.80697092  0.32224845  0.18405141
   0.25159698  0.60633352  0.32501906
   0.34617716  0.60305419  0.05647018
   0.21736169  0.11438609  0.31834682
   0.80647971  0.87139320  0.18354959
   0.34617716  0.05624469  0.05647018
   0.57425248  0.97472168  0.25035312
   0.09516526  0.18175063  0.12156099
   0.42252171  0.06726245  0.37573608
   0.34047062  0.60391201  0.02782883
   0.92434681  0.68523651  0.03696881
   0.34363348  0.06399961  0.02783421
   0.88838126  0.05560908  0.02665597
   0.58840161  0.36689928  0.37413323
   0.82184874  0.56022707  0.33901694
   0.25228119  0.49697349  0.34478878
   0.46387816  0.00632131  0.39945667
   0.17839011  0.22443599  0.33976903
Direct configuration=     6
   0.22067121  0.89240241  0.08901558
   0.68100907  0.15711662  0.21814315
   0.94927612  0.02809995  0.15233499
   0.40310023  0.29079603  0.28539590
   0.44927612  0.52809995  0.15233499
   0.89008907  0.29306793  0.28431177
   0.44927612  0.02809995  0.15233499
   0.89674812  0.80236049  0.28534618
   0.90282244  0.55132680  0.10484543
   0.36808149  0.81286227  0.23302157
   0.99758757  0.50297399  0.20565749
   0.40611802  0.80207985  0.34761954
   0.53851998  0.23347802  0.07318573
   0.75495713  0.62043121  0.31571807
   0.87926422  0.06310591  0.05527763
   0.34040081  0.33134704  0.18314863
   0.58246139  0.21150732  0.12452493
   0.05770257  0.46657199  0.26040124
   0.59093653  0.53327262  0.37861781
   0.09516526  0.72856013  0.12156099
   0.57544682  0.44468285  0.25045728
   0.74096744  0.12412803  0.30918253
   0.85888103  0.57329750  0.05350623
   0.31175350  0.84738750  0.18010365
   0.56207820  0.72169891  0.12275353
   0.02902770  0.97391301  0.25571321
   0.80631989  0.32335112  0.18422645
   0.25172751  0.60556530  0.32508418
   0.34617716  0.60305419  0.05647018
   0.21685235  0.11537900  0.31850907
   0.80583099  0.87131247  0.18371885
   0.34617716  0.05624469  0.05647018
   0.57362410  0.97491053  0.25032168
   0.09516526  0.18175063  0.12156099
   0.42245499  0.06750201  0.37576812
   0.34047062  0.60391201  0.02782883
   0.92434681  0.68523651  0.03696881
   0.34363348  0.06399961  0.02783421
   0.88838126  0.05560908  0.02665597
   0.58844059  0.36644957  0.37412060
   0.82180474  0.56003294  0.33901046
   0.25226941  0.49738818  0.34468974
   0.46382852  0.00634946  0.39947360
   0.17882127  0.22331250  0.33959133
Direct configuration=     7
   0.22067121  0.89240241  0.08901558
   0.68137896  0.15677313  0.21804168
   0.94927612  0.02809995  0.15233499
   0.40256443  0.29166906  0.28519924
   0.44927612  0.52809995  0.15233499
   0.89013129  0.29324626  0.28435905
   0.44927612  0.02809995  0.15233499
   0.89616685  0.80257656  0.28516319
   0.90282244  0.55132680  0.10484543
   0.36853516  0.81265604  0.23301708
   0.99719675  0.50327072  0.20574303
   0.40652502  0.80224722  0.34762738
   0.53851998  0.23347802  0.07318573
   0.75569281  0.62060181  0.31559945
   0.87926422  0.06310591  0.05527763
   0.33997225  0.33072664  0.18294754
   0.58246139  0.21150732  0.12452493
   0.05519650  0.46808333  0.26030021
   0.59065549  0.53394436  0.37854859
   0.09516526  0.72856013  0.12156099
   0.57480659  0.44402040  0.25045490
   0.74366874  0.12250729  0.30930127
   0.85888103  0.57329750  0.05350623
   0.31215240  0.84734704  0.17999489
   0.56207820  0.72169891  0.12275353
   0.02815395  0.97399236  0.25581764
   0.80704416  0.32189303  0.18402763
   0.25149854  0.60630404  0.32513353
   0.34617716  0.60305419  0.05647018
   0.21712695  0.11530965  0.31852096
   0.80669114  0.87132589  0.18352784
   0.34617716  0.05624469  0.05647018
   0.57458573  0.97418360  0.25031395
   0.09516526  0.18175063  0.12156099
   0.42249052  0.06721253  0.37573794
   0.34047062  0.60391201  0.02782883
   0.92434681  0.68523651  0.03696881
   0.34363348  0.06399961  0.02783421
   0.88838126  0.05560908  0.02665597
   0.58831727  0.36709368  0.37413435
   0.82154940  0.56061964  0.33893079
   0.25229361  0.49736492  0.34474340
   0.46383730  0.00627327  0.39943439
   0.17856271  0.22370948  0.33961396
Direct configuration=     8
   0.22067121  0.89240241  0.08901558
   0.68106344  0.15706614  0.21812824
   0.94927612  0.02809995  0.15233499
   0.40302149  0.29092434  0.28536699
   0.44927612  0.52809995  0.15233499
   0.89009528  0.29309414  0.28431872
   0.44927612  0.02809995  0.15233499
   0.89666269  0.80239225  0.28531928
   0.90282244  0.55132680  0.10484543
   0.36814817  0.81283196  0.23302091
   0.99753013  0.50301760  0.20567006
   0.40617784  0.80210445  0.34762069
   0.53851998  0.23347802  0.07318573
   0.75506526  0.62045629  0.31570063
   0.87926422  0.06310591  0.05527763
   0.34033783  0.33125586  0.18311907
   0.58246139  0.21150732  0.12452493
   0.05733424  0.46679412  0.26038639
   0.59089522  0.53337135  0.37860764
   0.09516526  0.72856013  0.12156099
   0.57535272  0.44458549  0.25045693
   0.74136446  0.12388982  0.30919998
   0.85888103  0.57329750  0.05350623
   0.31181213  0.84738155  0.18008766
   0.56207820  0.72169891  0.12275353
   0.02889928  0.97392467  0.25572856
   0.80642634  0.32313682  0.18419723
   0.25169386  0.60567388  0.32509144
   0.34617716  0.60305419  0.05647018
   0.21689271  0.11536881  0.31851082
   0.80595741  0.87131444  0.18369078
   0.34617716  0.05624469  0.05647018
   0.57376543  0.97480369  0.25032055
   0.09516526  0.18175063  0.12156099
   0.42246021  0.06745946  0.37576369
   0.34047062  0.60391201  0.02782883
   0.92434681  0.68523651  0.03696881
   0.34363348  0.06399961  0.02783421
   0.88838126  0.05560908  0.02665597
   0.58842247  0.36654423  0.37412262
   0.82176721  0.56011917  0.33899875
   0.25227296  0.49738476  0.34469763
   0.46382981  0.00633826  0.39946784
   0.17878327  0.22337084  0.33959466
Direct configuration=     9
   0.22067121  0.89240241  0.08901558
   0.68108653  0.15704469  0.21812190
   0.94927612  0.02809995  0.15233499
   0.40298804  0.29097885  0.28535471
   0.44927612  0.52809995  0.15233499
   0.89009791  0.29310528  0.28432167
   0.44927612  0.02809995  0.15233499
   0.89662640  0.80240574  0.28530786
   0.90282244  0.55132680  0.10484543
   0.36817649  0.81281908  0.23302063
   0.99750573  0.50303612  0.20567540
   0.40620325  0.80211490  0.34762118
   0.53851998  0.23347802  0.07318573
   0.75511118  0.62046694  0.31569323
   0.87926422  0.06310591  0.05527763
   0.34031107  0.33121713  0.18310652
   0.58246139  0.21150732  0.12452493
   0.05717779  0.46688847  0.26038008
   0.59087768  0.53341328  0.37860332
   0.09516526  0.72856013  0.12156099
   0.57531276  0.44454413  0.25045678
   0.74153310  0.12378864  0.30920739
   0.85888103  0.57329750  0.05350623
   0.31183703  0.84737903  0.18008087
   0.56207820  0.72169891  0.12275353
   0.02884473  0.97392962  0.25573508
   0.80647155  0.32304579  0.18418482
   0.25167956  0.60572000  0.32509452
   0.34617716  0.60305419  0.05647018
   0.21690985  0.11536448  0.31851156
   0.80601111  0.87131528  0.18367885
   0.34617716  0.05624469  0.05647018
   0.57382547  0.97475831  0.25032006
   0.09516526  0.18175063  0.12156099
   0.42246243  0.06744139  0.37576180
   0.34047062  0.60391201  0.02782883
   0.92434681  0.68523651  0.03696881
   0.34363348  0.06399961  0.02783421
   0.88838126  0.05560908  0.02665597
   0.58841477  0.36658445  0.37412348
   0.82175127  0.56015580  0.33899378
   0.25227448  0.49738331  0.34470098
   0.46383036  0.00633350  0.39946539
   0.17876713  0.22339563  0.33959607
Direct configuration=    10
   0.22067121  0.89240241  0.08901558
   0.68107859  0.15705207  0.21812408
   0.94927612  0.02809995  0.15233499
   0.40299954  0.29096011  0.28535894
   0.44927612  0.52809995  0.15233499
   0.89009701  0.29310145  0.28432066
   0.44927612  0.02809995  0.15233499
   0.89663888  0.80240110  0.28531179
   0.90282244  0.55132680  0.10484543
   0.36816675  0.81282351  0.23302073
   0.99751412  0.50302976  0.20567357
   0.40619451  0.80211130  0.34762101
   0.53851998  0.23347802  0.07318573
   0.75509539  0.62046328  0.31569577
   0.87926422  0.06310591  0.05527763
   0.34032027  0.33123044  0.18311084
   0.58246139  0.21150732  0.12452493
   0.05723158  0.46685603  0.26038225
   0.59088371  0.53339886  0.37860480
   0.09516526  0.72856013  0.12156099
   0.57532650  0.44455835  0.25045683
   0.74147512  0.12382343  0.30920484
   0.85888103  0.57329750  0.05350623
   0.31182847  0.84737990  0.18008321
   0.56207820  0.72169891  0.12275353
   0.02886348  0.97392792  0.25573284
   0.80645601  0.32307709  0.18418909
   0.25168448  0.60570414  0.32509346
   0.34617716  0.60305419  0.05647018
   0.21690396  0.11536596  0.31851131
   0.80599265  0.87131499  0.18368295
   0.34617716  0.05624469  0.05647018
   0.57380483  0.97477391  0.25032023
   0.09516526  0.18175063  0.12156099
   0.42246167  0.06744761  0.37576245
   0.34047062  0.60391201  0.02782883
   0.92434681  0.68523651  0.03696881
   0.34363348  0.06399961  0.02783421
   0.88838126  0.05560908  0.02665597
   0.58841742  0.36657062  0.37412318
   0.82175675  0.56014321  0.33899549
   0.25227396  0.49738381  0.34469983
   0.46383017  0.00633514  0.39946623
   0.17877268  0.22338710  0.33959559
Direct configuration=    11
   0.22067121  0.89240241  0.08901558
   0.68107101  0.15705910  0.21812616
   0.94927612  0.02809995  0.15233499
   0.40301051  0.29094223  0.28536296
   0.44927612  0.52809995  0.15233499
   0.89009614  0.29309780  0.28431969
   0.44927612  0.02809995  0.15233499
   0.89665079  0.80239667  0.28531554
   0.90282244  0.55132680  0.10484543
   0.36815746  0.81282774  0.23302082
   0.99752212  0.50302368  0.20567181
   0.40618618  0.80210788  0.34762085
   0.53851998  0.23347802  0.07318573
   0.75508032  0.62045978  0.31569820
   0.87926422  0.06310591  0.05527763
   0.34032905  0.33124315  0.18311495
   0.58246139  0.21150732  0.12452493
   0.05728291  0.46682508  0.26038432
   0.59088947  0.53338511  0.37860622
   0.09516526  0.72856013  0.12156099
   0.57533961  0.44457192  0.25045688
   0.74141979  0.12385663  0.30920241
   0.85888103  0.57329750  0.05350623
   0.31182030  0.84738072  0.18008544
   0.56207820  0.72169891  0.12275353
   0.02888138  0.97392630  0.25573070
   0.80644117  0.32310695  0.18419316
   0.25168917  0.60568901  0.32509245
   0.34617716  0.60305419  0.05647018
   0.21689833  0.11536739  0.31851107
   0.80597503  0.87131472  0.18368686
   0.34617716  0.05624469  0.05647018
   0.57378513  0.97478880  0.25032039
   0.09516526  0.18175063  0.12156099
   0.42246094  0.06745354  0.37576307
   0.34047062  0.60391201  0.02782883
   0.92434681  0.68523651  0.03696881
   0.34363348  0.06399961  0.02783421
   0.88838126  0.05560908  0.02665597
   0.58841994  0.36655743  0.37412290
   0.82176198  0.56013119  0.33899712
   0.25227346  0.49738429  0.34469873
   0.46382999  0.00633670  0.39946703
   0.17877797  0.22337897  0.33959512
Direct configuration=    12
   0.22067121  0.89240241  0.08901558
   0.68173250  0.15648540  0.21791236
   0.94927612  0.02809995  0.15233499
   0.40315981  0.29134870  0.28519971
   0.44927612  0.52809995  0.15233499
   0.89034885  0.29358973  0.28432596
   0.44927612  0.02809995  0.15233499
   0.89628453  0.80212778  0.28518877
   0.90282244  0.55132680  0.10484543
   0.36819252  0.81283033  0.23299378
   0.99716250  0.50325277  0.20568077
   0.40662076  0.80204717  0.34764048
   0.53851998  0.23347802  0.07318573
   0.75571048  0.62050197  0.31562928
   0.87926422  0.06310591  0.05527763
   0.33993870  0.33072145  0.18297878
   0.58246139  0.21150732  0.12452493
   0.05613612  0.46768310  0.26034059
   0.59066804  0.53402007  0.37855722
   0.09516526  0.72856013  0.12156099
   0.57471116  0.44404180  0.25052851
   0.74190727  0.12306925  0.30934404
   0.85888103  0.57329750  0.05350623
   0.31219436  0.84734490  0.18003325
   0.56207820  0.72169891  0.12275353
   0.02843968  0.97400018  0.25577569
   0.80688964  0.32219047  0.18409920
   0.25157401  0.60582732  0.32512933
   0.34617716  0.60305419  0.05647018
   0.21693627  0.11599134  0.31856553
   0.80653928  0.87122036  0.18359058
   0.34617716  0.05624469  0.05647018
   0.57428729  0.97440571  0.25036468
   0.09516526  0.18175063  0.12156099
   0.42246138  0.06729845  0.37574385
   0.34047062  0.60391201  0.02782883
   0.92434681  0.68523651  0.03696881
   0.34363348  0.06399961  0.02783421
   0.88838126  0.05560908  0.02665597
   0.58829696  0.36702130  0.37413150
   0.82145723  0.56070460  0.33890494
   0.25229224  0.49753819  0.34471837
   0.46382379  0.00626112  0.39943597
   0.17870311  0.22329829  0.33953844
Direct configuration=    13
   0.22067121  0.89240241  0.08901558
   0.68168992  0.15652233  0.21792612
   0.94927612  0.02809995  0.15233499
   0.40315020  0.29132253  0.28521022
   0.44927612  0.52809995  0.15233499
   0.89033258  0.29355806  0.28432556
   0.44927612  0.02809995  0.15233499
   0.89630810  0.80214509  0.28519693
   0.90282244  0.55132680  0.10484543
   0.36819026  0.81283016  0.23299552
   0.99718565  0.50323802  0.20568019
   0.40659278  0.80205108  0.34763921
   0.53851998  0.23347802  0.07318573
   0.75566991  0.62049926  0.31563372
   0.87926422  0.06310591  0.05527763
   0.33996382  0.33075503  0.18298755
   0.58246139  0.21150732  0.12452493
   0.05620994  0.46762787  0.26034340
   0.59068229  0.53397920  0.37856037
   0.09516526  0.72856013  0.12156099
   0.57475162  0.44407592  0.25052389
   0.74187589  0.12311994  0.30933492
   0.85888103  0.57329750  0.05350623
   0.31217028  0.84734721  0.18003661
   0.56207820  0.72169891  0.12275353
   0.02846811  0.97399542  0.25577280
   0.80686077  0.32224946  0.18410524
   0.25158142  0.60581842  0.32512696
   0.34617716  0.60305419  0.05647018
   0.21693382  0.11595117  0.31856202
   0.80650296  0.87122644  0.18359678
   0.34617716  0.05624469  0.05647018
   0.57425496  0.97443037  0.25036183
   0.09516526  0.18175063  0.12156099
   0.42246136  0.06730843  0.37574509
   0.34047062  0.60391201  0.02782883
   0.92434681  0.68523651  0.03696881
   0.34363348  0.06399961  0.02783421
   0.88838126  0.05560908  0.02665597
   0.58830488  0.36699144  0.37413095
   0.82147685  0.56066769  0.33891087
   0.25229103  0.49752828  0.34471711
   0.46382419  0.00626599  0.39943797
   0.17870793  0.22330348  0.33954209
Direct configuration=    14
   0.22067121  0.89240241  0.08901558
   0.68195992  0.15622444  0.21783646
   0.94927612  0.02809995  0.15233499
   0.40367431  0.29118941  0.28518787
   0.44927612  0.52809995  0.15233499
   0.89040922  0.29359927  0.28433017
   0.44927612  0.02809995  0.15233499
   0.89614108  0.80213723  0.28520947
   0.90282244  0.55132680  0.10484543
   0.36794612  0.81296866  0.23297628
   0.99708057  0.50324396  0.20562686
   0.40658626  0.80205027  0.34762351
   0.53851998  0.23347802  0.07318573
   0.75567341  0.62052017  0.31559432
   0.87926422  0.06310591  0.05527763
   0.33976853  0.33071710  0.18299013
   0.58246139  0.21150732  0.12452493
   0.05674100  0.46742698  0.26033462
   0.59073763  0.53404349  0.37856671
   0.09516526  0.72856013  0.12156099
   0.57450327  0.44385895  0.25056726
   0.74076796  0.12340958  0.30937105
   0.85888103  0.57329750  0.05350623
   0.31229464  0.84728464  0.18006680
   0.56207820  0.72169891  0.12275353
   0.02861994  0.97408623  0.25574095
   0.80685544  0.32240245  0.18414365
   0.25165694  0.60559642  0.32512199
   0.34617716  0.60305419  0.05647018
   0.21701679  0.11617665  0.31851549
   0.80656066  0.87097472  0.18362013
   0.34617716  0.05624469  0.05647018
   0.57419776  0.97447831  0.25037750
   0.09516526  0.18175063  0.12156099
   0.42244661  0.06738391  0.37574557
   0.34047062  0.60391201  0.02782883
   0.92434681  0.68523651  0.03696881
   0.34363348  0.06399961  0.02783421
   0.88838126  0.05560908  0.02665597
   0.58824896  0.36714683  0.37413179
   0.82148809  0.56080282  0.33890555
   0.25230123  0.49762970  0.34471519
   0.46383968  0.00620230  0.39943906
   0.17863074  0.22344915  0.33955234
Direct configuration=    15
   0.22067121  0.89240241  0.08901558
   0.68202070  0.15615738  0.21781628
   0.94927612  0.02809995  0.15233499
   0.40379230  0.29115944  0.28518283
   0.44927612  0.52809995  0.15233499
   0.89042647  0.29360855  0.28433121
   0.44927612  0.02809995  0.15233499
   0.89610348  0.80213546  0.28521230
   0.90282244  0.55132680  0.10484543
   0.36789116  0.81299984  0.23297195
   0.99705691  0.50324530  0.20561485
   0.40658480  0.80205008  0.34761997
   0.53851998  0.23347802  0.07318573
   0.75567420  0.62052488  0.31558545
   0.87926422  0.06310591  0.05527763
   0.33972457  0.33070856  0.18299072
   0.58246139  0.21150732  0.12452493
   0.05686056  0.46738176  0.26033264
   0.59075009  0.53405796  0.37856813
   0.09516526  0.72856013  0.12156099
   0.57444737  0.44381011  0.25057702
   0.74051854  0.12347478  0.30937918
   0.85888103  0.57329750  0.05350623
   0.31232264  0.84727056  0.18007360
   0.56207820  0.72169891  0.12275353
   0.02865412  0.97410668  0.25573378
   0.80685424  0.32243689  0.18415230
   0.25167394  0.60554644  0.32512087
   0.34617716  0.60305419  0.05647018
   0.21703547  0.11622741  0.31850502
   0.80657364  0.87091805  0.18362539
   0.34617716  0.05624469  0.05647018
   0.57418488  0.97448910  0.25038103
   0.09516526  0.18175063  0.12156099
   0.42244329  0.06740090  0.37574568
   0.34047062  0.60391201  0.02782883
   0.92434681  0.68523651  0.03696881
   0.34363348  0.06399961  0.02783421
   0.88838126  0.05560908  0.02665597
   0.58823637  0.36718181  0.37413199
   0.82149062  0.56083324  0.33890435
   0.25230353  0.49765253  0.34471476
   0.46384316  0.00618797  0.39943931
   0.17861337  0.22348194  0.33955465
Direct configuration=    16
   0.22067121  0.89240241  0.08901558
   0.68214226  0.15602326  0.21777592
   0.94927612  0.02809995  0.15233499
   0.40402827  0.29109951  0.28517277
   0.44927612  0.52809995  0.15233499
   0.89046097  0.29362710  0.28433328
   0.44927612  0.02809995  0.15233499
   0.89602827  0.80213192  0.28521795
   0.90282244  0.55132680  0.10484543
   0.36778124  0.81306220  0.23296329
   0.99700960  0.50324797  0.20559084
   0.40658186  0.80204972  0.34761290
   0.53851998  0.23347802  0.07318573
   0.75567578  0.62053429  0.31556772
   0.87926422  0.06310591  0.05527763
   0.33963665  0.33069148  0.18299188
   0.58246139  0.21150732  0.12452493
   0.05709966  0.46729131  0.26032869
   0.59077500  0.53408691  0.37857099
   0.09516526  0.72856013  0.12156099
   0.57433555  0.44371242  0.25059654
   0.74001971  0.12360519  0.30939545
   0.85888103  0.57329750  0.05350623
   0.31237863  0.84724239  0.18008719
   0.56207820  0.72169891  0.12275353
   0.02872248  0.97414756  0.25571944
   0.80685184  0.32250577  0.18416959
   0.25170794  0.60544649  0.32511863
   0.34617716  0.60305419  0.05647018
   0.21707283  0.11632893  0.31848407
   0.80659962  0.87080472  0.18363591
   0.34617716  0.05624469  0.05647018
   0.57415912  0.97451068  0.25038808
   0.09516526  0.18175063  0.12156099
   0.42243666  0.06743489  0.37574589
   0.34047062  0.60391201  0.02782883
   0.92434681  0.68523651  0.03696881
   0.34363348  0.06399961  0.02783421
   0.88838126  0.05560908  0.02665597
   0.58821120  0.36725177  0.37413237
   0.82149569  0.56089408  0.33890195
   0.25230812  0.49769819  0.34471389
   0.46385013  0.00615929  0.39943980
   0.17857861  0.22354753  0.33955926
Direct configuration=    17
   0.22067121  0.89240241  0.08901558
   0.68238538  0.15575502  0.21769518
   0.94927612  0.02809995  0.15233499
   0.40450022  0.29097964  0.28515264
   0.44927612  0.52809995  0.15233499
   0.89052998  0.29366421  0.28433743
   0.44927612  0.02809995  0.15233499
   0.89587787  0.80212484  0.28522924
   0.90282244  0.55132680  0.10484543
   0.36756140  0.81318691  0.23294597
   0.99691497  0.50325331  0.20554281
   0.40657599  0.80204899  0.34759876
   0.53851998  0.23347802  0.07318573
   0.75567893  0.62055312  0.31553224
   0.87926422  0.06310591  0.05527763
   0.33946079  0.33065732  0.18299421
   0.58246139  0.21150732  0.12452493
   0.05757787  0.46711042  0.26032078
   0.59082483  0.53414480  0.37857669
   0.09516526  0.72856013  0.12156099
   0.57411193  0.44351704  0.25063558
   0.73902206  0.12386600  0.30942798
   0.85888103  0.57329750  0.05350623
   0.31249062  0.84718606  0.18011437
   0.56207820  0.72169891  0.12275353
   0.02885920  0.97422934  0.25569075
   0.80684705  0.32264353  0.18420417
   0.25177595  0.60524658  0.32511415
   0.34617716  0.60305419  0.05647018
   0.21714754  0.11653197  0.31844217
   0.80665157  0.87057805  0.18365694
   0.34617716  0.05624469  0.05647018
   0.57410761  0.97455385  0.25040219
   0.09516526  0.18175063  0.12156099
   0.42242338  0.06750286  0.37574632
   0.34047062  0.60391201  0.02782883
   0.92434681  0.68523651  0.03696881
   0.34363348  0.06399961  0.02783421
   0.88838126  0.05560908  0.02665597
   0.58816084  0.36739170  0.37413313
   0.82150581  0.56101576  0.33889715
   0.25231730  0.49778951  0.34471217
   0.46386408  0.00610195  0.39944079
   0.17850911  0.22367869  0.33956849
Direct configuration=    18
   0.22067121  0.89240241  0.08901558
   0.68287162  0.15521854  0.21753372
   0.94927612  0.02809995  0.15233499
   0.40544411  0.29073990  0.28511239
   0.44927612  0.52809995  0.15233499
   0.89066800  0.29373842  0.28434574
   0.44927612  0.02809995  0.15233499
   0.89557706  0.80211068  0.28525184
   0.90282244  0.55132680  0.10484543
   0.36712171  0.81343634  0.23291133
   0.99672572  0.50326400  0.20544676
   0.40656425  0.80204753  0.34757047
   0.53851998  0.23347802  0.07318573
   0.75568523  0.62059079  0.31546129
   0.87926422  0.06310591  0.05527763
   0.33910909  0.33058900  0.18299887
   0.58246139  0.21150732  0.12452493
   0.05853428  0.46674864  0.26030496
   0.59092449  0.53426059  0.37858810
   0.09516526  0.72856013  0.12156099
   0.57366468  0.44312629  0.25071367
   0.73702674  0.12438762  0.30949305
   0.85888103  0.57329750  0.05350623
   0.31271458  0.84707338  0.18016874
   0.56207820  0.72169891  0.12275353
   0.02913265  0.97439288  0.25563339
   0.80683745  0.32291904  0.18427334
   0.25191195  0.60484677  0.32510520
   0.34617716  0.60305419  0.05647018
   0.21729697  0.11693805  0.31835838
   0.80675548  0.87012472  0.18369900
   0.34617716  0.05624469  0.05647018
   0.57400459  0.97464018  0.25043041
   0.09516526  0.18175063  0.12156099
   0.42239683  0.06763879  0.37574719
   0.34047062  0.60391201  0.02782883
   0.92434681  0.68523651  0.03696881
   0.34363348  0.06399961  0.02783421
   0.88838126  0.05560908  0.02665597
   0.58806014  0.36767155  0.37413466
   0.82152607  0.56125913  0.33888756
   0.25233567  0.49797216  0.34470871
   0.46389196  0.00598726  0.39944275
   0.17837009  0.22394103  0.33958694
Direct configuration=    19
   0.22067121  0.89240241  0.08901558
   0.68261914  0.15549711  0.21761756
   0.94927612  0.02809995  0.15233499
   0.40495400  0.29086438  0.28513329
   0.44927612  0.52809995  0.15233499
   0.89059633  0.29369988  0.28434143
   0.44927612  0.02809995  0.15233499
   0.89573326  0.80211803  0.28524011
   0.90282244  0.55132680  0.10484543
   0.36735002  0.81330683  0.23292932
   0.99682399  0.50325845  0.20549664
   0.40657034  0.80204828  0.34758516
   0.53851998  0.23347802  0.07318573
   0.75568196  0.62057123  0.31549813
   0.87926422  0.06310591  0.05527763
   0.33929171  0.33062447  0.18299645
   0.58246139  0.21150732  0.12452493
   0.05803767  0.46693649  0.26031317
   0.59087275  0.53420047  0.37858217
   0.09516526  0.72856013  0.12156099
   0.57389691  0.44332919  0.25067313
   0.73806280  0.12411677  0.30945926
   0.85888103  0.57329750  0.05350623
   0.31259829  0.84713189  0.18014051
   0.56207820  0.72169891  0.12275353
   0.02899066  0.97430796  0.25566318
   0.80684243  0.32277598  0.18423742
   0.25184133  0.60505437  0.32510985
   0.34617716  0.60305419  0.05647018
   0.21721938  0.11672720  0.31840189
   0.80670153  0.87036011  0.18367716
   0.34617716  0.05624469  0.05647018
   0.57405808  0.97459535  0.25041576
   0.09516526  0.18175063  0.12156099
   0.42241062  0.06756821  0.37574674
   0.34047062  0.60391201  0.02782883
   0.92434681  0.68523651  0.03696881
   0.34363348  0.06399961  0.02783421
   0.88838126  0.05560908  0.02665597
   0.58811243  0.36752624  0.37413387
   0.82151555  0.56113276  0.33889254
   0.25232614  0.49787732  0.34471051
   0.46387748  0.00604681  0.39944173
   0.17844227  0.22380481  0.33957736
Direct configuration=    20
   0.22067121  0.89240241  0.08901558
   0.68258227  0.15534822  0.21763200
   0.94927612  0.02809995  0.15233499
   0.40547413  0.29077949  0.28509841
   0.44927612  0.52809995  0.15233499
   0.89061562  0.29347239  0.28433663
   0.44927612  0.02809995  0.15233499
   0.89562868  0.80233324  0.28522399
   0.90282244  0.55132680  0.10484543
   0.36721035  0.81335135  0.23292782
   0.99684153  0.50314807  0.20544413
   0.40648927  0.80218460  0.34755624
   0.53851998  0.23347802  0.07318573
   0.75577973  0.62034840  0.31552845
   0.87926422  0.06310591  0.05527763
   0.33916766  0.33057028  0.18299486
   0.58246139  0.21150732  0.12452493
   0.05899077  0.46658445  0.26032909
   0.59095244  0.53441479  0.37858639
   0.09516526  0.72856013  0.12156099
   0.57361971  0.44298008  0.25069542
   0.73660907  0.12458660  0.30946258
   0.85888103  0.57329750  0.05350623
   0.31274519  0.84703821  0.18016514
   0.56207820  0.72169891  0.12275353
   0.02887104  0.97457518  0.25566678
   0.80681616  0.32289449  0.18426524
   0.25194930  0.60516931  0.32504833
   0.34617716  0.60305419  0.05647018
   0.21722555  0.11736780  0.31842412
   0.80680086  0.87005794  0.18367475
   0.34617716  0.05624469  0.05647018
   0.57409232  0.97453232  0.25039444
   0.09516526  0.18175063  0.12156099
   0.42238321  0.06760122  0.37575353
   0.34047062  0.60391201  0.02782883
   0.92434681  0.68523651  0.03696881
   0.34363348  0.06399961  0.02783421
   0.88838126  0.05560908  0.02665597
   0.58803404  0.36766707  0.37413365
   0.82135227  0.56150849  0.33881797
   0.25234957  0.49768372  0.34476081
   0.46386664  0.00597872  0.39942955
   0.17852446  0.22361203  0.33950730
Direct configuration=    21
   0.22067121  0.89240241  0.08901558
   0.68257636  0.15532434  0.21763431
   0.94927612  0.02809995  0.15233499
   0.40555758  0.29076587  0.28509281
   0.44927612  0.52809995  0.15233499
   0.89061872  0.29343589  0.28433586
   0.44927612  0.02809995  0.15233499
   0.89561190  0.80236777  0.28522140
   0.90282244  0.55132680  0.10484543
   0.36718794  0.81335849  0.23292758
   0.99684435  0.50313036  0.20543571
   0.40647626  0.80220647  0.34755160
   0.53851998  0.23347802  0.07318573
   0.75579541  0.62031265  0.31553331
   0.87926422  0.06310591  0.05527763
   0.33914775  0.33056158  0.18299460
   0.58246139  0.21150732  0.12452493
   0.05914369  0.46652797  0.26033164
   0.59096522  0.53444917  0.37858706
   0.09516526  0.72856013  0.12156099
   0.57357524  0.44292407  0.25069900
   0.73637583  0.12466198  0.30946312
   0.85888103  0.57329750  0.05350623
   0.31276875  0.84702318  0.18016910
   0.56207820  0.72169891  0.12275353
   0.02885185  0.97461805  0.25566736
   0.80681194  0.32291351  0.18426970
   0.25196662  0.60518775  0.32503846
   0.34617716  0.60305419  0.05647018
   0.21722654  0.11747057  0.31842769
   0.80681680  0.87000946  0.18367436
   0.34617716  0.05624469  0.05647018
   0.57409781  0.97452221  0.25039102
   0.09516526  0.18175063  0.12156099
   0.42237881  0.06760652  0.37575462
   0.34047062  0.60391201  0.02782883
   0.92434681  0.68523651  0.03696881
   0.34363348  0.06399961  0.02783421
   0.88838126  0.05560908  0.02665597
   0.58802146  0.36768967  0.37413362
   0.82132608  0.56156878  0.33880601
   0.25235333  0.49765265  0.34476888
   0.46386490  0.00596780  0.39942759
   0.17853764  0.22358110  0.33949606
Direct configuration=    22
   0.22067121  0.89240241  0.08901558
   0.68231619  0.15532476  0.21770685
   0.94927612  0.02809995  0.15233499
   0.40564634  0.29086260  0.28506223
   0.44927612  0.52809995  0.15233499
   0.89055753  0.29317238  0.28434161
   0.44927612  0.02809995  0.15233499
   0.89556288  0.80256340  0.28519772
   0.90282244  0.55132680  0.10484543
   0.36722619  0.81325664  0.23294153
   0.99698762  0.50293560  0.20540619
   0.40639189  0.80242253  0.34752959
   0.53851998  0.23347802  0.07318573
   0.75567581  0.62022565  0.31548785
   0.87926422  0.06310591  0.05527763
   0.33916309  0.33049560  0.18299034
   0.58246139  0.21150732  0.12452493
   0.05996799  0.46622750  0.26036390
   0.59099043  0.53461713  0.37857820
   0.09516526  0.72856013  0.12156099
   0.57334809  0.44270528  0.25068954
   0.73543856  0.12500980  0.30942852
   0.85888103  0.57329750  0.05350623
   0.31288569  0.84693390  0.18018235
   0.56207820  0.72169891  0.12275353
   0.02853999  0.97496817  0.25570163
   0.80674973  0.32288988  0.18428394
   0.25204597  0.60508414  0.32504860
   0.34617716  0.60305419  0.05647018
   0.21736056  0.11764838  0.31838482
   0.80690628  0.86984980  0.18365547
   0.34617716  0.05624469  0.05647018
   0.57422745  0.97425351  0.25034385
   0.09516526  0.18175063  0.12156099
   0.42231711  0.06761997  0.37574732
   0.34047062  0.60391201  0.02782883
   0.92434681  0.68523651  0.03696881
   0.34363348  0.06399961  0.02783421
   0.88838126  0.05560908  0.02665597
   0.58794926  0.36794622  0.37413741
   0.82139096  0.56176917  0.33879834
   0.25239311  0.49779296  0.34475048
   0.46386603  0.00586512  0.39942124
   0.17850841  0.22377791  0.33948677
Direct configuration=    23
   0.22067121  0.89240241  0.08901558
   0.68201976  0.15532523  0.21778950
   0.94927612  0.02809995  0.15233499
   0.40574747  0.29097281  0.28502738
   0.44927612  0.52809995  0.15233499
   0.89048781  0.29287216  0.28434815
   0.44927612  0.02809995  0.15233499
   0.89550702  0.80278629  0.28517073
   0.90282244  0.55132680  0.10484543
   0.36726976  0.81314060  0.23295741
   0.99715086  0.50271371  0.20537256
   0.40629576  0.80266870  0.34750450
   0.53851998  0.23347802  0.07318573
   0.75553953  0.62012653  0.31543605
   0.87926422  0.06310591  0.05527763
   0.33918057  0.33042042  0.18298549
   0.58246139  0.21150732  0.12452493
   0.06090715  0.46588518  0.26040065
   0.59101914  0.53480849  0.37856811
   0.09516526  0.72856013  0.12156099
   0.57308930  0.44245601  0.25067876
   0.73437070  0.12540609  0.30938911
   0.85888103  0.57329750  0.05350623
   0.31301892  0.84683218  0.18019745
   0.56207820  0.72169891  0.12275353
   0.02818469  0.97536707  0.25574069
   0.80667885  0.32286296  0.18430016
   0.25213637  0.60496610  0.32506016
   0.34617716  0.60305419  0.05647018
   0.21751326  0.11785096  0.31833596
   0.80700823  0.86966790  0.18363396
   0.34617716  0.05624469  0.05647018
   0.57437516  0.97394737  0.25029010
   0.09516526  0.18175063  0.12156099
   0.42224682  0.06763529  0.37573899
   0.34047062  0.60391201  0.02782883
   0.92434681  0.68523651  0.03696881
   0.34363348  0.06399961  0.02783421
   0.88838126  0.05560908  0.02665597
   0.58786701  0.36823852  0.37414174
   0.82146488  0.56199749  0.33878960
   0.25243843  0.49795282  0.34472952
   0.46386731  0.00574813  0.39941399
   0.17847510  0.22400215  0.33947618
Direct configuration=    24
   0.22067121  0.89240241  0.08901558
   0.68218594  0.15532497  0.21774317
   0.94927612  0.02809995  0.15233499
   0.40569078  0.29091103  0.28504691
   0.44927612  0.52809995  0.15233499
   0.89052689  0.29304047  0.28434448
   0.44927612  0.02809995  0.15233499
   0.89553833  0.80266134  0.28518586
   0.90282244  0.55132680  0.10484543
   0.36724533  0.81320565  0.23294851
   0.99705935  0.50283811  0.20539141
   0.40634965  0.80253070  0.34751856
   0.53851998  0.23347802  0.07318573
   0.75561593  0.62018210  0.31546509
   0.87926422  0.06310591  0.05527763
   0.33917077  0.33046257  0.18298821
   0.58246139  0.21150732  0.12452493
   0.06038065  0.46607709  0.26038005
   0.59100304  0.53470121  0.37857377
   0.09516526  0.72856013  0.12156099
   0.57323438  0.44259576  0.25068480
   0.73496936  0.12518393  0.30941120
   0.85888103  0.57329750  0.05350623
   0.31294423  0.84688921  0.18018899
   0.56207820  0.72169891  0.12275353
   0.02838387  0.97514344  0.25571880
   0.80671858  0.32287805  0.18429107
   0.25208569  0.60503228  0.32505368
   0.34617716  0.60305419  0.05647018
   0.21742766  0.11773739  0.31836335
   0.80695107  0.86976988  0.18364602
   0.34617716  0.05624469  0.05647018
   0.57429235  0.97411899  0.25032023
   0.09516526  0.18175063  0.12156099
   0.42228622  0.06762670  0.37574366
   0.34047062  0.60391201  0.02782883
   0.92434681  0.68523651  0.03696881
   0.34363348  0.06399961  0.02783421
   0.88838126  0.05560908  0.02665597
   0.58791312  0.36807466  0.37413931
   0.82142344  0.56186950  0.33879450
   0.25241302  0.49786320  0.34474127
   0.46386659  0.00581372  0.39941805
   0.17849377  0.22387644  0.33948212
Direct configuration=    25
   0.22067121  0.89240241  0.08901558
   0.68207612  0.15527739  0.21774050
   0.94927612  0.02809995  0.15233499
   0.40523318  0.29115738  0.28503663
   0.44927612  0.52809995  0.15233499
   0.89046008  0.29311322  0.28436408
   0.44927612  0.02809995  0.15233499
   0.89549508  0.80254633  0.28518056
   0.90282244  0.55132680  0.10484543
   0.36732571  0.81305779  0.23295856
   0.99720046  0.50268751  0.20539168
   0.40633235  0.80260619  0.34751160
   0.53851998  0.23347802  0.07318573
   0.75557119  0.62010794  0.31542885
   0.87926422  0.06310591  0.05527763
   0.33928482  0.33041721  0.18298829
   0.58246139  0.21150732  0.12452493
   0.06046653  0.46604102  0.26040173
   0.59096281  0.53490242  0.37855715
   0.09516526  0.72856013  0.12156099
   0.57310112  0.44274288  0.25066761
   0.73512945  0.12514154  0.30937171
   0.85888103  0.57329750  0.05350623
   0.31297941  0.84685230  0.18019494
   0.56207820  0.72169891  0.12275353
   0.02822384  0.97534278  0.25574440
   0.80662721  0.32272947  0.18430559
   0.25206862  0.60521697  0.32506353
   0.34617716  0.60305419  0.05647018
   0.21750174  0.11767148  0.31833889
   0.80695675  0.86986936  0.18364395
   0.34617716  0.05624469  0.05647018
   0.57444343  0.97370188  0.25028923
   0.09516526  0.18175063  0.12156099
   0.42223272  0.06763601  0.37573951
   0.34047062  0.60391201  0.02782883
   0.92434681  0.68523651  0.03696881
   0.34363348  0.06399961  0.02783421
   0.88838126  0.05560908  0.02665597
   0.58787125  0.36824443  0.37414172
   0.82146197  0.56198970  0.33878467
   0.25245814  0.49790335  0.34473251
   0.46385743  0.00574384  0.39940827
   0.17848236  0.22407505  0.33947773
Direct configuration=    26
   0.22067121  0.89240241  0.08901558
   0.68195020  0.15522284  0.21773744
   0.94927612  0.02809995  0.15233499
   0.40470848  0.29143987  0.28502484
   0.44927612  0.52809995  0.15233499
   0.89038347  0.29319665  0.28438656
   0.44927612  0.02809995  0.15233499
   0.89544548  0.80241447  0.28517448
   0.90282244  0.55132680  0.10484543
   0.36741787  0.81288824  0.23297009
   0.99736226  0.50251482  0.20539199
   0.40631250  0.80269276  0.34750361
   0.53851998  0.23347802  0.07318573
   0.75551989  0.62002290  0.31538729
   0.87926422  0.06310591  0.05527763
   0.33941560  0.33036520  0.18298839
   0.58246139  0.21150732  0.12452493
   0.06056500  0.46599966  0.26042659
   0.59091668  0.53513312  0.37853810
   0.09516526  0.72856013  0.12156099
   0.57294832  0.44291157  0.25064790
   0.73531301  0.12509293  0.30932642
   0.85888103  0.57329750  0.05350623
   0.31301975  0.84680999  0.18020177
   0.56207820  0.72169891  0.12275353
   0.02804033  0.97557135  0.25577376
   0.80652245  0.32255910  0.18432223
   0.25204905  0.60542875  0.32507481
   0.34617716  0.60305419  0.05647018
   0.21758669  0.11759590  0.31831084
   0.80696327  0.86998343  0.18364158
   0.34617716  0.05624469  0.05647018
   0.57461666  0.97322359  0.25025368
   0.09516526  0.18175063  0.12156099
   0.42217137  0.06764667  0.37573474
   0.34047062  0.60391201  0.02782883
   0.92434681  0.68523651  0.03696881
   0.34363348  0.06399961  0.02783421
   0.88838126  0.05560908  0.02665597
   0.58782324  0.36843910  0.37414447
   0.82150615  0.56212754  0.33877339
   0.25250987  0.49794938  0.34472247
   0.46384692  0.00566372  0.39939706
   0.17846928  0.22430278  0.33947271
Direct configuration=    27
   0.22067121  0.89240241  0.08901558
   0.68185861  0.15512899  0.21772779
   0.94927612  0.02809995  0.15233499
   0.40440914  0.29158039  0.28500314
   0.44927612  0.52809995  0.15233499
   0.89034172  0.29328321  0.28438907
   0.44927612  0.02809995  0.15233499
   0.89535975  0.80239035  0.28515846
   0.90282244  0.55132680  0.10484543
   0.36735550  0.81279898  0.23297718
   0.99748198  0.50236620  0.20539295
   0.40628700  0.80279852  0.34749360
   0.53851998  0.23347802  0.07318573
   0.75555491  0.61987655  0.31539418
   0.87926422  0.06310591  0.05527763
   0.33953738  0.33031539  0.18298968
   0.58246139  0.21150732  0.12452493
   0.06067347  0.46594177  0.26044727
   0.59088794  0.53534535  0.37852115
   0.09516526  0.72856013  0.12156099
   0.57277196  0.44296614  0.25064500
   0.73529365  0.12506873  0.30928702
   0.85888103  0.57329750  0.05350623
   0.31304848  0.84678204  0.18020401
   0.56207820  0.72169891  0.12275353
   0.02792835  0.97573945  0.25579834
   0.80645068  0.32243081  0.18433807
   0.25198427  0.60569822  0.32507672
   0.34617716  0.60305419  0.05647018
   0.21759460  0.11779569  0.31833183
   0.80699987  0.87001702  0.18363945
   0.34617716  0.05624469  0.05647018
   0.57479731  0.97279765  0.25023012
   0.09516526  0.18175063  0.12156099
   0.42208704  0.06770520  0.37572721
   0.34047062  0.60391201  0.02782883
   0.92434681  0.68523651  0.03696881
   0.34363348  0.06399961  0.02783421
   0.88838126  0.05560908  0.02665597
   0.58777321  0.36867673  0.37414810
   0.82141965  0.56237207  0.33872200
   0.25257715  0.49796005  0.34472163
   0.46383623  0.00557003  0.39938722
   0.17856826  0.22428103  0.33941814
