Mn  O  H                                
   1.00000000000000     
     5.7471469900000001    0.0000000000000000    0.0000000000000000
     0.0000000000000000    5.7471469900000001    0.0000000000000000
     0.0000000000000000    0.0000000000000000   38.3054457865184048
   Mn   O    H 
    13    18     1
Selective dynamics
Direct
  0.0005897911438808  0.2476699193814511  0.2914703232202811   F   F   F
  0.4927058093858006  0.7477569301269754  0.4170479484207646   T   T   T
  0.4927760514372555  0.2493368777932665  0.4172656034354832   T   T   T
  0.0005897911438808  0.7476699193814511  0.2914703232202811   F   F   F
  0.7505897911438808  0.4976699193814511  0.3529281004804687   F   F   F
  0.7465894029567379  0.0018656463017348  0.4774392768444318   T   T   T
  0.2505897911438808  0.4976699193814511  0.3529281004804687   F   F   F
  0.2463989835780108  0.0019647232168047  0.4835870476552227   T   T   T
  0.0000699221485767  0.9965472163487470  0.3856835783656079   T   T   T
  0.5657456298672542  0.5033178260136906  0.5124639050949390   T   T   T
 -0.0024841897854850  0.5081183002859530  0.4484950745420125   T   T   T
  0.5005897911438808  0.9976699193814511  0.3221992118503749   F   F   F
  0.0053789896621365  0.2292925067159526  0.5435490306476368   T   T   T
  0.9913427221197879  0.2293730920022187  0.4821421067264088   T   T   T
  0.5005897911438808  0.7242651693814466  0.3546474211323059   F   F   F
  0.5005897911438808  0.2710746693814485  0.3546474211323059   F   F   F
 -0.0083835926665694  0.7818418501365552  0.4817857271078962   T   T   T
  0.7739945411438782  0.4976699193814511  0.2931896438721111   F   F   F
  0.7203184753373271 -0.0023758348082189  0.4191119475608781   T   T   T
  0.4979527940796665  0.2297100409777653  0.4763310975755695   T   T   T
  0.0005897911438808  0.7242651693814466  0.3512087798286387   F   F   F
  0.0005897911438808  0.2710746693814485  0.3512087798286387   F   F   F
  0.4986302024177358  0.7714746915847706  0.4784887065644313   T   T   T
  0.7202412104730480  0.5007940522148068  0.4140093646187623   T   T   T
  0.7739945411438782  0.9976699193814511  0.2897510025684511   F   F   F
  0.2661824192378148  0.4992857465093584  0.4131875016935341   T   T   T
  0.2271850411438834  0.9976699193814511  0.2897510025684511   F   F   F
  0.2645324151579678 -0.0036014766113440  0.4225216706002007   T   T   T
  0.2271850411438834  0.4976699193814511  0.2931896438721111   F   F   F
  0.7441384244843356  0.4106542127690839  0.5513293531428748   T   T   T
  0.2605649429247606  0.0300924611484572  0.5311767972216644   T   T   T
  0.3544677653501580  0.4873862763163501  0.2714495387823135   F   F   F
 
  0.00000000E+00  0.00000000E+00  0.00000000E+00
  0.00000000E+00  0.00000000E+00  0.00000000E+00
  0.00000000E+00  0.00000000E+00  0.00000000E+00
  0.00000000E+00  0.00000000E+00  0.00000000E+00
  0.00000000E+00  0.00000000E+00  0.00000000E+00
  0.00000000E+00  0.00000000E+00  0.00000000E+00
  0.00000000E+00  0.00000000E+00  0.00000000E+00
  0.00000000E+00  0.00000000E+00  0.00000000E+00
  0.00000000E+00  0.00000000E+00  0.00000000E+00
  0.00000000E+00  0.00000000E+00  0.00000000E+00
  0.00000000E+00  0.00000000E+00  0.00000000E+00
  0.00000000E+00  0.00000000E+00  0.00000000E+00
  0.00000000E+00  0.00000000E+00  0.00000000E+00
  0.00000000E+00  0.00000000E+00  0.00000000E+00
  0.00000000E+00  0.00000000E+00  0.00000000E+00
  0.00000000E+00  0.00000000E+00  0.00000000E+00
  0.00000000E+00  0.00000000E+00  0.00000000E+00
  0.00000000E+00  0.00000000E+00  0.00000000E+00
  0.00000000E+00  0.00000000E+00  0.00000000E+00
  0.00000000E+00  0.00000000E+00  0.00000000E+00
  0.00000000E+00  0.00000000E+00  0.00000000E+00
  0.00000000E+00  0.00000000E+00  0.00000000E+00
  0.00000000E+00  0.00000000E+00  0.00000000E+00
  0.00000000E+00  0.00000000E+00  0.00000000E+00
  0.00000000E+00  0.00000000E+00  0.00000000E+00
  0.00000000E+00  0.00000000E+00  0.00000000E+00
  0.00000000E+00  0.00000000E+00  0.00000000E+00
  0.00000000E+00  0.00000000E+00  0.00000000E+00
  0.00000000E+00  0.00000000E+00  0.00000000E+00
  0.00000000E+00  0.00000000E+00  0.00000000E+00
  0.00000000E+00  0.00000000E+00  0.00000000E+00
  0.00000000E+00  0.00000000E+00  0.00000000E+00
