Mn  O  H 
 1.0000000000000000
     5.7471469900000001    0.0000000000000000    0.0000000000000000
     0.0000000000000000    5.7471469900000001    0.0000000000000000
     0.0000000000000000    0.0000000000000000   38.3054457865184048
 Mn  O   H  
  13  18   1
Selective dynamics
Cartesian
  0.0033896163972832  1.4233954316866495 11.1649006644934747   F   F   F
  2.8480826090136908  4.3064391945240725 15.9953149216373891   T   T   T
  2.8461735754341269  1.4334152949781087 15.9678065954672768   T   T   T
  0.0033896163972832  4.2969689266866498 11.1649006644934747   F   F   F
  4.3137498588972836  2.8601821791866495 13.5190682194935139   F   F   F
  4.2527600874975162 -0.0043219423504228 18.3274633197209411   T   T   T
  1.4401763638972833  2.8601821791866495 13.5190682194935139   F   F   F
  1.3699700332160125  5.6894780475259354 18.6649477478980259   T   T   T
  5.7352296195907551  5.7305781774320863 14.7680940915582557   T   T   T
  2.7516392082152206  2.7101507724492051 20.1948903579117456   T   T   T
  0.0547060239779381  2.8180349291925451 17.2316147464075513   T   T   T
  2.8769631113972833  5.7337556741866491 12.3419844419934943   F   F   F
  0.0307142623399640  1.4199767047889811 21.0788062695802196   T   T   T
  5.6451025037743783  1.3092199082796552 18.7014266634287125   T   T   T
  2.8769631113972833  4.1624583881724213 13.5849275635121050   F   F   F
  2.8769631113972833  1.5579059702008369 13.5849275635121050   F   F   F
  5.6181433915886645  4.4115059674920438 18.4818167335130461   T   T   T
  4.4482603974114712  2.8601821791866495 11.2307600085117905   F   F   F
  4.1650505110352753  0.0092768766182438 16.1137361710572726   T   T   T
  2.8185566599326246  1.2951505724627155 18.4797391928078483   T   T   T
  0.0033896163972832  4.1624583881724213 13.4532088754751982   F   F   F
  0.0033896163972832  1.5579059702008369 13.4532088754751982   F   F   F
  2.8281542844308789  4.4074349904217476 18.3458766311747361   T   T   T
  4.1641572739504866  2.8644665070892410 15.9260394857313266   T   T   T
  4.4482603974114712  5.7337556741866491 11.0990413204751590   F   F   F
  1.5425334828756656  2.8667509697947984 15.8403448384992860   T   T   T
  1.3056658253830957  5.7337556741866491 11.0990413204751590   F   F   F
  1.5507121200793856  0.0026591195700494 16.0801911058226281   T   T   T
  1.3056658253830957  2.8601821791866495 11.2307600085117905   F   F   F
  3.6610788144236279  2.5711682099931590 21.8752222789960058   T   T   T
  1.2096191222507340  5.6071376980191747 20.8654951644231197   T   T   T
  2.0371783506841870  2.8010805708988200 10.3979955916013349   F   F   F
