unknown system                          
           1
     5.747147    0.000000    0.000000
     0.000000    5.747147    0.000000
     0.000000    0.000000   38.305446
   Mn   O    H 
  13  18   1
Direct configuration=     1
   0.00058979  0.24766992  0.29147032
   0.49556460  0.74931774  0.41757287
   0.49523243  0.24941337  0.41685474
   0.00058979  0.74766992  0.29147032
   0.75058979  0.49766992  0.35292810
   0.73997761  0.99924798  0.47845582
   0.25058979  0.49766992  0.35292810
   0.23837393  0.98996564  0.48726617
   0.99792638  0.99711704  0.38553511
   0.47878351  0.47156455  0.52720677
   0.00951881  0.49033632  0.44984765
   0.50058979  0.99766992  0.32219921
   0.00534426  0.24707506  0.55028223
   0.98224432  0.22780345  0.48821848
   0.50058979  0.72426517  0.35464742
   0.50058979  0.27107467  0.35464742
   0.97755345  0.76759929  0.48248536
   0.77399454  0.49766992  0.29318964
   0.72471620  0.00161417  0.42066437
   0.49042710  0.22535539  0.48243112
   0.00058979  0.72426517  0.35120878
   0.00058979  0.27107467  0.35120878
   0.49209709  0.76689095  0.47893651
   0.72456077  0.49841539  0.41576437
   0.77399454  0.99766992  0.28975100
   0.26839987  0.49881288  0.41352723
   0.22718504  0.99766992  0.28975100
   0.26982294  0.00046269  0.41978864
   0.22718504  0.49766992  0.29318964
   0.63702544  0.44738167  0.57107343
   0.21047297  0.97563847  0.54471354
   0.35446777  0.48738628  0.27144954
Direct configuration=     2
   0.00058979  0.24766992  0.29147032
   0.49599011  0.74860394  0.41841327
   0.49599160  0.24988633  0.41756859
   0.00058979  0.74766992  0.29147032
   0.75058979  0.49766992  0.35292810
   0.73964318  0.99535156  0.47934818
   0.25058979  0.49766992  0.35292810
   0.23686061  0.98724067  0.48844096
   0.99785306  0.99659177  0.38608538
   0.48388507  0.47191668  0.52643319
   0.00584817  0.49165625  0.45079459
   0.50058979  0.99766992  0.32219921
   0.00490715  0.23631035  0.54986923
   0.98505692  0.22792033  0.48870600
   0.50058979  0.72426517  0.35464742
   0.50058979  0.27107467  0.35464742
   0.98218609  0.77102029  0.48217635
   0.77399454  0.49766992  0.29318964
   0.72393205  0.00127638  0.42024843
   0.48685370  0.22703438  0.48284518
   0.00058979  0.72426517  0.35120878
   0.00058979  0.27107467  0.35120878
   0.48879856  0.76600424  0.47952255
   0.72312145  0.49922520  0.41518845
   0.77399454  0.99766992  0.28975100
   0.26959654  0.49909253  0.41301849
   0.22718504  0.99766992  0.28975100
   0.27027801 -0.00023634  0.41955357
   0.22718504  0.49766992  0.29318964
   0.64555492  0.44124512  0.56918708
   0.20233139  0.99306462  0.54356299
   0.35446777  0.48738628  0.27144954
Direct configuration=     3
   0.00058979  0.24766992  0.29147032
   0.49632133  0.74804833  0.41906743
   0.49658253  0.25025448  0.41812423
   0.00058979  0.74766992  0.29147032
   0.75058979  0.49766992  0.35292810
   0.73938287  0.99231865  0.48004279
   0.25058979  0.49766992  0.35292810
   0.23568266  0.98511960  0.48935540
   0.99779598  0.99618291  0.38651371
   0.48785605  0.47219077  0.52583104
   0.00299099  0.49268366  0.45153167
   0.50058979  0.99766992  0.32219921
   0.00456691  0.22793126  0.54954775
   0.98724621  0.22801131  0.48908548
   0.50058979  0.72426517  0.35464742
   0.50058979  0.27107467  0.35464742
   0.98579207  0.77368314  0.48193581
   0.77399454  0.49766992  0.29318964
   0.72332169  0.00101344  0.41992467
   0.48407221  0.22834128  0.48316748
   0.00058979  0.72426517  0.35120878
   0.00058979  0.27107467  0.35120878
   0.48623104  0.76531405  0.47997871
   0.72200109  0.49985554  0.41474016
   0.77399454  0.99766992  0.28975100
   0.27052801  0.49931020  0.41262250
   0.22718504  0.99766992  0.28975100
   0.27063222 -0.00078044  0.41937060
   0.22718504  0.49766992  0.29318964
   0.65219414  0.43646853  0.56771878
   0.19599411  0.00662887  0.54266742
   0.35446777  0.48738628  0.27144954
Direct configuration=     4
   0.00058979  0.24766992  0.29147032
   0.49534133  0.74760742  0.41928937
   0.49575413  0.25034464  0.41837782
   0.00058979  0.74766992  0.29147032
   0.75058979  0.49766992  0.35292810
   0.73822590  0.99251793  0.48064454
   0.25058979  0.49766992  0.35292810
   0.23648211  0.98651758  0.48996375
   0.99801483  0.99575981  0.38651880
   0.49244520  0.47188885  0.52488477
   0.00059338  0.49258698  0.45176339
   0.50058979  0.99766992  0.32219921
  -0.00451412  0.22827813  0.54928364
   0.98736486  0.22701449  0.48956625
   0.50058979  0.72426517  0.35464742
   0.50058979  0.27107467  0.35464742
   0.98803545  0.77565428  0.48185477
   0.77399454  0.49766992  0.29318964
   0.72233828  0.00070786  0.42010893
   0.48233655  0.22727683  0.48362296
   0.00058979  0.72426517  0.35120878
   0.00058979  0.27107467  0.35120878
   0.48436472  0.76355078  0.48083956
   0.72268732  0.50034728  0.41469321
   0.77399454  0.99766992  0.28975100
   0.26997727  0.49933930  0.41275603
   0.22718504  0.99766992  0.28975100
   0.27220781 -0.00112592  0.41950433
   0.22718504  0.49766992  0.29318964
   0.66328882  0.42945584  0.56583171
   0.19500572  0.01422275  0.54180541
   0.35446777  0.48738628  0.27144954
Direct configuration=     5
   0.00058979  0.24766992  0.29147032
   0.49240134  0.74628469  0.41995518
   0.49326894  0.25061514  0.41913858
   0.00058979  0.74766992  0.29147032
   0.75058979  0.49766992  0.35292810
   0.73475498  0.99311577  0.48244981
   0.25058979  0.49766992  0.35292810
   0.23888043  0.99071152  0.49178881
   0.99867137  0.99449052  0.38653409
   0.50621265  0.47098311  0.52204596
  -0.00659945  0.49229693  0.45245854
   0.50058979  0.99766992  0.32219921
  -0.03175719  0.22931872  0.54849130
   0.98772081  0.22402406  0.49100854
   0.50058979  0.72426517  0.35464742
   0.50058979  0.27107467  0.35464742
   0.99476559  0.78156770  0.48161164
   0.77399454  0.49766992  0.29318964
   0.71938804 -0.00020890  0.42066170
   0.47712956  0.22408350  0.48498939
   0.00058979  0.72426517  0.35120878
   0.00058979  0.27107467  0.35120878
   0.47876577  0.75826097  0.48342213
   0.72474601  0.50182249  0.41455236
   0.77399454  0.99766992  0.28975100
   0.26832505  0.49942659  0.41315665
   0.22718504  0.99766992  0.28975100
   0.27693457 -0.00216233  0.41990551
   0.22718504  0.49766992  0.29318964
   0.69657288  0.40841777  0.56017049
   0.19204053  0.03700437  0.53921938
   0.35446777  0.48738628  0.27144954
Direct configuration=     6
   0.00058979  0.24766992  0.29147032
   0.48652136  0.74363923  0.42128681
   0.48829856  0.25115612  0.42066009
   0.00058979  0.74766992  0.29147032
   0.75058979  0.49766992  0.35292810
   0.72781313  0.99431146  0.48606033
   0.25058979  0.49766992  0.35292810
   0.24367708  0.99909940  0.49543891
   0.99998445  0.99195192  0.38656466
   0.53374756  0.46917161  0.51636834
  -0.02098512  0.49171684  0.45384886
   0.50058979  0.99766992  0.32219921
  -0.08624332  0.23139991  0.54690663
   0.98843272  0.21804318  0.49389314
   0.50058979  0.72426517  0.35464742
   0.50058979  0.27107467  0.35464742
   0.00822587  0.79339455  0.48112539
   0.77399454  0.49766992  0.29318964
   0.71348757 -0.00204241  0.42176724
   0.46671558  0.21769684  0.48772226
   0.00058979  0.72426517  0.35120878
   0.00058979  0.27107467  0.35120878
   0.46756786  0.74768135  0.48858727
   0.72886338  0.50477292  0.41427066
   0.77399454  0.99766992  0.28975100
   0.26502063  0.49960116  0.41395787
   0.22718504  0.99766992  0.28975100
   0.28638810 -0.00423517  0.42070788
   0.22718504  0.49766992  0.29318964
   0.76314099  0.36634162  0.54884806
   0.18611017  0.08256762  0.53404732
   0.35446777  0.48738628  0.27144954
Direct configuration=     7
   0.00058979  0.24766992  0.29147032
   0.49230465  0.74624119  0.41997708
   0.49318720  0.25062403  0.41916360
   0.00058979  0.74766992  0.29147032
   0.75058979  0.49766992  0.35292810
   0.73464082  0.99313544  0.48250918
   0.25058979  0.49766992  0.35292810
   0.23895931  0.99084946  0.49184883
   0.99869296  0.99444877  0.38653459
   0.50666545  0.47095332  0.52195260
  -0.00683602  0.49228739  0.45248141
   0.50058979  0.99766992  0.32219921
  -0.03265319  0.22935295  0.54846524
   0.98773252  0.22392570  0.49105598
   0.50058979  0.72426517  0.35464742
   0.50058979  0.27107467  0.35464742
  -0.00501306  0.78176219  0.48160365
   0.77399454  0.49766992  0.29318964
   0.71929101 -0.00023905  0.42067988
   0.47695831  0.22397848  0.48503434
   0.00058979  0.72426517  0.35120878
   0.00058979  0.27107467  0.35120878
   0.47858162  0.75808699  0.48350707
   0.72481372  0.50187101  0.41454773
   0.77399454  0.99766992  0.28975100
   0.26827071  0.49942946  0.41316982
   0.22718504  0.99766992  0.28975100
   0.27709003 -0.00219642  0.41991871
   0.22718504  0.49766992  0.29318964
   0.69766757  0.40772584  0.55998430
   0.19194301  0.03775364  0.53913433
   0.35446777  0.48738628  0.27144954
Direct configuration=     8
   0.00058979  0.24766992  0.29147032
   0.49243954  0.74589581  0.41979843
   0.49334639  0.25089214  0.41902317
   0.00058979  0.74766992  0.29147032
   0.75058979  0.49766992  0.35292810
   0.73463098  0.99336004  0.48281844
   0.25058979  0.49766992  0.35292810
   0.23848617  0.99234789  0.49192222
   0.99884560  0.99425660  0.38638436
   0.51031635  0.47320882  0.52098206
  -0.00818921  0.49138733  0.45235084
   0.50058979  0.99766992  0.32219921
  -0.04917142  0.23673229  0.54881526
   0.98503104  0.22413494  0.49087221
   0.50058979  0.72426517  0.35464742
   0.50058979  0.27107467  0.35464742
  -0.00565171  0.78323291  0.48171287
   0.77399454  0.49766992  0.29318964
   0.71864867 -0.00046403  0.42122396
   0.47767577  0.22093318  0.48515493
   0.00058979  0.72426517  0.35120878
   0.00058979  0.27107467  0.35120878
   0.47893718  0.75726606  0.48445000
   0.72510121  0.50173450  0.41490216
   0.77399454  0.99766992  0.28975100
   0.26645724  0.49910918  0.41372101
   0.22718504  0.99766992  0.28975100
   0.27677928 -0.00212977  0.42022371
   0.22718504  0.49766992  0.29318964
   0.70922998  0.40079290  0.55839165
   0.20029872  0.03698171  0.53870614
   0.35446777  0.48738628  0.27144954
Direct configuration=     9
   0.00058979  0.24766992  0.29147032
   0.49239911  0.74599933  0.41985198
   0.49329868  0.25081178  0.41906526
   0.00058979  0.74766992  0.29147032
   0.75058979  0.49766992  0.35292810
   0.73463393  0.99329272  0.48272574
   0.25058979  0.49766992  0.35292810
   0.23862799  0.99189875  0.49190022
   0.99879985  0.99431420  0.38642939
   0.50922204  0.47253276  0.52127297
  -0.00778361  0.49165711  0.45238997
   0.50058979  0.99766992  0.32219921
  -0.04422029  0.23452043  0.54871035
   0.98584078  0.22407223  0.49092729
   0.50058979  0.72426517  0.35464742
   0.50058979  0.27107467  0.35464742
  -0.00546029  0.78279208  0.48168014
   0.77399454  0.49766992  0.29318964
   0.71884120 -0.00039660  0.42106088
   0.47746072  0.22184597  0.48511878
   0.00058979  0.72426517  0.35120878
   0.00058979  0.27107467  0.35120878
   0.47883061  0.75751212  0.48416737
   0.72501504  0.50177542  0.41479592
   0.77399454  0.99766992  0.28975100
   0.26700081  0.49920518  0.41355580
   0.22718504  0.99766992  0.28975100
   0.27687243 -0.00214975  0.42013229
   0.22718504  0.49766992  0.29318964
   0.70576430  0.40287096  0.55886903
   0.19779421  0.03721309  0.53883449
   0.35446777  0.48738628  0.27144954
Direct configuration=    10
   0.00058979  0.24766992  0.29147032
   0.49311101  0.74612271  0.41953542
   0.49394152  0.25084425  0.41876370
   0.00058979  0.74766992  0.29147032
   0.75058979  0.49766992  0.35292810
   0.73543113  0.99312513  0.48255931
   0.25058979  0.49766992  0.35292810
   0.23712737  0.99225675  0.49165105
   0.99870398  0.99447484  0.38631903
   0.50874081  0.47512591  0.52106672
  -0.00716557  0.49110292  0.45213590
   0.50058979  0.99766992  0.32219921
  -0.04312236  0.23386754  0.54880810
   0.98357495  0.22489844  0.49042087
   0.50058979  0.72426517  0.35464742
   0.50058979  0.27107467  0.35464742
  -0.00762197  0.78248884  0.48183085
   0.77399454  0.49766992  0.29318964
   0.71914369 -0.00040458  0.42139353
   0.47939400  0.21991440  0.48485007
   0.00058979  0.72426517  0.35120878
   0.00058979  0.27107467  0.35120878
   0.48046335  0.75832192  0.48438084
   0.72459201  0.50130163  0.41513829
   0.77399454  0.99766992  0.28975100
   0.26599508  0.49892693  0.41394614
   0.22718504  0.99766992  0.28975100
   0.27538242 -0.00187306  0.42032111
   0.22718504  0.49766992  0.29318964
   0.70332887  0.40507880  0.55904359
   0.20225165  0.03441263  0.53912348
   0.35446777  0.48738628  0.27144954
Direct configuration=    11
   0.00058979  0.24766992  0.29147032
   0.49524672  0.74649282  0.41858576
   0.49587004  0.25094165  0.41785903
   0.00058979  0.74766992  0.29147032
   0.75058979  0.49766992  0.35292810
   0.73782273  0.99262238  0.48206000
   0.25058979  0.49766992  0.35292810
   0.23262552  0.99333073  0.49090352
   0.99841639  0.99495676  0.38598795
   0.50729711  0.48290535  0.52044799
  -0.00531146  0.48944036  0.45137367
   0.50058979  0.99766992  0.32219921
  -0.03982857  0.23190889  0.54910136
   0.97677746  0.22737708  0.48890160
   0.50058979  0.72426517  0.35464742
   0.50058979  0.27107467  0.35464742
  -0.01410701  0.78157911  0.48228298
   0.77399454  0.49766992  0.29318964
   0.72005116 -0.00042854  0.42239151
   0.48519385  0.21411968  0.48404394
   0.00058979  0.72426517  0.35120878
   0.00058979  0.27107467  0.35120878
   0.48536159  0.76075132  0.48502125
   0.72332292  0.49988025  0.41616540
   0.77399454  0.99766992  0.28975100
   0.26297788  0.49809220  0.41511718
   0.22718504  0.99766992  0.28975100
   0.27091242 -0.00104300  0.42088758
   0.22718504  0.49766992  0.29318964
   0.69602261  0.41170235  0.55956730
   0.21562398  0.02601127  0.53999044
   0.35446777  0.48738628  0.27144954
Direct configuration=    12
   0.00058979  0.24766992  0.29147032
   0.49501085  0.74645194  0.41869064
   0.49565705  0.25093089  0.41795895
   0.00058979  0.74766992  0.29147032
   0.75058979  0.49766992  0.35292810
   0.73755859  0.99267791  0.48211515
   0.25058979  0.49766992  0.35292810
   0.23312272  0.99321212  0.49098608
   0.99844815  0.99490353  0.38602452
   0.50745655  0.48204616  0.52051633
  -0.00551623  0.48962398  0.45145785
   0.50058979  0.99766992  0.32219921
  -0.04019234  0.23212521  0.54906897
   0.97752820  0.22710333  0.48906939
   0.50058979  0.72426517  0.35464742
   0.50058979  0.27107467  0.35464742
  -0.01339079  0.78167958  0.48223305
   0.77399454  0.49766992  0.29318964
   0.71995094 -0.00042589  0.42228129
   0.48455330  0.21475967  0.48413297
   0.00058979  0.72426517  0.35120878
   0.00058979  0.27107467  0.35120878
   0.48482062  0.76048301  0.48495052
   0.72346308  0.50003723  0.41605196
   0.77399454  0.99766992  0.28975100
   0.26331111  0.49818439  0.41498785
   0.22718504  0.99766992  0.28975100
   0.27140610 -0.00113467  0.42082502
   0.22718504  0.49766992  0.29318964
   0.69682953  0.41097083  0.55950946
   0.21414710  0.02693914  0.53989469
   0.35446777  0.48738628  0.27144954
Direct configuration=    13
   0.00058979  0.24766992  0.29147032
   0.49348940  0.74764481  0.41862620
   0.49415765  0.24948294  0.41798401
   0.00058979  0.74766992  0.29147032
   0.75058979  0.49766992  0.35292810
   0.73579592  0.99271554  0.48200427
   0.25058979  0.49766992  0.35292810
   0.23406113  0.99361259  0.49097269
   0.99818283  0.99512019  0.38616513
   0.50813628  0.48389017  0.52031579
  -0.00471937  0.49009893  0.45150933
   0.50058979  0.99766992  0.32219921
  -0.04056720  0.23211795  0.54924711
   0.97704372  0.22738495  0.48872825
   0.50058979  0.72426517  0.35464742
   0.50058979  0.27107467  0.35464742
  -0.01383882  0.77923762  0.48234619
   0.77399454  0.49766992  0.29318964
   0.72082998 -0.00076003  0.42230327
   0.48494385  0.21459174  0.48387919
   0.00058979  0.72426517  0.35120878
   0.00058979  0.27107467  0.35120878
   0.48530427  0.76153970  0.48503425
   0.72281939  0.49995723  0.41612433
   0.77399454  0.99766992  0.28975100
   0.26443762  0.49835229  0.41510872
   0.22718504  0.99766992  0.28975100
   0.27138175 -0.00135232  0.42087685
   0.22718504  0.49766992  0.29318964
   0.69761510  0.41088189  0.55938916
   0.21573053  0.02640461  0.53982365
   0.35446777  0.48738628  0.27144954
Direct configuration=    14
   0.00058979  0.24766992  0.29147032
   0.49222574  0.74863557  0.41857267
   0.49291230  0.24828032  0.41800483
   0.00058979  0.74766992  0.29147032
   0.75058979  0.49766992  0.35292810
   0.73433190  0.99274680  0.48191217
   0.25058979  0.49766992  0.35292810
   0.23484055  0.99394521  0.49096156
   0.99796246  0.99530014  0.38628193
   0.50870084  0.48542174  0.52014923
  -0.00405751  0.49049341  0.45155209
   0.50058979  0.99766992  0.32219921
  -0.04087854  0.23211192  0.54939506
   0.97664134  0.22761885  0.48844491
   0.50058979  0.72426517  0.35464742
   0.50058979  0.27107467  0.35464742
  -0.01421095  0.77720941  0.48244016
   0.77399454  0.49766992  0.29318964
   0.72156008 -0.00103755  0.42232154
   0.48526822  0.21445227  0.48366841
   0.00058979  0.72426517  0.35120878
   0.00058979  0.27107467  0.35120878
   0.48570597  0.76241735  0.48510378
   0.72228476  0.49989079  0.41618443
   0.77399454  0.99766992  0.28975100
   0.26537325  0.49849175  0.41520912
   0.22718504  0.99766992  0.28975100
   0.27136153 -0.00153309  0.42091990
   0.22718504  0.49766992  0.29318964
   0.69826757  0.41080802  0.55928924
   0.21704568  0.02596065  0.53976464
   0.35446777  0.48738628  0.27144954
Direct configuration=    15
   0.00058979  0.24766992  0.29147032
   0.49208604  0.74845792  0.41851066
   0.49286557  0.24809711  0.41811649
   0.00058979  0.74766992  0.29147032
   0.75058979  0.49766992  0.35292810
   0.73493170  0.99209880  0.48176943
   0.25058979  0.49766992  0.35292810
   0.23386534  0.99386551  0.49101652
   0.99732434  0.99552966  0.38646435
   0.51044949  0.48740345  0.51991677
  -0.00344325  0.49130181  0.45158896
   0.50058979  0.99766992  0.32219921
  -0.04018705  0.23105402  0.54953761
   0.97672821  0.22655001  0.48810230
   0.50058979  0.72426517  0.35464742
   0.50058979  0.27107467  0.35464742
  -0.01436401  0.77591003  0.48269820
   0.77399454  0.49766992  0.29318964
   0.72177556 -0.00158322  0.42227581
   0.48477355  0.21570189  0.48333401
   0.00058979  0.72426517  0.35120878
   0.00058979  0.27107467  0.35120878
   0.48550389  0.76357032  0.48516686
   0.72047971  0.49980116  0.41623113
   0.77399454  0.99766992  0.28975100
   0.26638958  0.49868801  0.41529579
   0.22718504  0.99766992  0.28975100
   0.27028656 -0.00199960  0.42098361
   0.22718504  0.49766992  0.29318964
   0.69919360  0.41070527  0.55901673
   0.21782801  0.02653985  0.53953225
   0.35446777  0.48738628  0.27144954
Direct configuration=    16
   0.00058979  0.24766992  0.29147032
   0.49178862  0.74807967  0.41837861
   0.49276610  0.24770703  0.41835423
   0.00058979  0.74766992  0.29147032
   0.75058979  0.49766992  0.35292810
   0.73620876  0.99071914  0.48146551
   0.25058979  0.49766992  0.35292810
   0.23178898  0.99369583  0.49113353
   0.99596567  0.99601835  0.38685275
   0.51417262  0.49162278  0.51942183
  -0.00213539  0.49302302  0.45166745
   0.50058979  0.99766992  0.32219921
  -0.03871477  0.22880161  0.54984112
   0.97691316  0.22427431  0.48737283
   0.50058979  0.72426517  0.35464742
   0.50058979  0.27107467  0.35464742
  -0.01468990  0.77314349  0.48324758
   0.77399454  0.49766992  0.29318964
   0.72223436 -0.00274504  0.42217846
   0.48372032  0.21836252  0.48262205
   0.00058979  0.72426517  0.35120878
   0.00058979  0.27107467  0.35120878
   0.48507363  0.76602515  0.48530116
   0.71663652  0.49961032  0.41633058
   0.77399454  0.99766992  0.28975100
   0.26855349  0.49910588  0.41548033
   0.22718504  0.99766992  0.28975100
   0.26799779 -0.00299288  0.42111924
   0.22718504  0.49766992  0.29318964
   0.70116524  0.41048649  0.55843652
   0.21949371  0.02777305  0.53903746
   0.35446777  0.48738628  0.27144954
Direct configuration=    17
   0.00058979  0.24766992  0.29147032
   0.49189010  0.74825115  0.41828400
   0.49264130  0.24712989  0.41863830
   0.00058979  0.74766992  0.29147032
   0.75058979  0.49766992  0.35292810
   0.73585313  0.99163820  0.48127434
   0.25058979  0.49766992  0.35292810
   0.23185619  0.99477084  0.49089078
   0.99522460  0.99616149  0.38685744
   0.51729770  0.49316637  0.51906670
  -0.00190704  0.49361707  0.45151089
   0.50058979  0.99766992  0.32219921
  -0.03780976  0.22730638  0.54992360
   0.97753198  0.22203385  0.48701989
   0.50058979  0.72426517  0.35464742
   0.50058979  0.27107467  0.35464742
  -0.01470718  0.77265197  0.48374440
   0.77399454  0.49766992  0.29318964
   0.72121475 -0.00350763  0.42215846
   0.48295685  0.21888024  0.48219864
   0.00058979  0.72426517  0.35120878
   0.00058979  0.27107467  0.35120878
   0.48410623  0.76754984  0.48531025
   0.71685668  0.49934394  0.41646740
   0.77399454  0.99766992  0.28975100
   0.26769409  0.49889081  0.41555934
   0.22718504  0.99766992  0.28975100
   0.26733649 -0.00355038  0.42126961
   0.22718504  0.49766992  0.29318964
   0.70276430  0.41020685  0.55804243
   0.22032414  0.02883935  0.53882844
   0.35446777  0.48738628  0.27144954
Direct configuration=    18
   0.00058979  0.24766992  0.29147032
   0.49204270  0.74850905  0.41814173
   0.49245361  0.24626196  0.41906549
   0.00058979  0.74766992  0.29147032
   0.75058979  0.49766992  0.35292810
   0.73531831  0.99302034  0.48098684
   0.25058979  0.49766992  0.35292810
   0.23195727  0.99638751  0.49052572
   0.99411013  0.99637675  0.38686451
   0.52199741  0.49548771  0.51853265
  -0.00156362  0.49451044  0.45127543
   0.50058979  0.99766992  0.32219921
  -0.03644873  0.22505775  0.55004765
   0.97846260  0.21866450  0.48648911
   0.50058979  0.72426517  0.35464742
   0.50058979  0.27107467  0.35464742
  -0.01473316  0.77191280  0.48449156
   0.77399454  0.49766992  0.29318964
   0.71968140 -0.00465447  0.42212838
   0.48180868  0.21965882  0.48156188
   0.00058979  0.72426517  0.35120878
   0.00058979  0.27107467  0.35120878
   0.48265138  0.76984277  0.48532391
   0.71718778  0.49894334  0.41667316
   0.77399454  0.99766992  0.28975100
   0.26640165  0.49856738  0.41567814
   0.22718504  0.99766992  0.28975100
   0.26634197 -0.00438878  0.42149575
   0.22718504  0.49766992  0.29318964
   0.70516907  0.40978632  0.55744976
   0.22157301  0.03044292  0.53851410
   0.35446777  0.48738628  0.27144954
Direct configuration=    19
   0.00058979  0.24766992  0.29147032
   0.49046171  0.74664245  0.41806752
   0.49070741  0.24743491  0.41947964
   0.00058979  0.74766992  0.29147032
   0.75058979  0.49766992  0.35292810
   0.73472163  0.99256204  0.48095007
   0.25058979  0.49766992  0.35292810
   0.23201137  0.99622144  0.49012534
   0.99388545  0.99640473  0.38667269
   0.52582742  0.49609871  0.51802098
  -0.00199942  0.49560878  0.45131141
   0.50058979  0.99766992  0.32219921
  -0.03565790  0.22356772  0.54999872
   0.97894530  0.21916209  0.48603669
   0.50058979  0.72426517  0.35464742
   0.50058979  0.27107467  0.35464742
  -0.01578898  0.77254597  0.48496407
   0.77399454  0.49766992  0.29318964
   0.71905983 -0.00520597  0.42207756
   0.48190637  0.22089066  0.48105295
   0.00058979  0.72426517  0.35120878
   0.00058979  0.27107467  0.35120878
   0.48214208  0.77134333  0.48510961
   0.71867667  0.49845223  0.41679810
   0.77399454  0.99766992  0.28975100
   0.26587721  0.49795473  0.41557557
   0.22718504  0.99766992  0.28975100
   0.26609987 -0.00498014  0.42165215
   0.22718504  0.49766992  0.29318964
   0.70748614  0.40917870  0.55707884
   0.22361394  0.03163484  0.53832438
   0.35446777  0.48738628  0.27144954
Direct configuration=    20
   0.00058979  0.24766992  0.29147032
   0.48957411  0.74559450  0.41802585
   0.48972705  0.24809343  0.41971216
   0.00058979  0.74766992  0.29147032
   0.75058979  0.49766992  0.35292810
   0.73438664  0.99230473  0.48092942
   0.25058979  0.49766992  0.35292810
   0.23204175  0.99612820  0.48990055
   0.99375930  0.99642043  0.38656500
   0.52797768  0.49644174  0.51773372
  -0.00224408  0.49622541  0.45133160
   0.50058979  0.99766992  0.32219921
  -0.03521391  0.22273118  0.54997126
   0.97921630  0.21944146  0.48578270
   0.50058979  0.72426517  0.35464742
   0.50058979  0.27107467  0.35464742
  -0.01638175  0.77290146  0.48522935
   0.77399454  0.49766992  0.29318964
   0.71871086 -0.00551559  0.42204902
   0.48196121  0.22158224  0.48076723
   0.00058979  0.72426517  0.35120878
   0.00058979  0.27107467  0.35120878
   0.48185614  0.77218578  0.48498929
   0.71951256  0.49817652  0.41686824
   0.77399454  0.99766992  0.28975100
   0.26558277  0.49761077  0.41551798
   0.22718504  0.99766992  0.28975100
   0.26596394 -0.00531215  0.42173995
   0.22718504  0.49766992  0.29318964
   0.70878700  0.40883758  0.55687060
   0.22475976  0.03230401  0.53821787
   0.35446777  0.48738628  0.27144954
Direct configuration=    21
   0.00058979  0.24766992  0.29147032
   0.48980958  0.74524650  0.41799259
   0.48991870  0.24769585  0.42014363
   0.00058979  0.74766992  0.29147032
   0.75058979  0.49766992  0.35292810
   0.73476032  0.99314959  0.48091261
   0.25058979  0.49766992  0.35292810
   0.23101997  0.99690701  0.48956521
   0.99372867  0.99649187  0.38640945
   0.53200948  0.49596804  0.51716713
  -0.00302791  0.49823041  0.45156887
   0.50058979  0.99766992  0.32219921
  -0.03329764  0.22069331  0.54974687
   0.97897275  0.22107535  0.48536798
   0.50058979  0.72426517  0.35464742
   0.50058979  0.27107467  0.35464742
  -0.01802407  0.77314118  0.48553536
   0.77399454  0.49766992  0.29318964
   0.71730189 -0.00603516  0.42194599
   0.48281156  0.22296536  0.48027039
   0.00058979  0.72426517  0.35120878
   0.00058979  0.27107467  0.35120878
   0.48205682  0.77162206  0.48460247
   0.71957122  0.49774414  0.41689937
   0.77399454  0.99766992  0.28975100
   0.26397029  0.49695963  0.41529946
   0.22718504  0.99766992  0.28975100
   0.26497398 -0.00610973  0.42185455
   0.22718504  0.49766992  0.29318964
   0.71055796  0.40854792  0.55654543
   0.22763227  0.03364594  0.53793845
   0.35446777  0.48738628  0.27144954
Direct configuration=    22
   0.00058979  0.24766992  0.29147032
   0.48994612  0.74504472  0.41797330
   0.49002982  0.24746532  0.42039380
   0.00058979  0.74766992  0.29147032
   0.75058979  0.49766992  0.35292810
   0.73497698  0.99363946  0.48090286
   0.25058979  0.49766992  0.35292810
   0.23042752  0.99735858  0.48937076
   0.99371091  0.99653329  0.38631925
   0.53434720  0.49569338  0.51683861
  -0.00348240  0.49939295  0.45170644
   0.50058979  0.99766992  0.32219921
  -0.03218654  0.21951171  0.54961677
   0.97883153  0.22202272  0.48512752
   0.50058979  0.72426517  0.35464742
   0.50058979  0.27107467  0.35464742
  -0.01897632  0.77328017  0.48571280
   0.77399454  0.49766992  0.29318964
   0.71648494 -0.00633642  0.42188625
   0.48330461  0.22376732  0.47998232
   0.00058979  0.72426517  0.35120878
   0.00058979  0.27107467  0.35120878
   0.48217317  0.77129520  0.48437819
   0.71960524  0.49749344  0.41691742
   0.77399454  0.99766992  0.28975100
   0.26303534  0.49658209  0.41517276
   0.22718504  0.99766992  0.28975100
   0.26439998 -0.00657218  0.42192099
   0.22718504  0.49766992  0.29318964
   0.71158480  0.40837997  0.55635688
   0.22929781  0.03442401  0.53777644
   0.35446777  0.48738628  0.27144954
Direct configuration=    23
   0.00058979  0.24766992  0.29147032
   0.48962572  0.74509983  0.41794079
   0.48976564  0.24689143  0.42040154
   0.00058979  0.74766992  0.29147032
   0.75058979  0.49766992  0.35292810
   0.73412210  0.99505148  0.48078071
   0.25058979  0.49766992  0.35292810
   0.23113519  0.99799414  0.48909125
   0.99377506  0.99677403  0.38635312
   0.53709613  0.49475738  0.51648419
  -0.00359610  0.50194603  0.45164146
   0.50058979  0.99766992  0.32219921
  -0.03150364  0.21926447  0.54941483
   0.97809843  0.22264217  0.48511412
   0.50058979  0.72426517  0.35464742
   0.50058979  0.27107467  0.35464742
  -0.01975938  0.77372611  0.48580743
   0.77399454  0.49766992  0.29318964
   0.71688756 -0.00662869  0.42182027
   0.48384152  0.22372466  0.47979072
   0.00058979  0.72426517  0.35120878
   0.00058979  0.27107467  0.35120878
   0.48274817  0.77049791  0.48401717
   0.71834423  0.49736816  0.41690451
   0.77399454  0.99766992  0.28975100
   0.26255001  0.49633483  0.41511100
   0.22718504  0.99766992  0.28975100
   0.26341878 -0.00710936  0.42203366
   0.22718504  0.49766992  0.29318964
   0.71330941  0.40750309  0.55613293
   0.23211939  0.03526318  0.53744637
   0.35446777  0.48738628  0.27144954
Direct configuration=    24
   0.00058979  0.24766992  0.29147032
   0.48925808  0.74516307  0.41790348
   0.48946250  0.24623291  0.42041041
   0.00058979  0.74766992  0.29147032
   0.75058979  0.49766992  0.35292810
   0.73314115  0.99667172  0.48064055
   0.25058979  0.49766992  0.35292810
   0.23194722  0.99872343  0.48877052
   0.99384866  0.99705028  0.38639198
   0.54025044  0.49368334  0.51607751
  -0.00372657  0.50487561  0.45156690
   0.50058979  0.99766992  0.32219921
  -0.03072003  0.21898077  0.54918310
   0.97725722  0.22335297  0.48509874
   0.50058979  0.72426517  0.35464742
   0.50058979  0.27107467  0.35464742
  -0.02065792  0.77423781  0.48591603
   0.77399454  0.49766992  0.29318964
   0.71734956 -0.00696406  0.42174455
   0.48445760  0.22367572  0.47957087
   0.00058979  0.72426517  0.35120878
   0.00058979  0.27107467  0.35120878
   0.48340797  0.76958303  0.48360291
   0.71689726  0.49722440  0.41688969
   0.77399454  0.99766992  0.28975100
   0.26199310  0.49605110  0.41504014
   0.22718504  0.99766992  0.28975100
   0.26229288 -0.00772576  0.42216295
   0.22718504  0.49766992  0.29318964
   0.71528835  0.40649689  0.55587596
   0.23535707  0.03622610  0.53706762
   0.35446777  0.48738628  0.27144954
Direct configuration=    25
   0.00058979  0.24766992  0.29147032
   0.48880334  0.74501864  0.41789228
   0.48897205  0.24606037  0.42029338
   0.00058979  0.74766992  0.29147032
   0.75058979  0.49766992  0.35292810
   0.73325820  0.99663718  0.48055064
   0.25058979  0.49766992  0.35292810
   0.23196599  0.99859493  0.48860561
   0.99387197  0.99723267  0.38641653
   0.54204853  0.49326142  0.51586911
  -0.00382138  0.50645473  0.45147255
   0.50058979  0.99766992  0.32219921
  -0.02922245  0.21835898  0.54899313
   0.97696970  0.22398147  0.48512305
   0.50058979  0.72426517  0.35464742
   0.50058979  0.27107467  0.35464742
  -0.02093653  0.77523568  0.48594425
   0.77399454  0.49766992  0.29318964
   0.71767223 -0.00708415  0.42169999
   0.48437522  0.22381014  0.47945216
   0.00058979  0.72426517  0.35120878
   0.00058979  0.27107467  0.35120878
   0.48368588  0.76928375  0.48334127
   0.71614850  0.49713806  0.41687807
   0.77399454  0.99766992  0.28975100
   0.26194825  0.49590855  0.41502806
   0.22718504  0.99766992  0.28975100
   0.26186351 -0.00792345  0.42227132
   0.22718504  0.49766992  0.29318964
   0.71590522  0.40621860  0.55574154
   0.23708233  0.03703546  0.53680711
   0.35446777  0.48738628  0.27144954
Direct configuration=    26
   0.00058979  0.24766992  0.29147032
   0.48776298  0.74468820  0.41786663
   0.48784998  0.24566562  0.42002565
   0.00058979  0.74766992  0.29147032
   0.75058979  0.49766992  0.35292810
   0.73352599  0.99655814  0.48034494
   0.25058979  0.49766992  0.35292810
   0.23200891  0.99830096  0.48822833
   0.99392530  0.99764993  0.38647271
   0.54616218  0.49229616  0.51539235
  -0.00403828  0.51006742  0.45125669
   0.50058979  0.99766992  0.32219921
  -0.02579629  0.21693646  0.54855850
   0.97631193  0.22541935  0.48517864
   0.50058979  0.72426517  0.35464742
   0.50058979  0.27107467  0.35464742
  -0.02157393  0.77751859  0.48600882
   0.77399454  0.49766992  0.29318964
   0.71841044 -0.00735889  0.42159805
   0.48418677  0.22411766  0.47918056
   0.00058979  0.72426517  0.35120878
   0.00058979  0.27107467  0.35120878
   0.48432169  0.76859907  0.48274268
   0.71443547  0.49694052  0.41685150
   0.77399454  0.99766992  0.28975100
   0.26184562  0.49558243  0.41500041
   0.22718504  0.99766992  0.28975100
   0.26088120 -0.00837573  0.42251924
   0.22718504  0.49766992  0.29318964
   0.71731648  0.40558191  0.55543401
   0.24102938  0.03888711  0.53621114
   0.35446777  0.48738628  0.27144954
Direct configuration=    27
   0.00058979  0.24766992  0.29147032
   0.48783171  0.74474743  0.41792350
   0.48783625  0.24542862  0.41987396
   0.00058979  0.74766992  0.29147032
   0.75058979  0.49766992  0.35292810
   0.73369276  0.99655876  0.48026765
   0.25058979  0.49766992  0.35292810
   0.23204581  0.99859092  0.48808096
   0.99389591  0.99771605  0.38646068
   0.54731018  0.49249562  0.51526417
  -0.00437429  0.51029320  0.45120528
   0.50058979  0.99766992  0.32219921
  -0.02489828  0.21716207  0.54840200
   0.97647995  0.22621732  0.48516324
   0.50058979  0.72426517  0.35464742
   0.50058979  0.27107467  0.35464742
  -0.02111051  0.77790057  0.48596325
   0.77399454  0.49766992  0.29318964
   0.71783267 -0.00735975  0.42154121
   0.48364610  0.22398281  0.47905629
   0.00058979  0.72426517  0.35120878
   0.00058979  0.27107467  0.35120878
   0.48422585  0.76844591  0.48255873
   0.71445814  0.49686831  0.41681063
   0.77399454  0.99766992  0.28975100
   0.26158916  0.49556419  0.41498331
   0.22718504  0.99766992  0.28975100
   0.26080075 -0.00829491  0.42260324
   0.22718504  0.49766992  0.29318964
   0.71820393  0.40499987  0.55534620
   0.24247386  0.03925985  0.53602564
   0.35446777  0.48738628  0.27144954
Direct configuration=    28
   0.00058979  0.24766992  0.29147032
   0.48803168  0.74491973  0.41808894
   0.48779630  0.24473907  0.41943264
   0.00058979  0.74766992  0.29147032
   0.75058979  0.49766992  0.35292810
   0.73417796  0.99656057  0.48004279
   0.25058979  0.49766992  0.35292810
   0.23215317  0.99943452  0.48765220
   0.99381039  0.99790842  0.38642567
   0.55065013  0.49307591  0.51489125
  -0.00535188  0.51095008  0.45105569
   0.50058979  0.99766992  0.32219921
  -0.02228561  0.21781845  0.54794668
   0.97696877  0.22853893  0.48511842
   0.50058979  0.72426517  0.35464742
   0.50058979  0.27107467  0.35464742
  -0.01976226  0.77901189  0.48583066
   0.77399454  0.49766992  0.29318964
   0.71615173 -0.00736225  0.42137586
   0.48207308  0.22359046  0.47869473
   0.00058979  0.72426517  0.35120878
   0.00058979  0.27107467  0.35120878
   0.48394701  0.76800031  0.48202354
   0.71452407  0.49665820  0.41669173
   0.77399454  0.99766992  0.28975100
   0.26084304  0.49551114  0.41493357
   0.22718504  0.99766992  0.28975100
   0.26056669 -0.00805977  0.42284763
   0.22718504  0.49766992  0.29318964
   0.72078587  0.40330648  0.55509073
   0.24667638  0.04034429  0.53548597
   0.35446777  0.48738628  0.27144954
Direct configuration=    29
   0.00058979  0.24766992  0.29147032
   0.48770541  0.74437661  0.41819103
   0.48754404  0.24508417  0.41927771
   0.00058979  0.74766992  0.29147032
   0.75058979  0.49766992  0.35292810
   0.73409717  0.99719093  0.47997577
   0.25058979  0.49766992  0.35292810
   0.23259352  0.00019336  0.48749636
   0.99382497  0.99785044  0.38641904
   0.55181677  0.49339425  0.51478973
  -0.00564299  0.51061593  0.45101401
   0.50058979  0.99766992  0.32219921
  -0.02070615  0.21805864  0.54775957
   0.97694941  0.22895150  0.48506659
   0.50058979  0.72426517  0.35464742
   0.50058979  0.27107467  0.35464742
  -0.01935342  0.77909391  0.48572021
   0.77399454  0.49766992  0.29318964
   0.71587237 -0.00727380  0.42127591
   0.48203412  0.22347867  0.47853288
   0.00058979  0.72426517  0.35120878
   0.00058979  0.27107467  0.35120878
   0.48406388  0.76792902  0.48183179
   0.71478265  0.49660847  0.41659650
   0.77399454  0.99766992  0.28975100
   0.26084075  0.49559977  0.41488283
   0.22718504  0.99766992  0.28975100
   0.26028536 -0.00795459  0.42289261
   0.22718504  0.49766992  0.29318964
   0.72143185  0.40289089  0.55496234
   0.24805784  0.04063392  0.53526904
   0.35446777  0.48738628  0.27144954
Direct configuration=    30
   0.00058979  0.24766992  0.29147032
   0.48724287  0.74360667  0.41833576
   0.48718643  0.24557341  0.41905809
   0.00058979  0.74766992  0.29147032
   0.75058979  0.49766992  0.35292810
   0.73398264  0.99808457  0.47988075
   0.25058979  0.49766992  0.35292810
   0.23321778  0.00126913  0.48727542
   0.99384566  0.99776824  0.38640964
   0.55347065  0.49384553  0.51464582
  -0.00605568  0.51014223  0.45095493
   0.50058979  0.99766992  0.32219921
  -0.01846704  0.21839914  0.54749431
   0.97692197  0.22953637  0.48499312
   0.50058979  0.72426517  0.35464742
   0.50058979  0.27107467  0.35464742
  -0.01877382  0.77921017  0.48556362
   0.77399454  0.49766992  0.29318964
   0.71547634 -0.00714841  0.42113421
   0.48197889  0.22332021  0.47830345
   0.00058979  0.72426517  0.35120878
   0.00058979  0.27107467  0.35120878
   0.48422957  0.76782797  0.48155995
   0.71514922  0.49653798  0.41646150
   0.77399454  0.99766992  0.28975100
   0.26083751  0.49572543  0.41481091
   0.22718504  0.99766992  0.28975100
   0.25988654 -0.00780547  0.42295638
   0.22718504  0.49766992  0.29318964
   0.72234763  0.40230172  0.55478033
   0.25001627  0.04104453  0.53496151
   0.35446777  0.48738628  0.27144954
Direct configuration=    31
   0.00058979  0.24766992  0.29147032
   0.48703098  0.74325395  0.41840207
   0.48702261  0.24579753  0.41895748
   0.00058979  0.74766992  0.29147032
   0.75058979  0.49766992  0.35292810
   0.73393017  0.99849394  0.47983723
   0.25058979  0.49766992  0.35292810
   0.23350376  0.00176194  0.48717421
   0.99385513  0.99773059  0.38640533
   0.55422829  0.49405227  0.51457989
  -0.00624473  0.50992523  0.45092786
   0.50058979  0.99766992  0.32219921
  -0.01744130  0.21855512  0.54737280
   0.97690940  0.22980431  0.48495946
   0.50058979  0.72426517  0.35464742
   0.50058979  0.27107467  0.35464742
  -0.01850830  0.77926343  0.48549189
   0.77399454  0.49766992  0.29318964
   0.71529491 -0.00709097  0.42106930
   0.48195358  0.22324761  0.47819834
   0.00058979  0.72426517  0.35120878
   0.00058979  0.27107467  0.35120878
   0.48430546  0.76778168  0.48143542
   0.71531714  0.49650568  0.41639965
   0.77399454  0.99766992  0.28975100
   0.26083602  0.49578299  0.41477796
   0.22718504  0.99766992  0.28975100
   0.25970383 -0.00773716  0.42298559
   0.22718504  0.49766992  0.29318964
   0.72276714  0.40203183  0.55469695
   0.25091343  0.04123263  0.53482063
   0.35446777  0.48738628  0.27144954
Direct configuration=    32
   0.00058979  0.24766992  0.29147032
   0.48679282  0.74324297  0.41854802
   0.48690847  0.24576283  0.41878228
   0.00058979  0.74766992  0.29147032
   0.75058979  0.49766992  0.35292810
   0.73426629  0.99867954  0.47973792
   0.25058979  0.49766992  0.35292810
   0.23385436  0.00183744  0.48691356
   0.99384739  0.99744354  0.38639928
   0.55544677  0.49466021  0.51445553
  -0.00634158  0.50923493  0.45086121
   0.50058979  0.99766992  0.32219921
  -0.01549676  0.21938455  0.54716359
   0.97670183  0.22964137  0.48487547
   0.50058979  0.72426517  0.35464742
   0.50058979  0.27107467  0.35464742
  -0.01858259  0.77987959  0.48528231
   0.77399454  0.49766992  0.29318964
   0.71503246 -0.00691620  0.42092278
   0.48297143  0.22428767  0.47799452
   0.00058979  0.72426517  0.35120878
   0.00058979  0.27107467  0.35120878
   0.48497945  0.76805116  0.48123527
   0.71560765  0.49652473  0.41622249
   0.77399454  0.99766992  0.28975100
   0.26058665  0.49586896  0.41469232
   0.22718504  0.99766992  0.28975100
   0.25922534 -0.00762508  0.42298860
   0.22718504  0.49766992  0.29318964
   0.72370085  0.40149964  0.55449017
   0.25261312  0.04129893  0.53454503
   0.35446777  0.48738628  0.27144954
Direct configuration=    33
   0.00058979  0.24766992  0.29147032
   0.48642076  0.74322581  0.41877603
   0.48673014  0.24570862  0.41850858
   0.00058979  0.74766992  0.29147032
   0.75058979  0.49766992  0.35292810
   0.73479141  0.99896950  0.47958277
   0.25058979  0.49766992  0.35292810
   0.23440211  0.00195539  0.48650635
   0.99383529  0.99699509  0.38638982
   0.55735038  0.49561000  0.51426124
  -0.00649289  0.50815647  0.45075708
   0.50058979  0.99766992  0.32219921
  -0.01245884  0.22068035  0.54683675
   0.97637755  0.22938681  0.48474424
   0.50058979  0.72426517  0.35464742
   0.50058979  0.27107467  0.35464742
  -0.01869865  0.78084220  0.48495488
   0.77399454  0.49766992  0.29318964
   0.71462242 -0.00664318  0.42069388
   0.48456160  0.22591253  0.47767610
   0.00058979  0.72426517  0.35120878
   0.00058979  0.27107467  0.35120878
   0.48603241  0.76847218  0.48092258
   0.71606151  0.49655448  0.41594571
   0.77399454  0.99766992  0.28975100
   0.26019706  0.49600327  0.41455854
   0.22718504  0.99766992  0.28975100
   0.25847780 -0.00744997  0.42299329
   0.22718504  0.49766992  0.29318964
   0.72515957  0.40066822  0.55416712
   0.25526851  0.04140252  0.53411446
   0.35446777  0.48738628  0.27144954
Direct configuration=    34
   0.00058979  0.24766992  0.29147032
   0.48567663  0.74319149  0.41923206
   0.48637347  0.24560021  0.41796118
   0.00058979  0.74766992  0.29147032
   0.75058979  0.49766992  0.35292810
   0.73584166  0.99954942  0.47927248
   0.25058979  0.49766992  0.35292810
   0.23549761  0.00219129  0.48569192
   0.99381111  0.99609819  0.38637092
   0.56115761  0.49750957  0.51387267
  -0.00679551  0.50599956  0.45054883
   0.50058979  0.99766992  0.32219921
  -0.00638300  0.22327196  0.54618308
   0.97572898  0.22887769  0.48448180
   0.50058979  0.72426517  0.35464742
   0.50058979  0.27107467  0.35464742
  -0.01893077  0.78276741  0.48430004
   0.77399454  0.49766992  0.29318964
   0.71380235 -0.00609713  0.42023607
   0.48774193  0.22916226  0.47703925
   0.00058979  0.72426517  0.35120878
   0.00058979  0.27107467  0.35120878
   0.48813833  0.76931421  0.48029719
   0.71696923  0.49661399  0.41539216
   0.77399454  0.99766992  0.28975100
   0.25941788  0.49627190  0.41429097
   0.22718504  0.99766992  0.28975100
   0.25698271 -0.00709977  0.42300268
   0.22718504  0.49766992  0.29318964
   0.72807701  0.39900537  0.55352102
   0.26057930  0.04160970  0.53325332
   0.35446777  0.48738628  0.27144954
Direct configuration=    35
   0.00058979  0.24766992  0.29147032
   0.48620792  0.74321599  0.41890646
   0.48662812  0.24567761  0.41835201
   0.00058979  0.74766992  0.29147032
   0.75058979  0.49766992  0.35292810
   0.73509181  0.99913537  0.47949402
   0.25058979  0.49766992  0.35292810
   0.23471545  0.00202287  0.48627340
   0.99382838  0.99673855  0.38638442
   0.55843935  0.49615332  0.51415010
  -0.00657945  0.50753954  0.45069752
   0.50058979  0.99766992  0.32219921
  -0.01072100  0.22142162  0.54664979
   0.97619204  0.22924119  0.48466918
   0.50058979  0.72426517  0.35464742
   0.50058979  0.27107467  0.35464742
  -0.01876504  0.78139286  0.48476758
   0.77399454  0.49766992  0.29318964
   0.71438786 -0.00648699  0.42056293
   0.48547125  0.22684204  0.47749394
   0.00058979  0.72426517  0.35120878
   0.00058979  0.27107467  0.35120878
   0.48663476  0.76871302  0.48074370
   0.71632114  0.49657150  0.41578738
   0.77399454  0.99766992  0.28975100
   0.25997420  0.49608011  0.41448201
   0.22718504  0.99766992  0.28975100
   0.25805017 -0.00734981  0.42299597
   0.22718504  0.49766992  0.29318964
   0.72599403  0.40019260  0.55398232
   0.25678753  0.04146178  0.53386815
   0.35446777  0.48738628  0.27144954
Direct configuration=    36
   0.00058979  0.24766992  0.29147032
   0.48685708  0.74342805  0.41886304
   0.48709037  0.24555754  0.41817857
   0.00058979  0.74766992  0.29147032
   0.75058979  0.49766992  0.35292810
   0.73484805  0.99973889  0.47928906
   0.25058979  0.49766992  0.35292810
   0.23582872  0.00236335  0.48589374
   0.99358197  0.99630810  0.38625492
   0.55915736  0.49701995  0.51390914
  -0.00655176  0.50702621  0.45051485
   0.50058979  0.99766992  0.32219921
  -0.00840606  0.22262907  0.54643792
   0.97701755  0.22878339  0.48459207
   0.50058979  0.72426517  0.35464742
   0.50058979  0.27107467  0.35464742
  -0.01858601  0.78104221  0.48447006
   0.77399454  0.49766992  0.29318964
   0.71398750 -0.00645077  0.42046502
   0.48676897  0.22823828  0.47732864
   0.00058979  0.72426517  0.35120878
   0.00058979  0.27107467  0.35120878
   0.48745636  0.76891448  0.48059731
   0.71581718  0.49704983  0.41561962
   0.77399454  0.99766992  0.28975100
   0.25972222  0.49608693  0.41444215
   0.22718504  0.99766992  0.28975100
   0.25792248 -0.00724746  0.42306987
   0.22718504  0.49766992  0.29318964
   0.72744424  0.39972305  0.55376972
   0.25799498  0.04127027  0.53355758
   0.35446777  0.48738628  0.27144954
Direct configuration=    37
   0.00058979  0.24766992  0.29147032
   0.48720022  0.74354014  0.41884009
   0.48733470  0.24549408  0.41808689
   0.00058979  0.74766992  0.29147032
   0.75058979  0.49766992  0.35292810
   0.73471921  0.00005790  0.47918072
   0.25058979  0.49766992  0.35292810
   0.23641717  0.00254333  0.48569306
   0.99345172  0.99608057  0.38618648
   0.55953689  0.49747804  0.51378178
  -0.00653712  0.50675488  0.45041830
   0.50058979  0.99766992  0.32219921
  -0.00718243  0.22326730  0.54632594
   0.97745390  0.22854141  0.48455132
   0.50058979  0.72426517  0.35464742
   0.50058979  0.27107467  0.35464742
  -0.01849137  0.78085686  0.48431279
   0.77399454  0.49766992  0.29318964
   0.71377588 -0.00643163  0.42041327
   0.48745492  0.22897630  0.47724126
   0.00058979  0.72426517  0.35120878
   0.00058979  0.27107467  0.35120878
   0.48789064  0.76902097  0.48051993
   0.71555080  0.49730266  0.41553095
   0.77399454  0.99766992  0.28975100
   0.25958903  0.49609054  0.41442108
   0.22718504  0.99766992  0.28975100
   0.25785498 -0.00719337  0.42310892
   0.22718504  0.49766992  0.29318964
   0.72821079  0.39947485  0.55365735
   0.25863322  0.04116904  0.53339342
   0.35446777  0.48738628  0.27144954
Direct configuration=    38
   0.00058979  0.24766992  0.29147032
   0.48686431  0.74343240  0.41860018
   0.48700133  0.24596920  0.41797648
   0.00058979  0.74766992  0.29147032
   0.75058979  0.49766992  0.35292810
   0.73601813  0.00035655  0.47901116
   0.25058979  0.49766992  0.35292810
   0.23680368  0.00270219  0.48538200
   0.99333872  0.99577740  0.38606085
   0.56037146  0.49805128  0.51365422
  -0.00656223  0.50651768  0.45021185
   0.50058979  0.99766992  0.32219921
  -0.00475054  0.22436134  0.54611702
   0.97900620  0.22836204  0.48440846
   0.50058979  0.72426517  0.35464742
   0.50058979  0.27107467  0.35464742
  -0.01812994  0.78046533  0.48396022
   0.77399454  0.49766992  0.29318964
   0.71433734 -0.00633481  0.42032209
   0.48830184  0.23014371  0.47708937
   0.00058979  0.72426517  0.35120878
   0.00058979  0.27107467  0.35120878
   0.48853284  0.76930094  0.48037193
   0.71518110  0.49782734  0.41538588
   0.77399454  0.99766992  0.28975100
   0.26039598  0.49605586  0.41437065
   0.22718504  0.99766992  0.28975100
   0.25838164 -0.00709062  0.42319356
   0.22718504  0.49766992  0.29318964
   0.72931109  0.39966301  0.55336157
   0.25917635  0.04072475  0.53306039
   0.35446777  0.48738628  0.27144954
Direct configuration=    39
   0.00058979  0.24766992  0.29147032
   0.48670857  0.74338245  0.41848895
   0.48684677  0.24618949  0.41792529
   0.00058979  0.74766992  0.29147032
   0.75058979  0.49766992  0.35292810
   0.73662036  0.00049502  0.47893255
   0.25058979  0.49766992  0.35292810
   0.23698289  0.00277584  0.48523777
   0.99328633  0.99563685  0.38600261
   0.56075840  0.49831706  0.51359508
  -0.00657388  0.50640770  0.45011613
   0.50058979  0.99766992  0.32219921
  -0.00362301  0.22486857  0.54602016
   0.97972591  0.22827888  0.48434223
   0.50058979  0.72426517  0.35464742
   0.50058979  0.27107467  0.35464742
  -0.01796237  0.78028380  0.48379676
   0.77399454  0.49766992  0.29318964
   0.71459765 -0.00628992  0.42027981
   0.48869450  0.23068496  0.47701894
   0.00058979  0.72426517  0.35120878
   0.00058979  0.27107467  0.35120878
   0.48883059  0.76943075  0.48030332
   0.71500969  0.49807060  0.41531862
   0.77399454  0.99766992  0.28975100
   0.26077011  0.49603978  0.41434727
   0.22718504  0.99766992  0.28975100
   0.25862581 -0.00704299  0.42323280
   0.22718504  0.49766992  0.29318964
   0.72982123  0.39975025  0.55322444
   0.25942817  0.04051876  0.53290598
   0.35446777  0.48738628  0.27144954
Direct configuration=    40
   0.00058979  0.24766992  0.29147032
   0.48686840  0.74443473  0.41820563
   0.48734104  0.24599424  0.41795560
   0.00058979  0.74766992  0.29147032
   0.75058979  0.49766992  0.35292810
   0.73778737  0.00057863  0.47876399
   0.25058979  0.49766992  0.35292810
   0.23804548  0.00252304  0.48497412
   0.99357558  0.99565109  0.38601345
   0.56149741  0.49899074  0.51348417
  -0.00680315  0.50622728  0.44989573
   0.50058979  0.99766992  0.32219921
  -0.00187359  0.22641694  0.54580333
   0.98159731  0.22886700  0.48406348
   0.50058979  0.72426517  0.35464742
   0.50058979  0.27107467  0.35464742
  -0.01705751  0.78018025  0.48341283
   0.77399454  0.49766992  0.29318964
   0.71518521 -0.00594557  0.42013108
   0.48939079  0.23070917  0.47685182
   0.00058979  0.72426517  0.35120878
   0.00058979  0.27107467  0.35120878
   0.48960712  0.77020961  0.48011165
   0.71521953  0.49827602  0.41513414
   0.77399454  0.99766992  0.28975100
   0.26111742  0.49604372  0.41420348
   0.22718504  0.99766992  0.28975100
   0.25882075 -0.00685743  0.42322537
   0.22718504  0.49766992  0.29318964
   0.73156305  0.40010031  0.55290343
   0.25981328  0.03947168  0.53255695
   0.35446777  0.48738628  0.27144954
Direct configuration=    41
   0.00058979  0.24766992  0.29147032
   0.48699123  0.74524341  0.41798791
   0.48772089  0.24584419  0.41797889
   0.00058979  0.74766992  0.29147032
   0.75058979  0.49766992  0.35292810
   0.73868422  0.00064289  0.47863446
   0.25058979  0.49766992  0.35292810
   0.23886207  0.00232876  0.48477151
   0.99379787  0.99566204  0.38602178
   0.56206533  0.49950846  0.51339893
  -0.00697934  0.50608863  0.44972634
   0.50058979  0.99766992  0.32219921
  -0.00052917  0.22760685  0.54563669
   0.98303547  0.22931897  0.48384926
   0.50058979  0.72426517  0.35464742
   0.50058979  0.27107467  0.35464742
  -0.01636213  0.78010068  0.48311778
   0.77399454  0.49766992  0.29318964
   0.71563674 -0.00568093  0.42001677
   0.48992588  0.23072778  0.47672338
   0.00058979  0.72426517  0.35120878
   0.00058979  0.27107467  0.35120878
   0.49020388  0.77080816  0.47996436
   0.71538079  0.49843389  0.41499238
   0.77399454  0.99766992  0.28975100
   0.26138433  0.49604675  0.41409297
   0.22718504  0.99766992  0.28975100
   0.25897055 -0.00671483  0.42321966
   0.22718504  0.49766992  0.29318964
   0.73290162  0.40036933  0.55265674
   0.26010923  0.03866701  0.53228873
   0.35446777  0.48738628  0.27144954
Direct configuration=    42
   0.00058979  0.24766992  0.29147032
   0.48779584  0.74521191  0.41771418
   0.48858516  0.24676128  0.41803224
   0.00058979  0.74766992  0.29147032
   0.75058979  0.49766992  0.35292810
   0.73989649  0.00133080  0.47848026
   0.25058979  0.49766992  0.35292810
   0.23982827  0.00236076  0.48454764
   0.99467145  0.99603197  0.38605598
   0.56223186  0.50047325  0.51317310
  -0.00703706  0.50600791  0.44944309
   0.50058979  0.99766992  0.32219921
   0.00173969  0.22843182  0.54532321
   0.98445218  0.22936048  0.48350384
   0.50058979  0.72426517  0.35464742
   0.50058979  0.27107467  0.35464742
  -0.01500933  0.78069096  0.48280061
   0.77399454  0.49766992  0.29318964
   0.71598856 -0.00527962  0.41986827
   0.49097992  0.22986760  0.47659065
   0.00058979  0.72426517  0.35120878
   0.00058979  0.27107467  0.35120878
   0.49142315  0.77121163  0.47976359
   0.71566070  0.49862048  0.41479539
   0.77399454  0.99766992  0.28975100
   0.26169870  0.49637792  0.41390325
   0.22718504  0.99766992  0.28975100
   0.25887641 -0.00637767  0.42313041
   0.22718504  0.49766992  0.29318964
   0.73446414  0.40133516  0.55246639
   0.26022411  0.03730238  0.53203703
   0.35446777  0.48738628  0.27144954
Direct configuration=    43
   0.00058979  0.24766992  0.29147032
   0.48818536  0.74519666  0.41758167
   0.48900356  0.24720526  0.41805807
   0.00058979  0.74766992  0.29147032
   0.75058979  0.49766992  0.35292810
   0.74048336  0.00166382  0.47840562
   0.25058979  0.49766992  0.35292810
   0.24029602  0.00237625  0.48443927
   0.99509435  0.99621105  0.38607253
   0.56231248  0.50094031  0.51306378
  -0.00706500  0.50596882  0.44930597
   0.50058979  0.99766992  0.32219921
   0.00283806  0.22883120  0.54517146
   0.98513802  0.22938057  0.48333662
   0.50058979  0.72426517  0.35464742
   0.50058979  0.27107467  0.35464742
  -0.01435442  0.78097672  0.48264706
   0.77399454  0.49766992  0.29318964
   0.71615888 -0.00508534  0.41979638
   0.49149018  0.22945118  0.47652639
   0.00058979  0.72426517  0.35120878
   0.00058979  0.27107467  0.35120878
   0.49201341  0.77140695  0.47966640
   0.71579620  0.49871081  0.41470003
   0.77399454  0.99766992  0.28975100
   0.26185088  0.49653824  0.41381141
   0.22718504  0.99766992  0.28975100
   0.25883083 -0.00621445  0.42308720
   0.22718504  0.49766992  0.29318964
   0.73522057  0.40180272  0.55237424
   0.26027973  0.03664176  0.53191518
   0.35446777  0.48738628  0.27144954
Direct configuration=    44
   0.00058979  0.24766992  0.29147032
   0.48850746  0.74572647  0.41737572
   0.48892703  0.24767584  0.41802706
   0.00058979  0.74766992  0.29147032
   0.75058979  0.49766992  0.35292810
   0.74188578  0.00169600  0.47824880
   0.25058979  0.49766992  0.35292810
   0.24110080  0.00210193  0.48417935
   0.99633462  0.99674207  0.38602233
   0.56271045  0.50157988  0.51290485
  -0.00659209  0.50646568  0.44902879
   0.50058979  0.99766992  0.32219921
   0.00389244  0.22985306  0.54484583
   0.98614663  0.22927992  0.48298821
   0.50058979  0.72426517  0.35464742
   0.50058979  0.27107467  0.35464742
  -0.01287696  0.78181420  0.48239344
   0.77399454  0.49766992  0.29318964
   0.71620558 -0.00470874  0.41967146
   0.49275695  0.22917508  0.47646263
   0.00058979  0.72426517  0.35120878
   0.00058979  0.27107467  0.35120878
   0.49360059  0.77144027  0.47944005
   0.71672069  0.49897784  0.41451644
   0.77399454  0.99766992  0.28975100
   0.26245176  0.49714716  0.41363303
   0.22718504  0.99766992  0.28975100
   0.26003381 -0.00577848  0.42296853
   0.22718504  0.49766992  0.29318964
   0.73686403  0.40309804  0.55214138
   0.26072580  0.03482578  0.53176954
   0.35446777  0.48738628  0.27144954
Direct configuration=    45
   0.00058979  0.24766992  0.29147032
   0.48864903  0.74595933  0.41728520
   0.48889339  0.24788267  0.41801343
   0.00058979  0.74766992  0.29147032
   0.75058979  0.49766992  0.35292810
   0.74250216  0.00171014  0.47817987
   0.25058979  0.49766992  0.35292810
   0.24145451  0.00198137  0.48406511
   0.99687973  0.99697546  0.38600026
   0.56288536  0.50186099  0.51283501
  -0.00638424  0.50668405  0.44890697
   0.50058979  0.99766992  0.32219921
   0.00435586  0.23030218  0.54470272
   0.98658992  0.22923569  0.48283507
   0.50058979  0.72426517  0.35464742
   0.50058979  0.27107467  0.35464742
  -0.01222760  0.78218229  0.48228198
   0.77399454  0.49766992  0.29318964
   0.71622610 -0.00454322  0.41961656
   0.49331371  0.22905373  0.47643460
   0.00058979  0.72426517  0.35120878
   0.00058979  0.27107467  0.35120878
   0.49429818  0.77145491  0.47934057
   0.71712702  0.49909520  0.41443575
   0.77399454  0.99766992  0.28975100
   0.26271585  0.49741479  0.41355463
   0.22718504  0.99766992  0.28975100
   0.26056253 -0.00558686  0.42291638
   0.22718504  0.49766992  0.29318964
   0.73758635  0.40366735  0.55203904
   0.26092185  0.03402763  0.53170553
   0.35446777  0.48738628  0.27144954
Direct configuration=    46
   0.00058979  0.24766992  0.29147032
   0.48974850  0.74660028  0.41716204
   0.48960772  0.24822628  0.41786417
   0.00058979  0.74766992  0.29147032
   0.75058979  0.49766992  0.35292810
   0.74316839  0.00138788  0.47799570
   0.25058979  0.49766992  0.35292810
   0.24321277  0.00196112  0.48396055
   0.99773387  0.99731560  0.38588181
   0.56357407  0.50203024  0.51276857
  -0.00553848  0.50771667  0.44873362
   0.50058979  0.99766992  0.32219921
   0.00515092  0.23063167  0.54436944
   0.98770471  0.22948975  0.48254542
   0.50058979  0.72426517  0.35464742
   0.50058979  0.27107467  0.35464742
  -0.01085552  0.78180766  0.48206326
   0.77399454  0.49766992  0.29318964
   0.71649766 -0.00406922  0.41947458
   0.49441901  0.22960018  0.47642574
   0.00058979  0.72426517  0.35120878
   0.00058979  0.27107467  0.35120878
   0.49574698  0.77110471  0.47909205
   0.71760580  0.49945015  0.41427323
   0.77399454  0.99766992  0.28975100
   0.26319419  0.49813662  0.41341999
   0.22718504  0.99766992  0.28975100
   0.26188280 -0.00510787  0.42280520
   0.22718504  0.49766992  0.29318964
   0.73895705  0.40544137  0.55175967
   0.26084012  0.03253818  0.53153971
   0.35446777  0.48738628  0.27144954
Direct configuration=    47
   0.00058979  0.24766992  0.29147032
   0.49014986  0.74683426  0.41711707
   0.48986849  0.24835172  0.41780969
   0.00058979  0.74766992  0.29147032
   0.75058979  0.49766992  0.35292810
   0.74341159  0.00127024  0.47792846
   0.25058979  0.49766992  0.35292810
   0.24385462  0.00195373  0.48392238
   0.99804567  0.99743977  0.38583857
   0.56382548  0.50209202  0.51274431
  -0.00522973  0.50809363  0.44867034
   0.50058979  0.99766992  0.32219921
   0.00544116  0.23075194  0.54424778
   0.98811166  0.22958249  0.48243968
   0.50058979  0.72426517  0.35464742
   0.50058979  0.27107467  0.35464742
  -0.01035465  0.78167090  0.48198341
   0.77399454  0.49766992  0.29318964
   0.71659679 -0.00389619  0.41942275
   0.49482249  0.22979966  0.47642251
   0.00058979  0.72426517  0.35120878
   0.00058979  0.27107467  0.35120878
   0.49627586  0.77097687  0.47900132
   0.71778058  0.49957972  0.41421390
   0.77399454  0.99766992  0.28975100
   0.26336881  0.49840012  0.41337084
   0.22718504  0.99766992  0.28975100
   0.26236476 -0.00493302  0.42276462
   0.22718504  0.49766992  0.29318964
   0.73945742  0.40608898  0.55165768
   0.26081029  0.03199446  0.53147918
   0.35446777  0.48738628  0.27144954
Direct configuration=    48
   0.00058979  0.24766992  0.29147032
   0.49105863  0.74676955  0.41703934
   0.49089228  0.24927540  0.41757556
   0.00058979  0.74766992  0.29147032
   0.75058979  0.49766992  0.35292810
   0.74515490  0.00138189  0.47773953
   0.25058979  0.49766992  0.35292810
   0.24492283  0.00221434  0.48381827
   0.99856375  0.99737807  0.38575281
   0.56423407  0.50253226  0.51258465
  -0.00423843  0.50883699  0.44856123
   0.50058979  0.99766992  0.32219921
   0.00566372  0.23066133  0.54391176
   0.98925260  0.22929037  0.48225495
   0.50058979  0.72426517  0.35464742
   0.50058979  0.27107467  0.35464742
  -0.00942914  0.78139603  0.48184248
   0.77399454  0.49766992  0.29318964
   0.71813565 -0.00320358  0.41925471
   0.49584026  0.23037893  0.47643600
   0.00058979  0.72426517  0.35120878
   0.00058979  0.27107467  0.35120878
   0.49728838  0.77036356  0.47879487
   0.71825077  0.49991787  0.41409178
   0.77399454  0.99766992  0.28975100
   0.26428198  0.49899356  0.41327276
   0.22718504  0.99766992  0.28975100
   0.26319047 -0.00442529  0.42266576
   0.22718504  0.49766992  0.29318964
   0.74152763  0.40760525  0.55151307
   0.26051667  0.03094241  0.53134957
   0.35446777  0.48738628  0.27144954
Direct configuration=    49
   0.00058979  0.24766992  0.29147032
   0.49105697  0.74676967  0.41703948
   0.49089041  0.24927371  0.41757599
   0.00058979  0.74766992  0.29147032
   0.75058979  0.49766992  0.35292810
   0.74515171  0.00138168  0.47773987
   0.25058979  0.49766992  0.35292810
   0.24492088  0.00221387  0.48381846
   0.99856281  0.99737818  0.38575297
   0.56423332  0.50253145  0.51258494
  -0.00424025  0.50883563  0.44856143
   0.50058979  0.99766992  0.32219921
   0.00566332  0.23066150  0.54391238
   0.98925051  0.22929091  0.48225529
   0.50058979  0.72426517  0.35464742
   0.50058979  0.27107467  0.35464742
  -0.00943084  0.78139654  0.48184273
   0.77399454  0.49766992  0.29318964
   0.71813283 -0.00320485  0.41925502
   0.49583840  0.23037787  0.47643597
   0.00058979  0.72426517  0.35120878
   0.00058979  0.27107467  0.35120878
   0.49728653  0.77036468  0.47879525
   0.71824991  0.49991725  0.41409201
   0.77399454  0.99766992  0.28975100
   0.26428031  0.49899247  0.41327294
   0.22718504  0.99766992  0.28975100
   0.26318896 -0.00442622  0.42266594
   0.22718504  0.49766992  0.29318964
   0.74152384  0.40760248  0.55151333
   0.26051721  0.03094434  0.53134980
   0.35446777  0.48738628  0.27144954
Direct configuration=    50
   0.00058979  0.24766992  0.29147032
   0.49159740  0.74763692  0.41704247
   0.49161549  0.24897434  0.41741758
   0.00058979  0.74766992  0.29147032
   0.75058979  0.49766992  0.35292810
   0.74597267  0.00155183  0.47758070
   0.25058979  0.49766992  0.35292810
   0.24568496  0.00210223  0.48367160
   0.99908659  0.99702088  0.38573019
   0.56474137  0.50292907  0.51249267
  -0.00346324  0.50870029  0.44851082
   0.50058979  0.99766992  0.32219921
   0.00555089  0.23019603  0.54371217
   0.99019981  0.22920087  0.48219140
   0.50058979  0.72426517  0.35464742
   0.50058979  0.27107467  0.35464742
  -0.00896907  0.78162699  0.48181889
   0.77399454  0.49766992  0.29318964
   0.71936191 -0.00271890  0.41916309
   0.49678107  0.23017489  0.47641623
   0.00058979  0.72426517  0.35120878
   0.00058979  0.27107467  0.35120878
   0.49789608  0.77071094  0.47865497
   0.71928821  0.50023208  0.41404233
   0.77399454  0.99766992  0.28975100
   0.26500111  0.49917400  0.41322149
   0.22718504  0.99766992  0.28975100
   0.26385552 -0.00401724  0.42259600
   0.22718504  0.49766992  0.29318964
   0.74295540  0.40884086  0.55144605
   0.26038434  0.03049837  0.53129340
   0.35446777  0.48738628  0.27144954
Direct configuration=    51
   0.00058979  0.24766992  0.29147032
   0.49169596  0.74779508  0.41704302
   0.49174772  0.24891975  0.41738869
   0.00058979  0.74766992  0.29147032
   0.75058979  0.49766992  0.35292810
   0.74612239  0.00158286  0.47755168
   0.25058979  0.49766992  0.35292810
   0.24582430  0.00208187  0.48364482
   0.99918211  0.99695572  0.38572604
   0.56483402  0.50300158  0.51247584
  -0.00332155  0.50867561  0.44850159
   0.50058979  0.99766992  0.32219921
   0.00553039  0.23011114  0.54367566
   0.99037293  0.22918445  0.48217975
   0.50058979  0.72426517  0.35464742
   0.50058979  0.27107467  0.35464742
  -0.00888487  0.78166902  0.48181455
   0.77399454  0.49766992  0.29318964
   0.71958605 -0.00263028  0.41914633
   0.49695297  0.23013787  0.47641263
   0.00058979  0.72426517  0.35120878
   0.00058979  0.27107467  0.35120878
   0.49800724  0.77077408  0.47862939
   0.71947756  0.50028949  0.41403327
   0.77399454  0.99766992  0.28975100
   0.26513256  0.49920710  0.41321210
   0.22718504  0.99766992  0.28975100
   0.26397708 -0.00394266  0.42258324
   0.22718504  0.49766992  0.29318964
   0.74321646  0.40906670  0.55143378
   0.26036011  0.03041704  0.53128312
   0.35446777  0.48738628  0.27144954
Direct configuration=    52
   0.00058979  0.24766992  0.29147032
   0.49270581  0.74775693  0.41704795
   0.49277605  0.24933688  0.41726560
   0.00058979  0.74766992  0.29147032
   0.75058979  0.49766992  0.35292810
   0.74658940  0.00186565  0.47743928
   0.25058979  0.49766992  0.35292810
   0.24639898  0.00196472  0.48358705
   0.00006992  0.99654722  0.38568358
   0.56574563  0.50331783  0.51246391
  -0.00248419  0.50811830  0.44849507
   0.50058979  0.99766992  0.32219921
   0.00537899  0.22929251  0.54354903
   0.99134272  0.22937309  0.48214211
   0.50058979  0.72426517  0.35464742
   0.50058979  0.27107467  0.35464742
  -0.00838359  0.78184185  0.48178573
   0.77399454  0.49766992  0.29318964
   0.72031848 -0.00237583  0.41911195
   0.49795279  0.22971004  0.47633110
   0.00058979  0.72426517  0.35120878
   0.00058979  0.27107467  0.35120878
   0.49863020  0.77147469  0.47848871
   0.72024121  0.50079405  0.41400936
   0.77399454  0.99766992  0.28975100
   0.26618242  0.49928575  0.41318750
   0.22718504  0.99766992  0.28975100
   0.26453242 -0.00360148  0.42252167
   0.22718504  0.49766992  0.29318964
   0.74413842  0.41065421  0.55132935
   0.26056494  0.03009246  0.53117680
   0.35446777  0.48738628  0.27144954
