unknown system                          
           1
     2.873573   -2.873573    4.708335
     5.747147    0.000000    0.000000
     0.000000   33.065691   20.180529
   Mn   O    H 
  15  24   8
Direct configuration=     1
   0.22067121  0.89240241  0.08901558
   0.67534614  0.15891829  0.21825030
   0.13976083  0.42466997  0.35120980
   0.94927612  0.02809995  0.15233499
   0.39956665  0.28963324  0.28441921
   0.44927612  0.52809995  0.15233499
   0.89993031  0.29245770  0.28446909
   0.44927612  0.02809995  0.15233499
   0.90028166  0.79007876  0.28412493
   0.90282244  0.55132680  0.10484543
   0.35438401  0.81558942  0.23392107
   0.79314557  0.09911960  0.36441137
   0.99522468  0.50199517  0.20349691
   0.44129195  0.76866653  0.33733532
   0.53851998  0.23347802  0.07318573
   0.77903662  0.60352410  0.31311742
   0.87926422  0.06310591  0.05527763
   0.33809629  0.33319456  0.18284436
   0.58246139  0.21150732  0.12452493
   0.04460309  0.46826796  0.25618913
   0.53761926  0.72218325  0.38744540
   0.09516526  0.72856013  0.12156099
   0.55007424  0.44280316  0.25201344
   0.03718086  0.73749017  0.37921170
   0.75477137  0.11227007  0.31121422
   0.85888103  0.57329750  0.05350623
   0.31257232  0.84613704  0.18059612
   0.56207820  0.72169891  0.12275353
   0.01031820  0.98694026  0.25347943
   0.45964753  0.28091428  0.38352459
   0.79817892  0.32713817  0.18435248
   0.25127802  0.58951386  0.31511481
   0.34617716  0.60305419  0.05647018
   0.24603721  0.14191781  0.31662546
   0.80030830  0.87391687  0.18390934
   0.34617716  0.05624469  0.05647018
   0.95613850  0.31579562  0.38124773
   0.55173094  0.99151585  0.25164812
   0.09516526  0.18175063  0.12156099
   0.34047062  0.60391201  0.02782883
   0.92434681  0.68523651  0.03696881
   0.34363348  0.06399961  0.02783421
   0.88838126  0.05560908  0.02665597
   0.48401537  0.88631871  0.40009925
   0.45029608  0.44402373  0.39349670
   0.04591799  0.69096019  0.40346957
   0.80727633  0.48770875  0.38777387
Direct configuration=     2
   0.22067121  0.89240241  0.08901558
   0.67495429  0.15843433  0.21846713
   0.14059511  0.42483012  0.35135121
   0.94927612  0.02809995  0.15233499
   0.40264145  0.28833341  0.28367791
   0.44927612  0.52809995  0.15233499
   0.89934563  0.29062186  0.28412056
   0.44927612  0.02809995  0.15233499
   0.90042792  0.79260671  0.28353450
   0.90282244  0.55132680  0.10484543
   0.35429668  0.81620421  0.23394452
   0.79503939  0.09810782  0.36412643
   0.99523740  0.50188232  0.20360533
   0.43867384  0.76847567  0.33711516
   0.53851998  0.23347802  0.07318573
   0.77270628  0.60335330  0.31397311
   0.87926422  0.06310591  0.05527763
   0.33899982  0.33140907  0.18256077
   0.58246139  0.21150732  0.12452493
   0.04289404  0.46715282  0.25634286
   0.53643658  0.72566846  0.38655321
   0.09516526  0.72856013  0.12156099
   0.55013860  0.44159465  0.25211348
   0.03627414  0.73848046  0.37927547
   0.75594495  0.11446614  0.31136511
   0.85888103  0.57329750  0.05350623
   0.31239793  0.84705412  0.18038625
   0.56207820  0.72169891  0.12275353
   0.00963309  0.98867592  0.25366761
   0.45829748  0.28262302  0.38377083
   0.79883021  0.32492592  0.18405798
   0.25596938  0.59379762  0.31568343
   0.34617716  0.60305419  0.05647018
   0.24997939  0.13305712  0.31708234
   0.80069669  0.87496748  0.18364120
   0.34617716  0.05624469  0.05647018
   0.95409291  0.31710192  0.38136016
   0.55142240  0.99207228  0.25155948
   0.09516526  0.18175063  0.12156099
   0.34047062  0.60391201  0.02782883
   0.92434681  0.68523651  0.03696881
   0.34363348  0.06399961  0.02783421
   0.88838126  0.05560908  0.02665597
   0.48370004  0.88621615  0.39998992
   0.45005203  0.44218835  0.39342110
   0.04587952  0.69082087  0.40353945
   0.80966259  0.48553853  0.38774038
Direct configuration=     3
   0.22067121  0.89240241  0.08901558
   0.67495842  0.15843943  0.21846484
   0.14058631  0.42482843  0.35134972
   0.94927612  0.02809995  0.15233499
   0.40260904  0.28834711  0.28368572
   0.44927612  0.52809995  0.15233499
   0.89935179  0.29064121  0.28412424
   0.44927612  0.02809995  0.15233499
   0.90042637  0.79258006  0.28354072
   0.90282244  0.55132680  0.10484543
   0.35429760  0.81619773  0.23394427
   0.79501943  0.09811849  0.36412943
   0.99523727  0.50188351  0.20360419
   0.43870144  0.76847769  0.33711748
   0.53851998  0.23347802  0.07318573
   0.77277301  0.60335510  0.31396409
   0.87926422  0.06310591  0.05527763
   0.33899030  0.33142789  0.18256376
   0.58246139  0.21150732  0.12452493
   0.04291206  0.46716457  0.25634124
   0.53644905  0.72563172  0.38656262
   0.09516526  0.72856013  0.12156099
   0.55013792  0.44160739  0.25211242
   0.03628370  0.73847002  0.37927480
   0.75593258  0.11444300  0.31136352
   0.85888103  0.57329750  0.05350623
   0.31239976  0.84704445  0.18038846
   0.56207820  0.72169891  0.12275353
   0.00964031  0.98865762  0.25366562
   0.45831171  0.28260500  0.38376823
   0.79882334  0.32494924  0.18406109
   0.25591993  0.59375247  0.31567744
   0.34617716  0.60305419  0.05647018
   0.24993784  0.13315052  0.31707752
   0.80069260  0.87495640  0.18364403
   0.34617716  0.05624469  0.05647018
   0.95411447  0.31708815  0.38135898
   0.55142565  0.99206641  0.25156042
   0.09516526  0.18175063  0.12156099
   0.34047062  0.60391201  0.02782883
   0.92434681  0.68523651  0.03696881
   0.34363348  0.06399961  0.02783421
   0.88838126  0.05560908  0.02665597
   0.48370336  0.88621723  0.39999107
   0.45005460  0.44220769  0.39342190
   0.04587992  0.69082234  0.40353872
   0.80963744  0.48556141  0.38774073
Direct configuration=     4
   0.22067121  0.89240241  0.08901558
   0.67513809  0.15866134  0.21836542
   0.14020379  0.42475500  0.35128488
   0.94927612  0.02809995  0.15233499
   0.40119921  0.28894310  0.28402562
   0.44927612  0.52809995  0.15233499
   0.89961988  0.29148296  0.28428404
   0.44927612  0.02809995  0.15233499
   0.90035931  0.79142097  0.28381144
   0.90282244  0.55132680  0.10484543
   0.35433764  0.81591584  0.23393352
   0.79415108  0.09858240  0.36426008
   0.99523143  0.50193525  0.20355448
   0.43990187  0.76856520  0.33721843
   0.53851998  0.23347802  0.07318573
   0.77567554  0.60343341  0.31357175
   0.87926422  0.06310591  0.05527763
   0.33857602  0.33224656  0.18269379
   0.58246139  0.21150732  0.12452493
   0.04369568  0.46767588  0.25627075
   0.53699132  0.72403371  0.38697170
   0.09516526  0.72856013  0.12156099
   0.55010841  0.44216150  0.25206656
   0.03669944  0.73801596  0.37924556
   0.75539448  0.11343607  0.31129433
   0.85888103  0.57329750  0.05350623
   0.31247973  0.84662396  0.18048469
   0.56207820  0.72169891  0.12275353
   0.00995444  0.98786180  0.25357934
   0.45893073  0.28182153  0.38365533
   0.79852472  0.32596358  0.18419612
   0.25376889  0.59178831  0.31541672
   0.34617716  0.60305419  0.05647018
   0.24813030  0.13721326  0.31686804
   0.80051452  0.87447469  0.18376697
   0.34617716  0.05624469  0.05647018
   0.95505240  0.31648920  0.38130743
   0.55156712  0.99181128  0.25160106
   0.09516526  0.18175063  0.12156099
   0.34047062  0.60391201  0.02782883
   0.92434681  0.68523651  0.03696881
   0.34363348  0.06399961  0.02783421
   0.88838126  0.05560908  0.02665597
   0.48384794  0.88626426  0.40004120
   0.45016650  0.44304924  0.39345656
   0.04589757  0.69088622  0.40350667
   0.80854331  0.48655648  0.38775609
Direct configuration=     5
   0.22067121  0.89240241  0.08901558
   0.67525587  0.15880681  0.21830024
   0.13995301  0.42470686  0.35124237
   0.94927612  0.02809995  0.15233499
   0.40027496  0.28933381  0.28424844
   0.44927612  0.52809995  0.15233499
   0.89979563  0.29203480  0.28438881
   0.44927612  0.02809995  0.15233499
   0.90031535  0.79066109  0.28398892
   0.90282244  0.55132680  0.10484543
   0.35436389  0.81573104  0.23392647
   0.79358182  0.09888653  0.36434573
   0.99522761  0.50196918  0.20352189
   0.44068884  0.76862256  0.33728461
   0.53851998  0.23347802  0.07318573
   0.77757837  0.60348475  0.31331454
   0.87926422  0.06310591  0.05527763
   0.33830443  0.33278326  0.18277904
   0.58246139  0.21150732  0.12452493
   0.04420939  0.46801108  0.25622454
   0.53734682  0.72298610  0.38723988
   0.09516526  0.72856013  0.12156099
   0.55008906  0.44252477  0.25203649
   0.03697199  0.73771829  0.37922639
   0.75504171  0.11277596  0.31124898
   0.85888103  0.57329750  0.05350623
   0.31253215  0.84634829  0.18054777
   0.56207820  0.72169891  0.12275353
   0.01016038  0.98734008  0.25352278
   0.45933653  0.28130790  0.38358132
   0.79832895  0.32662856  0.18428464
   0.25235872  0.59050066  0.31524580
   0.34617716  0.60305419  0.05647018
   0.24694533  0.13987668  0.31673070
   0.80039777  0.87415889  0.18384758
   0.34617716  0.05624469  0.05647018
   0.95566728  0.31609654  0.38127363
   0.55165986  0.99164403  0.25162770
   0.09516526  0.18175063  0.12156099
   0.34047062  0.60391201  0.02782883
   0.92434681  0.68523651  0.03696881
   0.34363348  0.06399961  0.02783421
   0.88838126  0.05560908  0.02665597
   0.48394273  0.88629509  0.40007407
   0.45023986  0.44360094  0.39347928
   0.04590913  0.69092810  0.40348567
   0.80782603  0.48720882  0.38776615
Direct configuration=     6
   0.22067121  0.89240241  0.08901558
   0.67528914  0.15884789  0.21828184
   0.13988219  0.42469327  0.35123037
   0.94927612  0.02809995  0.15233499
   0.40001395  0.28944415  0.28431137
   0.44927612  0.52809995  0.15233499
   0.89984526  0.29219064  0.28441839
   0.44927612  0.02809995  0.15233499
   0.90030293  0.79044650  0.28403904
   0.90282244  0.55132680  0.10484543
   0.35437131  0.81567886  0.23392448
   0.79342106  0.09897242  0.36436992
   0.99522653  0.50197876  0.20351269
   0.44091109  0.76863877  0.33730329
   0.53851998  0.23347802  0.07318573
   0.77811573  0.60349925  0.31324190
   0.87926422  0.06310591  0.05527763
   0.33822773  0.33293483  0.18280311
   0.58246139  0.21150732  0.12452493
   0.04435447  0.46810574  0.25621150
   0.53744721  0.72269025  0.38731561
   0.09516526  0.72856013  0.12156099
   0.55008360  0.44262735  0.25202800
   0.03704896  0.73763423  0.37922098
   0.75494209  0.11258954  0.31123617
   0.85888103  0.57329750  0.05350623
   0.31254695  0.84627045  0.18056559
   0.56207820  0.72169891  0.12275353
   0.01021854  0.98719275  0.25350680
   0.45945113  0.28116285  0.38356041
   0.79827367  0.32681635  0.18430964
   0.25196048  0.59013703  0.31519753
   0.34617716  0.60305419  0.05647018
   0.24661069  0.14062883  0.31669192
   0.80036480  0.87406971  0.18387034
   0.34617716  0.05624469  0.05647018
   0.95584093  0.31598565  0.38126408
   0.55168606  0.99159680  0.25163523
   0.09516526  0.18175063  0.12156099
   0.34047062  0.60391201  0.02782883
   0.92434681  0.68523651  0.03696881
   0.34363348  0.06399961  0.02783421
   0.88838126  0.05560908  0.02665597
   0.48396949  0.88630379  0.40008335
   0.45026058  0.44375674  0.39348570
   0.04591240  0.69093992  0.40347974
   0.80762347  0.48739304  0.38776900
Direct configuration=     7
   0.22067121  0.89240241  0.08901558
   0.67506020  0.15849100  0.21838524
   0.14158196  0.42381255  0.35091030
   0.94927612  0.02809995  0.15233499
   0.40078980  0.28911059  0.28397514
   0.44927612  0.52809995  0.15233499
   0.89939496  0.29252104  0.28426243
   0.44927612  0.02809995  0.15233499
   0.90033110  0.79032473  0.28378142
   0.90282244  0.55132680  0.10484543
   0.35435651  0.81589585  0.23393400
   0.79412433  0.09922747  0.36410654
   0.99517918  0.50203041  0.20356922
   0.44023656  0.76861847  0.33707226
   0.53851998  0.23347802  0.07318573
   0.77933086  0.60321095  0.31342452
   0.87926422  0.06310591  0.05527763
   0.33907101  0.33134986  0.18257108
   0.58246139  0.21150732  0.12452493
   0.04275499  0.46882092  0.25632811
   0.53764167  0.72326781  0.38737464
   0.09516526  0.72856013  0.12156099
   0.55006396  0.44173663  0.25209021
   0.03642130  0.73832776  0.37929332
   0.75637018  0.11221609  0.31144350
   0.85888103  0.57329750  0.05350623
   0.31260877  0.84686978  0.18038684
   0.56207820  0.72169891  0.12275353
   0.00954653  0.98744502  0.25364922
   0.45805219  0.28096350  0.38352120
   0.79885369  0.32487816  0.18405927
   0.25236082  0.58993849  0.31539227
   0.34617716  0.60305419  0.05647018
   0.24691354  0.14064344  0.31693650
   0.80081999  0.87488349  0.18366161
   0.34617716  0.05624469  0.05647018
   0.95590588  0.31431777  0.38129681
   0.55167529  0.99219977  0.25165372
   0.09516526  0.18175063  0.12156099
   0.34047062  0.60391201  0.02782883
   0.92434681  0.68523651  0.03696881
   0.34363348  0.06399961  0.02783421
   0.88838126  0.05560908  0.02665597
   0.48384300  0.88607929  0.40007652
   0.44997264  0.44507054  0.39352429
   0.04583599  0.69105067  0.40353034
   0.80702300  0.48835752  0.38779424
Direct configuration=     8
   0.22067121  0.89240241  0.08901558
   0.67509444  0.15854438  0.21836978
   0.14132773  0.42394428  0.35095818
   0.94927612  0.02809995  0.15233499
   0.40067376  0.28916048  0.28402543
   0.44927612  0.52809995  0.15233499
   0.89946231  0.29247162  0.28428576
   0.44927612  0.02809995  0.15233499
   0.90032689  0.79034295  0.28381995
   0.90282244  0.55132680  0.10484543
   0.35435872  0.81586339  0.23393258
   0.79401914  0.09918932  0.36414593
   0.99518626  0.50202269  0.20356076
   0.44033745  0.76862150  0.33710681
   0.53851998  0.23347802  0.07318573
   0.77914911  0.60325407  0.31339720
   0.87926422  0.06310591  0.05527763
   0.33894489  0.33158692  0.18260579
   0.58246139  0.21150732  0.12452493
   0.04299422  0.46871395  0.25631067
   0.53761259  0.72318143  0.38736581
   0.09516526  0.72856013  0.12156099
   0.55006690  0.44186985  0.25208091
   0.03651517  0.73822403  0.37928250
   0.75615658  0.11227195  0.31141249
   0.85888103  0.57329750  0.05350623
   0.31259952  0.84678014  0.18041357
   0.56207820  0.72169891  0.12275353
   0.00964704  0.98740729  0.25362792
   0.45826142  0.28099332  0.38352706
   0.79876694  0.32516805  0.18409672
   0.25230094  0.58996819  0.31536315
   0.34617716  0.60305419  0.05647018
   0.24686824  0.14064125  0.31689992
   0.80075191  0.87476177  0.18369283
   0.34617716  0.05624469  0.05647018
   0.95589617  0.31456723  0.38129192
   0.55167690  0.99210959  0.25165095
   0.09516526  0.18175063  0.12156099
   0.34047062  0.60391201  0.02782883
   0.92434681  0.68523651  0.03696881
   0.34363348  0.06399961  0.02783421
   0.88838126  0.05560908  0.02665597
   0.48386192  0.88611287  0.40007755
   0.45001571  0.44487404  0.39351852
   0.04584742  0.69103411  0.40352277
   0.80711281  0.48821326  0.38779047
Direct configuration=     9
   0.22067121  0.89240241  0.08901558
   0.67538907  0.15810581  0.21825691
   0.14197165  0.42357719  0.35084175
   0.94927612  0.02809995  0.15233499
   0.40026080  0.28947009  0.28399997
   0.44927612  0.52809995  0.15233499
   0.89863618  0.29338323  0.28434768
   0.44927612  0.02809995  0.15233499
   0.89976346  0.79030847  0.28384333
   0.90282244  0.55132680  0.10484543
   0.35419308  0.81606026  0.23389655
   0.79406792  0.09986037  0.36397400
   0.99508748  0.50201896  0.20352582
   0.44048403  0.76850816  0.33698461
   0.53851998  0.23347802  0.07318573
   0.78199175  0.60278259  0.31340380
   0.87926422  0.06310591  0.05527763
   0.33911537  0.33068827  0.18247926
   0.58246139  0.21150732  0.12452493
   0.04180216  0.46941433  0.25629383
   0.53857855  0.72157066  0.38740799
   0.09516526  0.72856013  0.12156099
   0.54989045  0.44162829  0.25209603
   0.03609503  0.73825029  0.37926673
   0.75772910  0.11128892  0.31148559
   0.85888103  0.57329750  0.05350623
   0.31266721  0.84705729  0.18034009
   0.56207820  0.72169891  0.12275353
   0.00949392  0.98717220  0.25367760
   0.45729142  0.28269174  0.38353632
   0.79923943  0.32403919  0.18397806
   0.25236912  0.58836730  0.31535465
   0.34617716  0.60305419  0.05647018
   0.24697165  0.14217771  0.31696861
   0.80124005  0.87483396  0.18359938
   0.34617716  0.05624469  0.05647018
   0.95548142  0.31430516  0.38128660
   0.55161927  0.99216693  0.25166204
   0.09516526  0.18175063  0.12156099
   0.34047062  0.60391201  0.02782883
   0.92434681  0.68523651  0.03696881
   0.34363348  0.06399961  0.02783421
   0.88838126  0.05560908  0.02665597
   0.48331201  0.88717748  0.40019538
   0.44977431  0.44453295  0.39341762
   0.04572867  0.69118104  0.40357607
   0.80711322  0.48837255  0.38776546
Direct configuration=    10
   0.22067121  0.89240241  0.08901558
   0.67534755  0.15816762  0.21827281
   0.14188090  0.42362892  0.35085815
   0.94927612  0.02809995  0.15233499
   0.40031900  0.28942645  0.28400356
   0.44927612  0.52809995  0.15233499
   0.89875261  0.29325476  0.28433895
   0.44927612  0.02809995  0.15233499
   0.89984286  0.79031333  0.28384003
   0.90282244  0.55132680  0.10484543
   0.35421643  0.81603252  0.23390163
   0.79406105  0.09976580  0.36399823
   0.99510140  0.50201948  0.20353075
   0.44046337  0.76852413  0.33700183
   0.53851998  0.23347802  0.07318573
   0.78159114  0.60284904  0.31340287
   0.87926422  0.06310591  0.05527763
   0.33909134  0.33081491  0.18249709
   0.58246139  0.21150732  0.12452493
   0.04197016  0.46931563  0.25629620
   0.53844242  0.72179766  0.38740205
   0.09516526  0.72856013  0.12156099
   0.54991532  0.44166233  0.25209390
   0.03615424  0.73824659  0.37926895
   0.75750749  0.11142745  0.31147529
   0.85888103  0.57329750  0.05350623
   0.31265767  0.84701823  0.18035045
   0.56207820  0.72169891  0.12275353
   0.00951550  0.98720533  0.25367060
   0.45742812  0.28245239  0.38353502
   0.79917284  0.32419828  0.18399479
   0.25235951  0.58859291  0.31535585
   0.34617716  0.60305419  0.05647018
   0.24695708  0.14196118  0.31695893
   0.80117125  0.87482379  0.18361255
   0.34617716  0.05624469  0.05647018
   0.95553987  0.31434210  0.38128735
   0.55162739  0.99215885  0.25166048
   0.09516526  0.18175063  0.12156099
   0.34047062  0.60391201  0.02782883
   0.92434681  0.68523651  0.03696881
   0.34363348  0.06399961  0.02783421
   0.88838126  0.05560908  0.02665597
   0.48338951  0.88702744  0.40017877
   0.44980833  0.44458102  0.39343184
   0.04574540  0.69116033  0.40356856
   0.80711316  0.48835010  0.38776898
Direct configuration=    11
   0.22067121  0.89240241  0.08901558
   0.67567597  0.15777970  0.21816509
   0.14188280  0.42368808  0.35089825
   0.94927612  0.02809995  0.15233499
   0.39976683  0.28971288  0.28402160
   0.44927612  0.52809995  0.15233499
   0.89814001  0.29383619  0.28438780
   0.44927612  0.02809995  0.15233499
   0.89943275  0.79055379  0.28387179
   0.90282244  0.55132680  0.10484543
   0.35397815  0.81622229  0.23386146
   0.79382761  0.10047131  0.36391103
   0.99501246  0.50194832  0.20347290
   0.44089524  0.76838263  0.33693161
   0.53851998  0.23347802  0.07318573
   0.78417849  0.60240159  0.31344220
   0.87926422  0.06310591  0.05527763
   0.33894758  0.33036974  0.18243282
   0.58246139  0.21150732  0.12452493
   0.04096979  0.46986758  0.25622698
   0.53869377  0.72208215  0.38758270
   0.09516526  0.72856013  0.12156099
   0.54971727  0.44162245  0.25208100
   0.03575810  0.73806865  0.37926338
   0.75882677  0.11055449  0.31150975
   0.85888103  0.57329750  0.05350623
   0.31271498  0.84708179  0.18032946
   0.56207820  0.72169891  0.12275353
   0.00945322  0.98699196  0.25370387
   0.45691196  0.28264873  0.38342260
   0.79954142  0.32362496  0.18393763
   0.25256287  0.58712959  0.31530328
   0.34617716  0.60305419  0.05647018
   0.24721815  0.14316886  0.31696475
   0.80164106  0.87449072  0.18356380
   0.34617716  0.05624469  0.05647018
   0.95536992  0.31428235  0.38124326
   0.55151371  0.99210199  0.25165765
   0.09516526  0.18175063  0.12156099
   0.34047062  0.60391201  0.02782883
   0.92434681  0.68523651  0.03696881
   0.34363348  0.06399961  0.02783421
   0.88838126  0.05560908  0.02665597
   0.48350633  0.88614909  0.40015077
   0.44943602  0.44553480  0.39340095
   0.04559213  0.69142489  0.40356138
   0.80712270  0.48844410  0.38774003
Direct configuration=    12
   0.22067121  0.89240241  0.08901558
   0.67568818  0.15776528  0.21816108
   0.14188287  0.42369027  0.35089974
   0.94927612  0.02809995  0.15233499
   0.39974631  0.28972353  0.28402227
   0.44927612  0.52809995  0.15233499
   0.89811724  0.29385780  0.28438961
   0.44927612  0.02809995  0.15233499
   0.89941750  0.79056273  0.28387297
   0.90282244  0.55132680  0.10484543
   0.35396929  0.81622935  0.23385997
   0.79381893  0.10049754  0.36390779
   0.99500915  0.50194567  0.20347075
   0.44091129  0.76837737  0.33692899
   0.53851998  0.23347802  0.07318573
   0.78427468  0.60238495  0.31344366
   0.87926422  0.06310591  0.05527763
   0.33894223  0.33035318  0.18243043
   0.58246139  0.21150732  0.12452493
   0.04093259  0.46988810  0.25622441
   0.53870311  0.72209273  0.38758941
   0.09516526  0.72856013  0.12156099
   0.54970991  0.44162097  0.25208052
   0.03574337  0.73806203  0.37926317
   0.75887582  0.11052203  0.31151103
   0.85888103  0.57329750  0.05350623
   0.31271711  0.84708415  0.18032868
   0.56207820  0.72169891  0.12275353
   0.00945090  0.98698403  0.25370511
   0.45689277  0.28265603  0.38341842
   0.79955512  0.32360364  0.18393550
   0.25257043  0.58707519  0.31530133
   0.34617716  0.60305419  0.05647018
   0.24722786  0.14321376  0.31696497
   0.80165853  0.87447833  0.18356199
   0.34617716  0.05624469  0.05647018
   0.95536360  0.31428013  0.38124163
   0.55150948  0.99209988  0.25165754
   0.09516526  0.18175063  0.12156099
   0.34047062  0.60391201  0.02782883
   0.92434681  0.68523651  0.03696881
   0.34363348  0.06399961  0.02783421
   0.88838126  0.05560908  0.02665597
   0.48351067  0.88611643  0.40014973
   0.44942217  0.44557026  0.39339980
   0.04558643  0.69143473  0.40356112
   0.80712306  0.48844759  0.38773895
Direct configuration=    13
   0.22067121  0.89240241  0.08901558
   0.67581668  0.15756311  0.21814548
   0.14149569  0.42403020  0.35100767
   0.94927612  0.02809995  0.15233499
   0.39948342  0.28970917  0.28399734
   0.44927612  0.52809995  0.15233499
   0.89806400  0.29384360  0.28435155
   0.44927612  0.02809995  0.15233499
   0.89952800  0.79090679  0.28382889
   0.90282244  0.55132680  0.10484543
   0.35374422  0.81635485  0.23383699
   0.79352354  0.10085931  0.36391063
   0.99497257  0.50180336  0.20342177
   0.44147286  0.76824174  0.33692413
   0.53851998  0.23347802  0.07318573
   0.78560978  0.60208475  0.31357307
   0.87926422  0.06310591  0.05527763
   0.33865345  0.33040164  0.18242878
   0.58246139  0.21150732  0.12452493
   0.04025533  0.47017375  0.25614360
   0.53904665  0.72137528  0.38761074
   0.09516526  0.72856013  0.12156099
   0.54956309  0.44165462  0.25204850
   0.03532519  0.73807989  0.37923774
   0.75953339  0.11016855  0.31153148
   0.85888103  0.57329750  0.05350623
   0.31275513  0.84694470  0.18034790
   0.56207820  0.72169891  0.12275353
   0.00939045  0.98698472  0.25372726
   0.45672154  0.28291261  0.38331327
   0.79970504  0.32363775  0.18393385
   0.25295783  0.58653711  0.31528045
   0.34617716  0.60305419  0.05647018
   0.24762852  0.14336888  0.31694956
   0.80196702  0.87394221  0.18354816
   0.34617716  0.05624469  0.05647018
   0.95535687  0.31440230  0.38118817
   0.55134518  0.99207984  0.25164018
   0.09516526  0.18175063  0.12156099
   0.34047062  0.60391201  0.02782883
   0.92434681  0.68523651  0.03696881
   0.34363348  0.06399961  0.02783421
   0.88838126  0.05560908  0.02665597
   0.48335498  0.88620847  0.40020082
   0.44908490  0.44622288  0.39335603
   0.04543534  0.69168814  0.40354463
   0.80712766  0.48850634  0.38772226
Direct configuration=    14
   0.22067121  0.89240241  0.08901558
   0.67587264  0.15747507  0.21813869
   0.14132709  0.42417823  0.35105466
   0.94927612  0.02809995  0.15233499
   0.39936895  0.28970292  0.28398649
   0.44927612  0.52809995  0.15233499
   0.89804082  0.29383742  0.28433498
   0.44927612  0.02809995  0.15233499
   0.89957611  0.79105661  0.28380969
   0.90282244  0.55132680  0.10484543
   0.35364622  0.81640949  0.23382698
   0.79339492  0.10101684  0.36391187
   0.99495665  0.50174139  0.20340044
   0.44171739  0.76818269  0.33692202
   0.53851998  0.23347802  0.07318573
   0.78619115  0.60195402  0.31362942
   0.87926422  0.06310591  0.05527763
   0.33852771  0.33042274  0.18242807
   0.58246139  0.21150732  0.12452493
   0.03996042  0.47029813  0.25610842
   0.53919625  0.72106287  0.38762003
   0.09516526  0.72856013  0.12156099
   0.54949916  0.44166927  0.25203456
   0.03514309  0.73808766  0.37922667
   0.75981972  0.11001463  0.31154038
   0.85888103  0.57329750  0.05350623
   0.31277168  0.84688397  0.18035627
   0.56207820  0.72169891  0.12275353
   0.00936412  0.98698501  0.25373691
   0.45664698  0.28302434  0.38326748
   0.79977033  0.32365260  0.18393313
   0.25312653  0.58630280  0.31527136
   0.34617716  0.60305419  0.05647018
   0.24780298  0.14343643  0.31694285
   0.80210135  0.87370876  0.18354213
   0.34617716  0.05624469  0.05647018
   0.95535394  0.31445550  0.38116489
   0.55127364  0.99207112  0.25163262
   0.09516526  0.18175063  0.12156099
   0.34047062  0.60391201  0.02782883
   0.92434681  0.68523651  0.03696881
   0.34363348  0.06399961  0.02783421
   0.88838126  0.05560908  0.02665597
   0.48328719  0.88624855  0.40022306
   0.44893803  0.44650707  0.39333696
   0.04536956  0.69179848  0.40353745
   0.80712966  0.48853192  0.38771499
Direct configuration=    15
   0.22067121  0.89240241  0.08901558
   0.67598455  0.15729900  0.21812510
   0.14098990  0.42447427  0.35114866
   0.94927612  0.02809995  0.15233499
   0.39914001  0.28969042  0.28396478
   0.44927612  0.52809995  0.15233499
   0.89799446  0.29382505  0.28430184
   0.44927612  0.02809995  0.15233499
   0.89967234  0.79135625  0.28377130
   0.90282244  0.55132680  0.10484543
   0.35345021  0.81651879  0.23380697
   0.79313768  0.10133189  0.36391434
   0.99492479  0.50161745  0.20335779
   0.44220645  0.76806457  0.33691779
   0.53851998  0.23347802  0.07318573
   0.78735388  0.60169258  0.31374212
   0.87926422  0.06310591  0.05527763
   0.33827621  0.33046494  0.18242663
   0.58246139  0.21150732  0.12452493
   0.03937059  0.47054690  0.25603805
   0.53949543  0.72043804  0.38763861
   0.09516526  0.72856013  0.12156099
   0.54937129  0.44169857  0.25200667
   0.03477889  0.73810322  0.37920452
   0.76039239  0.10970679  0.31155819
   0.85888103  0.57329750  0.05350623
   0.31280478  0.84676252  0.18037301
   0.56207820  0.72169891  0.12275353
   0.00931147  0.98698561  0.25375620
   0.45649785  0.28324779  0.38317590
   0.79990090  0.32368231  0.18393169
   0.25346391  0.58583419  0.31525318
   0.34617716  0.60305419  0.05647018
   0.24815191  0.14357153  0.31692942
   0.80237001  0.87324186  0.18353008
   0.34617716  0.05624469  0.05647018
   0.95534808  0.31456190  0.38111834
   0.55113055  0.99205367  0.25161750
   0.09516526  0.18175063  0.12156099
   0.34047062  0.60391201  0.02782883
   0.92434681  0.68523651  0.03696881
   0.34363348  0.06399961  0.02783421
   0.88838126  0.05560908  0.02665597
   0.48315159  0.88632870  0.40026755
   0.44864429  0.44707543  0.39329884
   0.04523798  0.69201917  0.40352309
   0.80713367  0.48858308  0.38770046
Direct configuration=    16
   0.22067121  0.89240241  0.08901558
   0.67591920  0.15740182  0.21813303
   0.14118681  0.42430139  0.35109377
   0.94927612  0.02809995  0.15233499
   0.39927370  0.28969772  0.28397745
   0.44927612  0.52809995  0.15233499
   0.89802153  0.29383227  0.28432119
   0.44927612  0.02809995  0.15233499
   0.89961615  0.79118127  0.28379372
   0.90282244  0.55132680  0.10484543
   0.35356467  0.81645496  0.23381865
   0.79328790  0.10114791  0.36391290
   0.99494339  0.50168983  0.20338270
   0.44192085  0.76813355  0.33692026
   0.53851998  0.23347802  0.07318573
   0.78667489  0.60184525  0.31367631
   0.87926422  0.06310591  0.05527763
   0.33842308  0.33044030  0.18242747
   0.58246139  0.21150732  0.12452493
   0.03971503  0.47040163  0.25607914
   0.53932072  0.72080292  0.38762776
   0.09516526  0.72856013  0.12156099
   0.54944596  0.44168146  0.25202296
   0.03499157  0.73809413  0.37921746
   0.76005797  0.10988656  0.31154779
   0.85888103  0.57329750  0.05350623
   0.31278545  0.84683345  0.18036324
   0.56207820  0.72169891  0.12275353
   0.00934222  0.98698526  0.25374493
   0.45658494  0.28311730  0.38322938
   0.79982465  0.32366496  0.18393253
   0.25326689  0.58610784  0.31526380
   0.34617716  0.60305419  0.05647018
   0.24794815  0.14349264  0.31693726
   0.80221312  0.87351452  0.18353712
   0.34617716  0.05624469  0.05647018
   0.95535151  0.31449977  0.38114552
   0.55121411  0.99206386  0.25162633
   0.09516526  0.18175063  0.12156099
   0.34047062  0.60391201  0.02782883
   0.92434681  0.68523651  0.03696881
   0.34363348  0.06399961  0.02783421
   0.88838126  0.05560908  0.02665597
   0.48323077  0.88628190  0.40024157
   0.44881582  0.44674353  0.39332110
   0.04531482  0.69189030  0.40353148
   0.80713133  0.48855320  0.38770895
Direct configuration=    17
   0.22067121  0.89240241  0.08901558
   0.67594908  0.15726514  0.21814032
   0.14094363  0.42452214  0.35111256
   0.94927612  0.02809995  0.15233499
   0.39913805  0.28962241  0.28393868
   0.44927612  0.52809995  0.15233499
   0.89809005  0.29388608  0.28428539
   0.44927612  0.02809995  0.15233499
   0.89987712  0.79125720  0.28375373
   0.90282244  0.55132680  0.10484543
   0.35338477  0.81651974  0.23380255
   0.79306206  0.10133650  0.36392276
   0.99493482  0.50151475  0.20333867
   0.44250060  0.76799715  0.33690948
   0.53851998  0.23347802  0.07318573
   0.78771005  0.60153434  0.31381987
   0.87926422  0.06310591  0.05527763
   0.33823449  0.33055369  0.18243244
   0.58246139  0.21150732  0.12452493
   0.03912577  0.47064272  0.25600392
   0.53930964  0.72076180  0.38768815
   0.09516526  0.72856013  0.12156099
   0.54931640  0.44169125  0.25198975
   0.03447912  0.73837211  0.37920895
   0.76051154  0.10975444  0.31155715
   0.85888103  0.57329750  0.05350623
   0.31282421  0.84666902  0.18038248
   0.56207820  0.72169891  0.12275353
   0.00932078  0.98708424  0.25374132
   0.45633646  0.28392729  0.38316678
   0.79984928  0.32374549  0.18394129
   0.25372011  0.58594424  0.31527628
   0.34617716  0.60305419  0.05647018
   0.24836463  0.14328599  0.31694079
   0.80240399  0.87312051  0.18352843
   0.34617716  0.05624469  0.05647018
   0.95536635  0.31459577  0.38111567
   0.55104729  0.99205199  0.25160432
   0.09516526  0.18175063  0.12156099
   0.34047062  0.60391201  0.02782883
   0.92434681  0.68523651  0.03696881
   0.34363348  0.06399961  0.02783421
   0.88838126  0.05560908  0.02665597
   0.48332205  0.88567703  0.40024493
   0.44852161  0.44690141  0.39323876
   0.04514411  0.69217688  0.40351638
   0.80710057  0.48862619  0.38769733
Direct configuration=    18
   0.22067121  0.89240241  0.08901558
   0.67597737  0.15713577  0.21814721
   0.14071344  0.42473110  0.35113035
   0.94927612  0.02809995  0.15233499
   0.39900964  0.28955112  0.28390197
   0.44927612  0.52809995  0.15233499
   0.89815491  0.29393701  0.28425150
   0.44927612  0.02809995  0.15233499
   0.90012415  0.79132908  0.28371587
   0.90282244  0.55132680  0.10484543
   0.35321448  0.81658106  0.23378731
   0.79284828  0.10151501  0.36393209
   0.99492670  0.50134902  0.20329700
   0.44304937  0.76786804  0.33689928
   0.53851998  0.23347802  0.07318573
   0.78868992  0.60124004  0.31395577
   0.87926422  0.06310591  0.05527763
   0.33805599  0.33066102  0.18243714
   0.58246139  0.21150732  0.12452493
   0.03856800  0.47087093  0.25593273
   0.53929915  0.72072288  0.38774532
   0.09516526  0.72856013  0.12156099
   0.54919376  0.44170052  0.25195832
   0.03399404  0.73863525  0.37920090
   0.76094087  0.10962937  0.31156600
   0.85888103  0.57329750  0.05350623
   0.31286091  0.84651337  0.18040069
   0.56207820  0.72169891  0.12275353
   0.00930048  0.98717793  0.25373791
   0.45610126  0.28469402  0.38310753
   0.79987260  0.32382172  0.18394958
   0.25414913  0.58578937  0.31528809
   0.34617716  0.60305419  0.05647018
   0.24875887  0.14309038  0.31694413
   0.80258466  0.87274755  0.18352020
   0.34617716  0.05624469  0.05647018
   0.95538040  0.31468664  0.38108742
   0.55088939  0.99204076  0.25158349
   0.09516526  0.18175063  0.12156099
   0.34047062  0.60391201  0.02782883
   0.92434681  0.68523651  0.03696881
   0.34363348  0.06399961  0.02783421
   0.88838126  0.05560908  0.02665597
   0.48340845  0.88510448  0.40024812
   0.44824312  0.44705086  0.39316082
   0.04498253  0.69244816  0.40350209
   0.80707145  0.48869527  0.38768633
Direct configuration=    19
   0.22067121  0.89240241  0.08901558
   0.67595401  0.15699988  0.21815394
   0.14062348  0.42489989  0.35104033
   0.94927612  0.02809995  0.15233499
   0.39896152  0.28949155  0.28386089
   0.44927612  0.52809995  0.15233499
   0.89824602  0.29417272  0.28424328
   0.44927612  0.02809995  0.15233499
   0.90049164  0.79112373  0.28370802
   0.90282244  0.55132680  0.10484543
   0.35306568  0.81657069  0.23377184
   0.79262717  0.10164308  0.36394170
   0.99493486  0.50111893  0.20324467
   0.44378756  0.76767481  0.33688991
   0.53851998  0.23347802  0.07318573
   0.78986857  0.60079213  0.31411358
   0.87926422  0.06310591  0.05527763
   0.33802886  0.33075191  0.18243732
   0.58246139  0.21150732  0.12452493
   0.03798383  0.47114636  0.25586035
   0.53932995  0.72021916  0.38776169
   0.09516526  0.72856013  0.12156099
   0.54903672  0.44167635  0.25192595
   0.03328600  0.73921418  0.37919409
   0.76136045  0.10963868  0.31155176
   0.85888103  0.57329750  0.05350623
   0.31291093  0.84635586  0.18041106
   0.56207820  0.72169891  0.12275353
   0.00930932  0.98738338  0.25369826
   0.45570065  0.28524071  0.38300547
   0.79975767  0.32381198  0.18396248
   0.25475768  0.58582091  0.31532415
   0.34617716  0.60305419  0.05647018
   0.24925775  0.14262140  0.31696527
   0.80264945  0.87257834  0.18351198
   0.34617716  0.05624469  0.05647018
   0.95535846  0.31476743  0.38108144
   0.55070185  0.99200265  0.25155624
   0.09516526  0.18175063  0.12156099
   0.34047062  0.60391201  0.02782883
   0.92434681  0.68523651  0.03696881
   0.34363348  0.06399961  0.02783421
   0.88838126  0.05560908  0.02665597
   0.48338083  0.88478729  0.40029637
   0.44784473  0.44778753  0.39308449
   0.04475402  0.69281683  0.40350247
   0.80700727  0.48879834  0.38767846
Direct configuration=    20
   0.22067121  0.89240241  0.08901558
   0.67590878  0.15673690  0.21816696
   0.14044939  0.42522653  0.35086611
   0.94927612  0.02809995  0.15233499
   0.39886839  0.28937627  0.28378139
   0.44927612  0.52809995  0.15233499
   0.89842234  0.29462888  0.28422739
   0.44927612  0.02809995  0.15233499
   0.90120283  0.79072632  0.28369282
   0.90282244  0.55132680  0.10484543
   0.35277773  0.81655062  0.23374191
   0.79219927  0.10189094  0.36396030
   0.99495065  0.50067366  0.20314340
   0.44521615  0.76730086  0.33687176
   0.53851998  0.23347802  0.07318573
   0.79214959  0.59992531  0.31441900
   0.87926422  0.06310591  0.05527763
   0.33797635  0.33092783  0.18243767
   0.58246139  0.21150732  0.12452493
   0.03685332  0.47167939  0.25572029
   0.53938956  0.71924433  0.38779338
   0.09516526  0.72856013  0.12156099
   0.54873279  0.44162958  0.25186330
   0.03191574  0.74033457  0.37918092
   0.76217244  0.10965669  0.31152420
   0.85888103  0.57329750  0.05350623
   0.31300773  0.84605104  0.18043112
   0.56207820  0.72169891  0.12275353
   0.00932642  0.98778097  0.25362154
   0.45492535  0.28629869  0.38280794
   0.79953524  0.32379314  0.18398745
   0.25593537  0.58588193  0.31539393
   0.34617716  0.60305419  0.05647018
   0.25022322  0.14171381  0.31700619
   0.80277484  0.87225088  0.18349607
   0.34617716  0.05624469  0.05647018
   0.95531600  0.31492378  0.38106986
   0.55033891  0.99192891  0.25150351
   0.09516526  0.18175063  0.12156099
   0.34047062  0.60391201  0.02782883
   0.92434681  0.68523651  0.03696881
   0.34363348  0.06399961  0.02783421
   0.88838126  0.05560908  0.02665597
   0.48332738  0.88417343  0.40038973
   0.44707374  0.44921318  0.39293675
   0.04431178  0.69353029  0.40350322
   0.80688308  0.48899782  0.38766322
Direct configuration=    21
   0.22067121  0.89240241  0.08901558
   0.67590485  0.15661401  0.21813310
   0.14022220  0.42557711  0.35077212
   0.94927612  0.02809995  0.15233499
   0.39908199  0.28940667  0.28378521
   0.44927612  0.52809995  0.15233499
   0.89845519  0.29464813  0.28426869
   0.44927612  0.02809995  0.15233499
   0.90141659  0.79076564  0.28374573
   0.90282244  0.55132680  0.10484543
   0.35281266  0.81637198  0.23372391
   0.79205372  0.10212609  0.36394927
   0.99493842  0.50054846  0.20308867
   0.44583832  0.76712560  0.33688503
   0.53851998  0.23347802  0.07318573
   0.79319524  0.59950758  0.31447483
   0.87926422  0.06310591  0.05527763
   0.33825263  0.33079006  0.18242486
   0.58246139  0.21150732  0.12452493
   0.03671198  0.47191237  0.25573090
   0.53906761  0.71927163  0.38782453
   0.09516526  0.72856013  0.12156099
   0.54857344  0.44158033  0.25187534
   0.03151618  0.74050129  0.37919523
   0.76240453  0.10971786  0.31146503
   0.85888103  0.57329750  0.05350623
   0.31302549  0.84610925  0.18040928
   0.56207820  0.72169891  0.12275353
   0.00917213  0.98802757  0.25357802
   0.45435173  0.28686994  0.38273682
   0.79928162  0.32354638  0.18398906
   0.25648845  0.58581089  0.31538654
   0.34617716  0.60305419  0.05647018
   0.25063978  0.14137086  0.31699410
   0.80257623  0.87259779  0.18349398
   0.34617716  0.05624469  0.05647018
   0.95543157  0.31494807  0.38106880
   0.55024858  0.99185309  0.25150616
   0.09516526  0.18175063  0.12156099
   0.34047062  0.60391201  0.02782883
   0.92434681  0.68523651  0.03696881
   0.34363348  0.06399961  0.02783421
   0.88838126  0.05560908  0.02665597
   0.48341857  0.88346987  0.40041359
   0.44673188  0.44988950  0.39285050
   0.04406977  0.69391523  0.40348054
   0.80688505  0.48902724  0.38766047
Direct configuration=    22
   0.22067121  0.89240241  0.08901558
   0.67590140  0.15650611  0.21810338
   0.14002274  0.42588492  0.35068960
   0.94927612  0.02809995  0.15233499
   0.39926952  0.28943337  0.28378856
   0.44927612  0.52809995  0.15233499
   0.89848404  0.29466504  0.28430495
   0.44927612  0.02809995  0.15233499
   0.90160427  0.79080017  0.28379217
   0.90282244  0.55132680  0.10484543
   0.35284333  0.81621514  0.23370810
   0.79192593  0.10233255  0.36393959
   0.99492769  0.50043855  0.20304061
   0.44638456  0.76697174  0.33689667
   0.53851998  0.23347802  0.07318573
   0.79411329  0.59914082  0.31452385
   0.87926422  0.06310591  0.05527763
   0.33849519  0.33066910  0.18241361
   0.58246139  0.21150732  0.12452493
   0.03658788  0.47211691  0.25574021
   0.53878495  0.71929559  0.38785188
   0.09516526  0.72856013  0.12156099
   0.54843353  0.44153709  0.25188592
   0.03116538  0.74064767  0.37920780
   0.76260830  0.10977157  0.31141308
   0.85888103  0.57329750  0.05350623
   0.31304108  0.84616036  0.18039010
   0.56207820  0.72169891  0.12275353
   0.00903667  0.98824408  0.25353981
   0.45384811  0.28737148  0.38267438
   0.79905895  0.32332973  0.18399047
   0.25697403  0.58574852  0.31538005
   0.34617716  0.60305419  0.05647018
   0.25100549  0.14106976  0.31698349
   0.80240186  0.87290236  0.18349215
   0.34617716  0.05624469  0.05647018
   0.95553303  0.31496940  0.38106787
   0.55016928  0.99178653  0.25150849
   0.09516526  0.18175063  0.12156099
   0.34047062  0.60391201  0.02782883
   0.92434681  0.68523651  0.03696881
   0.34363348  0.06399961  0.02783421
   0.88838126  0.05560908  0.02665597
   0.48349863  0.88285217  0.40043454
   0.44643174  0.45048328  0.39277477
   0.04385729  0.69425319  0.40346062
   0.80688677  0.48905308  0.38765806
Direct configuration=    23
   0.22067121  0.89240241  0.08901558
   0.67585093  0.15644571  0.21809234
   0.13980318  0.42615849  0.35064446
   0.94927612  0.02809995  0.15233499
   0.39948419  0.28940041  0.28379234
   0.44927612  0.52809995  0.15233499
   0.89860801  0.29459226  0.28431692
   0.44927612  0.02809995  0.15233499
   0.90179862  0.79088348  0.28381514
   0.90282244  0.55132680  0.10484543
   0.35289644  0.81606271  0.23369646
   0.79181737  0.10254181  0.36392833
   0.99491092  0.50037862  0.20300726
   0.44680348  0.76686134  0.33691188
   0.53851998  0.23347802  0.07318573
   0.79477459  0.59888875  0.31455475
   0.87926422  0.06310591  0.05527763
   0.33868854  0.33055582  0.18240788
   0.58246139  0.21150732  0.12452493
   0.03657975  0.47227763  0.25576785
   0.53864699  0.71893392  0.38784016
   0.09516526  0.72856013  0.12156099
   0.54834410  0.44149418  0.25190060
   0.03090490  0.74076896  0.37917590
   0.76268439  0.10983206  0.31138164
   0.85888103  0.57329750  0.05350623
   0.31303040  0.84625232  0.18037096
   0.56207820  0.72169891  0.12275353
   0.00887033  0.98842194  0.25351673
   0.45342336  0.28786131  0.38263149
   0.79888764  0.32318267  0.18398711
   0.25734540  0.58570706  0.31536474
   0.34617716  0.60305419  0.05647018
   0.25128765  0.14089727  0.31696589
   0.80224616  0.87313514  0.18348895
   0.34617716  0.05624469  0.05647018
   0.95561498  0.31504306  0.38106170
   0.55014093  0.99173768  0.25151737
   0.09516526  0.18175063  0.12156099
   0.34047062  0.60391201  0.02782883
   0.92434681  0.68523651  0.03696881
   0.34363348  0.06399961  0.02783421
   0.88838126  0.05560908  0.02665597
   0.48341625  0.88273066  0.40048471
   0.44618339  0.45089112  0.39270242
   0.04370387  0.69444373  0.40347567
   0.80696188  0.48899922  0.38765646
Direct configuration=    24
   0.22067121  0.89240241  0.08901558
   0.67578799  0.15637039  0.21807858
   0.13952937  0.42649968  0.35058817
   0.94927612  0.02809995  0.15233499
   0.39975191  0.28935931  0.28379705
   0.44927612  0.52809995  0.15233499
   0.89876261  0.29450150  0.28433184
   0.44927612  0.02809995  0.15233499
   0.90204100  0.79098738  0.28384377
   0.90282244  0.55132680  0.10484543
   0.35296267  0.81587259  0.23368194
   0.79168199  0.10280279  0.36391429
   0.99489001  0.50030388  0.20296566
   0.44732593  0.76672366  0.33693084
   0.53851998  0.23347802  0.07318573
   0.79559934  0.59857438  0.31459329
   0.87926422  0.06310591  0.05527763
   0.33892968  0.33041454  0.18240074
   0.58246139  0.21150732  0.12452493
   0.03656961  0.47247807  0.25580232
   0.53847493  0.71848287  0.38782555
   0.09516526  0.72856013  0.12156099
   0.54823258  0.44144065  0.25191891
   0.03058003  0.74092023  0.37913611
   0.76277928  0.10990750  0.31134244
   0.85888103  0.57329750  0.05350623
   0.31301707  0.84636702  0.18034709
   0.56207820  0.72169891  0.12275353
   0.00866288  0.98864375  0.25348794
   0.45289362  0.28847221  0.38257799
   0.79867399  0.32299926  0.18398292
   0.25780856  0.58565535  0.31534566
   0.34617716  0.60305419  0.05647018
   0.25163955  0.14068214  0.31694393
   0.80205197  0.87342544  0.18348496
   0.34617716  0.05624469  0.05647018
   0.95571719  0.31513492  0.38105401
   0.55010558  0.99167677  0.25152845
   0.09516526  0.18175063  0.12156099
   0.34047062  0.60391201  0.02782883
   0.92434681  0.68523651  0.03696881
   0.34363348  0.06399961  0.02783421
   0.88838126  0.05560908  0.02665597
   0.48331351  0.88257913  0.40054727
   0.44587366  0.45139976  0.39261218
   0.04351252  0.69468136  0.40349443
   0.80705554  0.48893206  0.38765446
Direct configuration=    25
   0.22067121  0.89240241  0.08901558
   0.67566562  0.15638534  0.21810081
   0.13937398  0.42663853  0.35058277
   0.94927612  0.02809995  0.15233499
   0.39992750  0.28923332  0.28379717
   0.44927612  0.52809995  0.15233499
   0.89901117  0.29439891  0.28430666
   0.44927612  0.02809995  0.15233499
   0.90225643  0.79104746  0.28382763
   0.90282244  0.55132680  0.10484543
   0.35300510  0.81577454  0.23367783
   0.79156185  0.10301845  0.36390291
   0.99487126  0.50029634  0.20295854
   0.44754848  0.76669491  0.33693529
   0.53851998  0.23347802  0.07318573
   0.79589944  0.59848463  0.31461555
   0.87926422  0.06310591  0.05527763
   0.33896184  0.33038100  0.18240763
   0.58246139  0.21150732  0.12452493
   0.03665793  0.47256550  0.25582842
   0.53831227  0.71839984  0.38783655
   0.09516526  0.72856013  0.12156099
   0.54823622  0.44141706  0.25192728
   0.03042576  0.74096171  0.37912767
   0.76272057  0.10996857  0.31134912
   0.85888103  0.57329750  0.05350623
   0.31296873  0.84645938  0.18033863
   0.56207820  0.72169891  0.12275353
   0.00853552  0.98874003  0.25348100
   0.45264377  0.28872943  0.38254801
   0.79861260  0.32302450  0.18397776
   0.25799973  0.58567621  0.31533085
   0.34617716  0.60305419  0.05647018
   0.25179769  0.14067304  0.31692803
   0.80198985  0.87341933  0.18348027
   0.34617716  0.05624469  0.05647018
   0.95581092  0.31520300  0.38104014
   0.55013431  0.99163871  0.25153831
   0.09516526  0.18175063  0.12156099
   0.34047062  0.60391201  0.02782883
   0.92434681  0.68523651  0.03696881
   0.34363348  0.06399961  0.02783421
   0.88838126  0.05560908  0.02665597
   0.48327022  0.88236346  0.40057288
   0.44568433  0.45170464  0.39255778
   0.04340824  0.69480790  0.40347929
   0.80717069  0.48883226  0.38765463
Direct configuration=    26
   0.22067121  0.89240241  0.08901558
   0.67529852  0.15643021  0.21816751
   0.13890781  0.42705508  0.35056657
   0.94927612  0.02809995  0.15233499
   0.40045426  0.28885533  0.28379752
   0.44927612  0.52809995  0.15233499
   0.89975683  0.29409113  0.28423112
   0.44927612  0.02809995  0.15233499
   0.90290272  0.79122770  0.28377921
   0.90282244  0.55132680  0.10484543
   0.35313239  0.81548040  0.23366549
   0.79120144  0.10366542  0.36386877
   0.99481499  0.50027372  0.20293718
   0.44821611  0.76660866  0.33694861
   0.53851998  0.23347802  0.07318573
   0.79679972  0.59821536  0.31468235
   0.87926422  0.06310591  0.05527763
   0.33905831  0.33028036  0.18242828
   0.58246139  0.21150732  0.12452493
   0.03692289  0.47282781  0.25590670
   0.53782429  0.71815076  0.38786956
   0.09516526  0.72856013  0.12156099
   0.54824715  0.44134630  0.25195237
   0.02996294  0.74108614  0.37910236
   0.76254442  0.11015175  0.31136917
   0.85888103  0.57329750  0.05350623
   0.31282371  0.84673644  0.18031325
   0.56207820  0.72169891  0.12275353
   0.00815346  0.98902886  0.25346018
   0.45189421  0.28950111  0.38245806
   0.79842846  0.32310021  0.18396228
   0.25857325  0.58573878  0.31528644
   0.34617716  0.60305419  0.05647018
   0.25227210  0.14064572  0.31688033
   0.80180350  0.87340101  0.18346621
   0.34617716  0.05624469  0.05647018
   0.95609211  0.31540724  0.38099854
   0.55022053  0.99152452  0.25156790
   0.09516526  0.18175063  0.12156099
   0.34047062  0.60391201  0.02782883
   0.92434681  0.68523651  0.03696881
   0.34363348  0.06399961  0.02783421
   0.88838126  0.05560908  0.02665597
   0.48314034  0.88171645  0.40064971
   0.44511634  0.45261927  0.39239458
   0.04309539  0.69518751  0.40343387
   0.80751613  0.48853285  0.38765515
Direct configuration=    27
   0.22067121  0.89240241  0.08901558
   0.67516493  0.15648738  0.21817673
   0.13889585  0.42718145  0.35054703
   0.94927612  0.02809995  0.15233499
   0.40061931  0.28873976  0.28382208
   0.44927612  0.52809995  0.15233499
   0.89997951  0.29412537  0.28422993
   0.44927612  0.02809995  0.15233499
   0.90306948  0.79122007  0.28378794
   0.90282244  0.55132680  0.10484543
   0.35316484  0.81541814  0.23366182
   0.79102681  0.10392397  0.36385725
   0.99478449  0.50029577  0.20295303
   0.44836975  0.76666273  0.33693570
   0.53851998  0.23347802  0.07318573
   0.79708071  0.59815603  0.31468655
   0.87926422  0.06310591  0.05527763
   0.33894277  0.33033598  0.18245224
   0.58246139  0.21150732  0.12452493
   0.03722562  0.47281856  0.25589399
   0.53763122  0.71807755  0.38789874
   0.09516526  0.72856013  0.12156099
   0.54836135  0.44137701  0.25195605
   0.02967036  0.74133964  0.37907327
   0.76253463  0.11023325  0.31137233
   0.85888103  0.57329750  0.05350623
   0.31271578  0.84681740  0.18032199
   0.56207820  0.72169891  0.12275353
   0.00821543  0.98905774  0.25343027
   0.45168432  0.28965476  0.38241703
   0.79840731  0.32325601  0.18396870
   0.25867436  0.58579507  0.31527594
   0.34617716  0.60305419  0.05647018
   0.25237575  0.14072740  0.31687082
   0.80177661  0.87323854  0.18347150
   0.34617716  0.05624469  0.05647018
   0.95625818  0.31533913  0.38097895
   0.55029803  0.99134871  0.25157901
   0.09516526  0.18175063  0.12156099
   0.34047062  0.60391201  0.02782883
   0.92434681  0.68523651  0.03696881
   0.34363348  0.06399961  0.02783421
   0.88838126  0.05560908  0.02665597
   0.48302795  0.88144282  0.40068171
   0.44484369  0.45307734  0.39232634
   0.04299452  0.69526020  0.40342039
   0.80765161  0.48845476  0.38766199
Direct configuration=    28
   0.22067121  0.89240241  0.08901558
   0.67476417  0.15665888  0.21820438
   0.13885994  0.42756057  0.35048842
   0.94927612  0.02809995  0.15233499
   0.40111448  0.28839303  0.28389577
   0.44927612  0.52809995  0.15233499
   0.90064753  0.29422810  0.28422635
   0.44927612  0.02809995  0.15233499
   0.90356975  0.79119716  0.28381415
   0.90282244  0.55132680  0.10484543
   0.35326220  0.81523136  0.23365080
   0.79050291  0.10469964  0.36382270
   0.99469298  0.50036192  0.20300060
   0.44883066  0.76682493  0.33689697
   0.53851998  0.23347802  0.07318573
   0.79792369  0.59797804  0.31469916
   0.87926422  0.06310591  0.05527763
   0.33859618  0.33050283  0.18252413
   0.58246139  0.21150732  0.12452493
   0.03813380  0.47279080  0.25585588
   0.53705201  0.71785792  0.38798630
   0.09516526  0.72856013  0.12156099
   0.54870397  0.44146914  0.25196708
   0.02879262  0.74210014  0.37898600
   0.76250527  0.11047773  0.31138178
   0.85888103  0.57329750  0.05350623
   0.31239200  0.84706028  0.18034819
   0.56207820  0.72169891  0.12275353
   0.00840136  0.98914437  0.25334054
   0.45105466  0.29011570  0.38229395
   0.79834386  0.32372339  0.18398795
   0.25897768  0.58596396  0.31524445
   0.34617716  0.60305419  0.05647018
   0.25268671  0.14097244  0.31684227
   0.80169593  0.87275114  0.18348735
   0.34617716  0.05624469  0.05647018
   0.95675642  0.31513481  0.38092021
   0.55053054  0.99082127  0.25161235
   0.09516526  0.18175063  0.12156099
   0.34047062  0.60391201  0.02782883
   0.92434681  0.68523651  0.03696881
   0.34363348  0.06399961  0.02783421
   0.88838126  0.05560908  0.02665597
   0.48269080  0.88062194  0.40077771
   0.44402575  0.45445155  0.39212162
   0.04269190  0.69547829  0.40337994
   0.80805806  0.48822048  0.38768250
Direct configuration=    29
   0.22067121  0.89240241  0.08901558
   0.67471337  0.15668009  0.21820305
   0.13886526  0.42763805  0.35047805
   0.94927612  0.02809995  0.15233499
   0.40122234  0.28834666  0.28390473
   0.44927612  0.52809995  0.15233499
   0.90075363  0.29423698  0.28422510
   0.44927612  0.02809995  0.15233499
   0.90366157  0.79119989  0.28381689
   0.90282244  0.55132680  0.10484543
   0.35328245  0.81520290  0.23364814
   0.79040731  0.10483964  0.36381778
   0.99467321  0.50037799  0.20301162
   0.44890524  0.76686419  0.33689014
   0.53851998  0.23347802  0.07318573
   0.79805368  0.59796032  0.31470075
   0.87926422  0.06310591  0.05527763
   0.33854638  0.33052907  0.18253446
   0.58246139  0.21150732  0.12452493
   0.03831221  0.47277492  0.25584918
   0.53698373  0.71771145  0.38799279
   0.09516526  0.72856013  0.12156099
   0.54878033  0.44147310  0.25197141
   0.02863294  0.74222415  0.37898075
   0.76252864  0.11052023  0.31137892
   0.85888103  0.57329750  0.05350623
   0.31233822  0.84709049  0.18035193
   0.56207820  0.72169891  0.12275353
   0.00844350  0.98916046  0.25332756
   0.45093872  0.29027295  0.38227591
   0.79832994  0.32378636  0.18399176
   0.25901883  0.58600986  0.31524071
   0.34617716  0.60305419  0.05647018
   0.25273227  0.14100147  0.31683979
   0.80167504  0.87269747  0.18349073
   0.34617716  0.05624469  0.05647018
   0.95681388  0.31512424  0.38091141
   0.55058022  0.99072806  0.25162048
   0.09516526  0.18175063  0.12156099
   0.34047062  0.60391201  0.02782883
   0.92434681  0.68523651  0.03696881
   0.34363348  0.06399961  0.02783421
   0.88838126  0.05560908  0.02665597
   0.48258415  0.88056544  0.40080294
   0.44387948  0.45463613  0.39207995
   0.04262992  0.69553845  0.40335960
   0.80816109  0.48814954  0.38768572
Direct configuration=    30
   0.22067121  0.89240241  0.08901558
   0.67456096  0.15674372  0.21819907
   0.13888121  0.42787049  0.35044692
   0.94927612  0.02809995  0.15233499
   0.40154595  0.28820752  0.28393158
   0.44927612  0.52809995  0.15233499
   0.90107196  0.29426361  0.28422135
   0.44927612  0.02809995  0.15233499
   0.90393702  0.79120808  0.28382511
   0.90282244  0.55132680  0.10484543
   0.35334320  0.81511752  0.23364015
   0.79012050  0.10525964  0.36380301
   0.99461388  0.50042622  0.20304469
   0.44912899  0.76698198  0.33686965
   0.53851998  0.23347802  0.07318573
   0.79844366  0.59790716  0.31470552
   0.87926422  0.06310591  0.05527763
   0.33839698  0.33060779  0.18256545
   0.58246139  0.21150732  0.12452493
   0.03884742  0.47272726  0.25582910
   0.53677888  0.71727201  0.38801228
   0.09516526  0.72856013  0.12156099
   0.54900939  0.44148499  0.25198437
   0.02815391  0.74259617  0.37896499
   0.76259874  0.11064774  0.31137035
   0.85888103  0.57329750  0.05350623
   0.31217687  0.84718111  0.18036315
   0.56207820  0.72169891  0.12275353
   0.00856994  0.98920873  0.25328861
   0.45059090  0.29074472  0.38222178
   0.79828818  0.32397528  0.18400320
   0.25914225  0.58614755  0.31522950
   0.34617716  0.60305419  0.05647018
   0.25286895  0.14108855  0.31683234
   0.80161238  0.87253648  0.18350086
   0.34617716  0.05624469  0.05647018
   0.95698627  0.31509254  0.38088503
   0.55072925  0.99044845  0.25164486
   0.09516526  0.18175063  0.12156099
   0.34047062  0.60391201  0.02782883
   0.92434681  0.68523651  0.03696881
   0.34363348  0.06399961  0.02783421
   0.88838126  0.05560908  0.02665597
   0.48226420  0.88039594  0.40087863
   0.44344066  0.45518987  0.39195494
   0.04244397  0.69571892  0.40329859
   0.80847019  0.48793672  0.38769536
Direct configuration=    31
   0.22067121  0.89240241  0.08901558
   0.67425613  0.15687099  0.21819111
   0.13891311  0.42833538  0.35038466
   0.94927612  0.02809995  0.15233499
   0.40219316  0.28792926  0.28398528
   0.44927612  0.52809995  0.15233499
   0.90170860  0.29431688  0.28421385
   0.44927612  0.02809995  0.15233499
   0.90448792  0.79122445  0.28384155
   0.90282244  0.55132680  0.10484543
   0.35346471  0.81494677  0.23362417
   0.78954689  0.10609964  0.36377348
   0.99449522  0.50052269  0.20311083
   0.44957650  0.76721754  0.33682868
   0.53851998  0.23347802  0.07318573
   0.79922361  0.59780084  0.31471505
   0.87926422  0.06310591  0.05527763
   0.33809819  0.33076524  0.18262743
   0.58246139  0.21150732  0.12452493
   0.03991784  0.47263193  0.25578892
   0.53636917  0.71639315  0.38805126
   0.09516526  0.72856013  0.12156099
   0.54946753  0.44150875  0.25201030
   0.02719585  0.74334023  0.37893349
   0.76273895  0.11090276  0.31135320
   0.85888103  0.57329750  0.05350623
   0.31185418  0.84736234  0.18038560
   0.56207820  0.72169891  0.12275353
   0.00882281  0.98930528  0.25321071
   0.44989525  0.29168824  0.38211353
   0.79820466  0.32435312  0.18402607
   0.25938910  0.58642295  0.31520707
   0.34617716  0.60305419  0.05647018
   0.25314232  0.14126271  0.31681746
   0.80148705  0.87221450  0.18352111
   0.34617716  0.05624469  0.05647018
   0.95733105  0.31502914  0.38083226
   0.55102731  0.98988923  0.25169363
   0.09516526  0.18175063  0.12156099
   0.34047062  0.60391201  0.02782883
   0.92434681  0.68523651  0.03696881
   0.34363348  0.06399961  0.02783421
   0.88838126  0.05560908  0.02665597
   0.48162430  0.88005694  0.40103002
   0.44256303  0.45629734  0.39170492
   0.04207207  0.69607986  0.40317655
   0.80908839  0.48751108  0.38771465
Direct configuration=    32
   0.22067121  0.89240241  0.08901558
   0.67446739  0.15678279  0.21819663
   0.13889100  0.42801319  0.35042781
   0.94927612  0.02809995  0.15233499
   0.40174461  0.28812211  0.28394806
   0.44927612  0.52809995  0.15233499
   0.90126738  0.29427996  0.28421905
   0.44927612  0.02809995  0.15233499
   0.90410612  0.79121311  0.28383016
   0.90282244  0.55132680  0.10484543
   0.35338050  0.81506511  0.23363525
   0.78994443  0.10551748  0.36379395
   0.99457745  0.50045583  0.20306500
   0.44926636  0.76705428  0.33685708
   0.53851998  0.23347802  0.07318573
   0.79868306  0.59787453  0.31470844
   0.87926422  0.06310591  0.05527763
   0.33830527  0.33065612  0.18258447
   0.58246139  0.21150732  0.12452493
   0.03917599  0.47269800  0.25581676
   0.53665311  0.71700224  0.38802425
   0.09516526  0.72856013  0.12156099
   0.54915002  0.44149228  0.25199233
   0.02785983  0.74282456  0.37895532
   0.76264178  0.11072602  0.31136509
   0.85888103  0.57329750  0.05350623
   0.31207782  0.84723674  0.18037004
   0.56207820  0.72169891  0.12275353
   0.00864756  0.98923837  0.25326470
   0.45037736  0.29103433  0.38218855
   0.79826255  0.32409126  0.18401022
   0.25921802  0.58623209  0.31522261
   0.34617716  0.60305419  0.05647018
   0.25295286  0.14114201  0.31682778
   0.80157391  0.87243765  0.18350707
   0.34617716  0.05624469  0.05647018
   0.95709210  0.31507308  0.38086883
   0.55082074  0.99027680  0.25165983
   0.09516526  0.18175063  0.12156099
   0.34047062  0.60391201  0.02782883
   0.92434681  0.68523651  0.03696881
   0.34363348  0.06399961  0.02783421
   0.88838126  0.05560908  0.02665597
   0.48206778  0.88029188  0.40092510
   0.44317127  0.45552981  0.39187819
   0.04232982  0.69582971  0.40326113
   0.80865995  0.48780607  0.38770129
Direct configuration=    33
   0.22067121  0.89240241  0.08901558
   0.67448858  0.15676395  0.21818426
   0.13888072  0.42810775  0.35042448
   0.94927612  0.02809995  0.15233499
   0.40186990  0.28812875  0.28393943
   0.44927612  0.52809995  0.15233499
   0.90132680  0.29424822  0.28421066
   0.44927612  0.02809995  0.15233499
   0.90419389  0.79123305  0.28382111
   0.90282244  0.55132680  0.10484543
   0.35341142  0.81504966  0.23363162
   0.78988037  0.10561221  0.36379369
   0.99455589  0.50047372  0.20307419
   0.44931530  0.76709880  0.33685494
   0.53851998  0.23347802  0.07318573
   0.79872668  0.59789990  0.31470948
   0.87926422  0.06310591  0.05527763
   0.33832563  0.33064957  0.18258213
   0.58246139  0.21150732  0.12452493
   0.03931696  0.47267478  0.25582135
   0.53657678  0.71696128  0.38802969
   0.09516526  0.72856013  0.12156099
   0.54923930  0.44144854  0.25200145
   0.02772525  0.74292191  0.37894406
   0.76273179  0.11075057  0.31135240
   0.85888103  0.57329750  0.05350623
   0.31205970  0.84722650  0.18036674
   0.56207820  0.72169891  0.12275353
   0.00867133  0.98926472  0.25326774
   0.45028508  0.29121050  0.38217747
   0.79823988  0.32406389  0.18401128
   0.25923341  0.58630243  0.31522350
   0.34617716  0.60305419  0.05647018
   0.25297523  0.14112228  0.31683148
   0.80153493  0.87251058  0.18350854
   0.34617716  0.05624469  0.05647018
   0.95710200  0.31510423  0.38086417
   0.55088282  0.99023662  0.25167079
   0.09516526  0.18175063  0.12156099
   0.34047062  0.60391201  0.02782883
   0.92434681  0.68523651  0.03696881
   0.34363348  0.06399961  0.02783421
   0.88838126  0.05560908  0.02665597
   0.48197813  0.88015726  0.40093848
   0.44306352  0.45564077  0.39184382
   0.04227864  0.69587607  0.40324619
   0.80878069  0.48771345  0.38770329
Direct configuration=    34
   0.22067121  0.89240241  0.08901558
   0.67455216  0.15670745  0.21814714
   0.13884986  0.42839141  0.35041449
   0.94927612  0.02809995  0.15233499
   0.40224576  0.28814868  0.28391355
   0.44927612  0.52809995  0.15233499
   0.90150506  0.29415298  0.28418550
   0.44927612  0.02809995  0.15233499
   0.90445721  0.79129287  0.28379397
   0.90282244  0.55132680  0.10484543
   0.35350421  0.81500330  0.23362074
   0.78968820  0.10589640  0.36379290
   0.99449121  0.50052739  0.20310178
   0.44946212  0.76723237  0.33684853
   0.53851998  0.23347802  0.07318573
   0.79885753  0.59797603  0.31471261
   0.87926422  0.06310591  0.05527763
   0.33838673  0.33062993  0.18257509
   0.58246139  0.21150732  0.12452493
   0.03973986  0.47260513  0.25583510
   0.53634779  0.71683839  0.38804601
   0.09516526  0.72856013  0.12156099
   0.54950712  0.44131731  0.25202881
   0.02732149  0.74321397  0.37891028
   0.76300181  0.11082423  0.31131434
   0.85888103  0.57329750  0.05350623
   0.31200535  0.84719580  0.18035685
   0.56207820  0.72169891  0.12275353
   0.00874264  0.98934377  0.25327686
   0.45000821  0.29173900  0.38214422
   0.79817189  0.32398178  0.18401446
   0.25927960  0.58651346  0.31522617
   0.34617716  0.60305419  0.05647018
   0.25304233  0.14106311  0.31684259
   0.80141799  0.87272937  0.18351292
   0.34617716  0.05624469  0.05647018
   0.95713171  0.31519768  0.38085019
   0.55106904  0.99011610  0.25170367
   0.09516526  0.18175063  0.12156099
   0.34047062  0.60391201  0.02782883
   0.92434681  0.68523651  0.03696881
   0.34363348  0.06399961  0.02783421
   0.88838126  0.05560908  0.02665597
   0.48170917  0.87975340  0.40097862
   0.44274027  0.45597367  0.39174068
   0.04212510  0.69601515  0.40320136
   0.80914292  0.48743558  0.38770930
Direct configuration=    35
   0.22067121  0.89240241  0.08901558
   0.67467931  0.15659445  0.21807292
   0.13878816  0.42895874  0.35039451
   0.94927612  0.02809995  0.15233499
   0.40299747  0.28818855  0.28386180
   0.44927612  0.52809995  0.15233499
   0.90186158  0.29396252  0.28413517
   0.44927612  0.02809995  0.15233499
   0.90498384  0.79141252  0.28373968
   0.90282244  0.55132680  0.10484543
   0.35368978  0.81491060  0.23359898
   0.78930386  0.10646477  0.36379134
   0.99436184  0.50063472  0.20315695
   0.44975575  0.76749949  0.33683572
   0.53851998  0.23347802  0.07318573
   0.79911924  0.59812828  0.31471886
   0.87926422  0.06310591  0.05527763
   0.33850892  0.33059065  0.18256102
   0.58246139  0.21150732  0.12452493
   0.04058566  0.47246584  0.25586260
   0.53588980  0.71659261  0.38807865
   0.09516526  0.72856013  0.12156099
   0.55004278  0.44105485  0.25208354
   0.02651397  0.74379808  0.37884271
   0.76354186  0.11097154  0.31123823
   0.85888103  0.57329750  0.05350623
   0.31189663  0.84713439  0.18033707
   0.56207820  0.72169891  0.12275353
   0.00888526  0.98950188  0.25329511
   0.44945449  0.29279601  0.38207773
   0.79803592  0.32381757  0.18402082
   0.25937197  0.58693553  0.31523150
   0.34617716  0.60305419  0.05647018
   0.25317653  0.14094477  0.31686481
   0.80118413  0.87316695  0.18352170
   0.34617716  0.05624469  0.05647018
   0.95719112  0.31538458  0.38082224
   0.55144149  0.98987506  0.25176942
   0.09516526  0.18175063  0.12156099
   0.34047062  0.60391201  0.02782883
   0.92434681  0.68523651  0.03696881
   0.34363348  0.06399961  0.02783421
   0.88838126  0.05560908  0.02665597
   0.48117124  0.87894567  0.40105890
   0.44209378  0.45663947  0.39153442
   0.04181803  0.69629332  0.40311170
   0.80986736  0.48687985  0.38772132
Direct configuration=    36
   0.22067121  0.89240241  0.08901558
   0.67459864  0.15666614  0.21812001
   0.13882730  0.42859881  0.35040719
   0.94927612  0.02809995  0.15233499
   0.40252057  0.28816326  0.28389463
   0.44927612  0.52809995  0.15233499
   0.90163540  0.29408335  0.28416710
   0.44927612  0.02809995  0.15233499
   0.90464974  0.79133661  0.28377412
   0.90282244  0.55132680  0.10484543
   0.35357205  0.81496941  0.23361279
   0.78954770  0.10610418  0.36379233
   0.99444392  0.50056663  0.20312195
   0.44956946  0.76733002  0.33684385
   0.53851998  0.23347802  0.07318573
   0.79895321  0.59803169  0.31471489
   0.87926422  0.06310591  0.05527763
   0.33843140  0.33061557  0.18256995
   0.58246139  0.21150732  0.12452493
   0.04004907  0.47255421  0.25584515
   0.53618036  0.71674854  0.38805794
   0.09516526  0.72856013  0.12156099
   0.54970295  0.44122136  0.25204882
   0.02702628  0.74342751  0.37888558
   0.76319924  0.11087809  0.31128652
   0.85888103  0.57329750  0.05350623
   0.31196560  0.84717335  0.18034962
   0.56207820  0.72169891  0.12275353
   0.00879478  0.98940158  0.25328353
   0.44980578  0.29212543  0.38211992
   0.79812218  0.32392175  0.18401678
   0.25931337  0.58666776  0.31522812
   0.34617716  0.60305419  0.05647018
   0.25309139  0.14101985  0.31685071
   0.80133250  0.87288934  0.18351613
   0.34617716  0.05624469  0.05647018
   0.95715343  0.31526601  0.38083997
   0.55120520  0.99002798  0.25172770
   0.09516526  0.18175063  0.12156099
   0.34047062  0.60391201  0.02782883
   0.92434681  0.68523651  0.03696881
   0.34363348  0.06399961  0.02783421
   0.88838126  0.05560908  0.02665597
   0.48151251  0.87945811  0.40100797
   0.44250393  0.45621708  0.39166528
   0.04201284  0.69611685  0.40316858
   0.80940776  0.48723242  0.38771369
Direct configuration=    37
   0.22067121  0.89240241  0.08901558
   0.67466466  0.15662018  0.21810543
   0.13878655  0.42873984  0.35039455
   0.94927612  0.02809995  0.15233499
   0.40267117  0.28823340  0.28388271
   0.44927612  0.52809995  0.15233499
   0.90171396  0.29410170  0.28415479
   0.44927612  0.02809995  0.15233499
   0.90478975  0.79133434  0.28375801
   0.90282244  0.55132680  0.10484543
   0.35367136  0.81494451  0.23360844
   0.78943829  0.10626448  0.36378913
   0.99440777  0.50059960  0.20313316
   0.44965326  0.76742115  0.33684815
   0.53851998  0.23347802  0.07318573
   0.79899055  0.59810666  0.31470843
   0.87926422  0.06310591  0.05527763
   0.33850493  0.33058126  0.18255617
   0.58246139  0.21150732  0.12452493
   0.04028056  0.47248898  0.25586065
   0.53605503  0.71666363  0.38805297
   0.09516526  0.72856013  0.12156099
   0.54991852  0.44112345  0.25205491
   0.02678610  0.74359578  0.37885172
   0.76343676  0.11089806  0.31126004
   0.85888103  0.57329750  0.05350623
   0.31197441  0.84711876  0.18033921
   0.56207820  0.72169891  0.12275353
   0.00889146  0.98943328  0.25329229
   0.44964540  0.29213635  0.38208172
   0.79810321  0.32381435  0.18401579
   0.25934580  0.58678039  0.31522993
   0.34617716  0.60305419  0.05647018
   0.25312622  0.14103972  0.31686030
   0.80127468  0.87306868  0.18351542
   0.34617716  0.05624469  0.05647018
   0.95729052  0.31520047  0.38082896
   0.55136639  0.98999930  0.25173854
   0.09516526  0.18175063  0.12156099
   0.34047062  0.60391201  0.02782883
   0.92434681  0.68523651  0.03696881
   0.34363348  0.06399961  0.02783421
   0.88838126  0.05560908  0.02665597
   0.48128127  0.87924317  0.40103390
   0.44231852  0.45673277  0.39162791
   0.04192059  0.69619304  0.40315272
   0.80952788  0.48718936  0.38772400
Direct configuration=    38
   0.22067121  0.89240241  0.08901558
   0.67475411  0.15655792  0.21808569
   0.13873134  0.42893091  0.35037744
   0.94927612  0.02809995  0.15233499
   0.40287522  0.28832844  0.28386657
   0.44927612  0.52809995  0.15233499
   0.90182041  0.29412656  0.28413811
   0.44927612  0.02809995  0.15233499
   0.90497946  0.79133126  0.28373618
   0.90282244  0.55132680  0.10484543
   0.35380592  0.81491077  0.23360256
   0.78929007  0.10648167  0.36378480
   0.99435879  0.50064427  0.20314836
   0.44976679  0.76754461  0.33685398
   0.53851998  0.23347802  0.07318573
   0.79904114  0.59820824  0.31469968
   0.87926422  0.06310591  0.05527763
   0.33860455  0.33053478  0.18253750
   0.58246139  0.21150732  0.12452493
   0.04059419  0.47240061  0.25588164
   0.53588524  0.71654859  0.38804624
   0.09516526  0.72856013  0.12156099
   0.55021059  0.44099079  0.25206316
   0.02646070  0.74382376  0.37880586
   0.76375857  0.11092512  0.31122418
   0.85888103  0.57329750  0.05350623
   0.31198635  0.84704479  0.18032510
   0.56207820  0.72169891  0.12275353
   0.00902246  0.98947623  0.25330414
   0.44942810  0.29215114  0.38202996
   0.79807751  0.32366884  0.18401444
   0.25938974  0.58693299  0.31523238
   0.34617716  0.60305419  0.05647018
   0.25317341  0.14106664  0.31687329
   0.80119636  0.87331166  0.18351447
   0.34617716  0.05624469  0.05647018
   0.95747626  0.31511167  0.38081403
   0.55158477  0.98996044  0.25175322
   0.09516526  0.18175063  0.12156099
   0.34047062  0.60391201  0.02782883
   0.92434681  0.68523651  0.03696881
   0.34363348  0.06399961  0.02783421
   0.88838126  0.05560908  0.02665597
   0.48096796  0.87895196  0.40106902
   0.44206733  0.45743147  0.39157727
   0.04179560  0.69629626  0.40313123
   0.80969063  0.48713103  0.38773795
Direct configuration=    39
   0.22067121  0.89240241  0.08901558
   0.67482719  0.15653057  0.21809085
   0.13867081  0.42900388  0.35034782
   0.94927612  0.02809995  0.15233499
   0.40291308  0.28843890  0.28387346
   0.44927612  0.52809995  0.15233499
   0.90188982  0.29426244  0.28413529
   0.44927612  0.02809995  0.15233499
   0.90508827  0.79130146  0.28372993
   0.90282244  0.55132680  0.10484543
   0.35397621  0.81488558  0.23360181
   0.78916125  0.10667602  0.36376862
   0.99433487  0.50067383  0.20314997
   0.44984017  0.76766888  0.33686009
   0.53851998  0.23347802  0.07318573
   0.79905410  0.59831150  0.31468257
   0.87926422  0.06310591  0.05527763
   0.33864913  0.33050792  0.18252244
   0.58246139  0.21150732  0.12452493
   0.04082395  0.47230093  0.25589461
   0.53578487  0.71639071  0.38803104
   0.09516526  0.72856013  0.12156099
   0.55048974  0.44092281  0.25204891
   0.02624177  0.74391681  0.37879492
   0.76404995  0.11091652  0.31120295
   0.85888103  0.57329750  0.05350623
   0.31203469  0.84696687  0.18031741
   0.56207820  0.72169891  0.12275353
   0.00924019  0.98945773  0.25330509
   0.44921155  0.29243258  0.38200519
   0.79811350  0.32357180  0.18401371
   0.25946107  0.58701682  0.31523043
   0.34617716  0.60305419  0.05647018
   0.25323437  0.14119678  0.31688029
   0.80118931  0.87341360  0.18351164
   0.34617716  0.05624469  0.05647018
   0.95765540  0.31502362  0.38080632
   0.55180682  0.98995907  0.25174789
   0.09516526  0.18175063  0.12156099
   0.34047062  0.60391201  0.02782883
   0.92434681  0.68523651  0.03696881
   0.34363348  0.06399961  0.02783421
   0.88838126  0.05560908  0.02665597
   0.48062495  0.87875991  0.40109938
   0.44192622  0.45777403  0.39153001
   0.04167015  0.69644268  0.40309184
   0.80979247  0.48711822  0.38775162
Direct configuration=    40
   0.22067121  0.89240241  0.08901558
   0.67498390  0.15647190  0.21810190
   0.13854101  0.42916038  0.35028430
   0.94927612  0.02809995  0.15233499
   0.40299428  0.28867579  0.28388825
   0.44927612  0.52809995  0.15233499
   0.90203867  0.29455384  0.28412924
   0.44927612  0.02809995  0.15233499
   0.90532162  0.79123754  0.28371653
   0.90282244  0.55132680  0.10484543
   0.35434139  0.81483156  0.23360021
   0.78888500  0.10709280  0.36373394
   0.99428358  0.50073721  0.20315343
   0.44999756  0.76793537  0.33687318
   0.53851998  0.23347802  0.07318573
   0.79908189  0.59853293  0.31464587
   0.87926422  0.06310591  0.05527763
   0.33874475  0.33045033  0.18249014
   0.58246139  0.21150732  0.12452493
   0.04131666  0.47208716  0.25592243
   0.53556964  0.71605212  0.38799846
   0.09516526  0.72856013  0.12156099
   0.55108839  0.44077700  0.25201836
   0.02577229  0.74411634  0.37877144
   0.76467482  0.11089808  0.31115741
   0.85888103  0.57329750  0.05350623
   0.31213836  0.84679977  0.18030093
   0.56207820  0.72169891  0.12275353
   0.00970714  0.98941807  0.25330712
   0.44874717  0.29303613  0.38195208
   0.79819067  0.32336367  0.18401215
   0.25961403  0.58719659  0.31522626
   0.34617716  0.60305419  0.05647018
   0.25336509  0.14147587  0.31689531
   0.80117420  0.87363221  0.18350558
   0.34617716  0.05624469  0.05647018
   0.95803957  0.31483479  0.38078979
   0.55228299  0.98995614  0.25173648
   0.09516526  0.18175063  0.12156099
   0.34047062  0.60391201  0.02782883
   0.92434681  0.68523651  0.03696881
   0.34363348  0.06399961  0.02783421
   0.88838126  0.05560908  0.02665597
   0.47988936  0.87834807  0.40116449
   0.44162360  0.45850865  0.39142867
   0.04140112  0.69675669  0.40300736
   0.81001086  0.48709074  0.38778092
Direct configuration=    41
   0.22067121  0.89240241  0.08901558
   0.67506481  0.15646175  0.21810940
   0.13846772  0.42923648  0.35026542
   0.94927612  0.02809995  0.15233499
   0.40302694  0.28875015  0.28389544
   0.44927612  0.52809995  0.15233499
   0.90210649  0.29464468  0.28412566
   0.44927612  0.02809995  0.15233499
   0.90540278  0.79125487  0.28371205
   0.90282244  0.55132680  0.10484543
   0.35450037  0.81481769  0.23359970
   0.78878127  0.10724280  0.36371798
   0.99428091  0.50075279  0.20314882
   0.45003441  0.76804724  0.33687362
   0.53851998  0.23347802  0.07318573
   0.79905871  0.59864378  0.31463176
   0.87926422  0.06310591  0.05527763
   0.33873234  0.33044954  0.18248353
   0.58246139  0.21150732  0.12452493
   0.04149800  0.47201211  0.25592668
   0.53547648  0.71600678  0.38799582
   0.09516526  0.72856013  0.12156099
   0.55130169  0.44075744  0.25200332
   0.02558082  0.74422560  0.37873927
   0.76488564  0.11088801  0.31114706
   0.85888103  0.57329750  0.05350623
   0.31218675  0.84674501  0.18030028
   0.56207820  0.72169891  0.12275353
   0.00992060  0.98938062  0.25330610
   0.44858319  0.29337888  0.38194106
   0.79824709  0.32332759  0.18401366
   0.25968991  0.58725829  0.31522148
   0.34617716  0.60305419  0.05647018
   0.25344530  0.14158831  0.31689589
   0.80119952  0.87362882  0.18350481
   0.34617716  0.05624469  0.05647018
   0.95810533  0.31485543  0.38078799
   0.55245367  0.98996522  0.25173004
   0.09516526  0.18175063  0.12156099
   0.34047062  0.60391201  0.02782883
   0.92434681  0.68523651  0.03696881
   0.34363348  0.06399961  0.02783421
   0.88838126  0.05560908  0.02665597
   0.47961758  0.87809658  0.40117976
   0.44153751  0.45866787  0.39138720
   0.04131214  0.69683547  0.40299808
   0.81015670  0.48700014  0.38778819
Direct configuration=    42
   0.22067121  0.89240241  0.08901558
   0.67523907  0.15643988  0.21812554
   0.13830987  0.42940040  0.35022477
   0.94927612  0.02809995  0.15233499
   0.40309731  0.28891031  0.28391094
   0.44927612  0.52809995  0.15233499
   0.90225259  0.29484035  0.28411795
   0.44927612  0.02809995  0.15233499
   0.90557761  0.79129222  0.28370241
   0.90282244  0.55132680  0.10484543
   0.35484281  0.81478781  0.23359860
   0.78855783  0.10756590  0.36368360
   0.99427516  0.50078635  0.20313887
   0.45011380  0.76828822  0.33687457
   0.53851998  0.23347802  0.07318573
   0.79900878  0.59888254  0.31460137
   0.87926422  0.06310591  0.05527763
   0.33870561  0.33044785  0.18246929
   0.58246139  0.21150732  0.12452493
   0.04188860  0.47185044  0.25593583
   0.53527582  0.71590913  0.38799015
   0.09516526  0.72856013  0.12156099
   0.55176114  0.44071530  0.25197093
   0.02516841  0.74446095  0.37866996
   0.76533974  0.11086634  0.31112477
   0.85888103  0.57329750  0.05350623
   0.31229098  0.84662705  0.18029888
   0.56207820  0.72169891  0.12275353
   0.01038040  0.98929994  0.25330388
   0.44822996  0.29411717  0.38191732
   0.79836864  0.32324985  0.18401690
   0.25985335  0.58739118  0.31521119
   0.34617716  0.60305419  0.05647018
   0.25361808  0.14183051  0.31689714
   0.80125406  0.87362152  0.18350314
   0.34617716  0.05624469  0.05647018
   0.95824697  0.31489989  0.38078410
   0.55282133  0.98998479  0.25171615
   0.09516526  0.18175063  0.12156099
   0.34047062  0.60391201  0.02782883
   0.92434681  0.68523651  0.03696881
   0.34363348  0.06399961  0.02783421
   0.88838126  0.05560908  0.02665597
   0.47903216  0.87755485  0.40121266
   0.44135208  0.45901082  0.39129787
   0.04112046  0.69700517  0.40297810
   0.81047085  0.48680498  0.38780387
Direct configuration=    43
   0.22067121  0.89240241  0.08901558
   0.67534729  0.15644025  0.21812621
   0.13824546  0.42950973  0.35022613
   0.94927612  0.02809995  0.15233499
   0.40318516  0.28892150  0.28390703
   0.44927612  0.52809995  0.15233499
   0.90232700  0.29481248  0.28410767
   0.44927612  0.02809995  0.15233499
   0.90564253  0.79137895  0.28369466
   0.90282244  0.55132680  0.10484543
   0.35497034  0.81479116  0.23359680
   0.78847062  0.10767149  0.36367343
   0.99430643  0.50078025  0.20312999
   0.45010043  0.76837065  0.33686841
   0.53851998  0.23347802  0.07318573
   0.79894913  0.59898589  0.31459580
   0.87926422  0.06310591  0.05527763
   0.33863064  0.33047811  0.18247467
   0.58246139  0.21150732  0.12452493
   0.04198779  0.47184086  0.25592714
   0.53525201  0.71585873  0.38798986
   0.09516526  0.72856013  0.12156099
   0.55184538  0.44075673  0.25196511
   0.02504944  0.74451705  0.37865349
   0.76540484  0.11087060  0.31112873
   0.85888103  0.57329750  0.05350623
   0.31232692  0.84661779  0.18030698
   0.56207820  0.72169891  0.12275353
   0.01054459  0.98925542  0.25330425
   0.44818166  0.29418854  0.38190505
   0.79843384  0.32328998  0.18402022
   0.25991993  0.58742933  0.31520387
   0.34617716  0.60305419  0.05647018
   0.25371772  0.14186979  0.31688959
   0.80130588  0.87350642  0.18350557
   0.34617716  0.05624469  0.05647018
   0.95820398  0.31498186  0.38078608
   0.55289517  0.99001018  0.25171576
   0.09516526  0.18175063  0.12156099
   0.34047062  0.60391201  0.02782883
   0.92434681  0.68523651  0.03696881
   0.34363348  0.06399961  0.02783421
   0.88838126  0.05560908  0.02665597
   0.47881045  0.87743194  0.40122333
   0.44131583  0.45921874  0.39128306
   0.04105901  0.69706900  0.40296681
   0.81061328  0.48668147  0.38780521
Direct configuration=    44
   0.22067121  0.89240241  0.08901558
   0.67567194  0.15644138  0.21812820
   0.13805225  0.42983771  0.35023021
   0.94927612  0.02809995  0.15233499
   0.40344871  0.28895510  0.28389531
   0.44927612  0.52809995  0.15233499
   0.90255024  0.29472886  0.28407683
   0.44927612  0.02809995  0.15233499
   0.90583730  0.79163913  0.28367140
   0.90282244  0.55132680  0.10484543
   0.35535295  0.81480120  0.23359140
   0.78820898  0.10798828  0.36364294
   0.99440024  0.50076194  0.20310337
   0.45006034  0.76861792  0.33684993
   0.53851998  0.23347802  0.07318573
   0.79877020  0.59929595  0.31457908
   0.87926422  0.06310591  0.05527763
   0.33840573  0.33056887  0.18249084
   0.58246139  0.21150732  0.12452493
   0.04228536  0.47181210  0.25590106
   0.53518058  0.71570753  0.38798897
   0.09516526  0.72856013  0.12156099
   0.55209811  0.44088101  0.25194767
   0.02469254  0.74468533  0.37860410
   0.76560013  0.11088339  0.31114062
   0.85888103  0.57329750  0.05350623
   0.31243474  0.84659001  0.18033129
   0.56207820  0.72169891  0.12275353
   0.01103716  0.98912185  0.25330535
   0.44803677  0.29440263  0.38186827
   0.79862945  0.32341036  0.18403018
   0.26011965  0.58754380  0.31518191
   0.34617716  0.60305419  0.05647018
   0.25401662  0.14198766  0.31686692
   0.80146134  0.87316111  0.18351287
   0.34617716  0.05624469  0.05647018
   0.95807502  0.31522777  0.38079203
   0.55311668  0.99008636  0.25171458
   0.09516526  0.18175063  0.12156099
   0.34047062  0.60391201  0.02782883
   0.92434681  0.68523651  0.03696881
   0.34363348  0.06399961  0.02783421
   0.88838126  0.05560908  0.02665597
   0.47814532  0.87706322  0.40125534
   0.44120708  0.45984251  0.39123862
   0.04087465  0.69726050  0.40293294
   0.81104059  0.48631095  0.38780923
Direct configuration=    45
   0.22067121  0.89240241  0.08901558
   0.67585396  0.15643177  0.21811881
   0.13803911  0.42997172  0.35022939
   0.94927612  0.02809995  0.15233499
   0.40361152  0.28897192  0.28387934
   0.44927612  0.52809995  0.15233499
   0.90266621  0.29470546  0.28406331
   0.44927612  0.02809995  0.15233499
   0.90594093  0.79167988  0.28366124
   0.90282244  0.55132680  0.10484543
   0.35554803  0.81482484  0.23358684
   0.78808015  0.10813772  0.36363520
   0.99449353  0.50073004  0.20309384
   0.45001566  0.76872443  0.33683666
   0.53851998  0.23347802  0.07318573
   0.79873099  0.59940047  0.31456856
   0.87926422  0.06310591  0.05527763
   0.33834936  0.33059254  0.18250015
   0.58246139  0.21150732  0.12452493
   0.04234901  0.47188592  0.25588093
   0.53517443  0.71555733  0.38798157
   0.09516526  0.72856013  0.12156099
   0.55215358  0.44095570  0.25194907
   0.02455768  0.74475851  0.37861212
   0.76559578  0.11092820  0.31114867
   0.85888103  0.57329750  0.05350623
   0.31248302  0.84661830  0.18034392
   0.56207820  0.72169891  0.12275353
   0.01124137  0.98907065  0.25330354
   0.44800455  0.29453667  0.38186071
   0.79871581  0.32346633  0.18403080
   0.26019144  0.58757039  0.31517108
   0.34617716  0.60305419  0.05647018
   0.25413981  0.14204259  0.31685361
   0.80153027  0.87303218  0.18351593
   0.34617716  0.05624469  0.05647018
   0.95821672  0.31503783  0.38078354
   0.55317975  0.99014730  0.25171884
   0.09516526  0.18175063  0.12156099
   0.34047062  0.60391201  0.02782883
   0.92434681  0.68523651  0.03696881
   0.34363348  0.06399961  0.02783421
   0.88838126  0.05560908  0.02665597
   0.47776193  0.87706515  0.40127820
   0.44121618  0.46001278  0.39122086
   0.04077958  0.69739171  0.40289755
   0.81101495  0.48639037  0.38782147
