Mn  O  H                                
   1.00000000000000     
     2.8735734950000000   -2.8735734950000000    4.7083351100000002
     5.7471469900000001    0.0000000000000000    0.0000000000000000
     0.0000000000000000   33.0656910066415008   20.1805290088081009
   Mn   O    H 
    13    22     9
Selective dynamics
Direct
  0.2206712106837827  0.8924024101981232  0.0890155841539979   F   F   F
  0.6810158079542910  0.1555173655627159  0.2181502267000711   T   T   T
  0.9492761232251894  0.0280999539274163  0.1523349856625060   F   F   F
  0.3772432052544305  0.2989405737804632  0.2833221823145170   T   T   T
  0.4492761232251894  0.5280999539274163  0.1523349856625060   F   F   F
  0.8877942619635932  0.2879367064395576  0.2837235961704274   T   T   T
  0.4492761232251894  0.0280999539274163  0.1523349856625060   F   F   F
  0.8805608825581157  0.7920942117783693  0.2834908258986574   T   T   T
  0.9028224388191362  0.5513267961304464  0.1048454345311214   F   F   F
  0.3552224393402624  0.8092037797349030  0.2342648315866249   T   T   T
  0.9946507832446162  0.5034907595052385  0.2029817475612378   T   T   T
  0.3548187480662240  0.8634556456277053  0.3410692455006810   T   T   T
  0.5385199825484293  0.2334780242657999  0.0731857337768673   F   F   F
  0.7402499076231969  0.6136160560400837  0.3143214337607766   T   T   T
  0.8792642171272149  0.0631059069764035  0.0552776342656358   F   F   F
  0.3408214786467236  0.3332863656582462  0.1834383554884131   T   T   T
  0.5824613929758371  0.2115073190520960  0.1245249348239739   F   F   F
  0.0295771236854369  0.4783627255904619  0.2563310437706242   T   T   T
  0.4379095197196630  0.6425540202627746  0.3803265436466793   T   T   T
  0.0951652613222294  0.7285601348788973  0.1215609852990625   F   F   F
  0.5762856125036896  0.4368160249560696  0.2546482002929417   T   T   T
  0.7317424100199997  0.1115356685556850  0.3110414637554270   T   T   T
  0.8588810283917283  0.5732975013441504  0.0535062334840219   F   F   F
  0.3124268122348660  0.8452279380394671  0.1808900390022045   T   T   T
  0.5620782042403505  0.7216989134198428  0.1227535340423529   F   F   F
  0.0062141036024766  0.9749828837654753  0.2540312937407669   T   T   T
  0.7999142274311603  0.3257106038151421  0.1848180825091983   T   T   T
  0.2329206172514327  0.6247180142219839  0.3205599960652379   T   T   T
  0.3461771600453361  0.6030541855173510  0.0564701830089334   F   F   F
  0.1896443292298796  0.1410366992385386  0.3081114042769145   T   T   T
  0.7998173840661422  0.8738338911475626  0.1834638771236813   T   T   T
  0.3461771600453361  0.0562446855173491  0.0564701830089334   F   F   F
  0.5527008259830177  0.9873876406358186  0.2498977650052226   T   T   T
  0.0951652613222294  0.1817506348788953  0.1215609852990625   F   F   F
  0.4716022900687145  0.0955048099794043  0.3609496110425991   T   T   T
  0.3404706169097480  0.6039120138460916  0.0278288297643030   F   F   F
  0.9243468113422040  0.6852365052266407  0.0369688146645331   F   F   F
  0.3436334761770041  0.0639996102436484  0.0278342118600037   F   F   F
  0.8883812645227351  0.0556090842097916  0.0266559720288981   F   F   F
  0.4731677596975065  0.7186315063578591  0.4005965888060014   T   T   T
  0.6648773451591466  0.1108887009240813  0.3351291684425366   T   T   T
  0.8300956280262418  0.5554833646251051  0.3359678913727389   T   T   T
  0.2507928934939352  0.5101312765214903  0.3405115519875401   T   T   T
  0.5244831793607788  0.0713275466837320  0.3848658526480787   T   T   T
 
  0.00000000E+00  0.00000000E+00  0.00000000E+00
  0.00000000E+00  0.00000000E+00  0.00000000E+00
  0.00000000E+00  0.00000000E+00  0.00000000E+00
  0.00000000E+00  0.00000000E+00  0.00000000E+00
  0.00000000E+00  0.00000000E+00  0.00000000E+00
  0.00000000E+00  0.00000000E+00  0.00000000E+00
  0.00000000E+00  0.00000000E+00  0.00000000E+00
  0.00000000E+00  0.00000000E+00  0.00000000E+00
  0.00000000E+00  0.00000000E+00  0.00000000E+00
  0.00000000E+00  0.00000000E+00  0.00000000E+00
  0.00000000E+00  0.00000000E+00  0.00000000E+00
  0.00000000E+00  0.00000000E+00  0.00000000E+00
  0.00000000E+00  0.00000000E+00  0.00000000E+00
  0.00000000E+00  0.00000000E+00  0.00000000E+00
  0.00000000E+00  0.00000000E+00  0.00000000E+00
  0.00000000E+00  0.00000000E+00  0.00000000E+00
  0.00000000E+00  0.00000000E+00  0.00000000E+00
  0.00000000E+00  0.00000000E+00  0.00000000E+00
  0.00000000E+00  0.00000000E+00  0.00000000E+00
  0.00000000E+00  0.00000000E+00  0.00000000E+00
  0.00000000E+00  0.00000000E+00  0.00000000E+00
  0.00000000E+00  0.00000000E+00  0.00000000E+00
  0.00000000E+00  0.00000000E+00  0.00000000E+00
  0.00000000E+00  0.00000000E+00  0.00000000E+00
  0.00000000E+00  0.00000000E+00  0.00000000E+00
  0.00000000E+00  0.00000000E+00  0.00000000E+00
  0.00000000E+00  0.00000000E+00  0.00000000E+00
  0.00000000E+00  0.00000000E+00  0.00000000E+00
  0.00000000E+00  0.00000000E+00  0.00000000E+00
  0.00000000E+00  0.00000000E+00  0.00000000E+00
  0.00000000E+00  0.00000000E+00  0.00000000E+00
  0.00000000E+00  0.00000000E+00  0.00000000E+00
  0.00000000E+00  0.00000000E+00  0.00000000E+00
  0.00000000E+00  0.00000000E+00  0.00000000E+00
  0.00000000E+00  0.00000000E+00  0.00000000E+00
  0.00000000E+00  0.00000000E+00  0.00000000E+00
  0.00000000E+00  0.00000000E+00  0.00000000E+00
  0.00000000E+00  0.00000000E+00  0.00000000E+00
  0.00000000E+00  0.00000000E+00  0.00000000E+00
  0.00000000E+00  0.00000000E+00  0.00000000E+00
  0.00000000E+00  0.00000000E+00  0.00000000E+00
  0.00000000E+00  0.00000000E+00  0.00000000E+00
  0.00000000E+00  0.00000000E+00  0.00000000E+00
  0.00000000E+00  0.00000000E+00  0.00000000E+00
