unknown system                          
           1
     2.873573   -2.873573    4.708335
     5.747147    0.000000    0.000000
     0.000000   33.065691   20.180529
   Mn   O    H 
  13  22   9
Direct configuration=     1
   0.22067121  0.89240241  0.08901558
   0.68101581  0.15551737  0.21815023
   0.94927612  0.02809995  0.15233499
   0.37724321  0.29894057  0.28332218
   0.44927612  0.52809995  0.15233499
   0.88779426  0.28793671  0.28372360
   0.44927612  0.02809995  0.15233499
   0.88056088  0.79209421  0.28349083
   0.90282244  0.55132680  0.10484543
   0.35522244  0.80920378  0.23426483
   0.99465078  0.50349076  0.20298175
   0.35481875  0.86345565  0.34106925
   0.53851998  0.23347802  0.07318573
   0.74024991  0.61361606  0.31432143
   0.87926422  0.06310591  0.05527763
   0.34082148  0.33328637  0.18343836
   0.58246139  0.21150732  0.12452493
   0.02957712  0.47836273  0.25633104
   0.43790952  0.64255402  0.38032654
   0.09516526  0.72856013  0.12156099
   0.57628561  0.43681602  0.25464820
   0.73174241  0.11153567  0.31104146
   0.85888103  0.57329750  0.05350623
   0.31242681  0.84522794  0.18089004
   0.56207820  0.72169891  0.12275353
   0.00621410  0.97498288  0.25403129
   0.79991423  0.32571060  0.18481808
   0.23292062  0.62471801  0.32056000
   0.34617716  0.60305419  0.05647018
   0.18964433  0.14103670  0.30811140
   0.79981738  0.87383389  0.18346388
   0.34617716  0.05624469  0.05647018
   0.55270083  0.98738764  0.24989777
   0.09516526  0.18175063  0.12156099
   0.47160229  0.09550481  0.36094961
   0.34047062  0.60391201  0.02782883
   0.92434681  0.68523651  0.03696881
   0.34363348  0.06399961  0.02783421
   0.88838126  0.05560908  0.02665597
   0.47316776  0.71863151  0.40059659
   0.66487735  0.11088870  0.33512917
   0.83009563  0.55548336  0.33596789
   0.25079289  0.51013128  0.34051155
   0.52448318  0.07132755  0.38486585
Direct configuration=     2
   0.22067121  0.89240241  0.08901558
   0.67902226  0.15502131  0.21851884
   0.94927612  0.02809995  0.15233499
   0.37661490  0.30122142  0.28342746
   0.44927612  0.52809995  0.15233499
   0.88912636  0.28651549  0.28341549
   0.44927612  0.02809995  0.15233499
   0.88090837  0.79238837  0.28341693
   0.90282244  0.55132680  0.10484543
   0.35653623  0.80889240  0.23447852
   0.99453227  0.50417606  0.20317410
   0.35555094  0.86388227  0.34093227
   0.53851998  0.23347802  0.07318573
   0.73704476  0.61944580  0.31481642
   0.87926422  0.06310591  0.05527763
   0.34181914  0.33170884  0.18312397
   0.58246139  0.21150732  0.12452493
   0.03151543  0.48399011  0.25597045
   0.43667635  0.64606230  0.37963292
   0.09516526  0.72856013  0.12156099
   0.58050118  0.43704887  0.25418707
   0.72910263  0.10899159  0.31161369
   0.85888103  0.57329750  0.05350623
   0.31308133  0.84560694  0.18070450
   0.56207820  0.72169891  0.12275353
   0.00718230  0.96967784  0.25365587
   0.80067423  0.32338684  0.18448635
   0.23270622  0.62649197  0.32084249
   0.34617716  0.60305419  0.05647018
   0.18903374  0.13590089  0.30897482
   0.80038199  0.87495319  0.18318291
   0.34617716  0.05624469  0.05647018
   0.55472786  0.98489794  0.24946772
   0.09516526  0.18175063  0.12156099
   0.47126094  0.09394062  0.36073982
   0.34047062  0.60391201  0.02782883
   0.92434681  0.68523651  0.03696881
   0.34363348  0.06399961  0.02783421
   0.88838126  0.05560908  0.02665597
   0.47327898  0.71851712  0.40049067
   0.66388856  0.10927451  0.33512851
   0.83010760  0.55642414  0.33593839
   0.25084545  0.51061012  0.34039627
   0.52388714  0.07156790  0.38474409
Direct configuration=     3
   0.22067121  0.89240241  0.08901558
   0.67897135  0.15500864  0.21852825
   0.94927612  0.02809995  0.15233499
   0.37659885  0.30127966  0.28343014
   0.44927612  0.52809995  0.15233499
   0.88916037  0.28647920  0.28340762
   0.44927612  0.02809995  0.15233499
   0.88091725  0.79239588  0.28341504
   0.90282244  0.55132680  0.10484543
   0.35656978  0.80888445  0.23448398
   0.99452924  0.50419356  0.20317901
   0.35556964  0.86389316  0.34092877
   0.53851998  0.23347802  0.07318573
   0.73696291  0.61959467  0.31482906
   0.87926422  0.06310591  0.05527763
   0.34184461  0.33166855  0.18311595
   0.58246139  0.21150732  0.12452493
   0.03156493  0.48413381  0.25596124
   0.43664486  0.64615189  0.37961520
   0.09516526  0.72856013  0.12156099
   0.58060883  0.43705481  0.25417529
   0.72903522  0.10892663  0.31162831
   0.85888103  0.57329750  0.05350623
   0.31309804  0.84561662  0.18069976
   0.56207820  0.72169891  0.12275353
   0.00720702  0.96954237  0.25364628
   0.80069364  0.32332750  0.18447788
   0.23270075  0.62653727  0.32084971
   0.34617716  0.60305419  0.05647018
   0.18901815  0.13576974  0.30899687
   0.80039641  0.87498177  0.18317574
   0.34617716  0.05624469  0.05647018
   0.55477962  0.98483436  0.24945674
   0.09516526  0.18175063  0.12156099
   0.47125222  0.09390068  0.36073446
   0.34047062  0.60391201  0.02782883
   0.92434681  0.68523651  0.03696881
   0.34363348  0.06399961  0.02783421
   0.88838126  0.05560908  0.02665597
   0.47328182  0.71851420  0.40048796
   0.66386331  0.10923329  0.33512850
   0.83010791  0.55644816  0.33593764
   0.25084679  0.51062234  0.34039333
   0.52387192  0.07157404  0.38474098
Direct configuration=     4
   0.22067121  0.89240241  0.08901558
   0.67844051  0.15432775  0.21858273
   0.94927612  0.02809995  0.15233499
   0.37673621  0.30173048  0.28353212
   0.44927612  0.52809995  0.15233499
   0.89032267  0.28494706  0.28333162
   0.44927612  0.02809995  0.15233499
   0.88064682  0.79280591  0.28359423
   0.90282244  0.55132680  0.10484543
   0.35663193  0.80897950  0.23465936
   0.99425502  0.50489922  0.20333010
   0.35708019  0.86226025  0.34096181
   0.53851998  0.23347802  0.07318573
   0.73385837  0.62447357  0.31495819
   0.87926422  0.06310591  0.05527763
   0.34227524  0.33039153  0.18277094
   0.58246139  0.21150732  0.12452493
   0.03450657  0.48941734  0.25559472
   0.43637762  0.64979170  0.37962190
   0.09516526  0.72856013  0.12156099
   0.58259304  0.43589641  0.25399058
   0.72798505  0.10678125  0.31153040
   0.85888103  0.57329750  0.05350623
   0.31366580  0.84589168  0.18047808
   0.56207820  0.72169891  0.12275353
   0.00811217  0.96579487  0.25324089
   0.80147928  0.32127013  0.18413874
   0.23232408  0.62834233  0.32074670
   0.34617716  0.60305419  0.05647018
   0.18879774  0.13551316  0.30908578
   0.80099489  0.87565133  0.18282648
   0.34617716  0.05624469  0.05647018
   0.55557537  0.98413200  0.24931144
   0.09516526  0.18175063  0.12156099
   0.47057590  0.09310167  0.36083231
   0.34047062  0.60391201  0.02782883
   0.92434681  0.68523651  0.03696881
   0.34363348  0.06399961  0.02783421
   0.88838126  0.05560908  0.02665597
   0.47293037  0.71725248  0.40007936
   0.66170861  0.10689482  0.33560636
   0.83092904  0.55705828  0.33613600
   0.25104362  0.50992395  0.34055188
   0.52295761  0.07177546  0.38454692
Direct configuration=     5
   0.22067121  0.89240241  0.08901558
   0.67844324  0.15433125  0.21858245
   0.94927612  0.02809995  0.15233499
   0.37673551  0.30172816  0.28353160
   0.44927612  0.52809995  0.15233499
   0.89031669  0.28495495  0.28333202
   0.44927612  0.02809995  0.15233499
   0.88064821  0.79280380  0.28359331
   0.90282244  0.55132680  0.10484543
   0.35663161  0.80897901  0.23465846
   0.99425644  0.50489559  0.20332932
   0.35707242  0.86226866  0.34096164
   0.53851998  0.23347802  0.07318573
   0.73387435  0.62444845  0.31495753
   0.87926422  0.06310591  0.05527763
   0.34227302  0.33039810  0.18277272
   0.58246139  0.21150732  0.12452493
   0.03449143  0.48939015  0.25559661
   0.43637899  0.64977297  0.37962187
   0.09516526  0.72856013  0.12156099
   0.58258282  0.43590237  0.25399153
   0.72799045  0.10679229  0.31153090
   0.85888103  0.57329750  0.05350623
   0.31366288  0.84589027  0.18047922
   0.56207820  0.72169891  0.12275353
   0.00810751  0.96581416  0.25324298
   0.80147524  0.32128072  0.18414049
   0.23232602  0.62833304  0.32074723
   0.34617716  0.60305419  0.05647018
   0.18879887  0.13551448  0.30908532
   0.80099181  0.87564788  0.18282827
   0.34617716  0.05624469  0.05647018
   0.55557128  0.98413562  0.24931219
   0.09516526  0.18175063  0.12156099
   0.47057938  0.09310579  0.36083180
   0.34047062  0.60391201  0.02782883
   0.92434681  0.68523651  0.03696881
   0.34363348  0.06399961  0.02783421
   0.88838126  0.05560908  0.02665597
   0.47293218  0.71725897  0.40008147
   0.66171970  0.10690686  0.33560390
   0.83092481  0.55705514  0.33613498
   0.25104261  0.50992755  0.34055107
   0.52296232  0.07177442  0.38454792
Direct configuration=     6
   0.22067121  0.89240241  0.08901558
   0.67863432  0.15457635  0.21856284
   0.94927612  0.02809995  0.15233499
   0.37668606  0.30156588  0.28349489
   0.44927612  0.52809995  0.15233499
   0.88989831  0.28550646  0.28335937
   0.44927612  0.02809995  0.15233499
   0.88074555  0.79265620  0.28352881
   0.90282244  0.55132680  0.10484543
   0.35660924  0.80894480  0.23459533
   0.99435514  0.50464157  0.20327493
   0.35652867  0.86285644  0.34094975
   0.53851998  0.23347802  0.07318573
   0.73499187  0.62269223  0.31491105
   0.87926422  0.06310591  0.05527763
   0.34211801  0.33085778  0.18289691
   0.58246139  0.21150732  0.12452493
   0.03343254  0.48748827  0.25572854
   0.43647519  0.64846277  0.37961946
   0.09516526  0.72856013  0.12156099
   0.58186858  0.43631935  0.25405802
   0.72836848  0.10756455  0.31156615
   0.85888103  0.57329750  0.05350623
   0.31345851  0.84579126  0.18055901
   0.56207820  0.72169891  0.12275353
   0.00778169  0.96716312  0.25338890
   0.80119243  0.32202130  0.18426256
   0.23246160  0.62768328  0.32078431
   0.34617716  0.60305419  0.05647018
   0.18887821  0.13560684  0.30905332
   0.80077638  0.87540687  0.18295400
   0.34617716  0.05624469  0.05647018
   0.55528484  0.98438844  0.24936449
   0.09516526  0.18175063  0.12156099
   0.47082283  0.09339340  0.36079658
   0.34047062  0.60391201  0.02782883
   0.92434681  0.68523651  0.03696881
   0.34363348  0.06399961  0.02783421
   0.88838126  0.05560908  0.02665597
   0.47305869  0.71771315  0.40022855
   0.66249531  0.10774862  0.33543189
   0.83062923  0.55683552  0.33606358
   0.25097176  0.51017894  0.34049399
   0.52329143  0.07170192  0.38461777
Direct configuration=     7
   0.22067121  0.89240241  0.08901558
   0.67924267  0.15408812  0.21812406
   0.94927612  0.02809995  0.15233499
   0.37669560  0.30170887  0.28355263
   0.44927612  0.52809995  0.15233499
   0.89065267  0.28482669  0.28329389
   0.44927612  0.02809995  0.15233499
   0.88032110  0.79307095  0.28363228
   0.90282244  0.55132680  0.10484543
   0.35674435  0.80876121  0.23452991
   0.99391523  0.50510232  0.20313618
   0.35706562  0.86214568  0.34090232
   0.53851998  0.23347802  0.07318573
   0.73395337  0.62439631  0.31502889
   0.87926422  0.06310591  0.05527763
   0.34165315  0.33063218  0.18284898
   0.58246139  0.21150732  0.12452493
   0.03551869  0.48906592  0.25574194
   0.43578941  0.64889532  0.37948305
   0.09516526  0.72856013  0.12156099
   0.58416225  0.43553634  0.25398724
   0.72786558  0.10742634  0.31139345
   0.85888103  0.57329750  0.05350623
   0.31375396  0.84573352  0.18058620
   0.56207820  0.72169891  0.12275353
   0.00809239  0.96598277  0.25324531
   0.80151182  0.32150553  0.18427700
   0.23219995  0.62806344  0.32088513
   0.34617716  0.60305419  0.05647018
   0.18794706  0.13596676  0.30900735
   0.80099058  0.87514724  0.18290799
   0.34617716  0.05624469  0.05647018
   0.55560415  0.98367313  0.24937733
   0.09516526  0.18175063  0.12156099
   0.47006549  0.09364821  0.36080382
   0.34047062  0.60391201  0.02782883
   0.92434681  0.68523651  0.03696881
   0.34363348  0.06399961  0.02783421
   0.88838126  0.05560908  0.02665597
   0.47339217  0.71805021  0.40025084
   0.66100679  0.10585089  0.33574801
   0.83056123  0.55779313  0.33608195
   0.25094397  0.51065573  0.34047659
   0.52299534  0.07165708  0.38467332
Direct configuration=     8
   0.22067121  0.89240241  0.08901558
   0.67934531  0.15400575  0.21805003
   0.94927612  0.02809995  0.15233499
   0.37669721  0.30173300  0.28356237
   0.44927612  0.52809995  0.15233499
   0.89077994  0.28471200  0.28328284
   0.44927612  0.02809995  0.15233499
   0.88024949  0.79314092  0.28364974
   0.90282244  0.55132680  0.10484543
   0.35676715  0.80873024  0.23451887
   0.99384101  0.50518005  0.20311278
   0.35715621  0.86202576  0.34089432
   0.53851998  0.23347802  0.07318573
   0.73377816  0.62468381  0.31504877
   0.87926422  0.06310591  0.05527763
   0.34157472  0.33059412  0.18284090
   0.58246139  0.21150732  0.12452493
   0.03587065  0.48933210  0.25574420
   0.43567371  0.64896830  0.37946003
   0.09516526  0.72856013  0.12156099
   0.58454923  0.43540423  0.25397530
   0.72778074  0.10740303  0.31136431
   0.85888103  0.57329750  0.05350623
   0.31380381  0.84572377  0.18059078
   0.56207820  0.72169891  0.12275353
   0.00814481  0.96578363  0.25322109
   0.80156570  0.32141851  0.18427943
   0.23215581  0.62812758  0.32090214
   0.34617716  0.60305419  0.05647018
   0.18778996  0.13602748  0.30899959
   0.80102672  0.87510343  0.18290023
   0.34617716  0.05624469  0.05647018
   0.55565802  0.98355245  0.24937949
   0.09516526  0.18175063  0.12156099
   0.46993772  0.09369120  0.36080504
   0.34047062  0.60391201  0.02782883
   0.92434681  0.68523651  0.03696881
   0.34363348  0.06399961  0.02783421
   0.88838126  0.05560908  0.02665597
   0.47344843  0.71810708  0.40025460
   0.66075565  0.10553072  0.33580134
   0.83054976  0.55795469  0.33608505
   0.25093928  0.51073617  0.34047366
   0.52294538  0.07164951  0.38468269
Direct configuration=     9
   0.22067121  0.89240241  0.08901558
   0.67994766  0.15348152  0.21770065
   0.94927612  0.02809995  0.15233499
   0.37719570  0.30132016  0.28350937
   0.44927612  0.52809995  0.15233499
   0.89119050  0.28469886  0.28314251
   0.44927612  0.02809995  0.15233499
   0.87994679  0.79355262  0.28363882
   0.90282244  0.55132680  0.10484543
   0.35678514  0.80842958  0.23439632
   0.99349248  0.50544176  0.20294578
   0.35739989  0.86162959  0.34075816
   0.53851998  0.23347802  0.07318573
   0.73341462  0.62515437  0.31517040
   0.87926422  0.06310591  0.05527763
   0.34086404  0.33079714  0.18287928
   0.58246139  0.21150732  0.12452493
   0.03771158  0.48906574  0.25589816
   0.43533790  0.64880525  0.37956303
   0.09516526  0.72856013  0.12156099
   0.58628585  0.43435194  0.25398232
   0.72609613  0.10830876  0.31162870
   0.85888103  0.57329750  0.05350623
   0.31401678  0.84547939  0.18067476
   0.56207820  0.72169891  0.12275353
   0.00822969  0.96570078  0.25316638
   0.80182710  0.32159012  0.18435363
   0.23188976  0.62837003  0.32091321
   0.34617716  0.60305419  0.05647018
   0.18743633  0.13697675  0.30888921
   0.80113715  0.87434155  0.18288298
   0.34617716  0.05624469  0.05647018
   0.55573469  0.98359643  0.24944012
   0.09516526  0.18175063  0.12156099
   0.46968731  0.09436684  0.36085742
   0.34047062  0.60391201  0.02782883
   0.92434681  0.68523651  0.03696881
   0.34363348  0.06399961  0.02783421
   0.88838126  0.05560908  0.02665597
   0.47361735  0.71826858  0.40019365
   0.66007215  0.10376035  0.33571282
   0.83015138  0.55910661  0.33604615
   0.25088613  0.51100023  0.34052220
   0.52264093  0.07162022  0.38473817
Direct configuration=    10
   0.22067121  0.89240241  0.08901558
   0.68022521  0.15323996  0.21753966
   0.94927612  0.02809995  0.15233499
   0.37742539  0.30112993  0.28348495
   0.44927612  0.52809995  0.15233499
   0.89137968  0.28469281  0.28307785
   0.44927612  0.02809995  0.15233499
   0.87980731  0.79374233  0.28363379
   0.90282244  0.55132680  0.10484543
   0.35679343  0.80829104  0.23433986
   0.99333189  0.50556236  0.20286883
   0.35751217  0.86144703  0.34069542
   0.53851998  0.23347802  0.07318573
   0.73324711  0.62537120  0.31522645
   0.87926422  0.06310591  0.05527763
   0.34053656  0.33089070  0.18289696
   0.58246139  0.21150732  0.12452493
   0.03855987  0.48894300  0.25596910
   0.43518315  0.64873012  0.37961049
   0.09516526  0.72856013  0.12156099
   0.58708607  0.43386706  0.25398556
   0.72531987  0.10872611  0.31175053
   0.85888103  0.57329750  0.05350623
   0.31411492  0.84536678  0.18071346
   0.56207820  0.72169891  0.12275353
   0.00826880  0.96566261  0.25314117
   0.80194755  0.32166920  0.18438782
   0.23176716  0.62848175  0.32091831
   0.34617716  0.60305419  0.05647018
   0.18727338  0.13741416  0.30883834
   0.80118804  0.87399047  0.18287503
   0.34617716  0.05624469  0.05647018
   0.55577002  0.98361670  0.24946806
   0.09516526  0.18175063  0.12156099
   0.46957192  0.09467817  0.36088155
   0.34047062  0.60391201  0.02782883
   0.92434681  0.68523651  0.03696881
   0.34363348  0.06399961  0.02783421
   0.88838126  0.05560908  0.02665597
   0.47369519  0.71834300  0.40016556
   0.65975720  0.10294457  0.33567204
   0.82996782  0.55963740  0.33602822
   0.25086165  0.51112191  0.34054457
   0.52250064  0.07160672  0.38476373
Direct configuration=    11
   0.22067121  0.89240241  0.08901558
   0.68052370  0.15273051  0.21740431
   0.94927612  0.02809995  0.15233499
   0.37828633  0.30023258  0.28336986
   0.44927612  0.52809995  0.15233499
   0.89142850  0.28480414  0.28296090
   0.44927612  0.02809995  0.15233499
   0.87947862  0.79433887  0.28362886
   0.90282244  0.55132680  0.10484543
   0.35669420  0.80801704  0.23424134
   0.99325551  0.50563243  0.20278559
   0.35811197  0.86086998  0.34067138
   0.53851998  0.23347802  0.07318573
   0.73250702  0.62587844  0.31517516
   0.87926422  0.06310591  0.05527763
   0.34006792  0.33108682  0.18293305
   0.58246139  0.21150732  0.12452493
   0.04028507  0.48835434  0.25609288
   0.43467868  0.64850758  0.37963225
   0.09516526  0.72856013  0.12156099
   0.58761182  0.43266698  0.25405828
   0.72415597  0.10961893  0.31183546
   0.85888103  0.57329750  0.05350623
   0.31429402  0.84511215  0.18077099
   0.56207820  0.72169891  0.12275353
   0.00821450  0.96598610  0.25311374
   0.80217157  0.32189340  0.18442426
   0.23161084  0.62838023  0.32086057
   0.34617716  0.60305419  0.05647018
   0.18788918  0.13888668  0.30867343
   0.80122326  0.87328910  0.18281920
   0.34617716  0.05624469  0.05647018
   0.55567651  0.98424301  0.24953979
   0.09516526  0.18175063  0.12156099
   0.46915145  0.09509686  0.36094300
   0.34047062  0.60391201  0.02782883
   0.92434681  0.68523651  0.03696881
   0.34363348  0.06399961  0.02783421
   0.88838126  0.05560908  0.02665597
   0.47392183  0.71872914  0.40015880
   0.65887602  0.10139817  0.33567347
   0.83010669  0.56034294  0.33611530
   0.25080044  0.51131416  0.34061353
   0.52216772  0.07160246  0.38481961
Direct configuration=    12
   0.22067121  0.89240241  0.08901558
   0.68104101  0.15184758  0.21716973
   0.94927612  0.02809995  0.15233499
   0.37977842  0.29867740  0.28317040
   0.44927612  0.52809995  0.15233499
   0.89151311  0.28499708  0.28275822
   0.44927612  0.02809995  0.15233499
   0.87890898  0.79537271  0.28362030
   0.90282244  0.55132680  0.10484543
   0.35652223  0.80754218  0.23407061
   0.99312313  0.50575387  0.20264135
   0.35915148  0.85986990  0.34062971
   0.53851998  0.23347802  0.07318573
   0.73122437  0.62675753  0.31508626
   0.87926422  0.06310591  0.05527763
   0.33925573  0.33142671  0.18299559
   0.58246139  0.21150732  0.12452493
   0.04327501  0.48733413  0.25630740
   0.43380439  0.64812189  0.37966996
   0.09516526  0.72856013  0.12156099
   0.58852300  0.43058712  0.25418432
   0.72213882  0.11116627  0.31198265
   0.85888103  0.57329750  0.05350623
   0.31460442  0.84467085  0.18087071
   0.56207820  0.72169891  0.12275353
   0.00812039  0.96654674  0.25306619
   0.80255982  0.32228198  0.18448740
   0.23133992  0.62820429  0.32076050
   0.34617716  0.60305419  0.05647018
   0.18895642  0.14143870  0.30838764
   0.80128432  0.87207355  0.18272244
   0.34617716  0.05624469  0.05647018
   0.55551444  0.98532847  0.24966412
   0.09516526  0.18175063  0.12156099
   0.46842273  0.09582247  0.36104950
   0.34047062  0.60391201  0.02782883
   0.92434681  0.68523651  0.03696881
   0.34363348  0.06399961  0.02783421
   0.88838126  0.05560908  0.02665597
   0.47431461  0.71939836  0.40014708
   0.65734886  0.09871811  0.33567596
   0.83034737  0.56156572  0.33626622
   0.25069437  0.51164734  0.34073304
   0.52159074  0.07159507  0.38491646
Direct configuration=    13
   0.22067121  0.89240241  0.08901558
   0.68072038  0.15239481  0.21731512
   0.94927612  0.02809995  0.15233499
   0.37885363  0.29964130  0.28329402
   0.44927612  0.52809995  0.15233499
   0.89146067  0.28487749  0.28288384
   0.44927612  0.02809995  0.15233499
   0.87926204  0.79473194  0.28362560
   0.90282244  0.55132680  0.10484543
   0.35662882  0.80783650  0.23417643
   0.99320518  0.50567860  0.20273075
   0.35850719  0.86048975  0.34065554
   0.53851998  0.23347802  0.07318573
   0.73201935  0.62621267  0.31514136
   0.87926422  0.06310591  0.05527763
   0.33975913  0.33121604  0.18295683
   0.58246139  0.21150732  0.12452493
   0.04142185  0.48796645  0.25617444
   0.43434627  0.64836094  0.37964658
   0.09516526  0.72856013  0.12156099
   0.58795825  0.43187621  0.25410620
   0.72338904  0.11020723  0.31189142
   0.85888103  0.57329750  0.05350623
   0.31441203  0.84494437  0.18080891
   0.56207820  0.72169891  0.12275353
   0.00817872  0.96619926  0.25309566
   0.80231919  0.32204114  0.18444827
   0.23150784  0.62831334  0.32082252
   0.34617716  0.60305419  0.05647018
   0.18829495  0.13985697  0.30856477
   0.80124648  0.87282694  0.18278241
   0.34617716  0.05624469  0.05647018
   0.55561489  0.98465570  0.24958706
   0.09516526  0.18175063  0.12156099
   0.46887439  0.09537274  0.36098349
   0.34047062  0.60391201  0.02782883
   0.92434681  0.68523651  0.03696881
   0.34363348  0.06399961  0.02783421
   0.88838126  0.05560908  0.02665597
   0.47407116  0.71898358  0.40015434
   0.65829539  0.10037921  0.33567442
   0.83019820  0.56080785  0.33617268
   0.25076011  0.51144084  0.34065897
   0.52194835  0.07159965  0.38485644
Direct configuration=    14
   0.22067121  0.89240241  0.08901558
   0.68058432  0.15210192  0.21741918
   0.94927612  0.02809995  0.15233499
   0.37943887  0.29906712  0.28319960
   0.44927612  0.52809995  0.15233499
   0.89142201  0.28499771  0.28282230
   0.44927612  0.02809995  0.15233499
   0.87919078  0.79516986  0.28361458
   0.90282244  0.55132680  0.10484543
   0.35680813  0.80751934  0.23415208
   0.99346100  0.50552840  0.20277670
   0.35905596  0.86041942  0.34062443
   0.53851998  0.23347802  0.07318573
   0.73201145  0.62607199  0.31519193
   0.87926422  0.06310591  0.05527763
   0.33982435  0.33122044  0.18297248
   0.58246139  0.21150732  0.12452493
   0.04256233  0.48772338  0.25620087
   0.43391062  0.64858675  0.37971409
   0.09516526  0.72856013  0.12156099
   0.58749862  0.43126063  0.25413831
   0.72296856  0.11063272  0.31179949
   0.85888103  0.57329750  0.05350623
   0.31452253  0.84479322  0.18081555
   0.56207820  0.72169891  0.12275353
   0.00803251  0.96676158  0.25309898
   0.80237891  0.32203450  0.18444493
   0.23162589  0.62792914  0.32085026
   0.34617716  0.60305419  0.05647018
   0.18954497  0.14052170  0.30850446
   0.80113801  0.87257740  0.18270883
   0.34617716  0.05624469  0.05647018
   0.55560470  0.98486180  0.24956032
   0.09516526  0.18175063  0.12156099
   0.46828262  0.09519670  0.36103564
   0.34047062  0.60391201  0.02782883
   0.92434681  0.68523651  0.03696881
   0.34363348  0.06399961  0.02783421
   0.88838126  0.05560908  0.02665597
   0.47414189  0.71909175  0.40008693
   0.65736212  0.09943782  0.33575629
   0.82971852  0.56169151  0.33611568
   0.25060738  0.51200465  0.34063653
   0.52165963  0.07163222  0.38491427
Direct configuration=    15
   0.22067121  0.89240241  0.08901558
   0.68017613  0.15122324  0.21773134
   0.94927612  0.02809995  0.15233499
   0.38119458  0.29734457  0.28291631
   0.44927612  0.52809995  0.15233499
   0.89130603  0.28535834  0.28263766
   0.44927612  0.02809995  0.15233499
   0.87897701  0.79648364  0.28358149
   0.90282244  0.55132680  0.10484543
   0.35734606  0.80656787  0.23407902
   0.99422847  0.50507780  0.20291456
   0.36070226  0.86020841  0.34053110
   0.53851998  0.23347802  0.07318573
   0.73198773  0.62564994  0.31534364
   0.87926422  0.06310591  0.05527763
   0.34002001  0.33123363  0.18301941
   0.58246139  0.21150732  0.12452493
   0.04598374  0.48699417  0.25628017
   0.43260367  0.64926419  0.37991660
   0.09516526  0.72856013  0.12156099
   0.58611974  0.42941389  0.25423464
   0.72170709  0.11190918  0.31152370
   0.85888103  0.57329750  0.05350623
   0.31485401  0.84433980  0.18083549
   0.56207820  0.72169891  0.12275353
   0.00759389  0.96844855  0.25310894
   0.80255809  0.32201457  0.18443492
   0.23198006  0.62677655  0.32093347
   0.34617716  0.60305419  0.05647018
   0.19329503  0.14251592  0.30832350
   0.80081260  0.87182879  0.18248807
   0.34617716  0.05624469  0.05647018
   0.55557413  0.98548010  0.24948011
   0.09516526  0.18175063  0.12156099
   0.46650732  0.09466860  0.36119208
   0.34047062  0.60391201  0.02782883
   0.92434681  0.68523651  0.03696881
   0.34363348  0.06399961  0.02783421
   0.88838126  0.05560908  0.02665597
   0.47435408  0.71941626  0.39988469
   0.65456231  0.09661366  0.33600188
   0.82827948  0.56434249  0.33594470
   0.25014917  0.51369610  0.34056924
   0.52079347  0.07172994  0.38508776
Direct configuration=    16
   0.22067121  0.89240241  0.08901558
   0.68043229  0.15177465  0.21753544
   0.94927612  0.02809995  0.15233499
   0.38009279  0.29842555  0.28309408
   0.44927612  0.52809995  0.15233499
   0.89137881  0.28513203  0.28275353
   0.44927612  0.02809995  0.15233499
   0.87911117  0.79565918  0.28360225
   0.90282244  0.55132680  0.10484543
   0.35700848  0.80716497  0.23412486
   0.99374685  0.50536058  0.20282805
   0.35966913  0.86034083  0.34058967
   0.53851998  0.23347802  0.07318573
   0.73200261  0.62591480  0.31524843
   0.87926422  0.06310591  0.05527763
   0.33989722  0.33122536  0.18298996
   0.58246139  0.21150732  0.12452493
   0.04383664  0.48745179  0.25623041
   0.43342385  0.64883907  0.37978952
   0.09516526  0.72856013  0.12156099
   0.58698506  0.43057281  0.25417419
   0.72249872  0.11110814  0.31169677
   0.85888103  0.57329750  0.05350623
   0.31464599  0.84462435  0.18082298
   0.56207820  0.72169891  0.12275353
   0.00786914  0.96738989  0.25310269
   0.80244565  0.32202708  0.18444120
   0.23175780  0.62749986  0.32088125
   0.34617716  0.60305419  0.05647018
   0.19094169  0.14126445  0.30843706
   0.80101681  0.87229858  0.18262661
   0.34617716  0.05624469  0.05647018
   0.55559331  0.98509209  0.24953045
   0.09516526  0.18175063  0.12156099
   0.46762141  0.09500001  0.36109390
   0.34047062  0.60391201  0.02782883
   0.92434681  0.68523651  0.03696881
   0.34363348  0.06399961  0.02783421
   0.88838126  0.05560908  0.02665597
   0.47422092  0.71921261  0.40001161
   0.65631932  0.09838596  0.33584776
   0.82918254  0.56267887  0.33605200
   0.25043672  0.51263464  0.34061147
   0.52133703  0.07166862  0.38497888
Direct configuration=    17
   0.22067121  0.89240241  0.08901558
   0.68049600  0.15191181  0.21748672
   0.94927612  0.02809995  0.15233499
   0.37981874  0.29869442  0.28313830
   0.44927612  0.52809995  0.15233499
   0.89139691  0.28507573  0.28278235
   0.44927612  0.02809995  0.15233499
   0.87914453  0.79545411  0.28360742
   0.90282244  0.55132680  0.10484543
   0.35692451  0.80731348  0.23413627
   0.99362705  0.50543091  0.20280653
   0.35941216  0.86037376  0.34060424
   0.53851998  0.23347802  0.07318573
   0.73200632  0.62598067  0.31522475
   0.87926422  0.06310591  0.05527763
   0.33986668  0.33122330  0.18298263
   0.58246139  0.21150732  0.12452493
   0.04330259  0.48756561  0.25621803
   0.43362785  0.64873332  0.37975791
   0.09516526  0.72856013  0.12156099
   0.58720029  0.43086107  0.25415915
   0.72269562  0.11090889  0.31173982
   0.85888103  0.57329750  0.05350623
   0.31459425  0.84469512  0.18081987
   0.56207820  0.72169891  0.12275353
   0.00793761  0.96712658  0.25310113
   0.80241768  0.32203019  0.18444276
   0.23170252  0.62767977  0.32086826
   0.34617716  0.60305419  0.05647018
   0.19035634  0.14095318  0.30846531
   0.80106760  0.87241543  0.18266107
   0.34617716  0.05624469  0.05647018
   0.55559808  0.98499558  0.24954297
   0.09516526  0.18175063  0.12156099
   0.46789851  0.09508244  0.36106949
   0.34047062  0.60391201  0.02782883
   0.92434681  0.68523651  0.03696881
   0.34363348  0.06399961  0.02783421
   0.88838126  0.05560908  0.02665597
   0.47418780  0.71916196  0.40004317
   0.65675635  0.09882678  0.33580942
   0.82940716  0.56226508  0.33607869
   0.25050824  0.51237062  0.34062197
   0.52147223  0.07165336  0.38495180
Direct configuration=    18
   0.22067121  0.89240241  0.08901558
   0.68032070  0.15160804  0.21759666
   0.94927612  0.02809995  0.15233499
   0.38017095  0.29841055  0.28305840
   0.44927612  0.52809995  0.15233499
   0.89158154  0.28531624  0.28274063
   0.44927612  0.02809995  0.15233499
   0.87937902  0.79556903  0.28358803
   0.90282244  0.55132680  0.10484543
   0.35734638  0.80684721  0.23412852
   0.99406135  0.50515012  0.20290046
   0.36011809  0.86019633  0.34051237
   0.53851998  0.23347802  0.07318573
   0.73147054  0.62607810  0.31514663
   0.87926422  0.06310591  0.05527763
   0.34024281  0.33110543  0.18299992
   0.58246139  0.21150732  0.12452493
   0.04437312  0.48769642  0.25622063
   0.43274411  0.64904808  0.37974323
   0.09516526  0.72856013  0.12156099
   0.58613496  0.43063624  0.25418932
   0.72184279  0.11100661  0.31177329
   0.85888103  0.57329750  0.05350623
   0.31468092  0.84458141  0.18081505
   0.56207820  0.72169891  0.12275353
   0.00781133  0.96800858  0.25312627
   0.80236070  0.32181593  0.18446061
   0.23187181  0.62813305  0.32082446
   0.34617716  0.60305419  0.05647018
   0.19203774  0.14122938  0.30846928
   0.80083681  0.87238531  0.18259983
   0.34617716  0.05624469  0.05647018
   0.55572525  0.98444682  0.24945461
   0.09516526  0.18175063  0.12156099
   0.46741677  0.09462214  0.36115424
   0.34047062  0.60391201  0.02782883
   0.92434681  0.68523651  0.03696881
   0.34363348  0.06399961  0.02783421
   0.88838126  0.05560908  0.02665597
   0.47447725  0.71953142  0.40004042
   0.65578904  0.09806155  0.33577557
   0.82933831  0.56295676  0.33611397
   0.25034967  0.51258518  0.34067269
   0.52104549  0.07170829  0.38500126
Direct configuration=    19
   0.22067121  0.89240241  0.08901558
   0.68030794  0.15158591  0.21760467
   0.94927612  0.02809995  0.15233499
   0.38019661  0.29838987  0.28305258
   0.44927612  0.52809995  0.15233499
   0.89159499  0.28533376  0.28273759
   0.44927612  0.02809995  0.15233499
   0.87939610  0.79557741  0.28358662
   0.90282244  0.55132680  0.10484543
   0.35737710  0.80681325  0.23412795
   0.99409298  0.50512967  0.20290730
   0.36016950  0.86018340  0.34050567
   0.53851998  0.23347802  0.07318573
   0.73143151  0.62608519  0.31514094
   0.87926422  0.06310591  0.05527763
   0.34027020  0.33109685  0.18300118
   0.58246139  0.21150732  0.12452493
   0.04445110  0.48770594  0.25622082
   0.43267974  0.64907101  0.37974216
   0.09516526  0.72856013  0.12156099
   0.58605736  0.43061986  0.25419152
   0.72178067  0.11101372  0.31177573
   0.85888103  0.57329750  0.05350623
   0.31468723  0.84457313  0.18081470
   0.56207820  0.72169891  0.12275353
   0.00780213  0.96807282  0.25312810
   0.80235655  0.32180033  0.18446191
   0.23188414  0.62816606  0.32082127
   0.34617716  0.60305419  0.05647018
   0.19216021  0.14124950  0.30846957
   0.80082000  0.87238312  0.18259537
   0.34617716  0.05624469  0.05647018
   0.55573451  0.98440685  0.24944818
   0.09516526  0.18175063  0.12156099
   0.46738168  0.09458862  0.36116041
   0.34047062  0.60391201  0.02782883
   0.92434681  0.68523651  0.03696881
   0.34363348  0.06399961  0.02783421
   0.88838126  0.05560908  0.02665597
   0.47449833  0.71955834  0.40004022
   0.65571858  0.09800581  0.33577310
   0.82933330  0.56300714  0.33611653
   0.25033812  0.51260081  0.34067638
   0.52101441  0.07171229  0.38500486
Direct configuration=    20
   0.22067121  0.89240241  0.08901558
   0.68028240  0.15154166  0.21762069
   0.94927612  0.02809995  0.15233499
   0.38024792  0.29834852  0.28304094
   0.44927612  0.52809995  0.15233499
   0.89162188  0.28536880  0.28273151
   0.44927612  0.02809995  0.15233499
   0.87943026  0.79559415  0.28358380
   0.90282244  0.55132680  0.10484543
   0.35743856  0.80674532  0.23412682
   0.99415625  0.50508876  0.20292099
   0.36027234  0.86015755  0.34049229
   0.53851998  0.23347802  0.07318573
   0.73135346  0.62609939  0.31512956
   0.87926422  0.06310591  0.05527763
   0.34032500  0.33107968  0.18300370
   0.58246139  0.21150732  0.12452493
   0.04460705  0.48772500  0.25622120
   0.43255100  0.64911686  0.37974002
   0.09516526  0.72856013  0.12156099
   0.58590217  0.43058711  0.25419592
   0.72165644  0.11102796  0.31178060
   0.85888103  0.57329750  0.05350623
   0.31469986  0.84455657  0.18081400
   0.56207820  0.72169891  0.12275353
   0.00778374  0.96820131  0.25313177
   0.80234825  0.32176912  0.18446451
   0.23190880  0.62823210  0.32081489
   0.34617716  0.60305419  0.05647018
   0.19240515  0.14128974  0.30847014
   0.80078637  0.87237873  0.18258645
   0.34617716  0.05624469  0.05647018
   0.55575304  0.98432691  0.24943530
   0.09516526  0.18175063  0.12156099
   0.46731150  0.09452156  0.36117276
   0.34047062  0.60391201  0.02782883
   0.92434681  0.68523651  0.03696881
   0.34363348  0.06399961  0.02783421
   0.88838126  0.05560908  0.02665597
   0.47454050  0.71961216  0.40003982
   0.65557766  0.09789433  0.33576817
   0.82932327  0.56310790  0.33612167
   0.25031502  0.51263207  0.34068377
   0.52095225  0.07172030  0.38501207
Direct configuration=    21
   0.22067121  0.89240241  0.08901558
   0.68029429  0.15156227  0.21761323
   0.94927612  0.02809995  0.15233499
   0.38022403  0.29836777  0.28304636
   0.44927612  0.52809995  0.15233499
   0.89160936  0.28535248  0.28273434
   0.44927612  0.02809995  0.15233499
   0.87941436  0.79558635  0.28358511
   0.90282244  0.55132680  0.10484543
   0.35740995  0.80677695  0.23412735
   0.99412679  0.50510781  0.20291462
   0.36022446  0.86016959  0.34049852
   0.53851998  0.23347802  0.07318573
   0.73138980  0.62609278  0.31513486
   0.87926422  0.06310591  0.05527763
   0.34029949  0.33108767  0.18300252
   0.58246139  0.21150732  0.12452493
   0.04453444  0.48771613  0.25622102
   0.43261094  0.64909551  0.37974102
   0.09516526  0.72856013  0.12156099
   0.58597442  0.43060236  0.25419387
   0.72171428  0.11102133  0.31177833
   0.85888103  0.57329750  0.05350623
   0.31469398  0.84456428  0.18081433
   0.56207820  0.72169891  0.12275353
   0.00779230  0.96814149  0.25313006
   0.80235212  0.32178365  0.18446330
   0.23189732  0.62820135  0.32081786
   0.34617716  0.60305419  0.05647018
   0.19229110  0.14127101  0.30846988
   0.80080203  0.87238077  0.18259061
   0.34617716  0.05624469  0.05647018
   0.55574441  0.98436413  0.24944130
   0.09516526  0.18175063  0.12156099
   0.46734418  0.09455278  0.36116701
   0.34047062  0.60391201  0.02782883
   0.92434681  0.68523651  0.03696881
   0.34363348  0.06399961  0.02783421
   0.88838126  0.05560908  0.02665597
   0.47452087  0.71958710  0.40004001
   0.65564327  0.09794624  0.33577047
   0.82932794  0.56306099  0.33611928
   0.25032578  0.51261751  0.34068033
   0.52098119  0.07171657  0.38500871
Direct configuration=    22
   0.22067121  0.89240241  0.08901558
   0.68013186  0.15141628  0.21765958
   0.94927612  0.02809995  0.15233499
   0.38030655  0.29863437  0.28303176
   0.44927612  0.52809995  0.15233499
   0.89193755  0.28545048  0.28272834
   0.44927612  0.02809995  0.15233499
   0.87965579  0.79558080  0.28357225
   0.90282244  0.55132680  0.10484543
   0.35793725  0.80628450  0.23412571
   0.99442932  0.50489132  0.20298490
   0.36063070  0.86004438  0.34040716
   0.53851998  0.23347802  0.07318573
   0.73115681  0.62599658  0.31508328
   0.87926422  0.06310591  0.05527763
   0.34064626  0.33097128  0.18302339
   0.58246139  0.21150732  0.12452493
   0.04507681  0.48812398  0.25620266
   0.43193672  0.64951313  0.37974710
   0.09516526  0.72856013  0.12156099
   0.58559315  0.43080272  0.25415390
   0.72111041  0.11083916  0.31184792
   0.85888103  0.57329750  0.05350623
   0.31473003  0.84450764  0.18081633
   0.56207820  0.72169891  0.12275353
   0.00773213  0.96896727  0.25316676
   0.80227923  0.32157466  0.18450047
   0.23199094  0.62872457  0.32082381
   0.34617716  0.60305419  0.05647018
   0.19290671  0.14095881  0.30852360
   0.80062995  0.87240932  0.18257295
   0.34617716  0.05624469  0.05647018
   0.55606836  0.98338696  0.24932739
   0.09516526  0.18175063  0.12156099
   0.46704809  0.09421472  0.36122241
   0.34047062  0.60391201  0.02782883
   0.92434681  0.68523651  0.03696881
   0.34363348  0.06399961  0.02783421
   0.88838126  0.05560908  0.02665597
   0.47470678  0.71977654  0.40001248
   0.65495731  0.09749915  0.33570155
   0.82919547  0.56362274  0.33612304
   0.25019215  0.51292991  0.34068871
   0.52066429  0.07172975  0.38505528
Direct configuration=    23
   0.22067121  0.89240241  0.08901558
   0.67977893  0.15109908  0.21776031
   0.94927612  0.02809995  0.15233499
   0.38048586  0.29921365  0.28300003
   0.44927612  0.52809995  0.15233499
   0.89265067  0.28566343  0.28271531
   0.44927612  0.02809995  0.15233499
   0.88018040  0.79556874  0.28354429
   0.90282244  0.55132680  0.10484543
   0.35908303  0.80521447  0.23412216
   0.99508669  0.50442093  0.20313763
   0.36151342  0.85977231  0.34020863
   0.53851998  0.23347802  0.07318573
   0.73065053  0.62578754  0.31497119
   0.87926422  0.06310591  0.05527763
   0.34139975  0.33071837  0.18306875
   0.58246139  0.21150732  0.12452493
   0.04625533  0.48901021  0.25616277
   0.43047169  0.65042057  0.37976032
   0.09516526  0.72856013  0.12156099
   0.58476468  0.43123809  0.25406705
   0.71979825  0.11044332  0.31199913
   0.85888103  0.57329750  0.05350623
   0.31480836  0.84438457  0.18082069
   0.56207820  0.72169891  0.12275353
   0.00760139  0.97076161  0.25324649
   0.80212084  0.32112055  0.18458126
   0.23219437  0.62986146  0.32083673
   0.34617716  0.60305419  0.05647018
   0.19424436  0.14028043  0.30864034
   0.80025605  0.87247136  0.18253460
   0.34617716  0.05624469  0.05647018
   0.55677228  0.98126366  0.24907986
   0.09516526  0.18175063  0.12156099
   0.46640471  0.09348014  0.36134280
   0.34047062  0.60391201  0.02782883
   0.92434681  0.68523651  0.03696881
   0.34363348  0.06399961  0.02783421
   0.88838126  0.05560908  0.02665597
   0.47511075  0.72018817  0.39995265
   0.65346677  0.09652769  0.33555179
   0.82890762  0.56484338  0.33613120
   0.24990179  0.51360872  0.34070690
   0.51997570  0.07175837  0.38515645
Direct configuration=    24
   0.22067121  0.89240241  0.08901558
   0.67968551  0.15088872  0.21771593
   0.94927612  0.02809995  0.15233499
   0.38054296  0.29950036  0.28300701
   0.44927612  0.52809995  0.15233499
   0.89298566  0.28565824  0.28274137
   0.44927612  0.02809995  0.15233499
   0.88037368  0.79570586  0.28355881
   0.90282244  0.55132680  0.10484543
   0.35954674  0.80462621  0.23409880
   0.99535194  0.50418165  0.20317816
   0.36214080  0.85932634  0.34016583
   0.53851998  0.23347802  0.07318573
   0.73097279  0.62518345  0.31495271
   0.87926422  0.06310591  0.05527763
   0.34177842  0.33057677  0.18310127
   0.58246139  0.21150732  0.12452493
   0.04696720  0.48963877  0.25615330
   0.42965485  0.65120993  0.37977832
   0.09516526  0.72856013  0.12156099
   0.58433474  0.43146200  0.25404468
   0.71929280  0.11013711  0.31196417
   0.85888103  0.57329750  0.05350623
   0.31480649  0.84435220  0.18082796
   0.56207820  0.72169891  0.12275353
   0.00759844  0.97201441  0.25332069
   0.80207867  0.32089170  0.18465115
   0.23219455  0.63027265  0.32086478
   0.34617716  0.60305419  0.05647018
   0.19468642  0.14012491  0.30867495
   0.80015123  0.87243533  0.18254421
   0.34617716  0.05624469  0.05647018
   0.55734871  0.97993997  0.24897381
   0.09516526  0.18175063  0.12156099
   0.46607101  0.09317061  0.36139435
   0.34047062  0.60391201  0.02782883
   0.92434681  0.68523651  0.03696881
   0.34363348  0.06399961  0.02783421
   0.88838126  0.05560908  0.02665597
   0.47524334  0.72029838  0.39987379
   0.65241886  0.09602341  0.33554298
   0.82842586  0.56569745  0.33606497
   0.24972535  0.51429539  0.34067386
   0.51959625  0.07170276  0.38523484
Direct configuration=    25
   0.22067121  0.89240241  0.08901558
   0.67964428  0.15079588  0.21769635
   0.94927612  0.02809995  0.15233499
   0.38056816  0.29962691  0.28301009
   0.44927612  0.52809995  0.15233499
   0.89313351  0.28565595  0.28275287
   0.44927612  0.02809995  0.15233499
   0.88045899  0.79576637  0.28356522
   0.90282244  0.55132680  0.10484543
   0.35975141  0.80436656  0.23408849
   0.99546901  0.50407604  0.20319605
   0.36241770  0.85912950  0.34014694
   0.53851998  0.23347802  0.07318573
   0.73111502  0.62491683  0.31494456
   0.87926422  0.06310591  0.05527763
   0.34194555  0.33051427  0.18311563
   0.58246139  0.21150732  0.12452493
   0.04728140  0.48991619  0.25614912
   0.42929432  0.65155833  0.37978626
   0.09516526  0.72856013  0.12156099
   0.58414498  0.43156082  0.25403481
   0.71906971  0.11000196  0.31194873
   0.85888103  0.57329750  0.05350623
   0.31480566  0.84433791  0.18083117
   0.56207820  0.72169891  0.12275353
   0.00759713  0.97256735  0.25335345
   0.80206005  0.32079069  0.18468201
   0.23219463  0.63045414  0.32087716
   0.34617716  0.60305419  0.05647018
   0.19488154  0.14005627  0.30869022
   0.80010496  0.87241943  0.18254845
   0.34617716  0.05624469  0.05647018
   0.55760313  0.97935573  0.24892700
   0.09516526  0.18175063  0.12156099
   0.46592372  0.09303399  0.36141710
   0.34047062  0.60391201  0.02782883
   0.92434681  0.68523651  0.03696881
   0.34363348  0.06399961  0.02783421
   0.88838126  0.05560908  0.02665597
   0.47530186  0.72034702  0.39983899
   0.65195634  0.09580084  0.33553910
   0.82821322  0.56607441  0.33603574
   0.24964748  0.51459846  0.34065927
   0.51942877  0.07167821  0.38526944
Direct configuration=    26
   0.22067121  0.89240241  0.08901558
   0.67956182  0.15061019  0.21765717
   0.94927612  0.02809995  0.15233499
   0.38061856  0.29988000  0.28301625
   0.44927612  0.52809995  0.15233499
   0.89342922  0.28565136  0.28277587
   0.44927612  0.02809995  0.15233499
   0.88062961  0.79588741  0.28357804
   0.90282244  0.55132680  0.10484543
   0.36016074  0.80384728  0.23406787
   0.99570315  0.50386481  0.20323184
   0.36297151  0.85873583  0.34010916
   0.53851998  0.23347802  0.07318573
   0.73139949  0.62438358  0.31492825
   0.87926422  0.06310591  0.05527763
   0.34227981  0.33038927  0.18314434
   0.58246139  0.21150732  0.12452493
   0.04790979  0.49047104  0.25614075
   0.42857326  0.65225512  0.37980214
   0.09516526  0.72856013  0.12156099
   0.58376545  0.43175847  0.25401507
   0.71862354  0.10973166  0.31191786
   0.85888103  0.57329750  0.05350623
   0.31480400  0.84430934  0.18083758
   0.56207820  0.72169891  0.12275353
   0.00759453  0.97367325  0.25341895
   0.80202282  0.32058868  0.18474371
   0.23219479  0.63081712  0.32090192
   0.34617716  0.60305419  0.05647018
   0.19527176  0.13991899  0.30872077
   0.80001243  0.87238763  0.18255694
   0.34617716  0.05624469  0.05647018
   0.55811197  0.97818726  0.24883338
   0.09516526  0.18175063  0.12156099
   0.46562915  0.09276075  0.36146261
   0.34047062  0.60391201  0.02782883
   0.92434681  0.68523651  0.03696881
   0.34363348  0.06399961  0.02783421
   0.88838126  0.05560908  0.02665597
   0.47541891  0.72044431  0.39976938
   0.65103130  0.09535569  0.33553133
   0.82778795  0.56682833  0.33597728
   0.24949173  0.51520461  0.34063010
   0.51909381  0.07162911  0.38533863
Direct configuration=    27
   0.22067121  0.89240241  0.08901558
   0.67952176  0.15051997  0.21763814
   0.94927612  0.02809995  0.15233499
   0.38064304  0.30000296  0.28301924
   0.44927612  0.52809995  0.15233499
   0.89357289  0.28564914  0.28278705
   0.44927612  0.02809995  0.15233499
   0.88071250  0.79594621  0.28358427
   0.90282244  0.55132680  0.10484543
   0.36035961  0.80359500  0.23405785
   0.99581691  0.50376220  0.20324922
   0.36324056  0.85854457  0.34009081
   0.53851998  0.23347802  0.07318573
   0.73153770  0.62412450  0.31492033
   0.87926422  0.06310591  0.05527763
   0.34244221  0.33032854  0.18315829
   0.58246139  0.21150732  0.12452493
   0.04821509  0.49074061  0.25613669
   0.42822294  0.65259365  0.37980986
   0.09516526  0.72856013  0.12156099
   0.58358107  0.43185450  0.25400547
   0.71840677  0.10960033  0.31190287
   0.85888103  0.57329750  0.05350623
   0.31480320  0.84429545  0.18084070
   0.56207820  0.72169891  0.12275353
   0.00759326  0.97421053  0.25345077
   0.80200473  0.32049054  0.18477368
   0.23219487  0.63099346  0.32091395
   0.34617716  0.60305419  0.05647018
   0.19546135  0.13985229  0.30873562
   0.79996747  0.87237217  0.18256106
   0.34617716  0.05624469  0.05647018
   0.55835919  0.97761958  0.24878790
   0.09516526  0.18175063  0.12156099
   0.46548604  0.09262800  0.36148472
   0.34047062  0.60391201  0.02782883
   0.92434681  0.68523651  0.03696881
   0.34363348  0.06399961  0.02783421
   0.88838126  0.05560908  0.02665597
   0.47547577  0.72049158  0.39973556
   0.65058189  0.09513943  0.33552756
   0.82758134  0.56719461  0.33594887
   0.24941607  0.51549910  0.34061593
   0.51893107  0.07160526  0.38537225
Direct configuration=    28
   0.22067121  0.89240241  0.08901558
   0.67939801  0.15042999  0.21754488
   0.94927612  0.02809995  0.15233499
   0.38072236  0.30024829  0.28304667
   0.44927612  0.52809995  0.15233499
   0.89370866  0.28557120  0.28285441
   0.44927612  0.02809995  0.15233499
   0.88070007  0.79628953  0.28360037
   0.90282244  0.55132680  0.10484543
   0.36048669  0.80304595  0.23401721
   0.99583733  0.50361164  0.20322529
   0.36350119  0.85810020  0.34012879
   0.53851998  0.23347802  0.07318573
   0.73191115  0.62339884  0.31478314
   0.87926422  0.06310591  0.05527763
   0.34260942  0.33023702  0.18318913
   0.58246139  0.21150732  0.12452493
   0.04872004  0.49156456  0.25613883
   0.42740686  0.65316170  0.37976915
   0.09516526  0.72856013  0.12156099
   0.58389281  0.43196095  0.25395084
   0.71810395  0.10918110  0.31182651
   0.85888103  0.57329750  0.05350623
   0.31472471  0.84432608  0.18084320
   0.56207820  0.72169891  0.12275353
   0.00773892  0.97549452  0.25354863
   0.80215610  0.32041067  0.18483613
   0.23192238  0.63154121  0.32088747
   0.34617716  0.60305419  0.05647018
   0.19502505  0.13959170  0.30876280
   0.80017431  0.87209748  0.18258911
   0.34617716  0.05624469  0.05647018
   0.55926490  0.97654090  0.24873925
   0.09516526  0.18175063  0.12156099
   0.46552223  0.09256944  0.36154510
   0.34047062  0.60391201  0.02782883
   0.92434681  0.68523651  0.03696881
   0.34363348  0.06399961  0.02783421
   0.88838126  0.05560908  0.02665597
   0.47567196  0.72072553  0.39969655
   0.64962100  0.09481573  0.33555245
   0.82760932  0.56758500  0.33597297
   0.24929101  0.51603937  0.34061168
   0.51852942  0.07148717  0.38541679
Direct configuration=    29
   0.22067121  0.89240241  0.08901558
   0.67933388  0.15038335  0.21749655
   0.94927612  0.02809995  0.15233499
   0.38076346  0.30037544  0.28306089
   0.44927612  0.52809995  0.15233499
   0.89377902  0.28553081  0.28288932
   0.44927612  0.02809995  0.15233499
   0.88069363  0.79646745  0.28360872
   0.90282244  0.55132680  0.10484543
   0.36055255  0.80276140  0.23399615
   0.99584792  0.50353360  0.20321289
   0.36363627  0.85786990  0.34014847
   0.53851998  0.23347802  0.07318573
   0.73210471  0.62302275  0.31471203
   0.87926422  0.06310591  0.05527763
   0.34269608  0.33018959  0.18320512
   0.58246139  0.21150732  0.12452493
   0.04898175  0.49199159  0.25613994
   0.42698390  0.65345611  0.37974806
   0.09516526  0.72856013  0.12156099
   0.58405437  0.43201613  0.25392252
   0.71794701  0.10896382  0.31178693
   0.85888103  0.57329750  0.05350623
   0.31468403  0.84434196  0.18084450
   0.56207820  0.72169891  0.12275353
   0.00781442  0.97615998  0.25359934
   0.80223455  0.32036928  0.18486849
   0.23178115  0.63182509  0.32087375
   0.34617716  0.60305419  0.05647018
   0.19479893  0.13945665  0.30877689
   0.80028150  0.87195511  0.18260364
   0.34617716  0.05624469  0.05647018
   0.55973430  0.97598185  0.24871403
   0.09516526  0.18175063  0.12156099
   0.46554098  0.09253909  0.36157640
   0.34047062  0.60391201  0.02782883
   0.92434681  0.68523651  0.03696881
   0.34363348  0.06399961  0.02783421
   0.88838126  0.05560908  0.02665597
   0.47577363  0.72084678  0.39967633
   0.64912299  0.09464797  0.33556535
   0.82762382  0.56778732  0.33598546
   0.24922619  0.51631937  0.34060948
   0.51832126  0.07142597  0.38543987
Direct configuration=    30
   0.22067121  0.89240241  0.08901558
   0.67920561  0.15029008  0.21739989
   0.94927612  0.02809995  0.15233499
   0.38084567  0.30062974  0.28308932
   0.44927612  0.52809995  0.15233499
   0.89391976  0.28545003  0.28295914
   0.44927612  0.02809995  0.15233499
   0.88068074  0.79682331  0.28362540
   0.90282244  0.55132680  0.10484543
   0.36068428  0.80219229  0.23395402
   0.99586909  0.50337754  0.20318809
   0.36390642  0.85740929  0.34018784
   0.53851998  0.23347802  0.07318573
   0.73249181  0.62227057  0.31456983
   0.87926422  0.06310591  0.05527763
   0.34286940  0.33009473  0.18323709
   0.58246139  0.21150732  0.12452493
   0.04950516  0.49284565  0.25614216
   0.42613800  0.65404492  0.37970586
   0.09516526  0.72856013  0.12156099
   0.58437751  0.43212647  0.25386589
   0.71763312  0.10852926  0.31170779
   0.85888103  0.57329750  0.05350623
   0.31460267  0.84437371  0.18084709
   0.56207820  0.72169891  0.12275353
   0.00796540  0.97749089  0.25370077
   0.80239145  0.32028649  0.18493322
   0.23149870  0.63239284  0.32084631
   0.34617716  0.60305419  0.05647018
   0.19434670  0.13918654  0.30880506
   0.80049589  0.87167037  0.18263271
   0.34617716  0.05624469  0.05647018
   0.56067311  0.97486376  0.24866360
   0.09516526  0.18175063  0.12156099
   0.46557850  0.09247838  0.36163899
   0.34047062  0.60391201  0.02782883
   0.92434681  0.68523651  0.03696881
   0.34363348  0.06399961  0.02783421
   0.88838126  0.05560908  0.02665597
   0.47597699  0.72108928  0.39963590
   0.64812699  0.09431245  0.33559115
   0.82765281  0.56819197  0.33601043
   0.24909657  0.51687937  0.34060507
   0.51790494  0.07130356  0.38548604
Direct configuration=    31
   0.22067121  0.89240241  0.08901558
   0.67925472  0.15032579  0.21743690
   0.94927612  0.02809995  0.15233499
   0.38081420  0.30053237  0.28307844
   0.44927612  0.52809995  0.15233499
   0.89386587  0.28548096  0.28293240
   0.44927612  0.02809995  0.15233499
   0.88068568  0.79668705  0.28361901
   0.90282244  0.55132680  0.10484543
   0.36063384  0.80241020  0.23397015
   0.99586099  0.50343730  0.20319759
   0.36380298  0.85758566  0.34017276
   0.53851998  0.23347802  0.07318573
   0.73234359  0.62255858  0.31462428
   0.87926422  0.06310591  0.05527763
   0.34280304  0.33013105  0.18322485
   0.58246139  0.21150732  0.12452493
   0.04930475  0.49251863  0.25614131
   0.42646190  0.65381946  0.37972202
   0.09516526  0.72856013  0.12156099
   0.58425378  0.43208422  0.25388758
   0.71775331  0.10869566  0.31173809
   0.85888103  0.57329750  0.05350623
   0.31463382  0.84436155  0.18084610
   0.56207820  0.72169891  0.12275353
   0.00790759  0.97698128  0.25366193
   0.80233138  0.32031819  0.18490844
   0.23160685  0.63217545  0.32085681
   0.34617716  0.60305419  0.05647018
   0.19451986  0.13928997  0.30879427
   0.80041380  0.87177940  0.18262158
   0.34617716  0.05624469  0.05647018
   0.56031364  0.97529188  0.24868291
   0.09516526  0.18175063  0.12156099
   0.46556413  0.09250163  0.36161503
   0.34047062  0.60391201  0.02782883
   0.92434681  0.68523651  0.03696881
   0.34363348  0.06399961  0.02783421
   0.88838126  0.05560908  0.02665597
   0.47589912  0.72099643  0.39965138
   0.64850836  0.09444092  0.33558127
   0.82764171  0.56803703  0.33600087
   0.24914620  0.51666495  0.34060676
   0.51806435  0.07135043  0.38546836
Direct configuration=    32
   0.22067121  0.89240241  0.08901558
   0.67911040  0.15025379  0.21737125
   0.94927612  0.02809995  0.15233499
   0.38088502  0.30036069  0.28306903
   0.44927612  0.52809995  0.15233499
   0.89353487  0.28567473  0.28298718
   0.44927612  0.02809995  0.15233499
   0.88066398  0.79709428  0.28357714
   0.90282244  0.55132680  0.10484543
   0.36028533  0.80212616  0.23392444
   0.99572911  0.50331524  0.20313310
   0.36351688  0.85774704  0.34019216
   0.53851998  0.23347802  0.07318573
   0.73337450  0.62132780  0.31455658
   0.87926422  0.06310591  0.05527763
   0.34280334  0.33005236  0.18323851
   0.58246139  0.21150732  0.12452493
   0.05009021  0.49326541  0.25618214
   0.42586532  0.65420127  0.37976002
   0.09516526  0.72856013  0.12156099
   0.58464423  0.43169973  0.25386704
   0.71676371  0.10849204  0.31175139
   0.85888103  0.57329750  0.05350623
   0.31449021  0.84445060  0.18082433
   0.56207820  0.72169891  0.12275353
   0.00825819  0.97816926  0.25377251
   0.80267672  0.32033645  0.18492226
   0.23112836  0.63262574  0.32080269
   0.34617716  0.60305419  0.05647018
   0.19434824  0.13904932  0.30883416
   0.80096320  0.87128824  0.18262639
   0.34617716  0.05624469  0.05647018
   0.56143773  0.97468965  0.24870370
   0.09516526  0.18175063  0.12156099
   0.46591649  0.09262096  0.36161025
   0.34047062  0.60391201  0.02782883
   0.92434681  0.68523651  0.03696881
   0.34363348  0.06399961  0.02783421
   0.88838126  0.05560908  0.02665597
   0.47597689  0.72108174  0.39957190
   0.64776090  0.09431465  0.33556506
   0.82753144  0.56835161  0.33595471
   0.24898752  0.51718046  0.34061454
   0.51779182  0.07113497  0.38554884
Direct configuration=    33
   0.22067121  0.89240241  0.08901558
   0.67887823  0.15013795  0.21726564
   0.94927612  0.02809995  0.15233499
   0.38099895  0.30008454  0.28305389
   0.44927612  0.52809995  0.15233499
   0.89300241  0.28598644  0.28307530
   0.44927612  0.02809995  0.15233499
   0.88062908  0.79774936  0.28350979
   0.90282244  0.55132680  0.10484543
   0.35972472  0.80166926  0.23385092
   0.99551698  0.50311890  0.20302936
   0.36305666  0.85800663  0.34022336
   0.53851998  0.23347802  0.07318573
   0.73503285  0.61934795  0.31444769
   0.87926422  0.06310591  0.05527763
   0.34280384  0.32992576  0.18326048
   0.58246139  0.21150732  0.12452493
   0.05135372  0.49446669  0.25624781
   0.42490567  0.65481545  0.37982114
   0.09516526  0.72856013  0.12156099
   0.58527233  0.43108125  0.25383401
   0.71517184  0.10816451  0.31177279
   0.85888103  0.57329750  0.05350623
   0.31425921  0.84459385  0.18078931
   0.56207820  0.72169891  0.12275353
   0.00882216  0.98008027  0.25395039
   0.80323225  0.32036583  0.18494451
   0.23035865  0.63335007  0.32071563
   0.34617716  0.60305419  0.05647018
   0.19407218  0.13866221  0.30889832
   0.80184698  0.87049816  0.18263412
   0.34617716  0.05624469  0.05647018
   0.56324595  0.97372089  0.24873714
   0.09516526  0.18175063  0.12156099
   0.46648330  0.09281291  0.36160257
   0.34047062  0.60391201  0.02782883
   0.92434681  0.68523651  0.03696881
   0.34363348  0.06399961  0.02783421
   0.88838126  0.05560908  0.02665597
   0.47610199  0.72121897  0.39944405
   0.64655852  0.09411152  0.33553899
   0.82735407  0.56885766  0.33588045
   0.24873225  0.51800972  0.34062706
   0.51735343  0.07078837  0.38567829
Direct configuration=    34
   0.22067121  0.89240241  0.08901558
   0.67879259  0.15022788  0.21730092
   0.94927612  0.02809995  0.15233499
   0.38095035  0.29964581  0.28302644
   0.44927612  0.52809995  0.15233499
   0.89237170  0.28656403  0.28314536
   0.44927612  0.02809995  0.15233499
   0.88064016  0.79817837  0.28342550
   0.90282244  0.55132680  0.10484543
   0.35940787  0.80162381  0.23384584
   0.99540923  0.50291863  0.20300032
   0.36187147  0.85909313  0.34019395
   0.53851998  0.23347802  0.07318573
   0.73597373  0.61800962  0.31428627
   0.87926422  0.06310591  0.05527763
   0.34277042  0.32979793  0.18325185
   0.58246139  0.21150732  0.12452493
   0.05236933  0.49517081  0.25624744
   0.42407997  0.65467121  0.37980693
   0.09516526  0.72856013  0.12156099
   0.58588756  0.43056250  0.25375227
   0.71377382  0.10823097  0.31179494
   0.85888103  0.57329750  0.05350623
   0.31407475  0.84472771  0.18074343
   0.56207820  0.72169891  0.12275353
   0.00944945  0.98126882  0.25405448
   0.80359389  0.32028261  0.18488245
   0.22977519  0.63352844  0.32073931
   0.34617716  0.60305419  0.05647018
   0.19391166  0.13815751  0.30899412
   0.80263386  0.87003702  0.18259883
   0.34617716  0.05624469  0.05647018
   0.56440967  0.97318909  0.24876754
   0.09516526  0.18175063  0.12156099
   0.46733096  0.09270203  0.36169457
   0.34047062  0.60391201  0.02782883
   0.92434681  0.68523651  0.03696881
   0.34363348  0.06399961  0.02783421
   0.88838126  0.05560908  0.02665597
   0.47644800  0.72157107  0.39945253
   0.64580690  0.09409548  0.33555431
   0.82792738  0.56863057  0.33590630
   0.24838679  0.51895971  0.34056845
   0.51689663  0.07062029  0.38566164
Direct configuration=    35
   0.22067121  0.89240241  0.08901558
   0.67879646  0.15022381  0.21729932
   0.94927612  0.02809995  0.15233499
   0.38095255  0.29966566  0.28302768
   0.44927612  0.52809995  0.15233499
   0.89240023  0.28653791  0.28314219
   0.44927612  0.02809995  0.15233499
   0.88063966  0.79815896  0.28342931
   0.90282244  0.55132680  0.10484543
   0.35942220  0.80162587  0.23384607
   0.99541410  0.50292769  0.20300163
   0.36192508  0.85904398  0.34019528
   0.53851998  0.23347802  0.07318573
   0.73593117  0.61807016  0.31429357
   0.87926422  0.06310591  0.05527763
   0.34277193  0.32980371  0.18325224
   0.58246139  0.21150732  0.12452493
   0.05232339  0.49513896  0.25624746
   0.42411732  0.65467774  0.37980757
   0.09516526  0.72856013  0.12156099
   0.58585973  0.43058597  0.25375597
   0.71383705  0.10822797  0.31179393
   0.85888103  0.57329750  0.05350623
   0.31408309  0.84472166  0.18074551
   0.56207820  0.72169891  0.12275353
   0.00942108  0.98121506  0.25404977
   0.80357754  0.32028638  0.18488526
   0.22980158  0.63352037  0.32073824
   0.34617716  0.60305419  0.05647018
   0.19391892  0.13818034  0.30898979
   0.80259827  0.87005788  0.18260043
   0.34617716  0.05624469  0.05647018
   0.56435704  0.97321315  0.24876616
   0.09516526  0.18175063  0.12156099
   0.46729262  0.09270705  0.36169041
   0.34047062  0.60391201  0.02782883
   0.92434681  0.68523651  0.03696881
   0.34363348  0.06399961  0.02783421
   0.88838126  0.05560908  0.02665597
   0.47643235  0.72155514  0.39945214
   0.64584089  0.09409620  0.33555361
   0.82790145  0.56864084  0.33590513
   0.24840241  0.51891674  0.34057110
   0.51691729  0.07062789  0.38566239
Direct configuration=    36
   0.22067121  0.89240241  0.08901558
   0.67904377  0.15026271  0.21736287
   0.94927612  0.02809995  0.15233499
   0.38074218  0.29911229  0.28299744
   0.44927612  0.52809995  0.15233499
   0.89183099  0.28716082  0.28318679
   0.44927612  0.02809995  0.15233499
   0.88070329  0.79841207  0.28337776
   0.90282244  0.55132680  0.10484543
   0.35935338  0.80194737  0.23388006
   0.99544367  0.50273013  0.20302257
   0.36073952  0.86012406  0.34020581
   0.53851998  0.23347802  0.07318573
   0.73672208  0.61716419  0.31423624
   0.87926422  0.06310591  0.05527763
   0.34276831  0.32968149  0.18322827
   0.58246139  0.21150732  0.12452493
   0.05334110  0.49514719  0.25621429
   0.42374072  0.65471456  0.37984401
   0.09516526  0.72856013  0.12156099
   0.58587373  0.43025210  0.25370270
   0.71274314  0.10867675  0.31172516
   0.85888103  0.57329750  0.05350623
   0.31398507  0.84480563  0.18071293
   0.56207820  0.72169891  0.12275353
   0.00994769  0.98183706  0.25409111
   0.80363993  0.32013161  0.18479182
   0.22930341  0.63400783  0.32071832
   0.34617716  0.60305419  0.05647018
   0.19410970  0.13815468  0.30904985
   0.80307813  0.87001262  0.18255977
   0.34617716  0.05624469  0.05647018
   0.56480241  0.97291063  0.24878751
   0.09516526  0.18175063  0.12156099
   0.46775274  0.09236841  0.36166367
   0.34047062  0.60391201  0.02782883
   0.92434681  0.68523651  0.03696881
   0.34363348  0.06399961  0.02783421
   0.88838126  0.05560908  0.02665597
   0.47654368  0.72155699  0.39942040
   0.64532212  0.09416663  0.33565049
   0.82841389  0.56821917  0.33587682
   0.24811506  0.51924636  0.34058229
   0.51684826  0.07045095  0.38571879
