Mn O  H 
 1.0000000000000000
     5.7471469900000001    0.0000000000000000    0.0000000000000000
     0.0000000000000000    5.7471469900000001    0.0000000000000000
     0.0000000000000000    0.0000000000000000   38.3523056924327008
 Mn  O   H  
  13  19   4
Selective dynamics
Direct
 -0.0093835343744717  0.2391760241319369  0.2623916092900749   F   F   F
  0.7489864879576713  0.4968346817732093  0.3235847127412249   F   F   F
  0.4884642448824472  0.2882252966533249  0.3943222889426066   T   T   T
  0.7480312844938543  0.0378439068884752  0.4569511550599860   T   T   T
  0.2408839015502172  0.0317066776517622  0.4609214249383767   T   T   T
  0.2510151206674320  0.4955812159049278  0.3269556710605909   F   F   F
  0.4906927548199085  0.7874635398336605  0.3957906003718257   T   T   T
 -0.0100916428494874  0.7513987945614823  0.2627757334990781   F   F   F
  0.0024768544779153 -0.0045784375955736  0.3571699137271092   F   F   F
 -0.0139293669346270  0.5298594535452591  0.4277966221574765   T   T   T
  0.4359395316653604  0.5561750330389315  0.4926046912048550   T   T   T
  0.4872487909802456 -0.0043314717839424  0.2917774653642574   F   F   F
  0.4956838801581168  0.0756193697629022  0.5518406443208723   T   T   T
 -0.0040278930610121  0.2590956639685948  0.4629848371552400   T   T   T
  0.7747574636748692  0.4958631552600724  0.2647010163483396   F   F   F
  0.4994775423373534  0.2678073900728424  0.3280746410023943   F   F   F
  0.7179681189802819  0.0406475441226635  0.3982876247345378   T   T   T
  0.0037645548922136  0.2690184215424850  0.3222536979589821   F   F   F
  0.7692367725186661 -0.0055241815224737  0.2597891457639432   F   F   F
  0.4900489489420317  0.2604650824643285  0.4615168855494272   T   T   T
  0.7162143091541887  0.5376969582812600  0.3920628933887426   T   T   T
  0.2111692605782599 -0.0057975698878655  0.2583053953367737   F   F   F
  0.2603950682683120  0.5387026568001483  0.3924278072392184   T   T   T
  0.2272536477132092  0.4962741366236937  0.2626329689737672   F   F   F
  0.2643779114140503  0.0378021988652679  0.3981265223059022   T   T   T
  0.4987015056994976  0.7247605740973498  0.3278246169346272   F   F   F
 -0.0093972965709469  0.8102468410926380  0.4601689053819437   T   T   T
  0.4989341326740306  0.8051619391371436  0.4551283075572314   T   T   T
  0.0041034282560547  0.7236694402594225  0.3222276800561435   F   F   F
  0.5040885126844598  0.4114542616462183  0.5410348367016995   T   T   T
  0.6253274224938008 -0.1913403690704771  0.5767165237852823   T   T   T
  0.2893577526884651  0.8850348837436927  0.5180810788976447   T   T   T
  0.3862807976787250  0.4992215041381847  0.2532026820654570   F   F   F
  0.5513511769366374  0.5373049586298875  0.5576429885118218   T   T   T
  0.7185633032133455 -0.1825532480522105  0.5977142818391478   T   T   T
  0.1339888008171473  0.8473190787618011  0.5264924744336684   T   T   T
