Mn O  H 
 1.0000000000000000
     5.7471469900000001    0.0000000000000000    0.0000000000000000
     0.0000000000000000    5.7471469900000001    0.0000000000000000
     0.0000000000000000    0.0000000000000000   38.3523056924327008
 Mn  O   H  
  14  21   5
Selective dynamics
Direct
 -0.0093835343744717  0.2391760241319369  0.2623916092900749   F   F   F
  0.7489864879576713  0.4968346817732093  0.3235847127412249   F   F   F
  0.4843091577742866  0.2510140538639022  0.3967432658385552   T   T   T
  0.7418414050978342  0.0038145609529438  0.4612229131326019   T   T   T
  0.2385716365308012 -0.0013686339058831  0.4630760303468520   T   T   T
  0.2510151206674320  0.4955812159049278  0.3269556710605909   F   F   F
  0.4866523752049459  0.7512124070669737  0.3979275670958304   T   T   T
 -0.0100916428494874  0.7513987945614823  0.2627757334990781   F   F   F
  0.0024768544779153 -0.0045784375955736  0.3571699137271092   F   F   F
 -0.0179453490110277  0.5000931840067524  0.4292993346858604   T   T   T
  0.4321014941007764  0.5229497305142121  0.4955069124352849   T   T   T
  0.4872487909802456 -0.0043314717839424  0.2917774653642574   F   F   F
  0.5235112576402512 -0.0395090316430135  0.5517402656185086   T   T   T
 -0.0098497404468962  0.7165309197344568  0.5251559532773193   T   T   T
 -0.0068372008616049  0.2210261203064195  0.4616731871211645   T   T   T
  0.7747574636748692  0.4958631552600724  0.2647010163483396   F   F   F
  0.4994775423373534  0.2678073900728424  0.3280746410023943   F   F   F
  0.7131728255238520  0.0026792774385345  0.4007854711717146   T   T   T
  0.0037645548922136  0.2690184215424850  0.3222536979589821   F   F   F
  0.7692367725186661 -0.0055241815224737  0.2597891457639432   F   F   F
  0.4867275096199920  0.2297281540313617  0.4642435314204828   T   T   T
  0.7112661743627973  0.5014019604864932  0.3942452273731168   T   T   T
  0.2111692605782599 -0.0057975698878655  0.2583053953367737   F   F   F
  0.2567168142725103  0.5023000702938976  0.3945083224730172   T   T   T
  0.2272536477132092  0.4962741366236937  0.2626329689737672   F   F   F
  0.2589447539112647  0.0000337751378023  0.4006269463951219   T   T   T
  0.4987015056994976  0.7247605740973498  0.3278246169346272   F   F   F
 -0.0160259899651374  0.7645939852442964  0.4659498777702082   T   T   T
  0.4929584123099429  0.7728221502080895  0.4572711309850392   T   T   T
  0.0041034282560547  0.7236694402594225  0.3222276800561435   F   F   F
  0.6756929263515304  0.6054596257392536  0.5395472579827686   T   T   T
  0.1408783677952703  0.4144388511802226  0.5308493079617026   T   T   T
  0.4752506817132396  0.2612007325971016  0.5781972655903432   T   T   T
  0.8368840762370299  0.0203545635418324  0.5271087770965630   T   T   T
  0.2756649129449723  0.8560826491896779  0.5194185179958524   T   T   T
  0.3862807976787250  0.4992215041381847  0.2532026820654570   F   F   F
  0.6460299053932795  0.4739204090851982  0.5561448657587428   T   T   T
  0.2297652037602334  0.3840722434703658  0.5526617847821489   T   T   T
  0.4800199024181722  0.2736985442230739  0.6033882732384054   T   T   T
  0.9440068543028360  0.1565255848090762  0.5270571486497205   T   T   T
