unknown system                          
           1
     2.873573   -2.873573    4.708335
     5.747147    0.000000    0.000000
     0.000000   33.065691   20.180529
   Mn   O    H 
  14  22   8
Direct configuration=     1
   0.22067121  0.89240241  0.08901558
   0.67281219  0.16486072  0.21825449
   0.94927612  0.02809995  0.15233499
   0.38574176  0.31110794  0.28698290
   0.44927612  0.52809995  0.15233499
   0.91001123  0.27708117  0.28483660
   0.44927612  0.02809995  0.15233499
   0.85958717  0.79106143  0.28088363
   0.90282244  0.55132680  0.10484543
   0.35788977  0.81222827  0.23369123
   0.99610463  0.50261054  0.20359576
   0.48685772  0.79211443  0.34918027
   0.53851998  0.23347802  0.07318573
   0.07087921  0.38678719  0.35426059
   0.80802618  0.57222770  0.31725430
   0.87926422  0.06310591  0.05527763
   0.33978546  0.33344982  0.18316349
   0.58246139  0.21150732  0.12452493
   0.05772352  0.45241130  0.25683194
   0.31468270  0.11495307  0.38539643
   0.09516526  0.72856013  0.12156099
   0.56838270  0.44406021  0.25343688
   0.74456125  0.11159676  0.31487273
   0.85888103  0.57329750  0.05350623
   0.31079086  0.84704012  0.18061202
   0.56207820  0.72169891  0.12275353
   0.01797405  0.97557216  0.25567228
   0.79963011  0.32847000  0.18450534
   0.25985598  0.60920994  0.33597524
   0.34617716  0.60305419  0.05647018
   0.24533582  0.12088696  0.31876980
   0.80190180  0.87482915  0.18414544
   0.34617716  0.05624469  0.05647018
   0.55851570  0.98589262  0.25040220
   0.09516526  0.18175063  0.12156099
   0.77824580  0.57865274  0.38420522
   0.34047062  0.60391201  0.02782883
   0.92434681  0.68523651  0.03696881
   0.34363348  0.06399961  0.02783421
   0.88838126  0.05560908  0.02665597
   0.29088118  0.11254101  0.41011462
   0.73319736  0.13385004  0.33982577
   0.13028348  0.78190716  0.32928391
   0.78310612  0.62479371  0.40814422
Direct configuration=     2
   0.22067121  0.89240241  0.08901558
   0.67232996  0.16435674  0.21911293
   0.94927612  0.02809995  0.15233499
   0.38581045  0.31058309  0.28709744
   0.44927612  0.52809995  0.15233499
   0.90979638  0.27775543  0.28524630
   0.44927612  0.02809995  0.15233499
   0.86316481  0.78801700  0.28126816
   0.90282244  0.55132680  0.10484543
   0.35871555  0.81181377  0.23410543
   0.99602986  0.50277384  0.20397837
   0.48602994  0.79235602  0.34921153
   0.53851998  0.23347802  0.07318573
   0.07467046  0.38752942  0.35329896
   0.80877645  0.57295368  0.31695466
   0.87926422  0.06310591  0.05527763
   0.34047221  0.33230030  0.18270735
   0.58246139  0.21150732  0.12452493
   0.05569493  0.45735119  0.25688792
   0.31210957  0.11798584  0.38542623
   0.09516526  0.72856013  0.12156099
   0.56847797  0.44336190  0.25313983
   0.74455226  0.10995135  0.31434120
   0.85888103  0.57329750  0.05350623
   0.31114069  0.84714981  0.18014480
   0.56207820  0.72169891  0.12275353
   0.01618450  0.97403783  0.25558672
   0.79983374  0.32628340  0.18394924
   0.26123729  0.60107601  0.33635288
   0.34617716  0.60305419  0.05647018
   0.24343775  0.12458085  0.31877857
   0.80234452  0.87601938  0.18363621
   0.34617716  0.05624469  0.05647018
   0.55833852  0.98598582  0.25011458
   0.09516526  0.18175063  0.12156099
   0.78209834  0.57725025  0.38399813
   0.34047062  0.60391201  0.02782883
   0.92434681  0.68523651  0.03696881
   0.34363348  0.06399961  0.02783421
   0.88838126  0.05560908  0.02665597
   0.29042762  0.11316236  0.40997739
   0.73345207  0.13324294  0.33991079
   0.12736264  0.78471895  0.32927263
   0.78289561  0.62433648  0.40819626
Direct configuration=     3
   0.22067121  0.89240241  0.08901558
   0.67265930  0.16470093  0.21852665
   0.94927612  0.02809995  0.15233499
   0.38576353  0.31094154  0.28701921
   0.44927612  0.52809995  0.15233499
   0.90994312  0.27729494  0.28496649
   0.44927612  0.02809995  0.15233499
   0.86072144  0.79009621  0.28100554
   0.90282244  0.55132680  0.10484543
   0.35815158  0.81209686  0.23382255
   0.99608092  0.50266231  0.20371707
   0.48659527  0.79219103  0.34919018
   0.53851998  0.23347802  0.07318573
   0.07208121  0.38702251  0.35395571
   0.80826405  0.57245787  0.31715930
   0.87926422  0.06310591  0.05527763
   0.34000319  0.33308537  0.18301887
   0.58246139  0.21150732  0.12452493
   0.05708037  0.45397747  0.25684969
   0.31386690  0.11591460  0.38540588
   0.09516526  0.72856013  0.12156099
   0.56841291  0.44383882  0.25334270
   0.74455840  0.11107509  0.31470421
   0.85888103  0.57329750  0.05350623
   0.31090177  0.84707490  0.18046389
   0.56207820  0.72169891  0.12275353
   0.01740668  0.97508571  0.25564515
   0.79969467  0.32777675  0.18432903
   0.26029392  0.60663112  0.33609497
   0.34617716  0.60305419  0.05647018
   0.24473404  0.12205809  0.31877258
   0.80204216  0.87520650  0.18398399
   0.34617716  0.05624469  0.05647018
   0.55845953  0.98592217  0.25031101
   0.09516526  0.18175063  0.12156099
   0.77946723  0.57820809  0.38413957
   0.34047062  0.60391201  0.02782883
   0.92434681  0.68523651  0.03696881
   0.34363348  0.06399961  0.02783421
   0.88838126  0.05560908  0.02665597
   0.29073738  0.11273801  0.41007111
   0.73327812  0.13365756  0.33985273
   0.12935744  0.78279863  0.32928033
   0.78303938  0.62464875  0.40816072
Direct configuration=     4
   0.22067121  0.89240241  0.08901558
   0.67271400  0.16475810  0.21842929
   0.94927612  0.02809995  0.15233499
   0.38575574  0.31100107  0.28700622
   0.44927612  0.52809995  0.15233499
   0.90996748  0.27721846  0.28492002
   0.44927612  0.02809995  0.15233499
   0.86031566  0.79044151  0.28096193
   0.90282244  0.55132680  0.10484543
   0.35805791  0.81214387  0.23377558
   0.99608940  0.50264379  0.20367367
   0.48668916  0.79216362  0.34918664
   0.53851998  0.23347802  0.07318573
   0.07165120  0.38693833  0.35406478
   0.80817895  0.57237552  0.31719329
   0.87926422  0.06310591  0.05527763
   0.33992530  0.33321575  0.18307061
   0.58246139  0.21150732  0.12452493
   0.05731045  0.45341717  0.25684334
   0.31415875  0.11557061  0.38540250
   0.09516526  0.72856013  0.12156099
   0.56840210  0.44391802  0.25337639
   0.74455942  0.11126172  0.31476450
   0.85888103  0.57329750  0.05350623
   0.31086209  0.84706246  0.18051688
   0.56207820  0.72169891  0.12275353
   0.01760966  0.97525973  0.25565486
   0.79967157  0.32802476  0.18439211
   0.26013725  0.60755369  0.33605213
   0.34617716  0.60305419  0.05647018
   0.24494933  0.12163912  0.31877159
   0.80199195  0.87507151  0.18404175
   0.34617716  0.05624469  0.05647018
   0.55847962  0.98591159  0.25034363
   0.09516526  0.18175063  0.12156099
   0.77903027  0.57836716  0.38416305
   0.34047062  0.60391201  0.02782883
   0.92434681  0.68523651  0.03696881
   0.34363348  0.06399961  0.02783421
   0.88838126  0.05560908  0.02665597
   0.29078882  0.11266753  0.41008668
   0.73324923  0.13372642  0.33984308
   0.12968873  0.78247971  0.32928161
   0.78306326  0.62470061  0.40815482
Direct configuration=     5
   0.22067121  0.89240241  0.08901558
   0.67272575  0.16477038  0.21840837
   0.94927612  0.02809995  0.15233499
   0.38575407  0.31101386  0.28700343
   0.44927612  0.52809995  0.15233499
   0.90997272  0.27720203  0.28491004
   0.44927612  0.02809995  0.15233499
   0.86022848  0.79051570  0.28095256
   0.90282244  0.55132680  0.10484543
   0.35803779  0.81215397  0.23376548
   0.99609123  0.50263981  0.20366435
   0.48670933  0.79215774  0.34918587
   0.53851998  0.23347802  0.07318573
   0.07155881  0.38692024  0.35408821
   0.80816067  0.57235783  0.31720059
   0.87926422  0.06310591  0.05527763
   0.33990856  0.33324376  0.18308172
   0.58246139  0.21150732  0.12452493
   0.05735989  0.45329680  0.25684197
   0.31422145  0.11549671  0.38540177
   0.09516526  0.72856013  0.12156099
   0.56839978  0.44393504  0.25338363
   0.74455964  0.11130181  0.31477745
   0.85888103  0.57329750  0.05350623
   0.31085357  0.84705978  0.18052827
   0.56207820  0.72169891  0.12275353
   0.01765326  0.97529712  0.25565694
   0.79966661  0.32807804  0.18440566
   0.26010359  0.60775190  0.33604293
   0.34617716  0.60305419  0.05647018
   0.24499558  0.12154911  0.31877137
   0.80198116  0.87504250  0.18405416
   0.34617716  0.05624469  0.05647018
   0.55848394  0.98590932  0.25035064
   0.09516526  0.18175063  0.12156099
   0.77893639  0.57840134  0.38416810
   0.34047062  0.60391201  0.02782883
   0.92434681  0.68523651  0.03696881
   0.34363348  0.06399961  0.02783421
   0.88838126  0.05560908  0.02665597
   0.29079987  0.11265239  0.41009002
   0.73324302  0.13374121  0.33984101
   0.12975991  0.78241119  0.32928189
   0.78306839  0.62471175  0.40815355
Direct configuration=     6
   0.22067121  0.89240241  0.08901558
   0.67299295  0.16394434  0.21855837
   0.94927612  0.02809995  0.15233499
   0.38566059  0.31150295  0.28684327
   0.44927612  0.52809995  0.15233499
   0.90964734  0.27797208  0.28482721
   0.44927612  0.02809995  0.15233499
   0.86274159  0.78875333  0.28090645
   0.90282244  0.55132680  0.10484543
   0.35913475  0.81181889  0.23384658
   0.99585330  0.50278572  0.20370711
   0.48624727  0.79239140  0.34903502
   0.53851998  0.23347802  0.07318573
   0.07337513  0.38663742  0.35370856
   0.80700944  0.57231647  0.31727002
   0.87926422  0.06310591  0.05527763
   0.34047841  0.33167139  0.18284221
   0.58246139  0.21150732  0.12452493
   0.05524877  0.45642570  0.25701842
   0.31309212  0.11654488  0.38529271
   0.09516526  0.72856013  0.12156099
   0.56939978  0.44394269  0.25325292
   0.74512891  0.11022675  0.31477350
   0.85888103  0.57329750  0.05350623
   0.31145811  0.84740180  0.18033231
   0.56207820  0.72169891  0.12275353
   0.01659564  0.97548619  0.25576954
   0.79990923  0.32596086  0.18417432
   0.25822855  0.60960430  0.33609559
   0.34617716  0.60305419  0.05647018
   0.24362848  0.12147033  0.31913651
   0.80218839  0.87633872  0.18387441
   0.34617716  0.05624469  0.05647018
   0.55845214  0.98514048  0.25025661
   0.09516526  0.18175063  0.12156099
   0.78052310  0.57806268  0.38411476
   0.34047062  0.60391201  0.02782883
   0.92434681  0.68523651  0.03696881
   0.34363348  0.06399961  0.02783421
   0.88838126  0.05560908  0.02665597
   0.29033760  0.11306839  0.41012752
   0.73371717  0.13303062  0.33966749
   0.13152742  0.78003713  0.32938993
   0.78300872  0.62452585  0.40812537
Direct configuration=     7
   0.22067121  0.89240241  0.08901558
   0.67291453  0.16418677  0.21851435
   0.94927612  0.02809995  0.15233499
   0.38568803  0.31135941  0.28689027
   0.44927612  0.52809995  0.15233499
   0.90974283  0.27774609  0.28485152
   0.44927612  0.02809995  0.15233499
   0.86200403  0.78927055  0.28091998
   0.90282244  0.55132680  0.10484543
   0.35881281  0.81191723  0.23382278
   0.99592313  0.50274290  0.20369456
   0.48638288  0.79232282  0.34907929
   0.53851998  0.23347802  0.07318573
   0.07284207  0.38672042  0.35381998
   0.80734731  0.57232861  0.31724964
   0.87926422  0.06310591  0.05527763
   0.34031117  0.33213285  0.18291250
   0.58246139  0.21150732  0.12452493
   0.05586834  0.45550742  0.25696664
   0.31342356  0.11623726  0.38532472
   0.09516526  0.72856013  0.12156099
   0.56910630  0.44394045  0.25329128
   0.74496184  0.11054226  0.31477466
   0.85888103  0.57329750  0.05350623
   0.31128069  0.84730143  0.18038982
   0.56207820  0.72169891  0.12275353
   0.01690603  0.97543070  0.25573649
   0.79983803  0.32658221  0.18424221
   0.25877884  0.60906065  0.33608014
   0.34617716  0.60305419  0.05647018
   0.24402970  0.12149345  0.31902935
   0.80212757  0.87595831  0.18392716
   0.34617716  0.05624469  0.05647018
   0.55846147  0.98536613  0.25028421
   0.09516526  0.18175063  0.12156099
   0.78005743  0.57816207  0.38413041
   0.34047062  0.60391201  0.02782883
   0.92434681  0.68523651  0.03696881
   0.34363348  0.06399961  0.02783421
   0.88838126  0.05560908  0.02665597
   0.29047327  0.11294630  0.41011652
   0.73357802  0.13323917  0.33971841
   0.13100868  0.78073387  0.32935822
   0.78302623  0.62458041  0.40813364
Direct configuration=     8
   0.22067121  0.89240241  0.08901558
   0.67352526  0.16343721  0.21838227
   0.94927612  0.02809995  0.15233499
   0.38573052  0.31188243  0.28670287
   0.44927612  0.52809995  0.15233499
   0.90889679  0.27840700  0.28469715
   0.44927612  0.02809995  0.15233499
   0.86269792  0.78938725  0.28085476
   0.90282244  0.55132680  0.10484543
   0.35956917  0.81164484  0.23377309
   0.99554081  0.50282375  0.20360303
   0.48635492  0.79229822  0.34894382
   0.53851998  0.23347802  0.07318573
   0.07310182  0.38646000  0.35371258
   0.80626474  0.57165449  0.31742327
   0.87926422  0.06310591  0.05527763
   0.34028005  0.33110434  0.18282325
   0.58246139  0.21150732  0.12452493
   0.05440532  0.45699035  0.25702768
   0.31258313  0.11678847  0.38531761
   0.09516526  0.72856013  0.12156099
   0.57053853  0.44416207  0.25317691
   0.74581474  0.10945315  0.31470082
   0.85888103  0.57329750  0.05350623
   0.31184502  0.84746151  0.18036968
   0.56207820  0.72169891  0.12275353
   0.01682192  0.97619533  0.25583730
   0.80013809  0.32523497  0.18418694
   0.25981229  0.60843687  0.33622781
   0.34617716  0.60305419  0.05647018
   0.24273107  0.12069050  0.31941223
   0.80239246  0.87643279  0.18391197
   0.34617716  0.05624469  0.05647018
   0.55879326  0.98423769  0.25029424
   0.09516526  0.18175063  0.12156099
   0.78136102  0.57796734  0.38401700
   0.34047062  0.60391201  0.02782883
   0.92434681  0.68523651  0.03696881
   0.34363348  0.06399961  0.02783421
   0.88838126  0.05560908  0.02665597
   0.28996910  0.11357191  0.41001958
   0.73409284  0.13265778  0.33966593
   0.13019907  0.78201269  0.32932023
   0.78317377  0.62440687  0.40809652
Direct configuration=     9
   0.22067121  0.89240241  0.08901558
   0.67367883  0.16324872  0.21834906
   0.94927612  0.02809995  0.15233499
   0.38574120  0.31201396  0.28665574
   0.44927612  0.52809995  0.15233499
   0.90868404  0.27857320  0.28465833
   0.44927612  0.02809995  0.15233499
   0.86287240  0.78941660  0.28083835
   0.90282244  0.55132680  0.10484543
   0.35975936  0.81157634  0.23376059
   0.99544467  0.50284409  0.20358002
   0.48634789  0.79229204  0.34890975
   0.53851998  0.23347802  0.07318573
   0.07316714  0.38639451  0.35368557
   0.80599251  0.57148498  0.31746694
   0.87926422  0.06310591  0.05527763
   0.34027222  0.33084571  0.18280080
   0.58246139  0.21150732  0.12452493
   0.05403743  0.45736325  0.25704303
   0.31237180  0.11692707  0.38531583
   0.09516526  0.72856013  0.12156099
   0.57089869  0.44421780  0.25314815
   0.74602922  0.10917928  0.31468225
   0.85888103  0.57329750  0.05350623
   0.31198693  0.84750176  0.18036461
   0.56207820  0.72169891  0.12275353
   0.01680077  0.97638761  0.25586265
   0.80021355  0.32489619  0.18417304
   0.26007216  0.60828001  0.33626495
   0.34617716  0.60305419  0.05647018
   0.24240451  0.12048859  0.31950851
   0.80245908  0.87655211  0.18390815
   0.34617716  0.05624469  0.05647018
   0.55887670  0.98395393  0.25029677
   0.09516526  0.18175063  0.12156099
   0.78168882  0.57791837  0.38398848
   0.34047062  0.60391201  0.02782883
   0.92434681  0.68523651  0.03696881
   0.34363348  0.06399961  0.02783421
   0.88838126  0.05560908  0.02665597
   0.28984232  0.11372923  0.40999520
   0.73422231  0.13251158  0.33965273
   0.12999548  0.78233426  0.32931068
   0.78321087  0.62436324  0.40808718
Direct configuration=    10
   0.22067121  0.89240241  0.08901558
   0.67392007  0.16295502  0.21830071
   0.94927612  0.02809995  0.15233499
   0.38573563  0.31220321  0.28657863
   0.44927612  0.52809995  0.15233499
   0.90825702  0.27893750  0.28459330
   0.44927612  0.02809995  0.15233499
   0.86269287  0.78980697  0.28081285
   0.90282244  0.55132680  0.10484543
   0.35996373  0.81151270  0.23373420
   0.99529592  0.50283614  0.20354526
   0.48642875  0.79220448  0.34886008
   0.53851998  0.23347802  0.07318573
   0.07306140  0.38618599  0.35364953
   0.80572794  0.57091181  0.31757472
   0.87926422  0.06310591  0.05527763
   0.34018781  0.33052831  0.18277946
   0.58246139  0.21150732  0.12452493
   0.05369094  0.45745796  0.25702308
   0.31202966  0.11720449  0.38527245
   0.09516526  0.72856013  0.12156099
   0.57155598  0.44426022  0.25309048
   0.74636917  0.10880919  0.31468676
   0.85888103  0.57329750  0.05350623
   0.31221528  0.84751350  0.18037097
   0.56207820  0.72169891  0.12275353
   0.01706292  0.97685671  0.25588035
   0.80034667  0.32447469  0.18416164
   0.26011022  0.60856236  0.33630091
   0.34617716  0.60305419  0.05647018
   0.24179001  0.12030269  0.31966467
   0.80260199  0.87659152  0.18391129
   0.34617716  0.05624469  0.05647018
   0.55907541  0.98353739  0.25030400
   0.09516526  0.18175063  0.12156099
   0.78227534  0.57787347  0.38394875
   0.34047062  0.60391201  0.02782883
   0.92434681  0.68523651  0.03696881
   0.34363348  0.06399961  0.02783421
   0.88838126  0.05560908  0.02665597
   0.28954437  0.11406082  0.40998009
   0.73444310  0.13230732  0.33961768
   0.13003336  0.78239006  0.32931557
   0.78332871  0.62424063  0.40805395
Direct configuration=    11
   0.22067121  0.89240241  0.08901558
   0.67395286  0.16291510  0.21829414
   0.94927612  0.02809995  0.15233499
   0.38573487  0.31222893  0.28656814
   0.44927612  0.52809995  0.15233499
   0.90819897  0.27898702  0.28458446
   0.44927612  0.02809995  0.15233499
   0.86266846  0.78986003  0.28080939
   0.90282244  0.55132680  0.10484543
   0.35999152  0.81150405  0.23373061
   0.99527570  0.50283506  0.20354054
   0.48643975  0.79219258  0.34885333
   0.53851998  0.23347802  0.07318573
   0.07304703  0.38615765  0.35364463
   0.80569197  0.57083389  0.31758937
   0.87926422  0.06310591  0.05527763
   0.34017634  0.33048516  0.18277656
   0.58246139  0.21150732  0.12452493
   0.05364384  0.45747083  0.25702037
   0.31198315  0.11724220  0.38526655
   0.09516526  0.72856013  0.12156099
   0.57164533  0.44426598  0.25308264
   0.74641538  0.10875888  0.31468737
   0.85888103  0.57329750  0.05350623
   0.31224633  0.84751510  0.18037183
   0.56207820  0.72169891  0.12275353
   0.01709856  0.97692048  0.25588276
   0.80036476  0.32441739  0.18416009
   0.26011539  0.60860074  0.33630580
   0.34617716  0.60305419  0.05647018
   0.24170647  0.12027742  0.31968590
   0.80262142  0.87659688  0.18391171
   0.34617716  0.05624469  0.05647018
   0.55910243  0.98348077  0.25030498
   0.09516526  0.18175063  0.12156099
   0.78235507  0.57786737  0.38394335
   0.34047062  0.60391201  0.02782883
   0.92434681  0.68523651  0.03696881
   0.34363348  0.06399961  0.02783421
   0.88838126  0.05560908  0.02665597
   0.28950386  0.11410590  0.40997804
   0.73447312  0.13227956  0.33961292
   0.13003851  0.78239764  0.32931623
   0.78334473  0.62422396  0.40804943
Direct configuration=    12
   0.22067121  0.89240241  0.08901558
   0.67401845  0.16283525  0.21828099
   0.94927612  0.02809995  0.15233499
   0.38573336  0.31228038  0.28654718
   0.44927612  0.52809995  0.15233499
   0.90808288  0.27908606  0.28456678
   0.44927612  0.02809995  0.15233499
   0.86261965  0.78996616  0.28080245
   0.90282244  0.55132680  0.10484543
   0.36004708  0.81148675  0.23372343
   0.99523525  0.50283290  0.20353109
   0.48646173  0.79216878  0.34883983
   0.53851998  0.23347802  0.07318573
   0.07301828  0.38610096  0.35363484
   0.80562004  0.57067806  0.31761868
   0.87926422  0.06310591  0.05527763
   0.34015339  0.33039887  0.18277076
   0.58246139  0.21150732  0.12452493
   0.05354964  0.45749658  0.25701495
   0.31189013  0.11731763  0.38525476
   0.09516526  0.72856013  0.12156099
   0.57182404  0.44427751  0.25306696
   0.74650780  0.10865826  0.31468859
   0.85888103  0.57329750  0.05350623
   0.31230841  0.84751829  0.18037356
   0.56207820  0.72169891  0.12275353
   0.01716983  0.97704802  0.25588758
   0.80040096  0.32430279  0.18415699
   0.26012573  0.60867751  0.33631558
   0.34617716  0.60305419  0.05647018
   0.24153941  0.12022688  0.31972836
   0.80266028  0.87660759  0.18391257
   0.34617716  0.05624469  0.05647018
   0.55915645  0.98336752  0.25030695
   0.09516526  0.18175063  0.12156099
   0.78251452  0.57785516  0.38393255
   0.34047062  0.60391201  0.02782883
   0.92434681  0.68523651  0.03696881
   0.34363348  0.06399961  0.02783421
   0.88838126  0.05560908  0.02665597
   0.28942286  0.11419605  0.40997393
   0.73453315  0.13222403  0.33960339
   0.13004881  0.78241281  0.32931756
   0.78337677  0.62419063  0.40804039
Direct configuration=    13
   0.22067121  0.89240241  0.08901558
   0.67414962  0.16267556  0.21825470
   0.94927612  0.02809995  0.15233499
   0.38573033  0.31238329  0.28650524
   0.44927612  0.52809995  0.15233499
   0.90785069  0.27928415  0.28453142
   0.44927612  0.02809995  0.15233499
   0.86252203  0.79017843  0.28078859
   0.90282244  0.55132680  0.10484543
   0.36015821  0.81145214  0.23370908
   0.99515437  0.50282858  0.20351219
   0.48650571  0.79212117  0.34881282
   0.53851998  0.23347802  0.07318573
   0.07296078  0.38598758  0.35361524
   0.80547618  0.57036639  0.31767728
   0.87926422  0.06310591  0.05527763
   0.34010749  0.33022629  0.18275915
   0.58246139  0.21150732  0.12452493
   0.05336123  0.45754808  0.25700410
   0.31170410  0.11746847  0.38523117
   0.09516526  0.72856013  0.12156099
   0.57218144  0.44430057  0.25303560
   0.74669265  0.10845703  0.31469104
   0.85888103  0.57329750  0.05350623
   0.31243258  0.84752467  0.18037702
   0.56207820  0.72169891  0.12275353
   0.01731238  0.97730309  0.25589721
   0.80047334  0.32407360  0.18415079
   0.26014642  0.60883104  0.33633514
   0.34617716  0.60305419  0.05647018
   0.24120527  0.12012579  0.31981327
   0.80273799  0.87662902  0.18391427
   0.34617716  0.05624469  0.05647018
   0.55926451  0.98314103  0.25031088
   0.09516526  0.18175063  0.12156099
   0.78283344  0.57783075  0.38391094
   0.34047062  0.60391201  0.02782883
   0.92434681  0.68523651  0.03696881
   0.34363348  0.06399961  0.02783421
   0.88838126  0.05560908  0.02665597
   0.28926084  0.11437636  0.40996572
   0.73465321  0.13211296  0.33958433
   0.13006940  0.78244315  0.32932022
   0.78344084  0.62412396  0.40802232
Direct configuration=    14
   0.22067121  0.89240241  0.08901558
   0.67441197  0.16235616  0.21820212
   0.94927612  0.02809995  0.15233499
   0.38572427  0.31258910  0.28642137
   0.44927612  0.52809995  0.15233499
   0.90738631  0.27968033  0.28446069
   0.44927612  0.02809995  0.15233499
   0.86232679  0.79060295  0.28076085
   0.90282244  0.55132680  0.10484543
   0.36038046  0.81138293  0.23368038
   0.99499260  0.50281994  0.20347440
   0.48659365  0.79202596  0.34875880
   0.53851998  0.23347802  0.07318573
   0.07284578  0.38576081  0.35357605
   0.80518846  0.56974307  0.31779450
   0.87926422  0.06310591  0.05527763
   0.34001570  0.32988111  0.18273594
   0.58246139  0.21150732  0.12452493
   0.05298443  0.45765108  0.25698240
   0.31133203  0.11777017  0.38518400
   0.09516526  0.72856013  0.12156099
   0.57289625  0.44434669  0.25297289
   0.74706235  0.10805455  0.31469594
   0.85888103  0.57329750  0.05350623
   0.31268091  0.84753744  0.18038393
   0.56207820  0.72169891  0.12275353
   0.01759748  0.97781324  0.25591647
   0.80061811  0.32361521  0.18413840
   0.26018781  0.60913810  0.33637425
   0.34617716  0.60305419  0.05647018
   0.24053700  0.11992363  0.31998309
   0.80289341  0.87667188  0.18391768
   0.34617716  0.05624469  0.05647018
   0.55948061  0.98268804  0.25031874
   0.09516526  0.18175063  0.12156099
   0.78347128  0.57778193  0.38386773
   0.34047062  0.60391201  0.02782883
   0.92434681  0.68523651  0.03696881
   0.34363348  0.06399961  0.02783421
   0.88838126  0.05560908  0.02665597
   0.28893681  0.11473697  0.40994929
   0.73489333  0.13189083  0.33954622
   0.13011060  0.78250382  0.32932554
   0.78356899  0.62399063  0.40798618
Direct configuration=    15
   0.22067121  0.89240241  0.08901558
   0.67493667  0.16171738  0.21809697
   0.94927612  0.02809995  0.15233499
   0.38571215  0.31300071  0.28625364
   0.44927612  0.52809995  0.15233499
   0.90645754  0.28047268  0.28431925
   0.44927612  0.02809995  0.15233499
   0.86193630  0.79145200  0.28070539
   0.90282244  0.55132680  0.10484543
   0.36082497  0.81124451  0.23362297
   0.99466907  0.50280266  0.20339881
   0.48676954  0.79183553  0.34865077
   0.53851998  0.23347802  0.07318573
   0.07261579  0.38530728  0.35349766
   0.80461301  0.56849641  0.31802893
   0.87926422  0.06310591  0.05527763
   0.33983211  0.32919077  0.18268952
   0.58246139  0.21150732  0.12452493
   0.05223082  0.45785707  0.25693901
   0.31058788  0.11837356  0.38508966
   0.09516526  0.72856013  0.12156099
   0.57432586  0.44443893  0.25284746
   0.74780175  0.10724960  0.31470573
   0.85888103  0.57329750  0.05350623
   0.31317758  0.84756296  0.18039775
   0.56207820  0.72169891  0.12275353
   0.01816767  0.97883355  0.25595499
   0.80090764  0.32269843  0.18411361
   0.26027057  0.60975221  0.33645248
   0.34617716  0.60305419  0.05647018
   0.23920045  0.11951929  0.32032274
   0.80320426  0.87675760  0.18392451
   0.34617716  0.05624469  0.05647018
   0.55991282  0.98178206  0.25033447
   0.09516526  0.18175063  0.12156099
   0.78474695  0.57768428  0.38378132
   0.34047062  0.60391201  0.02782883
   0.92434681  0.68523651  0.03696881
   0.34363348  0.06399961  0.02783421
   0.88838126  0.05560908  0.02665597
   0.28828875  0.11545819  0.40991644
   0.73537357  0.13144657  0.33946999
   0.13019299  0.78262517  0.32933618
   0.78382529  0.62372396  0.40791390
Direct configuration=    16
   0.22067121  0.89240241  0.08901558
   0.67507748  0.16151711  0.21811109
   0.94927612  0.02809995  0.15233499
   0.38554706  0.31303993  0.28619179
   0.44927612  0.52809995  0.15233499
   0.90590980  0.28104459  0.28429251
   0.44927612  0.02809995  0.15233499
   0.86104225  0.79208070  0.28071309
   0.90282244  0.55132680  0.10484543
   0.36069599  0.81133492  0.23359196
   0.99459767  0.50263802  0.20338629
   0.48710475  0.79153581  0.34863505
   0.53851998  0.23347802  0.07318573
   0.07197620  0.38509922  0.35348664
   0.80492783  0.56742116  0.31815832
   0.87926422  0.06310591  0.05527763
   0.33963443  0.32925556  0.18270385
   0.58246139  0.21150732  0.12452493
   0.05262077  0.45687486  0.25683597
   0.31023929  0.11870640  0.38507625
   0.09516526  0.72856013  0.12156099
   0.57491362  0.44421750  0.25277304
   0.74796750  0.10710810  0.31468123
   0.85888103  0.57329750  0.05350623
   0.31336373  0.84738007  0.18042347
   0.56207820  0.72169891  0.12275353
   0.01910529  0.97941773  0.25589434
   0.80101623  0.32271929  0.18411662
   0.25978009  0.61042954  0.33644528
   0.34617716  0.60305419  0.05647018
   0.23862944  0.11983011  0.32038643
   0.80342376  0.87633856  0.18393345
   0.34617716  0.05624469  0.05647018
   0.56007404  0.98187619  0.25032933
   0.09516526  0.18175063  0.12156099
   0.78528177  0.57781861  0.38376269
   0.34047062  0.60391201  0.02782883
   0.92434681  0.68523651  0.03696881
   0.34363348  0.06399961  0.02783421
   0.88838126  0.05560908  0.02665597
   0.28785016  0.11601389  0.40986144
   0.73555654  0.13144552  0.33950175
   0.13062779  0.78217255  0.32936661
   0.78414178  0.62348920  0.40786420
Direct configuration=    17
   0.22067121  0.89240241  0.08901558
   0.67513170  0.16143999  0.21811653
   0.94927612  0.02809995  0.15233499
   0.38548348  0.31305503  0.28616798
   0.44927612  0.52809995  0.15233499
   0.90569887  0.28126483  0.28428222
   0.44927612  0.02809995  0.15233499
   0.86069795  0.79232281  0.28071606
   0.90282244  0.55132680  0.10484543
   0.36064633  0.81136974  0.23358002
   0.99457017  0.50257462  0.20338148
   0.48723384  0.79142038  0.34862899
   0.53851998  0.23347802  0.07318573
   0.07172989  0.38501910  0.35348239
   0.80504906  0.56700709  0.31820814
   0.87926422  0.06310591  0.05527763
   0.33955830  0.32928051  0.18270937
   0.58246139  0.21150732  0.12452493
   0.05277094  0.45649662  0.25679630
   0.31010506  0.11883458  0.38507108
   0.09516526  0.72856013  0.12156099
   0.57513997  0.44413223  0.25274439
   0.74803132  0.10705361  0.31467179
   0.85888103  0.57329750  0.05350623
   0.31343541  0.84730964  0.18043338
   0.56207820  0.72169891  0.12275353
   0.01946637  0.97964269  0.25587099
   0.80105804  0.32272733  0.18411778
   0.25959121  0.61069037  0.33644250
   0.34617716  0.60305419  0.05647018
   0.23840955  0.11994980  0.32041095
   0.80350829  0.87617719  0.18393690
   0.34617716  0.05624469  0.05647018
   0.56013612  0.98191244  0.25032735
   0.09516526  0.18175063  0.12156099
   0.78548773  0.57787034  0.38375552
   0.34047062  0.60391201  0.02782883
   0.92434681  0.68523651  0.03696881
   0.34363348  0.06399961  0.02783421
   0.88838126  0.05560908  0.02665597
   0.28768126  0.11622789  0.40984026
   0.73562700  0.13144512  0.33951398
   0.13079523  0.78199825  0.32937832
   0.78426366  0.62339880  0.40784506
Direct configuration=    18
   0.22067121  0.89240241  0.08901558
   0.67524015  0.16128574  0.21812740
   0.94927612  0.02809995  0.15233499
   0.38535634  0.31308523  0.28612035
   0.44927612  0.52809995  0.15233499
   0.90527700  0.28170531  0.28426163
   0.44927612  0.02809995  0.15233499
   0.86000936  0.79280702  0.28072199
   0.90282244  0.55132680  0.10484543
   0.36054699  0.81143937  0.23355613
   0.99451518  0.50244782  0.20337184
   0.48749202  0.79118954  0.34861688
   0.53851998  0.23347802  0.07318573
   0.07123728  0.38485885  0.35347391
   0.80529153  0.56617894  0.31830780
   0.87926422  0.06310591  0.05527763
   0.33940606  0.32933040  0.18272041
   0.58246139  0.21150732  0.12452493
   0.05307128  0.45574013  0.25671694
   0.30983658  0.11909094  0.38506076
   0.09516526  0.72856013  0.12156099
   0.57559266  0.44396168  0.25268707
   0.74815898  0.10694462  0.31465292
   0.85888103  0.57329750  0.05350623
   0.31357878  0.84716878  0.18045319
   0.56207820  0.72169891  0.12275353
   0.02018852  0.98009262  0.25582428
   0.80114168  0.32274340  0.18412010
   0.25921345  0.61121204  0.33643696
   0.34617716  0.60305419  0.05647018
   0.23796976  0.12018919  0.32046000
   0.80367735  0.87585445  0.18394378
   0.34617716  0.05624469  0.05647018
   0.56026028  0.98198493  0.25032339
   0.09516526  0.18175063  0.12156099
   0.78589965  0.57797380  0.38374118
   0.34047062  0.60391201  0.02782883
   0.92434681  0.68523651  0.03696881
   0.34363348  0.06399961  0.02783421
   0.88838126  0.05560908  0.02665597
   0.28734347  0.11665588  0.40979790
   0.73576792  0.13144431  0.33953844
   0.13113011  0.78164965  0.32940175
   0.78450742  0.62321799  0.40780679
Direct configuration=    19
   0.22067121  0.89240241  0.08901558
   0.67519589  0.16134869  0.21812297
   0.94927612  0.02809995  0.15233499
   0.38540823  0.31307290  0.28613978
   0.44927612  0.52809995  0.15233499
   0.90544916  0.28152555  0.28427003
   0.44927612  0.02809995  0.15233499
   0.86029037  0.79260942  0.28071957
   0.90282244  0.55132680  0.10484543
   0.36058753  0.81141095  0.23356588
   0.99453762  0.50249956  0.20337577
   0.48738666  0.79128375  0.34862182
   0.53851998  0.23347802  0.07318573
   0.07143832  0.38492425  0.35347737
   0.80519258  0.56651691  0.31826713
   0.87926422  0.06310591  0.05527763
   0.33946819  0.32931004  0.18271591
   0.58246139  0.21150732  0.12452493
   0.05294871  0.45604885  0.25674932
   0.30994614  0.11898632  0.38506497
   0.09516526  0.72856013  0.12156099
   0.57540792  0.44403128  0.25271046
   0.74810689  0.10698910  0.31466062
   0.85888103  0.57329750  0.05350623
   0.31352027  0.84722626  0.18044511
   0.56207820  0.72169891  0.12275353
   0.01989381  0.97990901  0.25584334
   0.80110755  0.32273684  0.18411915
   0.25936761  0.61099915  0.33643922
   0.34617716  0.60305419  0.05647018
   0.23814924  0.12009150  0.32043998
   0.80360836  0.87598616  0.18394097
   0.34617716  0.05624469  0.05647018
   0.56020961  0.98195535  0.25032501
   0.09516526  0.18175063  0.12156099
   0.78573155  0.57793158  0.38374703
   0.34047062  0.60391201  0.02782883
   0.92434681  0.68523651  0.03696881
   0.34363348  0.06399961  0.02783421
   0.88838126  0.05560908  0.02665597
   0.28748132  0.11648122  0.40981519
   0.73571041  0.13144464  0.33952845
   0.13099345  0.78179191  0.32939219
   0.78440794  0.62329178  0.40782241
Direct configuration=    20
   0.22067121  0.89240241  0.08901558
   0.67519329  0.16139155  0.21817206
   0.94927612  0.02809995  0.15233499
   0.38514917  0.31298978  0.28613468
   0.44927612  0.52809995  0.15233499
   0.90519704  0.28166206  0.28429808
   0.44927612  0.02809995  0.15233499
   0.86039013  0.79218881  0.28076437
   0.90282244  0.55132680  0.10484543
   0.36042437  0.81147007  0.23355212
   0.99456342  0.50230669  0.20337825
   0.48755373  0.79110795  0.34865376
   0.53851998  0.23347802  0.07318573
   0.07100721  0.38469749  0.35350109
   0.80577170  0.56616937  0.31826630
   0.87926422  0.06310591  0.05527763
   0.33938291  0.32963961  0.18273851
   0.58246139  0.21150732  0.12452493
   0.05334555  0.45572937  0.25671796
   0.30981284  0.11920644  0.38504540
   0.09516526  0.72856013  0.12156099
   0.57542085  0.44377685  0.25267655
   0.74789623  0.10714584  0.31462298
   0.85888103  0.57329750  0.05350623
   0.31354368  0.84699385  0.18045065
   0.56207820  0.72169891  0.12275353
   0.02037249  0.97980291  0.25578486
   0.80108538  0.32305315  0.18411848
   0.25956411  0.61037046  0.33645070
   0.34617716  0.60305419  0.05647018
   0.23804336  0.12070441  0.32037607
   0.80372272  0.87551895  0.18393585
   0.34617716  0.05624469  0.05647018
   0.56005177  0.98253707  0.25029902
   0.09516526  0.18175063  0.12156099
   0.78581955  0.57811958  0.38372560
   0.34047062  0.60391201  0.02782883
   0.92434681  0.68523651  0.03696881
   0.34363348  0.06399961  0.02783421
   0.88838126  0.05560908  0.02665597
   0.28711539  0.11692790  0.40980140
   0.73581208  0.13146310  0.33955754
   0.13064886  0.78228870  0.32938052
   0.78475402  0.62316549  0.40784154
Direct configuration=    21
   0.22067121  0.89240241  0.08901558
   0.67518909  0.16146076  0.21825136
   0.94927612  0.02809995  0.15233499
   0.38473080  0.31285553  0.28612645
   0.44927612  0.52809995  0.15233499
   0.90478988  0.28188252  0.28434339
   0.44927612  0.02809995  0.15233499
   0.86055123  0.79150954  0.28083671
   0.90282244  0.55132680  0.10484543
   0.36016088  0.81156555  0.23352991
   0.99460509  0.50199520  0.20338225
   0.48782354  0.79082405  0.34870535
   0.53851998  0.23347802  0.07318573
   0.07031100  0.38433129  0.35353940
   0.80670696  0.56560811  0.31826495
   0.87926422  0.06310591  0.05527763
   0.33924519  0.33017186  0.18277502
   0.58246139  0.21150732  0.12452493
   0.05398644  0.45521342  0.25666730
   0.30959756  0.11956191  0.38501381
   0.09516526  0.72856013  0.12156099
   0.57544174  0.44336595  0.25262180
   0.74755602  0.10739897  0.31456220
   0.85888103  0.57329750  0.05350623
   0.31358147  0.84661852  0.18045959
   0.56207820  0.72169891  0.12275353
   0.02114555  0.97963156  0.25569040
   0.80104958  0.32356398  0.18411740
   0.25988145  0.60935514  0.33646924
   0.34617716  0.60305419  0.05647018
   0.23787237  0.12169424  0.32027285
   0.80390741  0.87476443  0.18392758
   0.34617716  0.05624469  0.05647018
   0.55979685  0.98347653  0.25025704
   0.09516526  0.18175063  0.12156099
   0.78596166  0.57842320  0.38369098
   0.34047062  0.60391201  0.02782883
   0.92434681  0.68523651  0.03696881
   0.34363348  0.06399961  0.02783421
   0.88838126  0.05560908  0.02665597
   0.28652444  0.11764927  0.40977913
   0.73597629  0.13149291  0.33960450
   0.13009236  0.78309101  0.32936166
   0.78531293  0.62296153  0.40787243
Direct configuration=    22
   0.22067121  0.89240241  0.08901558
   0.67530495  0.16146371  0.21827933
   0.94927612  0.02809995  0.15233499
   0.38440271  0.31275885  0.28612084
   0.44927612  0.52809995  0.15233499
   0.90474286  0.28174144  0.28433334
   0.44927612  0.02809995  0.15233499
   0.86078002  0.79101491  0.28085280
   0.90282244  0.55132680  0.10484543
   0.36004440  0.81162156  0.23351525
   0.99468027  0.50174058  0.20339485
   0.48789367  0.79067646  0.34873709
   0.53851998  0.23347802  0.07318573
   0.06994440  0.38394839  0.35354716
   0.80736620  0.56532424  0.31827648
   0.87926422  0.06310591  0.05527763
   0.33923284  0.33052574  0.18279411
   0.58246139  0.21150732  0.12452493
   0.05442433  0.45483832  0.25664688
   0.30943817  0.11982239  0.38500395
   0.09516526  0.72856013  0.12156099
   0.57532704  0.44318353  0.25260035
   0.74717471  0.10772766  0.31461575
   0.85888103  0.57329750  0.05350623
   0.31357715  0.84638562  0.18045450
   0.56207820  0.72169891  0.12275353
   0.02150575  0.97954469  0.25564493
   0.80096346  0.32387136  0.18411096
   0.25940267  0.60954700  0.33644526
   0.34617716  0.60305419  0.05647018
   0.23784282  0.12239490  0.32019192
   0.80397423  0.87437101  0.18391879
   0.34617716  0.05624469  0.05647018
   0.55959090  0.98409410  0.25023789
   0.09516526  0.18175063  0.12156099
   0.78595341  0.57880256  0.38372231
   0.34047062  0.60391201  0.02782883
   0.92434681  0.68523651  0.03696881
   0.34363348  0.06399961  0.02783421
   0.88838126  0.05560908  0.02665597
   0.28604337  0.11824391  0.40975498
   0.73612010  0.13146937  0.33955734
   0.13037485  0.78275198  0.32938604
   0.78580520  0.62272196  0.40786769
Direct configuration=    23
   0.22067121  0.89240241  0.08901558
   0.67543656  0.16146705  0.21831111
   0.94927612  0.02809995  0.15233499
   0.38403002  0.31264903  0.28611447
   0.44927612  0.52809995  0.15233499
   0.90468946  0.28158118  0.28432192
   0.44927612  0.02809995  0.15233499
   0.86103990  0.79045307  0.28087108
   0.90282244  0.55132680  0.10484543
   0.35991210  0.81168518  0.23349859
   0.99476566  0.50145136  0.20340917
   0.48797334  0.79050881  0.34877315
   0.53851998  0.23347802  0.07318573
   0.06952798  0.38351346  0.35355597
   0.80811502  0.56500180  0.31828958
   0.87926422  0.06310591  0.05527763
   0.33921881  0.33092771  0.18281580
   0.58246139  0.21150732  0.12452493
   0.05492173  0.45441225  0.25662369
   0.30925711  0.12011827  0.38499276
   0.09516526  0.72856013  0.12156099
   0.57519675  0.44297633  0.25257599
   0.74674158  0.10810102  0.31467659
   0.85888103  0.57329750  0.05350623
   0.31357225  0.84612108  0.18044871
   0.56207820  0.72169891  0.12275353
   0.02191491  0.97944602  0.25559328
   0.80086563  0.32422052  0.18410365
   0.25885881  0.60976493  0.33641802
   0.34617716  0.60305419  0.05647018
   0.23780926  0.12319078  0.32010000
   0.80405013  0.87392412  0.18390881
   0.34617716  0.05624469  0.05647018
   0.55935696  0.98479561  0.25021615
   0.09516526  0.18175063  0.12156099
   0.78594404  0.57923349  0.38375790
   0.34047062  0.60391201  0.02782883
   0.92434681  0.68523651  0.03696881
   0.34363348  0.06399961  0.02783421
   0.88838126  0.05560908  0.02665597
   0.28549692  0.11891936  0.40972755
   0.73628346  0.13144264  0.33950377
   0.13069573  0.78236689  0.32941372
   0.78636438  0.62244984  0.40786230
Direct configuration=    24
   0.22067121  0.89240241  0.08901558
   0.67566656  0.16138884  0.21828396
   0.94927612  0.02809995  0.15233499
   0.38385370  0.31258282  0.28610951
   0.44927612  0.52809995  0.15233499
   0.90486765  0.28115073  0.28427836
   0.44927612  0.02809995  0.15233499
   0.86134396  0.79022349  0.28084910
   0.90282244  0.55132680  0.10484543
   0.36001974  0.81166674  0.23348717
   0.99487044  0.50124681  0.20342327
   0.48784934  0.79048629  0.34878426
   0.53851998  0.23347802  0.07318573
   0.06941131  0.38315422  0.35353923
   0.80847208  0.56497770  0.31830324
   0.87926422  0.06310591  0.05527763
   0.33932789  0.33106096  0.18281503
   0.58246139  0.21150732  0.12452493
   0.05510114  0.45428230  0.25662927
   0.30911556  0.12033407  0.38498167
   0.09516526  0.72856013  0.12156099
   0.57501037  0.44303364  0.25258288
   0.74642970  0.10824098  0.31462731
   0.85888103  0.57329750  0.05350623
   0.31353060  0.84605717  0.18042989
   0.56207820  0.72169891  0.12275353
   0.02185846  0.97936663  0.25559407
   0.80075003  0.32428470  0.18408824
   0.25859319  0.60985452  0.33640981
   0.34617716  0.60305419  0.05647018
   0.23789769  0.12355245  0.32005175
   0.80401850  0.87388114  0.18389852
   0.34617716  0.05624469  0.05647018
   0.55923941  0.98503958  0.25022054
   0.09516526  0.18175063  0.12156099
   0.78588293  0.57952620  0.38376293
   0.34047062  0.60391201  0.02782883
   0.92434681  0.68523651  0.03696881
   0.34363348  0.06399961  0.02783421
   0.88838126  0.05560908  0.02665597
   0.28501881  0.11949004  0.40971302
   0.73637269  0.13149527  0.33954313
   0.13081221  0.78220091  0.32943066
   0.78686265  0.62228847  0.40790353
Direct configuration=    25
   0.22067121  0.89240241  0.08901558
   0.67600660  0.16127320  0.21824384
   0.94927612  0.02809995  0.15233499
   0.38359303  0.31248494  0.28610219
   0.44927612  0.52809995  0.15233499
   0.90513110  0.28051434  0.28421396
   0.44927612  0.02809995  0.15233499
   0.86179350  0.78988407  0.28081661
   0.90282244  0.55132680  0.10484543
   0.36017888  0.81163947  0.23347029
   0.99502534  0.50094439  0.20344413
   0.48766601  0.79045301  0.34880068
   0.53851998  0.23347802  0.07318573
   0.06923883  0.38262310  0.35351449
   0.80899997  0.56494207  0.31832344
   0.87926422  0.06310591  0.05527763
   0.33948917  0.33125795  0.18281388
   0.58246139  0.21150732  0.12452493
   0.05536639  0.45409017  0.25663753
   0.30890628  0.12065310  0.38496529
   0.09516526  0.72856013  0.12156099
   0.57473483  0.44311837  0.25259307
   0.74596861  0.10844791  0.31455446
   0.85888103  0.57329750  0.05350623
   0.31346902  0.84596269  0.18040206
   0.56207820  0.72169891  0.12275353
   0.02177499  0.97924926  0.25559525
   0.80057912  0.32437957  0.18406547
   0.25820048  0.60998698  0.33639768
   0.34617716  0.60305419  0.05647018
   0.23802841  0.12408716  0.31998042
   0.80397173  0.87381761  0.18388330
   0.34617716  0.05624469  0.05647018
   0.55906562  0.98540027  0.25022704
   0.09516526  0.18175063  0.12156099
   0.78579258  0.57995895  0.38377035
   0.34047062  0.60391201  0.02782883
   0.92434681  0.68523651  0.03696881
   0.34363348  0.06399961  0.02783421
   0.88838126  0.05560908  0.02665597
   0.28431196  0.12033375  0.40969153
   0.73650461  0.13157309  0.33960131
   0.13098443  0.78195551  0.32945570
   0.78759930  0.62204990  0.40796447
Direct configuration=    26
   0.22067121  0.89240241  0.08901558
   0.67622445  0.16118180  0.21820493
   0.94927612  0.02809995  0.15233499
   0.38351508  0.31242129  0.28609484
   0.44927612  0.52809995  0.15233499
   0.90533171  0.28014173  0.28417479
   0.44927612  0.02809995  0.15233499
   0.86209603  0.78973807  0.28078411
   0.90282244  0.55132680  0.10484543
   0.36042041  0.81158416  0.23345735
   0.99516545  0.50073396  0.20345718
   0.48745464  0.79046215  0.34880144
   0.53851998  0.23347802  0.07318573
   0.06911475  0.38234316  0.35348580
   0.80928589  0.56494408  0.31832631
   0.87926422  0.06310591  0.05527763
   0.33964464  0.33128774  0.18280717
   0.58246139  0.21150732  0.12452493
   0.05545622  0.45400705  0.25664393
   0.30872726  0.12089821  0.38495417
   0.09516526  0.72856013  0.12156099
   0.57453279  0.44325452  0.25260550
   0.74557996  0.10864350  0.31456570
   0.85888103  0.57329750  0.05350623
   0.31338566  0.84599987  0.18037977
   0.56207820  0.72169891  0.12275353
   0.02163324  0.97904786  0.25559608
   0.80047253  0.32437586  0.18404373
   0.25831697  0.60964573  0.33641416
   0.34617716  0.60305419  0.05647018
   0.23820492  0.12424464  0.31993925
   0.80392400  0.87386079  0.18387172
   0.34617716  0.05624469  0.05647018
   0.55902068  0.98548851  0.25023521
   0.09516526  0.18175063  0.12156099
   0.78575267  0.58031076  0.38380236
   0.34047062  0.60391201  0.02782883
   0.92434681  0.68523651  0.03696881
   0.34363348  0.06399961  0.02783421
   0.88838126  0.05560908  0.02665597
   0.28370162  0.12105074  0.40967448
   0.73664684  0.13155605  0.33957087
   0.13071424  0.78224844  0.32945682
   0.78823276  0.62180885  0.40799675
Direct configuration=    27
   0.22067121  0.89240241  0.08901558
   0.67634234  0.16113234  0.21818388
   0.94927612  0.02809995  0.15233499
   0.38347289  0.31238686  0.28609087
   0.44927612  0.52809995  0.15233499
   0.90544027  0.27994011  0.28415359
   0.44927612  0.02809995  0.15233499
   0.86225975  0.78965907  0.28076652
   0.90282244  0.55132680  0.10484543
   0.36055112  0.81155423  0.23345034
   0.99524127  0.50062009  0.20346425
   0.48734026  0.79046710  0.34880185
   0.53851998  0.23347802  0.07318573
   0.06904760  0.38219167  0.35347028
   0.80944061  0.56494516  0.31832786
   0.87926422  0.06310591  0.05527763
   0.33972877  0.33130386  0.18280354
   0.58246139  0.21150732  0.12452493
   0.05550483  0.45396207  0.25664740
   0.30863039  0.12103084  0.38494815
   0.09516526  0.72856013  0.12156099
   0.57442347  0.44332819  0.25261223
   0.74536964  0.10874934  0.31457179
   0.85888103  0.57329750  0.05350623
   0.31334055  0.84601999  0.18036771
   0.56207820  0.72169891  0.12275353
   0.02155653  0.97893888  0.25559652
   0.80041486  0.32437386  0.18403196
   0.25838001  0.60946107  0.33642307
   0.34617716  0.60305419  0.05647018
   0.23830043  0.12432986  0.31991697
   0.80389817  0.87388415  0.18386545
   0.34617716  0.05624469  0.05647018
   0.55899636  0.98553626  0.25023963
   0.09516526  0.18175063  0.12156099
   0.78573107  0.58050113  0.38381968
   0.34047062  0.60391201  0.02782883
   0.92434681  0.68523651  0.03696881
   0.34363348  0.06399961  0.02783421
   0.88838126  0.05560908  0.02665597
   0.28337134  0.12143872  0.40966526
   0.73672381  0.13154682  0.33955440
   0.13056803  0.78240696  0.32945743
   0.78857554  0.62167841  0.40801422
Direct configuration=    28
   0.22067121  0.89240241  0.08901558
   0.67657811  0.16103343  0.21814177
   0.94927612  0.02809995  0.15233499
   0.38338853  0.31231798  0.28608292
   0.44927612  0.52809995  0.15233499
   0.90565739  0.27953686  0.28411119
   0.44927612  0.02809995  0.15233499
   0.86258717  0.78950107  0.28073134
   0.90282244  0.55132680  0.10484543
   0.36081252  0.81149438  0.23343633
   0.99539291  0.50039235  0.20347838
   0.48711150  0.79047699  0.34880267
   0.53851998  0.23347802  0.07318573
   0.06891331  0.38188870  0.35343924
   0.80975005  0.56494733  0.31833096
   0.87926422  0.06310591  0.05527763
   0.33989703  0.33133610  0.18279627
   0.58246139  0.21150732  0.12452493
   0.05560204  0.45387210  0.25665433
   0.30843665  0.12129611  0.38493611
   0.09516526  0.72856013  0.12156099
   0.57420481  0.44347553  0.25262569
   0.74494902  0.10896103  0.31458397
   0.85888103  0.57329750  0.05350623
   0.31325033  0.84606024  0.18034359
   0.56207820  0.72169891  0.12275353
   0.02140311  0.97872091  0.25559742
   0.80029950  0.32436984  0.18400843
   0.25850609  0.60909175  0.33644090
   0.34617716  0.60305419  0.05647018
   0.23849146  0.12450030  0.31987240
   0.80384651  0.87393088  0.18385292
   0.34617716  0.05624469  0.05647018
   0.55894772  0.98563176  0.25024847
   0.09516526  0.18175063  0.12156099
   0.78568787  0.58088188  0.38385432
   0.34047062  0.60391201  0.02782883
   0.92434681  0.68523651  0.03696881
   0.34363348  0.06399961  0.02783421
   0.88838126  0.05560908  0.02665597
   0.28271079  0.12221468  0.40964681
   0.73687775  0.13152838  0.33952146
   0.13027561  0.78272399  0.32945865
   0.78926110  0.62141752  0.40804915
Direct configuration=    29
   0.22067121  0.89240241  0.08901558
   0.67645535  0.16108493  0.21816369
   0.94927612  0.02809995  0.15233499
   0.38343246  0.31235384  0.28608706
   0.44927612  0.52809995  0.15233499
   0.90554434  0.27974682  0.28413326
   0.44927612  0.02809995  0.15233499
   0.86241669  0.78958334  0.28074966
   0.90282244  0.55132680  0.10484543
   0.36067641  0.81152554  0.23344362
   0.99531396  0.50051093  0.20347102
   0.48723061  0.79047184  0.34880224
   0.53851998  0.23347802  0.07318573
   0.06898323  0.38204645  0.35345540
   0.80958893  0.56494620  0.31832934
   0.87926422  0.06310591  0.05527763
   0.33980942  0.33131931  0.18280005
   0.58246139  0.21150732  0.12452493
   0.05555142  0.45391895  0.25665072
   0.30853753  0.12115799  0.38494238
   0.09516526  0.72856013  0.12156099
   0.57431866  0.44339881  0.25261868
   0.74516803  0.10885081  0.31457763
   0.85888103  0.57329750  0.05350623
   0.31329731  0.84603928  0.18035615
   0.56207820  0.72169891  0.12275353
   0.02148299  0.97883440  0.25559695
   0.80035957  0.32437193  0.18402068
   0.25844044  0.60928404  0.33643162
   0.34617716  0.60305419  0.05647018
   0.23839200  0.12441156  0.31989561
   0.80387341  0.87390655  0.18385944
   0.34617716  0.05624469  0.05647018
   0.55897305  0.98558204  0.25024387
   0.09516526  0.18175063  0.12156099
   0.78571036  0.58068363  0.38383629
   0.34047062  0.60391201  0.02782883
   0.92434681  0.68523651  0.03696881
   0.34363348  0.06399961  0.02783421
   0.88838126  0.05560908  0.02665597
   0.28305472  0.12181066  0.40965642
   0.73679760  0.13153798  0.33953861
   0.13042786  0.78255892  0.32945801
   0.78890415  0.62155336  0.40803096
Direct configuration=    30
   0.22067121  0.89240241  0.08901558
   0.67643773  0.16107263  0.21815709
   0.94927612  0.02809995  0.15233499
   0.38355687  0.31231937  0.28608286
   0.44927612  0.52809995  0.15233499
   0.90554727  0.27979835  0.28414707
   0.44927612  0.02809995  0.15233499
   0.86246976  0.78961732  0.28074196
   0.90282244  0.55132680  0.10484543
   0.36091469  0.81147311  0.23343502
   0.99541774  0.50041285  0.20347110
   0.48708613  0.79047287  0.34879520
   0.53851998  0.23347802  0.07318573
   0.06882022  0.38211286  0.35344071
   0.80964826  0.56491884  0.31830382
   0.87926422  0.06310591  0.05527763
   0.33989873  0.33122350  0.18279525
   0.58246139  0.21150732  0.12452493
   0.05552407  0.45387096  0.25664224
   0.30837202  0.12133387  0.38493457
   0.09516526  0.72856013  0.12156099
   0.57426570  0.44346717  0.25262129
   0.74495730  0.10892785  0.31457517
   0.85888103  0.57329750  0.05350623
   0.31319547  0.84618601  0.18034824
   0.56207820  0.72169891  0.12275353
   0.02144020  0.97854113  0.25557739
   0.80035921  0.32435525  0.18400482
   0.25835023  0.60943494  0.33643562
   0.34617716  0.60305419  0.05647018
   0.23856777  0.12418244  0.31987755
   0.80387500  0.87392005  0.18385331
   0.34617716  0.05624469  0.05647018
   0.55907829  0.98546668  0.25024236
   0.09516526  0.18175063  0.12156099
   0.78578369  0.58087338  0.38385861
   0.34047062  0.60391201  0.02782883
   0.92434681  0.68523651  0.03696881
   0.34363348  0.06399961  0.02783421
   0.88838126  0.05560908  0.02665597
   0.28255022  0.12238746  0.40964263
   0.73691128  0.13150650  0.33950738
   0.13040756  0.78245141  0.32947316
   0.78941896  0.62135352  0.40805199
Direct configuration=    31
   0.22067121  0.89240241  0.08901558
   0.67638485  0.16103571  0.21813727
   0.94927612  0.02809995  0.15233499
   0.38393012  0.31221595  0.28607028
   0.44927612  0.52809995  0.15233499
   0.90555606  0.27995292  0.28418850
   0.44927612  0.02809995  0.15233499
   0.86262899  0.78971924  0.28071887
   0.90282244  0.55132680  0.10484543
   0.36162951  0.81131579  0.23340919
   0.99572910  0.50011861  0.20347135
   0.48665270  0.79047598  0.34877409
   0.53851998  0.23347802  0.07318573
   0.06833117  0.38231209  0.35339664
   0.80982624  0.56483676  0.31822726
   0.87926422  0.06310591  0.05527763
   0.34016665  0.33093606  0.18278085
   0.58246139  0.21150732  0.12452493
   0.05544202  0.45372699  0.25661678
   0.30787550  0.12186151  0.38491115
   0.09516526  0.72856013  0.12156099
   0.57410682  0.44367227  0.25262912
   0.74432511  0.10915897  0.31456778
   0.85888103  0.57329750  0.05350623
   0.31288996  0.84662620  0.18032449
   0.56207820  0.72169891  0.12275353
   0.02131184  0.97766131  0.25551871
   0.80035815  0.32430522  0.18395725
   0.25807959  0.60988761  0.33644764
   0.34617716  0.60305419  0.05647018
   0.23909510  0.12349510  0.31982337
   0.80387978  0.87396054  0.18383491
   0.34617716  0.05624469  0.05647018
   0.55939403  0.98512062  0.25023785
   0.09516526  0.18175063  0.12156099
   0.78600368  0.58144263  0.38392560
   0.34047062  0.60391201  0.02782883
   0.92434681  0.68523651  0.03696881
   0.34363348  0.06399961  0.02783421
   0.88838126  0.05560908  0.02665597
   0.28103670  0.12411788  0.40960124
   0.73725231  0.13141204  0.33941370
   0.13034663  0.78212887  0.32951862
   0.79096340  0.62075399  0.40811508
Direct configuration=    32
   0.22067121  0.89240241  0.08901558
   0.67633675  0.16104417  0.21813928
   0.94927612  0.02809995  0.15233499
   0.38406736  0.31219771  0.28606457
   0.44927612  0.52809995  0.15233499
   0.90557612  0.27993860  0.28419058
   0.44927612  0.02809995  0.15233499
   0.86259154  0.78980606  0.28071159
   0.90282244  0.55132680  0.10484543
   0.36179175  0.81129491  0.23340040
   0.99581276  0.50005858  0.20346658
   0.48656376  0.79046414  0.34876824
   0.53851998  0.23347802  0.07318573
   0.06822546  0.38239567  0.35337865
   0.80980088  0.56480969  0.31821266
   0.87926422  0.06310591  0.05527763
   0.34022152  0.33083876  0.18278108
   0.58246139  0.21150732  0.12452493
   0.05541854  0.45358978  0.25660401
   0.30767418  0.12205932  0.38490036
   0.09516526  0.72856013  0.12156099
   0.57412200  0.44368193  0.25262771
   0.74419285  0.10919844  0.31452411
   0.85888103  0.57329750  0.05350623
   0.31279468  0.84676649  0.18032326
   0.56207820  0.72169891  0.12275353
   0.02131948  0.97750233  0.25549907
   0.80037285  0.32431732  0.18394819
   0.25812991  0.60985845  0.33646152
   0.34617716  0.60305419  0.05647018
   0.23919273  0.12326785  0.31981877
   0.80390129  0.87392937  0.18383311
   0.34617716  0.05624469  0.05647018
   0.55953274  0.98498387  0.25023425
   0.09516526  0.18175063  0.12156099
   0.78612272  0.58157747  0.38392871
   0.34047062  0.60391201  0.02782883
   0.92434681  0.68523651  0.03696881
   0.34363348  0.06399961  0.02783421
   0.88838126  0.05560908  0.02665597
   0.28052550  0.12469325  0.40958926
   0.73734404  0.13141970  0.33942326
   0.13017281  0.78220402  0.32952580
   0.79148024  0.62057510  0.40814316
Direct configuration=    33
   0.22067121  0.89240241  0.08901558
   0.67621484  0.16106561  0.21814438
   0.94927612  0.02809995  0.15233499
   0.38441516  0.31215149  0.28605009
   0.44927612  0.52809995  0.15233499
   0.90562693  0.27990229  0.28419585
   0.44927612  0.02809995  0.15233499
   0.86249662  0.79002608  0.28069316
   0.90282244  0.55132680  0.10484543
   0.36220293  0.81124200  0.23337813
   0.99602479  0.49990643  0.20345451
   0.48633838  0.79043412  0.34875340
   0.53851998  0.23347802  0.07318573
   0.06795756  0.38260747  0.35333308
   0.80973659  0.56474109  0.31817565
   0.87926422  0.06310591  0.05527763
   0.34036060  0.33059218  0.18278165
   0.58246139  0.21150732  0.12452493
   0.05535904  0.45324204  0.25657166
   0.30716398  0.12256064  0.38487302
   0.09516526  0.72856013  0.12156099
   0.57416048  0.44370642  0.25262415
   0.74385769  0.10929845  0.31441345
   0.85888103  0.57329750  0.05350623
   0.31255324  0.84712202  0.18032012
   0.56207820  0.72169891  0.12275353
   0.02133883  0.97709943  0.25544929
   0.80041009  0.32434799  0.18392523
   0.25825742  0.60978453  0.33649671
   0.34617716  0.60305419  0.05647018
   0.23944014  0.12269195  0.31980709
   0.80395581  0.87385037  0.18382853
   0.34617716  0.05624469  0.05647018
   0.55988427  0.98463730  0.25022512
   0.09516526  0.18175063  0.12156099
   0.78642438  0.58191918  0.38393658
   0.34047062  0.60391201  0.02782883
   0.92434681  0.68523651  0.03696881
   0.34363348  0.06399961  0.02783421
   0.88838126  0.05560908  0.02665597
   0.27922999  0.12615139  0.40955890
   0.73757648  0.13143911  0.33944748
   0.12973230  0.78239449  0.32954401
   0.79279003  0.62012173  0.40821431
Direct configuration=    34
   0.22067121  0.89240241  0.08901558
   0.67615801  0.16109580  0.21814885
   0.94927612  0.02809995  0.15233499
   0.38455859  0.31215463  0.28603979
   0.44927612  0.52809995  0.15233499
   0.90572769  0.27971068  0.28417206
   0.44927612  0.02809995  0.15233499
   0.86250656  0.79001320  0.28068071
   0.90282244  0.55132680  0.10484543
   0.36232944  0.81124260  0.23336368
   0.99611029  0.49986877  0.20343812
   0.48627358  0.79041037  0.34875162
   0.53851998  0.23347802  0.07318573
   0.06794457  0.38267109  0.35329985
   0.80958048  0.56477695  0.31816230
   0.87926422  0.06310591  0.05527763
   0.34040771  0.33047219  0.18278780
   0.58246139  0.21150732  0.12452493
   0.05530040  0.45303517  0.25656110
   0.30678498  0.12291106  0.38486094
   0.09516526  0.72856013  0.12156099
   0.57424970  0.44364934  0.25261547
   0.74372093  0.10941076  0.31439857
   0.85888103  0.57329750  0.05350623
   0.31243605  0.84727899  0.18032365
   0.56207820  0.72169891  0.12275353
   0.02138835  0.97702082  0.25542408
   0.80042613  0.32440095  0.18392174
   0.25825195  0.60980811  0.33651723
   0.34617716  0.60305419  0.05647018
   0.23945132  0.12243965  0.31981406
   0.80400710  0.87375781  0.18383089
   0.34617716  0.05624469  0.05647018
   0.56008888  0.98445130  0.25021614
   0.09516526  0.18175063  0.12156099
   0.78666626  0.58214178  0.38395684
   0.34047062  0.60391201  0.02782883
   0.92434681  0.68523651  0.03696881
   0.34363348  0.06399961  0.02783421
   0.88838126  0.05560908  0.02665597
   0.27841752  0.12706167  0.40953604
   0.73772346  0.13139232  0.33941326
   0.12951225  0.78243089  0.32955776
   0.79359968  0.61980476  0.40822618
Direct configuration=    35
   0.22067121  0.89240241  0.08901558
   0.67598750  0.16118638  0.21816226
   0.94927612  0.02809995  0.15233499
   0.38498889  0.31216403  0.28600890
   0.44927612  0.52809995  0.15233499
   0.90602997  0.27913584  0.28410066
   0.44927612  0.02809995  0.15233499
   0.86253636  0.78997456  0.28064336
   0.90282244  0.55132680  0.10484543
   0.36270900  0.81124441  0.23332034
   0.99636679  0.49975581  0.20338896
   0.48607918  0.79033913  0.34874626
   0.53851998  0.23347802  0.07318573
   0.06790561  0.38286192  0.35320019
   0.80911216  0.56488452  0.31812225
   0.87926422  0.06310591  0.05527763
   0.34054904  0.33011222  0.18280624
   0.58246139  0.21150732  0.12452493
   0.05512446  0.45241456  0.25652941
   0.30564798  0.12396235  0.38482472
   0.09516526  0.72856013  0.12156099
   0.57451739  0.44347809  0.25258943
   0.74331062  0.10974771  0.31435396
   0.85888103  0.57329750  0.05350623
   0.31208447  0.84774991  0.18033424
   0.56207820  0.72169891  0.12275353
   0.02153691  0.97678499  0.25534844
   0.80047427  0.32455982  0.18391125
   0.25823554  0.60987883  0.33657878
   0.34617716  0.60305419  0.05647018
   0.23948485  0.12168276  0.31983496
   0.80416098  0.87348014  0.18383795
   0.34617716  0.05624469  0.05647018
   0.56070269  0.98389329  0.25018918
   0.09516526  0.18175063  0.12156099
   0.78739190  0.58280960  0.38401760
   0.34047062  0.60391201  0.02782883
   0.92434681  0.68523651  0.03696881
   0.34363348  0.06399961  0.02783421
   0.88838126  0.05560908  0.02665597
   0.27598010  0.12979249  0.40946746
   0.73816441  0.13125193  0.33931058
   0.12885209  0.78254008  0.32959902
   0.79602863  0.61885387  0.40826179
Direct configuration=    36
   0.22067121  0.89240241  0.08901558
   0.67593155  0.16121610  0.21816666
   0.94927612  0.02809995  0.15233499
   0.38513010  0.31216711  0.28599877
   0.44927612  0.52809995  0.15233499
   0.90612917  0.27894720  0.28407723
   0.44927612  0.02809995  0.15233499
   0.86254613  0.78996188  0.28063110
   0.90282244  0.55132680  0.10484543
   0.36283355  0.81124500  0.23330611
   0.99645096  0.49971873  0.20337283
   0.48601539  0.79031575  0.34874451
   0.53851998  0.23347802  0.07318573
   0.06789282  0.38292455  0.35316748
   0.80895848  0.56491982  0.31810911
   0.87926422  0.06310591  0.05527763
   0.34059542  0.32999409  0.18281229
   0.58246139  0.21150732  0.12452493
   0.05506673  0.45221090  0.25651901
   0.30527486  0.12430734  0.38481283
   0.09516526  0.72856013  0.12156099
   0.57460523  0.44342190  0.25258088
   0.74317597  0.10985828  0.31433931
   0.85888103  0.57329750  0.05350623
   0.31196910  0.84790444  0.18033772
   0.56207820  0.72169891  0.12275353
   0.02158566  0.97670760  0.25532362
   0.80049007  0.32461196  0.18390781
   0.25823015  0.60990204  0.33659898
   0.34617716  0.60305419  0.05647018
   0.23949586  0.12143437  0.31984182
   0.80421148  0.87338902  0.18384026
   0.34617716  0.05624469  0.05647018
   0.56090412  0.98371017  0.25018033
   0.09516526  0.18175063  0.12156099
   0.78763003  0.58302876  0.38403754
   0.34047062  0.60391201  0.02782883
   0.92434681  0.68523651  0.03696881
   0.34363348  0.06399961  0.02783421
   0.88838126  0.05560908  0.02665597
   0.27518022  0.13068864  0.40944496
   0.73830911  0.13120586  0.33927689
   0.12863545  0.78257591  0.32961255
   0.79682572  0.61854182  0.40827347
Direct configuration=    37
   0.22067121  0.89240241  0.08901558
   0.67603434  0.16119498  0.21814264
   0.94927612  0.02809995  0.15233499
   0.38509395  0.31217973  0.28599185
   0.44927612  0.52809995  0.15233499
   0.90633573  0.27856482  0.28403198
   0.44927612  0.02809995  0.15233499
   0.86277050  0.78952531  0.28061536
   0.90282244  0.55132680  0.10484543
   0.36283981  0.81126110  0.23328494
   0.99650110  0.49973410  0.20334049
   0.48609390  0.79025930  0.34877779
   0.53851998  0.23347802  0.07318573
   0.06792475  0.38302769  0.35312424
   0.80862479  0.56501585  0.31808045
   0.87926422  0.06310591  0.05527763
   0.34067401  0.32991804  0.18282495
   0.58246139  0.21150732  0.12452493
   0.05505640  0.45193075  0.25651520
   0.30460729  0.12489707  0.38479217
   0.09516526  0.72856013  0.12156099
   0.57474982  0.44329563  0.25255437
   0.74312707  0.10997450  0.31429478
   0.85888103  0.57329750  0.05350623
   0.31189422  0.84793062  0.18033621
   0.56207820  0.72169891  0.12275353
   0.02177472  0.97668475  0.25528488
   0.80042854  0.32468677  0.18391665
   0.25772236  0.61042256  0.33660367
   0.34617716  0.60305419  0.05647018
   0.23929736  0.12132358  0.31983635
   0.80427046  0.87332209  0.18384744
   0.34617716  0.05624469  0.05647018
   0.56111709  0.98355117  0.25016532
   0.09516526  0.18175063  0.12156099
   0.78814689  0.58332775  0.38400636
   0.34047062  0.60391201  0.02782883
   0.92434681  0.68523651  0.03696881
   0.34363348  0.06399961  0.02783421
   0.88838126  0.05560908  0.02665597
   0.27372547  0.13229340  0.40941519
   0.73855074  0.13112032  0.33923578
   0.12869000  0.78210510  0.32966021
   0.79823940  0.61806589  0.40830887
Direct configuration=    38
   0.22067121  0.89240241  0.08901558
   0.67609599  0.16118231  0.21812824
   0.94927612  0.02809995  0.15233499
   0.38507227  0.31218730  0.28598771
   0.44927612  0.52809995  0.15233499
   0.90645962  0.27833548  0.28400484
   0.44927612  0.02809995  0.15233499
   0.86290507  0.78926347  0.28060592
   0.90282244  0.55132680  0.10484543
   0.36284357  0.81127075  0.23327225
   0.99653117  0.49974331  0.20332109
   0.48614099  0.79022544  0.34879775
   0.53851998  0.23347802  0.07318573
   0.06794390  0.38308954  0.35309831
   0.80842465  0.56507345  0.31806327
   0.87926422  0.06310591  0.05527763
   0.34072115  0.32987242  0.18283254
   0.58246139  0.21150732  0.12452493
   0.05505020  0.45176272  0.25651291
   0.30420690  0.12525076  0.38477978
   0.09516526  0.72856013  0.12156099
   0.57483654  0.44321989  0.25253846
   0.74309773  0.11004421  0.31426808
   0.85888103  0.57329750  0.05350623
   0.31184931  0.84794632  0.18033531
   0.56207820  0.72169891  0.12275353
   0.02188811  0.97667105  0.25526165
   0.80039164  0.32473164  0.18392196
   0.25741780  0.61073475  0.33660648
   0.34617716  0.60305419  0.05647018
   0.23917830  0.12125713  0.31983306
   0.80430583  0.87328195  0.18385175
   0.34617716  0.05624469  0.05647018
   0.56124482  0.98345580  0.25015631
   0.09516526  0.18175063  0.12156099
   0.78845688  0.58350708  0.38398766
   0.34047062  0.60391201  0.02782883
   0.92434681  0.68523651  0.03696881
   0.34363348  0.06399961  0.02783421
   0.88838126  0.05560908  0.02665597
   0.27285296  0.13325588  0.40939733
   0.73869566  0.13106901  0.33921113
   0.12872272  0.78182273  0.32968879
   0.79908728  0.61778044  0.40833010
Direct configuration=    39
   0.22067121  0.89240241  0.08901558
   0.67625586  0.16111806  0.21810205
   0.94927612  0.02809995  0.15233499
   0.38493153  0.31216547  0.28598555
   0.44927612  0.52809995  0.15233499
   0.90658405  0.27808817  0.28397901
   0.44927612  0.02809995  0.15233499
   0.86313684  0.78880678  0.28059556
   0.90282244  0.55132680  0.10484543
   0.36278090  0.81126890  0.23325984
   0.99652356  0.49978649  0.20329809
   0.48626691  0.79019815  0.34883884
   0.53851998  0.23347802  0.07318573
   0.06794603  0.38319643  0.35306275
   0.80816853  0.56512170  0.31803558
   0.87926422  0.06310591  0.05527763
   0.34078924  0.32987722  0.18284063
   0.58246139  0.21150732  0.12452493
   0.05512456  0.45158185  0.25651104
   0.30370166  0.12567574  0.38477398
   0.09516526  0.72856013  0.12156099
   0.57491912  0.44312071  0.25251176
   0.74314506  0.11006251  0.31422392
   0.85888103  0.57329750  0.05350623
   0.31185645  0.84784554  0.18032708
   0.56207820  0.72169891  0.12275353
   0.02207690  0.97663626  0.25523397
   0.80031361  0.32477324  0.18393053
   0.25730097  0.61068736  0.33662263
   0.34617716  0.60305419  0.05647018
   0.23895228  0.12133165  0.31981685
   0.80433967  0.87328745  0.18385379
   0.34617716  0.05624469  0.05647018
   0.56134655  0.98341540  0.25014485
   0.09516526  0.18175063  0.12156099
   0.78891758  0.58379218  0.38398201
   0.34047062  0.60391201  0.02782883
   0.92434681  0.68523651  0.03696881
   0.34363348  0.06399961  0.02783421
   0.88838126  0.05560908  0.02665597
   0.27167742  0.13454505  0.40937360
   0.73889183  0.13099509  0.33918499
   0.12847158  0.78187344  0.32971145
   0.80019509  0.61737783  0.40831744
Direct configuration=    40
   0.22067121  0.89240241  0.08901558
   0.67665293  0.16095849  0.21803701
   0.94927612  0.02809995  0.15233499
   0.38458195  0.31211123  0.28598019
   0.44927612  0.52809995  0.15233499
   0.90689310  0.27747395  0.28391487
   0.44927612  0.02809995  0.15233499
   0.86371248  0.78767253  0.28056984
   0.90282244  0.55132680  0.10484543
   0.36262527  0.81126429  0.23322904
   0.99650465  0.49989372  0.20324097
   0.48657967  0.79013037  0.34894090
   0.53851998  0.23347802  0.07318573
   0.06795132  0.38346189  0.35297445
   0.80753242  0.56524155  0.31796680
   0.87926422  0.06310591  0.05527763
   0.34095835  0.32988915  0.18286074
   0.58246139  0.21150732  0.12452493
   0.05530925  0.45113262  0.25650639
   0.30244681  0.12673123  0.38475959
   0.09516526  0.72856013  0.12156099
   0.57512422  0.44287438  0.25244543
   0.74326259  0.11010795  0.31411423
   0.85888103  0.57329750  0.05350623
   0.31187420  0.84759524  0.18030665
   0.56207820  0.72169891  0.12275353
   0.02254579  0.97654985  0.25516522
   0.80011982  0.32487656  0.18395181
   0.25701081  0.61056966  0.33666276
   0.34617716  0.60305419  0.05647018
   0.23839092  0.12151674  0.31977657
   0.80442372  0.87330110  0.18385883
   0.34617716  0.05624469  0.05647018
   0.56159920  0.98331506  0.25011638
   0.09516526  0.18175063  0.12156099
   0.79006180  0.58450026  0.38396797
   0.34047062  0.60391201  0.02782883
   0.92434681  0.68523651  0.03696881
   0.34363348  0.06399961  0.02783421
   0.88838126  0.05560908  0.02665597
   0.26875777  0.13774690  0.40931466
   0.73937904  0.13081150  0.33912005
   0.12784786  0.78199938  0.32976771
   0.80294649  0.61637789  0.40828599
Direct configuration=    41
   0.22067121  0.89240241  0.08901558
   0.67668439  0.16088350  0.21805466
   0.94927612  0.02809995  0.15233499
   0.38456649  0.31197242  0.28596984
   0.44927612  0.52809995  0.15233499
   0.90676857  0.27759942  0.28392758
   0.44927612  0.02809995  0.15233499
   0.86365218  0.78776501  0.28055674
   0.90282244  0.55132680  0.10484543
   0.36265788  0.81119238  0.23323443
   0.99646202  0.49991545  0.20324735
   0.48657893  0.79021143  0.34896173
   0.53851998  0.23347802  0.07318573
   0.06779964  0.38358610  0.35294760
   0.80753091  0.56513564  0.31796202
   0.87926422  0.06310591  0.05527763
   0.34096772  0.32994718  0.18285472
   0.58246139  0.21150732  0.12452493
   0.05550784  0.45107515  0.25648653
   0.30238442  0.12673898  0.38477221
   0.09516526  0.72856013  0.12156099
   0.57506279  0.44285889  0.25243314
   0.74337141  0.10994513  0.31413905
   0.85888103  0.57329750  0.05350623
   0.31195562  0.84746698  0.18029305
   0.56207820  0.72169891  0.12275353
   0.02259328  0.97639115  0.25516753
   0.80014060  0.32486393  0.18393909
   0.25723207  0.61021201  0.33667623
   0.34617716  0.60305419  0.05647018
   0.23834703  0.12164074  0.31976044
   0.80443667  0.87334843  0.18384150
   0.34617716  0.05624469  0.05647018
   0.56159108  0.98337458  0.25011414
   0.09516526  0.18175063  0.12156099
   0.79023209  0.58466946  0.38396620
   0.34047062  0.60391201  0.02782883
   0.92434681  0.68523651  0.03696881
   0.34363348  0.06399961  0.02783421
   0.88838126  0.05560908  0.02665597
   0.26834857  0.13816986  0.40931580
   0.73946762  0.13075059  0.33907420
   0.12756513  0.78237869  0.32976474
   0.80328389  0.61628791  0.40825746
Direct configuration=    42
   0.22067121  0.89240241  0.08901558
   0.67669145  0.16086667  0.21805862
   0.94927612  0.02809995  0.15233499
   0.38456302  0.31194127  0.28596751
   0.44927612  0.52809995  0.15233499
   0.90674062  0.27762758  0.28393043
   0.44927612  0.02809995  0.15233499
   0.86363864  0.78778577  0.28055380
   0.90282244  0.55132680  0.10484543
   0.36266520  0.81117624  0.23323564
   0.99645245  0.49992033  0.20324878
   0.48657876  0.79022962  0.34896640
   0.53851998  0.23347802  0.07318573
   0.06776560  0.38361398  0.35294158
   0.80753057  0.56511187  0.31796094
   0.87926422  0.06310591  0.05527763
   0.34096982  0.32996020  0.18285337
   0.58246139  0.21150732  0.12452493
   0.05555241  0.45106225  0.25648207
   0.30237042  0.12674072  0.38477505
   0.09516526  0.72856013  0.12156099
   0.57504901  0.44285542  0.25243038
   0.74339583  0.10990858  0.31414463
   0.85888103  0.57329750  0.05350623
   0.31197389  0.84743820  0.18028999
   0.56207820  0.72169891  0.12275353
   0.02260393  0.97635553  0.25516805
   0.80014526  0.32486110  0.18393624
   0.25728173  0.61013174  0.33667925
   0.34617716  0.60305419  0.05647018
   0.23833718  0.12166857  0.31975682
   0.80443957  0.87335905  0.18383761
   0.34617716  0.05624469  0.05647018
   0.56158926  0.98338794  0.25011364
   0.09516526  0.18175063  0.12156099
   0.79027031  0.58470743  0.38396580
   0.34047062  0.60391201  0.02782883
   0.92434681  0.68523651  0.03696881
   0.34363348  0.06399961  0.02783421
   0.88838126  0.05560908  0.02665597
   0.26825673  0.13826479  0.40931606
   0.73948750  0.13073691  0.33906391
   0.12750167  0.78246382  0.32976407
   0.80335961  0.61626772  0.40825105
Direct configuration=    43
   0.22067121  0.89240241  0.08901558
   0.67671335  0.16078828  0.21808060
   0.94927612  0.02809995  0.15233499
   0.38458337  0.31174855  0.28595418
   0.44927612  0.52809995  0.15233499
   0.90654636  0.27782448  0.28394890
   0.44927612  0.02809995  0.15233499
   0.86356038  0.78796542  0.28054080
   0.90282244  0.55132680  0.10484543
   0.36272683  0.81107697  0.23324433
   0.99639172  0.49994331  0.20326043
   0.48651362  0.79037691  0.34898739
   0.53851998  0.23347802  0.07318573
   0.06760866  0.38371154  0.35291964
   0.80756187  0.56500551  0.31795515
   0.87926422  0.06310591  0.05527763
   0.34095352  0.33003856  0.18284309
   0.58246139  0.21150732  0.12452493
   0.05577422  0.45108959  0.25646026
   0.30237923  0.12666960  0.38478844
   0.09516526  0.72856013  0.12156099
   0.57494730  0.44285383  0.25242290
   0.74356822  0.10958678  0.31412688
   0.85888103  0.57329750  0.05350623
   0.31208807  0.84729023  0.18027609
   0.56207820  0.72169891  0.12275353
   0.02258426  0.97615923  0.25518433
   0.80019443  0.32482581  0.18391823
   0.25721204  0.61020945  0.33667163
   0.34617716  0.60305419  0.05647018
   0.23834017  0.12181058  0.31973770
   0.80444118  0.87341775  0.18381433
   0.34617716  0.05624469  0.05647018
   0.56152832  0.98347143  0.25011386
   0.09516526  0.18175063  0.12156099
   0.79038144  0.58487106  0.38393546
   0.34047062  0.60391201  0.02782883
   0.92434681  0.68523651  0.03696881
   0.34363348  0.06399961  0.02783421
   0.88838126  0.05560908  0.02665597
   0.26794966  0.13855306  0.40932826
   0.73955819  0.13070740  0.33906426
   0.12758858  0.78244453  0.32977679
   0.80358740  0.61628263  0.40823767
Direct configuration=    44
   0.22067121  0.89240241  0.08901558
   0.67672452  0.16074830  0.21809181
   0.94927612  0.02809995  0.15233499
   0.38459375  0.31165029  0.28594738
   0.44927612  0.52809995  0.15233499
   0.90644731  0.27792489  0.28395832
   0.44927612  0.02809995  0.15233499
   0.86352047  0.78805702  0.28053417
   0.90282244  0.55132680  0.10484543
   0.36275826  0.81102635  0.23324876
   0.99636075  0.49995503  0.20326637
   0.48648041  0.79045200  0.34899809
   0.53851998  0.23347802  0.07318573
   0.06752864  0.38376128  0.35290845
   0.80757783  0.56495128  0.31795219
   0.87926422  0.06310591  0.05527763
   0.34094521  0.33007851  0.18283785
   0.58246139  0.21150732  0.12452493
   0.05588732  0.45110353  0.25644914
   0.30238373  0.12663334  0.38479526
   0.09516526  0.72856013  0.12156099
   0.57489543  0.44285302  0.25241909
   0.74365613  0.10942270  0.31411783
   0.85888103  0.57329750  0.05350623
   0.31214628  0.84721479  0.18026900
   0.56207820  0.72169891  0.12275353
   0.02257422  0.97605913  0.25519262
   0.80021949  0.32480781  0.18390904
   0.25717650  0.61024908  0.33666774
   0.34617716  0.60305419  0.05647018
   0.23834169  0.12188299  0.31972795
   0.80444199  0.87344768  0.18380246
   0.34617716  0.05624469  0.05647018
   0.56149725  0.98351400  0.25011398
   0.09516526  0.18175063  0.12156099
   0.79043811  0.58495449  0.38391999
   0.34047062  0.60391201  0.02782883
   0.92434681  0.68523651  0.03696881
   0.34363348  0.06399961  0.02783421
   0.88838126  0.05560908  0.02665597
   0.26779309  0.13870005  0.40933448
   0.73959423  0.13069235  0.33906444
   0.12763289  0.78243470  0.32978328
   0.80370355  0.61629023  0.40823084
