Mn O  H 
 1.0000000000000000
     5.7471469900000001    0.0000000000000000    0.0000000000000000
     0.0000000000000000    5.7471469900000001    0.0000000000000000
     0.0000000000000000    0.0000000000000000   38.3523056924327008
 Mn  O   H  
  15  23   8
Selective dynamics
Direct
 -0.0093835343744717  0.2391760241319369  0.2623916092900749   F   F   F
  0.7489864879576713  0.4968346817732093  0.3235847127412249   F   F   F
  0.4413161195862366  0.2740844319979169  0.3919201308766168   T   T   T
  0.7021619709118871  0.0226788942870336  0.4531742416956799   T   T   T
  0.2016667211786072  0.0208751685587135  0.4586574878244918   T   T   T
  0.2510151206674320  0.4955812159049278  0.3269556710605909   F   F   F
  0.4429015973334859  0.7723284463081314  0.3930131007047786   T   T   T
 -0.0100916428494874  0.7513987945614823  0.2627757334990781   F   F   F
  0.0024768544779153 -0.0045784375955736  0.3571699137271092   F   F   F
  0.9433443217985429  0.5183656896916067  0.4255411426884407   T   T   T
  0.4672388868352406  0.5466277133871886  0.4918570600416388   T   T   T
  0.4872487909802456 -0.0043314717839424  0.2917774653642574   F   F   F
  0.5171772029722975  0.0830705008245686  0.6015020990005358   T   T   T
  0.9571169831979580  0.2756053678553659  0.5203725289684897   T   T   T
  0.0380947421029060  0.7770885364713068  0.5516140461598908   T   T   T
  0.9446741925410070  0.2502006342833700  0.4627252401313574   T   T   T
  0.7747574636748692  0.4958631552600724  0.2647010163483396   F   F   F
  0.4994775423373534  0.2678073900728424  0.3280746410023943   F   F   F
  0.6711432915201853  0.0252518514911656  0.3952816043801815   T   T   T
  0.0037645548922136  0.2690184215424850  0.3222536979589821   F   F   F
  0.7692367725186661 -0.0055241815224737  0.2597891457639432   F   F   F
  0.4524532034418324  0.2508906975455878  0.4571328628945701   T   T   T
  0.6692337294708421  0.5231792088634856  0.3898996904380212   T   T   T
  0.2111692605782599 -0.0057975698878655  0.2583053953367737   F   F   F
  0.2121377549409960  0.5236163863993518  0.3895945929342696   T   T   T
  0.2272536477132092  0.4962741366236937  0.2626329689737672   F   F   F
  0.2164771345591403  0.0233243394687334  0.3954440775133581   T   T   T
  0.4987015056994976  0.7247605740973498  0.3278246169346272   F   F   F
  0.9493483046160143  0.8019397544277266  0.4568869534446229   T   T   T
  0.4537780828981229  0.7930120849655142  0.4525927435482274   T   T   T
  0.0041034282560547  0.7236694402594225  0.3222276800561435   F   F   F
  0.7367865330641219  0.5645057666296025  0.5301994454074459   T   T   T
  0.2346313484683424  0.4908936772332599  0.5323523484941860   T   T   T
  0.8255927229642386  0.0619605195547085  0.6278352915309171   T   T   T
  0.2201125761556690  0.9934756745490767  0.5149622736274450   T   T   T
  0.8002158974973459  0.0621536418310735  0.5588150013830054   T   T   T
  0.4694010676392176  0.4259529660875348  0.5863650958465574   T   T   T
  0.2283112039152328  0.8708985274205047  0.5976216444078492   T   T   T
  0.3862807976787250  0.4992215041381847  0.2532026820654570   F   F   F
  0.6499096509518562  0.5260227545968299  0.5522536811241240   T   T   T
  0.3299803052739113  0.4496162463980312  0.5553350135751624   T   T   T
  0.8563607817833945  0.1791161999753948  0.6454964752203103   T   T   T
  0.3628385451605026  0.0570174345472962  0.5248142762185324   T   T   T
  0.8718757569462292  0.1150203613236088  0.5812634953978040   T   T   T
  0.4018918591931732  0.5523316200993059  0.6002970888201647   T   T   T
  0.1020441776027566  0.9268168561504743  0.6134321705918695   T   T   T
