Mn  O  H                                
   1.00000000000000     
     2.8735734950000000   -2.8735734950000000    4.7083351100000002
     5.7471469900000001    0.0000000000000000    0.0000000000000000
     0.0000000000000000   33.0656910066415008   20.1805290088081009
   Mn   O    H 
    14    23     9
Selective dynamics
Direct
  0.2206712106837827  0.8924024101981232  0.0890155841539979   F   F   F
  0.6746642452097079  0.1678929020497684  0.2181752631518966   T   T   T
  0.9492761232251894  0.0280999539274163  0.1523349856625060   F   F   F
  0.3995182055193812  0.3197684717737103  0.2867692504481412   T   T   T
  0.4492761232251894  0.5280999539274163  0.1523349856625060   F   F   F
  0.8884714557919818  0.3192308782423504  0.2802327605609098   T   T   T
  0.4492761232251894  0.0280999539274163  0.1523349856625060   F   F   F
  0.9087902788465901  0.8045509783162325  0.2836996782968078   T   T   T
  0.9028224388191362  0.5513267961304464  0.1048454345311214   F   F   F
  0.3701208087883360  0.8324236421287948  0.2333674612124381   T   T   T
  0.9971193246333850  0.5058849215286205  0.2029401695347452   T   T   T
  0.2819081859049392  0.8354740844867956  0.3619244777083580   T   T   T
  0.5385199825484293  0.2334780242657999  0.0731857337768673   F   F   F
  0.0507177367741967  0.4781457993979630  0.3498887361758936   T   T   T
  0.8070952159003754  0.5984511486804448  0.3123403545718746   T   T   T
  0.8792642171272149  0.0631059069764035  0.0552776342656358   F   F   F
  0.3412918571394029  0.3318857863588949  0.1831070917385572   T   T   T
  0.5824613929758371  0.2115073190520960  0.1245249348239739   F   F   F
  0.0638000478975583  0.4727874523963154  0.2560888590608117   T   T   T
  0.5983686038661475  0.7355636313714782  0.3874524111580683   T   T   T
  0.0951652613222294  0.7285601348788973  0.1215609852990625   F   F   F
  0.5685426674315696  0.4583288815081309  0.2509370366130743   T   T   T
  0.7638388563166264  0.1415587360301183  0.3128170389531701   T   T   T
  0.8588810283917283  0.5732975013441504  0.0535062334840219   F   F   F
  0.3114233509402686  0.8477866096102010  0.1804470611631241   T   T   T
  0.5620782042403505  0.7216989134198428  0.1227535340423529   F   F   F
  0.0236124680698493 -0.0041277448089563  0.2543470088959586   T   T   T
  0.8004347618877757  0.3291131120673918  0.1841274370349208   T   T   T
  0.2137763111328901  0.6276269283893831  0.3220186578287869   T   T   T
  0.3461771600453361  0.6030541855173510  0.0564701830089334   F   F   F
  0.3294364966824704  0.1050439725701086  0.3287317660444258   T   T   T
  0.7987713036632734  0.8782714446202743  0.1844911633876847   T   T   T
  0.3461771600453361  0.0562446855173491  0.0564701830089334   F   F   F
  0.5746624372602382 -0.0044380828252979  0.2534346453458693   T   T   T
  0.0951652613222294  0.1817506348788953  0.1215609852990625   F   F   F
  0.1377929796155822  0.6236940790494566  0.3903979595947358   T   T   T
 -0.0536161004906805  0.2310212943740131  0.3699380382268389   T   T   T
  0.3404706169097480  0.6039120138460916  0.0278288297643030   F   F   F
  0.9243468113422040  0.6852365052266407  0.0369688146645331   F   F   F
  0.3436334761770041  0.0639996102436484  0.0278342118600037   F   F   F
  0.8883812645227351  0.0556090842097916  0.0266559720288981   F   F   F
  0.5697442686617782  0.7802816009454739  0.4118091871017000   T   T   T
  0.8175885907871364  0.1692056800567766  0.3366543671300498   T   T   T
 -0.0160753156475636  0.7248416378361021  0.4023739579002866   T   T   T
 -0.1888089302183954  0.3461700479339801  0.3851551296853510   T   T   T
  0.4946226176165464  0.0514744383058758  0.3371161832068725   T   T   T
 
  0.00000000E+00  0.00000000E+00  0.00000000E+00
  0.00000000E+00  0.00000000E+00  0.00000000E+00
  0.00000000E+00  0.00000000E+00  0.00000000E+00
  0.00000000E+00  0.00000000E+00  0.00000000E+00
  0.00000000E+00  0.00000000E+00  0.00000000E+00
  0.00000000E+00  0.00000000E+00  0.00000000E+00
  0.00000000E+00  0.00000000E+00  0.00000000E+00
  0.00000000E+00  0.00000000E+00  0.00000000E+00
  0.00000000E+00  0.00000000E+00  0.00000000E+00
  0.00000000E+00  0.00000000E+00  0.00000000E+00
  0.00000000E+00  0.00000000E+00  0.00000000E+00
  0.00000000E+00  0.00000000E+00  0.00000000E+00
  0.00000000E+00  0.00000000E+00  0.00000000E+00
  0.00000000E+00  0.00000000E+00  0.00000000E+00
  0.00000000E+00  0.00000000E+00  0.00000000E+00
  0.00000000E+00  0.00000000E+00  0.00000000E+00
  0.00000000E+00  0.00000000E+00  0.00000000E+00
  0.00000000E+00  0.00000000E+00  0.00000000E+00
  0.00000000E+00  0.00000000E+00  0.00000000E+00
  0.00000000E+00  0.00000000E+00  0.00000000E+00
  0.00000000E+00  0.00000000E+00  0.00000000E+00
  0.00000000E+00  0.00000000E+00  0.00000000E+00
  0.00000000E+00  0.00000000E+00  0.00000000E+00
  0.00000000E+00  0.00000000E+00  0.00000000E+00
  0.00000000E+00  0.00000000E+00  0.00000000E+00
  0.00000000E+00  0.00000000E+00  0.00000000E+00
  0.00000000E+00  0.00000000E+00  0.00000000E+00
  0.00000000E+00  0.00000000E+00  0.00000000E+00
  0.00000000E+00  0.00000000E+00  0.00000000E+00
  0.00000000E+00  0.00000000E+00  0.00000000E+00
  0.00000000E+00  0.00000000E+00  0.00000000E+00
  0.00000000E+00  0.00000000E+00  0.00000000E+00
  0.00000000E+00  0.00000000E+00  0.00000000E+00
  0.00000000E+00  0.00000000E+00  0.00000000E+00
  0.00000000E+00  0.00000000E+00  0.00000000E+00
  0.00000000E+00  0.00000000E+00  0.00000000E+00
  0.00000000E+00  0.00000000E+00  0.00000000E+00
  0.00000000E+00  0.00000000E+00  0.00000000E+00
  0.00000000E+00  0.00000000E+00  0.00000000E+00
  0.00000000E+00  0.00000000E+00  0.00000000E+00
  0.00000000E+00  0.00000000E+00  0.00000000E+00
  0.00000000E+00  0.00000000E+00  0.00000000E+00
  0.00000000E+00  0.00000000E+00  0.00000000E+00
  0.00000000E+00  0.00000000E+00  0.00000000E+00
  0.00000000E+00  0.00000000E+00  0.00000000E+00
  0.00000000E+00  0.00000000E+00  0.00000000E+00
