unknown system                          
           1
     2.873573   -2.873573    4.708335
     5.747147    0.000000    0.000000
     0.000000   33.065691   20.180529
   Mn   O    H 
  14  23   9
Direct configuration=     1
   0.22067121  0.89240241  0.08901558
   0.67466425  0.16789290  0.21817526
   0.94927612  0.02809995  0.15233499
   0.39951821  0.31976847  0.28676925
   0.44927612  0.52809995  0.15233499
   0.88847146  0.31923088  0.28023276
   0.44927612  0.02809995  0.15233499
   0.90879028  0.80455098  0.28369968
   0.90282244  0.55132680  0.10484543
   0.37012081  0.83242364  0.23336746
   0.99711932  0.50588492  0.20294017
   0.28190819  0.83547408  0.36192448
   0.53851998  0.23347802  0.07318573
   0.05071774  0.47814580  0.34988874
   0.80709522  0.59845115  0.31234035
   0.87926422  0.06310591  0.05527763
   0.34129186  0.33188579  0.18310709
   0.58246139  0.21150732  0.12452493
   0.06380005  0.47278745  0.25608886
   0.59836860  0.73556363  0.38745241
   0.09516526  0.72856013  0.12156099
   0.56854267  0.45832888  0.25093704
   0.76383886  0.14155874  0.31281704
   0.85888103  0.57329750  0.05350623
   0.31142335  0.84778661  0.18044706
   0.56207820  0.72169891  0.12275353
   0.02361247  0.99587226  0.25434701
   0.80043476  0.32911311  0.18412744
   0.21377631  0.62762693  0.32201866
   0.34617716  0.60305419  0.05647018
   0.32943650  0.10504397  0.32873177
   0.79877130  0.87827144  0.18449116
   0.34617716  0.05624469  0.05647018
   0.57466244  0.99556192  0.25343465
   0.09516526  0.18175063  0.12156099
   0.13779298  0.62369408  0.39039796
   0.94638390  0.23102129  0.36993804
   0.34047062  0.60391201  0.02782883
   0.92434681  0.68523651  0.03696881
   0.34363348  0.06399961  0.02783421
   0.88838126  0.05560908  0.02665597
   0.56974427  0.78028160  0.41180919
   0.81758859  0.16920568  0.33665437
   0.98392468  0.72484164  0.40237396
   0.81119107  0.34617005  0.38515513
   0.49462262  0.05147444  0.33711618
Direct configuration=     2
   0.22067121  0.89240241  0.08901558
   0.67533939  0.16878427  0.21939409
   0.94927612  0.02809995  0.15233499
   0.40352716  0.31427048  0.28714198
   0.44927612  0.52809995  0.15233499
   0.88676228  0.31821074  0.28081083
   0.44927612  0.02809995  0.15233499
   0.90945979  0.80650635  0.28469535
   0.90282244  0.55132680  0.10484543
   0.36635507  0.83334239  0.23429841
   0.99708324  0.50679662  0.20396446
   0.27278348  0.84733797  0.36129274
   0.53851998  0.23347802  0.07318573
   0.05673996  0.45263184  0.34938504
   0.80583140  0.60353891  0.31339029
   0.87926422  0.06310591  0.05527763
   0.33622671  0.33372253  0.18363373
   0.58246139  0.21150732  0.12452493
   0.06515413  0.47634451  0.25550551
   0.62521371  0.71226130  0.37569610
   0.09516526  0.72856013  0.12156099
   0.56581451  0.45731399  0.25077688
   0.76069189  0.13847103  0.31142706
   0.85888103  0.57329750  0.05350623
   0.30395892  0.85213024  0.18080429
   0.56207820  0.72169891  0.12275353
   0.02627782  0.99531520  0.25313970
   0.79600802  0.33694332  0.18382958
   0.21534819  0.62927074  0.32005097
   0.34617716  0.60305419  0.05647018
   0.30281086  0.12064650  0.32723717
   0.79502218  0.87402963  0.18424439
   0.34617716  0.05624469  0.05647018
   0.57460130  0.99983621  0.25371094
   0.09516526  0.18175063  0.12156099
   0.18362457  0.59568607  0.38806514
   0.96811457  0.21373641  0.36784731
   0.34047062  0.60391201  0.02782883
   0.92434681  0.68523651  0.03696881
   0.34363348  0.06399961  0.02783421
   0.88838126  0.05560908  0.02665597
   0.56002273  0.80025323  0.42374082
   0.81793227  0.16871781  0.33729733
   0.94036428  0.75605421  0.40695740
   0.79482998  0.35382918  0.38824125
   0.51836944  0.04520335  0.33836019
Direct configuration=     3
   0.22067121  0.89240241  0.08901558
   0.67510045  0.16846880  0.21896273
   0.94927612  0.02809995  0.15233499
   0.40210833  0.31621630  0.28701007
   0.44927612  0.52809995  0.15233499
   0.88736719  0.31857178  0.28060624
   0.44927612  0.02809995  0.15233499
   0.90922284  0.80581432  0.28434297
   0.90282244  0.55132680  0.10484543
   0.36768782  0.83301723  0.23396893
   0.99709601  0.50647396  0.20360195
   0.27601286  0.84313916  0.36151632
   0.53851998  0.23347802  0.07318573
   0.05460860  0.46166163  0.34956330
   0.80627868  0.60173827  0.31301870
   0.87926422  0.06310591  0.05527763
   0.33801935  0.33307248  0.18344734
   0.58246139  0.21150732  0.12452493
   0.06467490  0.47508562  0.25571196
   0.61571281  0.72050836  0.37985684
   0.09516526  0.72856013  0.12156099
   0.56678004  0.45767318  0.25083357
   0.76180565  0.13956382  0.31191900
   0.85888103  0.57329750  0.05350623
   0.30660070  0.85059296  0.18067786
   0.56207820  0.72169891  0.12275353
   0.02533451  0.99551235  0.25356699
   0.79757471  0.33417209  0.18393500
   0.21479188  0.62868897  0.32074737
   0.34617716  0.60305419  0.05647018
   0.31223408  0.11512452  0.32776613
   0.79634905  0.87553087  0.18433173
   0.34617716  0.05624469  0.05647018
   0.57462294  0.99832347  0.25361316
   0.09516526  0.18175063  0.12156099
   0.16740407  0.60559854  0.38889076
   0.96042375  0.21985379  0.36858725
   0.34047062  0.60391201  0.02782883
   0.92434681  0.68523651  0.03696881
   0.34363348  0.06399961  0.02783421
   0.88838126  0.05560908  0.02665597
   0.56346333  0.79318496  0.41951803
   0.81781063  0.16889048  0.33706978
   0.95578098  0.74500760  0.40533525
   0.80062042  0.35111850  0.38714903
   0.50996507  0.04742278  0.33791992
Direct configuration=     4
   0.22067121  0.89240241  0.08901558
   0.67492706  0.16823988  0.21864971
   0.94927612  0.02809995  0.15233499
   0.40107876  0.31762829  0.28691434
   0.44927612  0.52809995  0.15233499
   0.88780613  0.31883377  0.28045778
   0.44927612  0.02809995  0.15233499
   0.90905090  0.80531214  0.28408726
   0.90282244  0.55132680  0.10484543
   0.36865493  0.83278128  0.23372985
   0.99710528  0.50623982  0.20333889
   0.27835625  0.84009230  0.36167856
   0.53851998  0.23347802  0.07318573
   0.05306199  0.46821408  0.34969266
   0.80660325  0.60043164  0.31274906
   0.87926422  0.06310591  0.05527763
   0.33932017  0.33260077  0.18331209
   0.58246139  0.21150732  0.12452493
   0.06432715  0.47417210  0.25586178
   0.60881850  0.72649282  0.38287608
   0.09516526  0.72856013  0.12156099
   0.56748069  0.45793382  0.25087469
   0.76261385  0.14035680  0.31227597
   0.85888103  0.57329750  0.05350623
   0.30851770  0.84947744  0.18058612
   0.56207820  0.72169891  0.12275353
   0.02465000  0.99565541  0.25387704
   0.79871158  0.33216115  0.18401149
   0.21438819  0.62826681  0.32125270
   0.34617716  0.60305419  0.05647018
   0.31907203  0.11111751  0.32814997
   0.79731190  0.87662025  0.18439510
   0.34617716  0.05624469  0.05647018
   0.57463864  0.99722576  0.25354220
   0.09516526  0.18175063  0.12156099
   0.15563368  0.61279151  0.38948987
   0.95484292  0.22429287  0.36912419
   0.34047062  0.60391201  0.02782883
   0.92434681  0.68523651  0.03696881
   0.34363348  0.06399961  0.02783421
   0.88838126  0.05560908  0.02665597
   0.56596000  0.78805588  0.41645377
   0.81772237  0.16901577  0.33690465
   0.96696809  0.73699164  0.40415814
   0.80482225  0.34915149  0.38635645
   0.50386646  0.04903331  0.33760044
Direct configuration=     5
   0.22067121  0.89240241  0.08901558
   0.67479565  0.16806639  0.21841249
   0.94927612  0.02809995  0.15233499
   0.40029848  0.31869838  0.28684180
   0.44927612  0.52809995  0.15233499
   0.88813879  0.31903233  0.28034527
   0.44927612  0.02809995  0.15233499
   0.90892059  0.80493156  0.28389347
   0.90282244  0.55132680  0.10484543
   0.36938787  0.83260246  0.23354865
   0.99711230  0.50606237  0.20313953
   0.28013222  0.83778319  0.36180152
   0.53851998  0.23347802  0.07318573
   0.05188986  0.47317994  0.34979070
   0.80684923  0.59944140  0.31254471
   0.87926422  0.06310591  0.05527763
   0.34030601  0.33224328  0.18320959
   0.58246139  0.21150732  0.12452493
   0.06406360  0.47347977  0.25597532
   0.60359355  0.73102823  0.38516424
   0.09516526  0.72856013  0.12156099
   0.56801168  0.45813135  0.25090587
   0.76322635  0.14095777  0.31254650
   0.85888103  0.57329750  0.05350623
   0.30997053  0.84863202  0.18051659
   0.56207820  0.72169891  0.12275353
   0.02413123  0.99576383  0.25411203
   0.79957317  0.33063713  0.18406946
   0.21408225  0.62794687  0.32163568
   0.34617716  0.60305419  0.05647018
   0.32425426  0.10808074  0.32844087
   0.79804160  0.87744585  0.18444313
   0.34617716  0.05624469  0.05647018
   0.57465054  0.99639384  0.25348842
   0.09516526  0.18175063  0.12156099
   0.14671333  0.61824279  0.38994391
   0.95061341  0.22765708  0.36953111
   0.34047062  0.60391201  0.02782883
   0.92434681  0.68523651  0.03696881
   0.34363348  0.06399961  0.02783421
   0.88838126  0.05560908  0.02665597
   0.56785213  0.78416874  0.41413148
   0.81765548  0.16911073  0.33677951
   0.97544639  0.73091664  0.40326605
   0.80800666  0.34766077  0.38575579
   0.49924454  0.05025388  0.33735831
Direct configuration=     6
   0.22067121  0.89240241  0.08901558
   0.67472995  0.16797965  0.21829388
   0.94927612  0.02809995  0.15233499
   0.39990834  0.31923343  0.28680552
   0.44927612  0.52809995  0.15233499
   0.88830512  0.31913160  0.28028902
   0.44927612  0.02809995  0.15233499
   0.90885543  0.80474127  0.28379657
   0.90282244  0.55132680  0.10484543
   0.36975434  0.83251305  0.23345806
   0.99711581  0.50597364  0.20303985
   0.28102020  0.83662864  0.36186300
   0.53851998  0.23347802  0.07318573
   0.05130380  0.47566287  0.34983972
   0.80697223  0.59894627  0.31244253
   0.87926422  0.06310591  0.05527763
   0.34079893  0.33206453  0.18315834
   0.58246139  0.21150732  0.12452493
   0.06393182  0.47313361  0.25603209
   0.60098108  0.73329593  0.38630833
   0.09516526  0.72856013  0.12156099
   0.56827717  0.45823012  0.25092145
   0.76353260  0.14125825  0.31268177
   0.85888103  0.57329750  0.05350623
   0.31069694  0.84820932  0.18048183
   0.56207820  0.72169891  0.12275353
   0.02387185  0.99581804  0.25422952
   0.80000397  0.32987512  0.18409845
   0.21392928  0.62778690  0.32182717
   0.34617716  0.60305419  0.05647018
   0.32684538  0.10656236  0.32858632
   0.79840645  0.87785865  0.18446715
   0.34617716  0.05624469  0.05647018
   0.57465649  0.99597788  0.25346153
   0.09516526  0.18175063  0.12156099
   0.14225315  0.62096844  0.39017094
   0.94849865  0.22933919  0.36973458
   0.34047062  0.60391201  0.02782883
   0.92434681  0.68523651  0.03696881
   0.34363348  0.06399961  0.02783421
   0.88838126  0.05560908  0.02665597
   0.56879820  0.78222517  0.41297033
   0.81762204  0.16915820  0.33671694
   0.97968553  0.72787914  0.40282000
   0.80959886  0.34691541  0.38545546
   0.49693358  0.05086416  0.33723725
Direct configuration=     7
   0.22067121  0.89240241  0.08901558
   0.67469710  0.16793627  0.21823457
   0.94927612  0.02809995  0.15233499
   0.39971327  0.31950095  0.28678739
   0.44927612  0.52809995  0.15233499
   0.88838829  0.31918124  0.28026089
   0.44927612  0.02809995  0.15233499
   0.90882286  0.80464612  0.28374813
   0.90282244  0.55132680  0.10484543
   0.36993757  0.83246835  0.23341276
   0.99711757  0.50592928  0.20299001
   0.28146419  0.83605136  0.36189374
   0.53851998  0.23347802  0.07318573
   0.05101077  0.47690433  0.34986423
   0.80703372  0.59869871  0.31239144
   0.87926422  0.06310591  0.05527763
   0.34104540  0.33197516  0.18313272
   0.58246139  0.21150732  0.12452493
   0.06386594  0.47296053  0.25606047
   0.59967484  0.73442978  0.38688037
   0.09516526  0.72856013  0.12156099
   0.56840992  0.45827950  0.25092924
   0.76368573  0.14140849  0.31274941
   0.85888103  0.57329750  0.05350623
   0.31106014  0.84799796  0.18046444
   0.56207820  0.72169891  0.12275353
   0.02374216  0.99584515  0.25428826
   0.80021936  0.32949412  0.18411294
   0.21385280  0.62770691  0.32192291
   0.34617716  0.60305419  0.05647018
   0.32814094  0.10580316  0.32865904
   0.79858888  0.87806505  0.18447916
   0.34617716  0.05624469  0.05647018
   0.57465946  0.99576990  0.25344809
   0.09516526  0.18175063  0.12156099
   0.14002307  0.62233126  0.39028445
   0.94744128  0.23018024  0.36983631
   0.34047062  0.60391201  0.02782883
   0.92434681  0.68523651  0.03696881
   0.34363348  0.06399961  0.02783421
   0.88838126  0.05560908  0.02665597
   0.56927124  0.78125339  0.41238976
   0.81760531  0.16918194  0.33668565
   0.98180511  0.72636039  0.40259698
   0.81039497  0.34654273  0.38530530
   0.49577810  0.05116930  0.33717671
Direct configuration=     8
   0.22067121  0.89240241  0.08901558
   0.67468067  0.16791459  0.21820492
   0.94927612  0.02809995  0.15233499
   0.39961574  0.31963471  0.28677832
   0.44927612  0.52809995  0.15233499
   0.88842987  0.31920606  0.28024682
   0.44927612  0.02809995  0.15233499
   0.90880657  0.80459855  0.28372390
   0.90282244  0.55132680  0.10484543
   0.37002919  0.83244599  0.23339011
   0.99711845  0.50590710  0.20296509
   0.28168619  0.83576272  0.36190911
   0.53851998  0.23347802  0.07318573
   0.05086425  0.47752507  0.34987648
   0.80706447  0.59857493  0.31236590
   0.87926422  0.06310591  0.05527763
   0.34116863  0.33193047  0.18311990
   0.58246139  0.21150732  0.12452493
   0.06383299  0.47287399  0.25607467
   0.59902172  0.73499671  0.38716639
   0.09516526  0.72856013  0.12156099
   0.56847629  0.45830419  0.25093314
   0.76376229  0.14148361  0.31278322
   0.85888103  0.57329750  0.05350623
   0.31124175  0.84789229  0.18045575
   0.56207820  0.72169891  0.12275353
   0.02367731  0.99585870  0.25431764
   0.80032706  0.32930361  0.18412019
   0.21381455  0.62766692  0.32197079
   0.34617716  0.60305419  0.05647018
   0.32878872  0.10542357  0.32869540
   0.79868009  0.87816824  0.18448516
   0.34617716  0.05624469  0.05647018
   0.57466095  0.99566591  0.25344137
   0.09516526  0.18175063  0.12156099
   0.13890802  0.62301267  0.39034120
   0.94691259  0.23060077  0.36988717
   0.34047062  0.60391201  0.02782883
   0.92434681  0.68523651  0.03696881
   0.34363348  0.06399961  0.02783421
   0.88838126  0.05560908  0.02665597
   0.56950775  0.78076749  0.41209947
   0.81759695  0.16919381  0.33667001
   0.98286490  0.72560101  0.40248547
   0.81079302  0.34635639  0.38523021
   0.49520036  0.05132187  0.33714645
Direct configuration=     9
   0.22067121  0.89240241  0.08901558
   0.67467246  0.16790375  0.21819009
   0.94927612  0.02809995  0.15233499
   0.39956697  0.31970159  0.28677378
   0.44927612  0.52809995  0.15233499
   0.88845066  0.31921847  0.28023979
   0.44927612  0.02809995  0.15233499
   0.90879842  0.80457476  0.28371179
   0.90282244  0.55132680  0.10484543
   0.37007500  0.83243482  0.23337879
   0.99711889  0.50589601  0.20295263
   0.28179719  0.83561840  0.36191679
   0.53851998  0.23347802  0.07318573
   0.05079099  0.47783543  0.34988261
   0.80707984  0.59851304  0.31235313
   0.87926422  0.06310591  0.05527763
   0.34123024  0.33190813  0.18311350
   0.58246139  0.21150732  0.12452493
   0.06381652  0.47283072  0.25608176
   0.59869516  0.73528017  0.38730940
   0.09516526  0.72856013  0.12156099
   0.56850948  0.45831654  0.25093509
   0.76380057  0.14152118  0.31280013
   0.85888103  0.57329750  0.05350623
   0.31133255  0.84783945  0.18045141
   0.56207820  0.72169891  0.12275353
   0.02364489  0.99586548  0.25433232
   0.80038091  0.32920836  0.18412381
   0.21379543  0.62764692  0.32199472
   0.34617716  0.60305419  0.05647018
   0.32911261  0.10523377  0.32871358
   0.79872570  0.87821984  0.18448816
   0.34617716  0.05624469  0.05647018
   0.57466169  0.99561391  0.25343801
   0.09516526  0.18175063  0.12156099
   0.13835050  0.62335337  0.39036958
   0.94664824  0.23081103  0.36991261
   0.34047062  0.60391201  0.02782883
   0.92434681  0.68523651  0.03696881
   0.34363348  0.06399961  0.02783421
   0.88838126  0.05560908  0.02665597
   0.56962601  0.78052455  0.41195433
   0.81759277  0.16919975  0.33666219
   0.98339479  0.72522133  0.40242971
   0.81099204  0.34626322  0.38519267
   0.49491149  0.05139815  0.33713132
Direct configuration=    10
   0.22067121  0.89240241  0.08901558
   0.67466835  0.16789832  0.21818268
   0.94927612  0.02809995  0.15233499
   0.39954259  0.31973503  0.28677152
   0.44927612  0.52809995  0.15233499
   0.88846106  0.31922467  0.28023628
   0.44927612  0.02809995  0.15233499
   0.90879435  0.80456287  0.28370573
   0.90282244  0.55132680  0.10484543
   0.37009790  0.83242923  0.23337312
   0.99711911  0.50589047  0.20294640
   0.28185269  0.83554624  0.36192064
   0.53851998  0.23347802  0.07318573
   0.05075437  0.47799062  0.34988567
   0.80708753  0.59848209  0.31234674
   0.87926422  0.06310591  0.05527763
   0.34126105  0.33189696  0.18311029
   0.58246139  0.21150732  0.12452493
   0.06380828  0.47280909  0.25608531
   0.59853188  0.73542190  0.38738091
   0.09516526  0.72856013  0.12156099
   0.56852607  0.45832271  0.25093606
   0.76381972  0.14153996  0.31280858
   0.85888103  0.57329750  0.05350623
   0.31137795  0.84781303  0.18044923
   0.56207820  0.72169891  0.12275353
   0.02362868  0.99586887  0.25433967
   0.80040784  0.32916074  0.18412563
   0.21378587  0.62763693  0.32200669
   0.34617716  0.60305419  0.05647018
   0.32927455  0.10513887  0.32872268
   0.79874850  0.87824564  0.18448966
   0.34617716  0.05624469  0.05647018
   0.57466207  0.99558791  0.25343633
   0.09516526  0.18175063  0.12156099
   0.13807174  0.62352373  0.39038377
   0.94651607  0.23091616  0.36992532
   0.34047062  0.60391201  0.02782883
   0.92434681  0.68523651  0.03696881
   0.34363348  0.06399961  0.02783421
   0.88838126  0.05560908  0.02665597
   0.56968514  0.78040307  0.41188176
   0.81759068  0.16920271  0.33665828
   0.98365974  0.72503148  0.40240184
   0.81109156  0.34621663  0.38517390
   0.49476705  0.05143630  0.33712375
Direct configuration=    11
   0.22067121  0.89240241  0.08901558
   0.67466630  0.16789561  0.21817897
   0.94927612  0.02809995  0.15233499
   0.39953040  0.31975175  0.28677038
   0.44927612  0.52809995  0.15233499
   0.88846626  0.31922778  0.28023452
   0.44927612  0.02809995  0.15233499
   0.90879231  0.80455692  0.28370271
   0.90282244  0.55132680  0.10484543
   0.37010936  0.83242644  0.23337029
   0.99711921  0.50588769  0.20294328
   0.28188044  0.83551016  0.36192256
   0.53851998  0.23347802  0.07318573
   0.05073605  0.47806821  0.34988720
   0.80709137  0.59846662  0.31234355
   0.87926422  0.06310591  0.05527763
   0.34127645  0.33189137  0.18310869
   0.58246139  0.21150732  0.12452493
   0.06380417  0.47279827  0.25608709
   0.59845024  0.73549277  0.38741666
   0.09516526  0.72856013  0.12156099
   0.56853437  0.45832580  0.25093655
   0.76382929  0.14154935  0.31281281
   0.85888103  0.57329750  0.05350623
   0.31140065  0.84779982  0.18044815
   0.56207820  0.72169891  0.12275353
   0.02362057  0.99587056  0.25434334
   0.80042130  0.32913692  0.18412653
   0.21378109  0.62763193  0.32201267
   0.34617716  0.60305419  0.05647018
   0.32935552  0.10509142  0.32872722
   0.79875990  0.87825854  0.18449041
   0.34617716  0.05624469  0.05647018
   0.57466225  0.99557492  0.25343549
   0.09516526  0.18175063  0.12156099
   0.13793236  0.62360890  0.39039087
   0.94644999  0.23096873  0.36993168
   0.34047062  0.60391201  0.02782883
   0.92434681  0.68523651  0.03696881
   0.34363348  0.06399961  0.02783421
   0.88838126  0.05560908  0.02665597
   0.56971470  0.78034234  0.41184547
   0.81758964  0.16920420  0.33665632
   0.98379221  0.72493656  0.40238790
   0.81114131  0.34619334  0.38516452
   0.49469484  0.05145537  0.33711997
Direct configuration=    12
   0.22067121  0.89240241  0.08901558
   0.67466527  0.16789426  0.21817712
   0.94927612  0.02809995  0.15233499
   0.39952430  0.31976011  0.28676982
   0.44927612  0.52809995  0.15233499
   0.88846886  0.31922933  0.28023364
   0.44927612  0.02809995  0.15233499
   0.90879130  0.80455395  0.28370119
   0.90282244  0.55132680  0.10484543
   0.37011508  0.83242504  0.23336888
   0.99711927  0.50588631  0.20294173
   0.28189431  0.83549212  0.36192352
   0.53851998  0.23347802  0.07318573
   0.05072689  0.47810700  0.34988797
   0.80709329  0.59845888  0.31234195
   0.87926422  0.06310591  0.05527763
   0.34128416  0.33188858  0.18310789
   0.58246139  0.21150732  0.12452493
   0.06380211  0.47279286  0.25608797
   0.59840942  0.73552820  0.38743453
   0.09516526  0.72856013  0.12156099
   0.56853852  0.45832734  0.25093679
   0.76383407  0.14155404  0.31281493
   0.85888103  0.57329750  0.05350623
   0.31141200  0.84779321  0.18044760
   0.56207820  0.72169891  0.12275353
   0.02361652  0.99587141  0.25434517
   0.80042803  0.32912502  0.18412698
   0.21377870  0.62762943  0.32201567
   0.34617716  0.60305419  0.05647018
   0.32939601  0.10506770  0.32872949
   0.79876560  0.87826499  0.18449079
   0.34617716  0.05624469  0.05647018
   0.57466234  0.99556842  0.25343507
   0.09516526  0.18175063  0.12156099
   0.13786267  0.62365149  0.39039441
   0.94641694  0.23099501  0.36993486
   0.34047062  0.60391201  0.02782883
   0.92434681  0.68523651  0.03696881
   0.34363348  0.06399961  0.02783421
   0.88838126  0.05560908  0.02665597
   0.56972949  0.78031197  0.41182733
   0.81758911  0.16920494  0.33665534
   0.98385845  0.72488910  0.40238093
   0.81116619  0.34618169  0.38515982
   0.49465873  0.05146490  0.33711807
Direct configuration=    13
   0.22067121  0.89240241  0.08901558
   0.67466476  0.16789358  0.21817619
   0.94927612  0.02809995  0.15233499
   0.39952125  0.31976429  0.28676953
   0.44927612  0.52809995  0.15233499
   0.88847016  0.31923010  0.28023320
   0.44927612  0.02809995  0.15233499
   0.90879079  0.80455246  0.28370044
   0.90282244  0.55132680  0.10484543
   0.37011795  0.83242434  0.23336817
   0.99711930  0.50588561  0.20294095
   0.28190125  0.83548310  0.36192400
   0.53851998  0.23347802  0.07318573
   0.05072232  0.47812640  0.34988835
   0.80709426  0.59845502  0.31234115
   0.87926422  0.06310591  0.05527763
   0.34128801  0.33188718  0.18310749
   0.58246139  0.21150732  0.12452493
   0.06380108  0.47279016  0.25608842
   0.59838901  0.73554591  0.38744347
   0.09516526  0.72856013  0.12156099
   0.56854059  0.45832811  0.25093691
   0.76383646  0.14155639  0.31281598
   0.85888103  0.57329750  0.05350623
   0.31141768  0.84778991  0.18044733
   0.56207820  0.72169891  0.12275353
   0.02361449  0.99587183  0.25434609
   0.80043140  0.32911907  0.18412721
   0.21377751  0.62762818  0.32201716
   0.34617716  0.60305419  0.05647018
   0.32941625  0.10505583  0.32873063
   0.79876845  0.87826822  0.18449098
   0.34617716  0.05624469  0.05647018
   0.57466239  0.99556517  0.25343486
   0.09516526  0.18175063  0.12156099
   0.13782782  0.62367278  0.39039619
   0.94640042  0.23100815  0.36993645
   0.34047062  0.60391201  0.02782883
   0.92434681  0.68523651  0.03696881
   0.34363348  0.06399961  0.02783421
   0.88838126  0.05560908  0.02665597
   0.56973688  0.78029679  0.41181826
   0.81758885  0.16920531  0.33665486
   0.98389157  0.72486537  0.40237744
   0.81117863  0.34617587  0.38515748
   0.49464067  0.05146967  0.33711713
Direct configuration=    14
   0.22067121  0.89240241  0.08901558
   0.67466450  0.16789324  0.21817573
   0.94927612  0.02809995  0.15233499
   0.39951973  0.31976638  0.28676939
   0.44927612  0.52809995  0.15233499
   0.88847081  0.31923049  0.28023298
   0.44927612  0.02809995  0.15233499
   0.90879053  0.80455172  0.28370006
   0.90282244  0.55132680  0.10484543
   0.37011938  0.83242399  0.23336782
   0.99711931  0.50588527  0.20294056
   0.28190472  0.83547859  0.36192424
   0.53851998  0.23347802  0.07318573
   0.05072003  0.47813610  0.34988854
   0.80709474  0.59845308  0.31234075
   0.87926422  0.06310591  0.05527763
   0.34128993  0.33188648  0.18310729
   0.58246139  0.21150732  0.12452493
   0.06380056  0.47278880  0.25608864
   0.59837881  0.73555477  0.38744794
   0.09516526  0.72856013  0.12156099
   0.56854163  0.45832850  0.25093698
   0.76383766  0.14155756  0.31281651
   0.85888103  0.57329750  0.05350623
   0.31142051  0.84778826  0.18044720
   0.56207820  0.72169891  0.12275353
   0.02361348  0.99587204  0.25434655
   0.80043308  0.32911609  0.18412732
   0.21377691  0.62762755  0.32201791
   0.34617716  0.60305419  0.05647018
   0.32942638  0.10504990  0.32873120
   0.79876988  0.87826983  0.18449107
   0.34617716  0.05624469  0.05647018
   0.57466241  0.99556354  0.25343475
   0.09516526  0.18175063  0.12156099
   0.13781040  0.62368343  0.39039707
   0.94639216  0.23101472  0.36993724
   0.34047062  0.60391201  0.02782883
   0.92434681  0.68523651  0.03696881
   0.34363348  0.06399961  0.02783421
   0.88838126  0.05560908  0.02665597
   0.56974057  0.78028919  0.41181372
   0.81758872  0.16920549  0.33665461
   0.98390813  0.72485350  0.40237570
   0.81118485  0.34617296  0.38515630
   0.49463164  0.05147205  0.33711666
Direct configuration=    15
   0.22067121  0.89240241  0.08901558
   0.67466471  0.16789352  0.21817611
   0.94927612  0.02809995  0.15233499
   0.39952098  0.31976467  0.28676951
   0.44927612  0.52809995  0.15233499
   0.88847027  0.31923017  0.28023316
   0.44927612  0.02809995  0.15233499
   0.90879074  0.80455233  0.28370037
   0.90282244  0.55132680  0.10484543
   0.37011821  0.83242428  0.23336810
   0.99711930  0.50588555  0.20294088
   0.28190188  0.83548229  0.36192404
   0.53851998  0.23347802  0.07318573
   0.05072190  0.47812816  0.34988839
   0.80709434  0.59845467  0.31234108
   0.87926422  0.06310591  0.05527763
   0.34128836  0.33188706  0.18310746
   0.58246139  0.21150732  0.12452493
   0.06380098  0.47278991  0.25608846
   0.59838716  0.73554752  0.38744428
   0.09516526  0.72856013  0.12156099
   0.56854078  0.45832818  0.25093693
   0.76383668  0.14155660  0.31281608
   0.85888103  0.57329750  0.05350623
   0.31141819  0.84778961  0.18044731
   0.56207820  0.72169891  0.12275353
   0.02361431  0.99587187  0.25434617
   0.80043170  0.32911852  0.18412723
   0.21377740  0.62762806  0.32201730
   0.34617716  0.60305419  0.05647018
   0.32941809  0.10505476  0.32873073
   0.79876871  0.87826851  0.18449099
   0.34617716  0.05624469  0.05647018
   0.57466239  0.99556487  0.25343484
   0.09516526  0.18175063  0.12156099
   0.13782466  0.62367472  0.39039635
   0.94639892  0.23100935  0.36993659
   0.34047062  0.60391201  0.02782883
   0.92434681  0.68523651  0.03696881
   0.34363348  0.06399961  0.02783421
   0.88838126  0.05560908  0.02665597
   0.56973755  0.78029541  0.41181744
   0.81758883  0.16920534  0.33665481
   0.98389457  0.72486321  0.40237713
   0.81117976  0.34617534  0.38515726
   0.49463903  0.05147010  0.33711704
Direct configuration=    16
   0.22067121  0.89240241  0.08901558
   0.67466462  0.16789340  0.21817594
   0.94927612  0.02809995  0.15233499
   0.39952043  0.31976542  0.28676946
   0.44927612  0.52809995  0.15233499
   0.88847051  0.31923031  0.28023308
   0.44927612  0.02809995  0.15233499
   0.90879065  0.80455206  0.28370023
   0.90282244  0.55132680  0.10484543
   0.37011872  0.83242415  0.23336798
   0.99711930  0.50588543  0.20294074
   0.28190312  0.83548068  0.36192413
   0.53851998  0.23347802  0.07318573
   0.05072108  0.47813162  0.34988846
   0.80709451  0.59845398  0.31234094
   0.87926422  0.06310591  0.05527763
   0.34128904  0.33188681  0.18310738
   0.58246139  0.21150732  0.12452493
   0.06380080  0.47278943  0.25608853
   0.59838352  0.73555068  0.38744588
   0.09516526  0.72856013  0.12156099
   0.56854115  0.45832832  0.25093695
   0.76383711  0.14155702  0.31281627
   0.85888103  0.57329750  0.05350623
   0.31141920  0.84778902  0.18044726
   0.56207820  0.72169891  0.12275353
   0.02361395  0.99587195  0.25434634
   0.80043230  0.32911746  0.18412727
   0.21377718  0.62762784  0.32201756
   0.34617716  0.60305419  0.05647018
   0.32942170  0.10505264  0.32873094
   0.79876922  0.87826909  0.18449103
   0.34617716  0.05624469  0.05647018
   0.57466240  0.99556429  0.25343480
   0.09516526  0.18175063  0.12156099
   0.13781845  0.62367852  0.39039666
   0.94639598  0.23101169  0.36993688
   0.34047062  0.60391201  0.02782883
   0.92434681  0.68523651  0.03696881
   0.34363348  0.06399961  0.02783421
   0.88838126  0.05560908  0.02665597
   0.56973887  0.78029270  0.41181582
   0.81758878  0.16920541  0.33665472
   0.98390048  0.72485898  0.40237650
   0.81118198  0.34617430  0.38515684
   0.49463581  0.05147095  0.33711687
Direct configuration=    17
   0.22067121  0.89240241  0.08901558
   0.67466456  0.16789332  0.21817583
   0.94927612  0.02809995  0.15233499
   0.39952008  0.31976590  0.28676942
   0.44927612  0.52809995  0.15233499
   0.88847066  0.31923040  0.28023303
   0.44927612  0.02809995  0.15233499
   0.90879059  0.80455189  0.28370014
   0.90282244  0.55132680  0.10484543
   0.37011905  0.83242407  0.23336790
   0.99711931  0.50588535  0.20294065
   0.28190392  0.83547964  0.36192418
   0.53851998  0.23347802  0.07318573
   0.05072055  0.47813386  0.34988850
   0.80709462  0.59845353  0.31234085
   0.87926422  0.06310591  0.05527763
   0.34128949  0.33188665  0.18310734
   0.58246139  0.21150732  0.12452493
   0.06380068  0.47278912  0.25608859
   0.59838117  0.73555273  0.38744691
   0.09516526  0.72856013  0.12156099
   0.56854139  0.45832841  0.25093696
   0.76383738  0.14155729  0.31281639
   0.85888103  0.57329750  0.05350623
   0.31141986  0.84778864  0.18044723
   0.56207820  0.72169891  0.12275353
   0.02361372  0.99587199  0.25434644
   0.80043269  0.32911678  0.18412730
   0.21377705  0.62762770  0.32201774
   0.34617716  0.60305419  0.05647018
   0.32942404  0.10505127  0.32873107
   0.79876955  0.87826946  0.18449105
   0.34617716  0.05624469  0.05647018
   0.57466241  0.99556392  0.25343477
   0.09516526  0.18175063  0.12156099
   0.13781442  0.62368097  0.39039687
   0.94639407  0.23101321  0.36993706
   0.34047062  0.60391201  0.02782883
   0.92434681  0.68523651  0.03696881
   0.34363348  0.06399961  0.02783421
   0.88838126  0.05560908  0.02665597
   0.56973972  0.78029095  0.41181477
   0.81758875  0.16920545  0.33665467
   0.98390430  0.72485624  0.40237610
   0.81118341  0.34617363  0.38515657
   0.49463373  0.05147150  0.33711677
Direct configuration=    18
   0.22067121  0.89240241  0.08901558
   0.67466460  0.16789336  0.21817590
   0.94927612  0.02809995  0.15233499
   0.39952029  0.31976562  0.28676944
   0.44927612  0.52809995  0.15233499
   0.88847057  0.31923035  0.28023306
   0.44927612  0.02809995  0.15233499
   0.90879063  0.80455199  0.28370020
   0.90282244  0.55132680  0.10484543
   0.37011885  0.83242412  0.23336794
   0.99711931  0.50588539  0.20294070
   0.28190345  0.83548024  0.36192415
   0.53851998  0.23347802  0.07318573
   0.05072086  0.47813256  0.34988847
   0.80709456  0.59845379  0.31234090
   0.87926422  0.06310591  0.05527763
   0.34128923  0.33188674  0.18310737
   0.58246139  0.21150732  0.12452493
   0.06380075  0.47278930  0.25608856
   0.59838254  0.73555154  0.38744631
   0.09516526  0.72856013  0.12156099
   0.56854125  0.45832835  0.25093695
   0.76383722  0.14155713  0.31281632
   0.85888103  0.57329750  0.05350623
   0.31141948  0.84778886  0.18044725
   0.56207820  0.72169891  0.12275353
   0.02361385  0.99587197  0.25434638
   0.80043246  0.32911718  0.18412728
   0.21377713  0.62762778  0.32201764
   0.34617716  0.60305419  0.05647018
   0.32942268  0.10505207  0.32873099
   0.79876936  0.87826924  0.18449104
   0.34617716  0.05624469  0.05647018
   0.57466241  0.99556414  0.25343479
   0.09516526  0.18175063  0.12156099
   0.13781677  0.62367954  0.39039675
   0.94639518  0.23101232  0.36993695
   0.34047062  0.60391201  0.02782883
   0.92434681  0.68523651  0.03696881
   0.34363348  0.06399961  0.02783421
   0.88838126  0.05560908  0.02665597
   0.56973922  0.78029197  0.41181538
   0.81758877  0.16920543  0.33665470
   0.98390207  0.72485784  0.40237634
   0.81118258  0.34617402  0.38515673
   0.49463494  0.05147118  0.33711683
Direct configuration=    19
   0.22067121  0.89240241  0.08901558
   0.67466458  0.16789334  0.21817586
   0.94927612  0.02809995  0.15233499
   0.39952018  0.31976576  0.28676943
   0.44927612  0.52809995  0.15233499
   0.88847061  0.31923037  0.28023305
   0.44927612  0.02809995  0.15233499
   0.90879061  0.80455194  0.28370017
   0.90282244  0.55132680  0.10484543
   0.37011895  0.83242410  0.23336792
   0.99711931  0.50588537  0.20294067
   0.28190368  0.83547994  0.36192417
   0.53851998  0.23347802  0.07318573
   0.05072071  0.47813321  0.34988849
   0.80709459  0.59845366  0.31234087
   0.87926422  0.06310591  0.05527763
   0.34128936  0.33188669  0.18310735
   0.58246139  0.21150732  0.12452493
   0.06380072  0.47278921  0.25608857
   0.59838185  0.73555213  0.38744661
   0.09516526  0.72856013  0.12156099
   0.56854132  0.45832838  0.25093696
   0.76383730  0.14155721  0.31281635
   0.85888103  0.57329750  0.05350623
   0.31141967  0.84778875  0.18044724
   0.56207820  0.72169891  0.12275353
   0.02361378  0.99587198  0.25434641
   0.80043258  0.32911698  0.18412729
   0.21377709  0.62762774  0.32201769
   0.34617716  0.60305419  0.05647018
   0.32942336  0.10505167  0.32873103
   0.79876945  0.87826935  0.18449104
   0.34617716  0.05624469  0.05647018
   0.57466241  0.99556403  0.25343478
   0.09516526  0.18175063  0.12156099
   0.13781560  0.62368026  0.39039681
   0.94639462  0.23101276  0.36993701
   0.34047062  0.60391201  0.02782883
   0.92434681  0.68523651  0.03696881
   0.34363348  0.06399961  0.02783421
   0.88838126  0.05560908  0.02665597
   0.56973947  0.78029146  0.41181508
   0.81758876  0.16920544  0.33665468
   0.98390319  0.72485704  0.40237622
   0.81118300  0.34617383  0.38515665
   0.49463434  0.05147134  0.33711680
Direct configuration=    20
   0.22067121  0.89240241  0.08901558
   0.67466425  0.16789290  0.21817526
   0.94927612  0.02809995  0.15233499
   0.39951821  0.31976847  0.28676925
   0.44927612  0.52809995  0.15233499
   0.88847146  0.31923088  0.28023276
   0.44927612  0.02809995  0.15233499
   0.90879028  0.80455098  0.28369968
   0.90282244  0.55132680  0.10484543
   0.37012081  0.83242364  0.23336746
   0.99711932  0.50588492  0.20294017
   0.28190819  0.83547408  0.36192448
   0.53851998  0.23347802  0.07318573
   0.05071774  0.47814580  0.34988874
   0.80709522  0.59845115  0.31234035
   0.87926422  0.06310591  0.05527763
   0.34129186  0.33188579  0.18310709
   0.58246139  0.21150732  0.12452493
   0.06380005  0.47278745  0.25608886
   0.59836860  0.73556363  0.38745241
   0.09516526  0.72856013  0.12156099
   0.56854267  0.45832888  0.25093704
   0.76383886  0.14155874  0.31281704
   0.85888103  0.57329750  0.05350623
   0.31142335  0.84778661  0.18044706
   0.56207820  0.72169891  0.12275353
   0.02361247  0.99587226  0.25434701
   0.80043476  0.32911311  0.18412744
   0.21377631  0.62762693  0.32201866
   0.34617716  0.60305419  0.05647018
   0.32943650  0.10504397  0.32873177
   0.79877130  0.87827144  0.18449116
   0.34617716  0.05624469  0.05647018
   0.57466244  0.99556192  0.25343465
   0.09516526  0.18175063  0.12156099
   0.13779298  0.62369408  0.39039796
   0.94638390  0.23102129  0.36993804
   0.34047062  0.60391201  0.02782883
   0.92434681  0.68523651  0.03696881
   0.34363348  0.06399961  0.02783421
   0.88838126  0.05560908  0.02665597
   0.56974427  0.78028160  0.41180919
   0.81758859  0.16920568  0.33665437
   0.98392468  0.72484164  0.40237396
   0.81119107  0.34617005  0.38515513
   0.49462262  0.05147444  0.33711618
Direct configuration=    21
   0.22067121  0.89240241  0.08901558
   0.67552616  0.16798422  0.21801493
   0.94927612  0.02809995  0.15233499
   0.39970208  0.31838777  0.28677102
   0.44927612  0.52809995  0.15233499
   0.88914385  0.31998788  0.28041394
   0.44927612  0.02809995  0.15233499
   0.91029735  0.80244706  0.28384151
   0.90282244  0.55132680  0.10484543
   0.36866285  0.83290648  0.23341083
   0.99715026  0.50600111  0.20294579
   0.28138696  0.83533025  0.36215116
   0.53851998  0.23347802  0.07318573
   0.05339906  0.47554254  0.34966522
   0.80865673  0.59827551  0.31264502
   0.87926422  0.06310591  0.05527763
   0.34158552  0.33057989  0.18297570
   0.58246139  0.21150732  0.12452493
   0.06331653  0.47339932  0.25615935
   0.59979963  0.73483755  0.38753550
   0.09516526  0.72856013  0.12156099
   0.56682919  0.45788940  0.25109642
   0.76368419  0.14068854  0.31267411
   0.85888103  0.57329750  0.05350623
   0.31171939  0.84824537  0.18039313
   0.56207820  0.72169891  0.12275353
   0.02386543  0.99560702  0.25434607
   0.80107862  0.32763736  0.18389916
   0.21401169  0.62465145  0.32139429
   0.34617716  0.60305419  0.05647018
   0.32715101  0.11047446  0.32840844
   0.79913614  0.87853847  0.18430692
   0.34617716  0.05624469  0.05647018
   0.57247957  0.99950300  0.25393655
   0.09516526  0.18175063  0.12156099
   0.13574583  0.62238273  0.39023032
   0.94640933  0.23295512  0.36984056
   0.34047062  0.60391201  0.02782883
   0.92434681  0.68523651  0.03696881
   0.34363348  0.06399961  0.02783421
   0.88838126  0.05560908  0.02665597
   0.56989779  0.78021694  0.41179570
   0.81795018  0.16920488  0.33675435
   0.98397380  0.72407407  0.40243708
   0.81095522  0.34634003  0.38516624
   0.49505106  0.05159785  0.33721222
Direct configuration=    22
   0.22067121  0.89240241  0.08901558
   0.67508804  0.16793780  0.21809643
   0.94927612  0.02809995  0.15233499
   0.39960861  0.31908959  0.28677012
   0.44927612  0.52809995  0.15233499
   0.88880207  0.31960309  0.28032184
   0.44927612  0.02809995  0.15233499
   0.90953129  0.80351650  0.28376942
   0.90282244  0.55132680  0.10484543
   0.36940394  0.83266105  0.23338879
   0.99713453  0.50594205  0.20294293
   0.28165190  0.83540336  0.36203593
   0.53851998  0.23347802  0.07318573
   0.05203613  0.47686580  0.34977884
   0.80786300  0.59836479  0.31249016
   0.87926422  0.06310591  0.05527763
   0.34143625  0.33124369  0.18304249
   0.58246139  0.21150732  0.12452493
   0.06356231  0.47308830  0.25612352
   0.59907223  0.73520662  0.38749326
   0.09516526  0.72856013  0.12156099
   0.56770016  0.45811279  0.25101540
   0.76376281  0.14113087  0.31274676
   0.85888103  0.57329750  0.05350623
   0.31156891  0.84801218  0.18042055
   0.56207820  0.72169891  0.12275353
   0.02373685  0.99574184  0.25434655
   0.80075134  0.32838750  0.18401519
   0.21389204  0.62616391  0.32171166
   0.34617716  0.60305419  0.05647018
   0.32831274  0.10771410  0.32857279
   0.79895069  0.87840274  0.18440057
   0.34617716  0.05624469  0.05647018
   0.57358914  0.99749972  0.25368143
   0.09516526  0.18175063  0.12156099
   0.13678641  0.62304930  0.39031553
   0.94639641  0.23197214  0.36989011
   0.34047062  0.60391201  0.02782883
   0.92434681  0.68523651  0.03696881
   0.34363348  0.06399961  0.02783421
   0.88838126  0.05560908  0.02665597
   0.56981976  0.78024981  0.41180256
   0.81776638  0.16920529  0.33670353
   0.98394884  0.72446423  0.40240499
   0.81107510  0.34625363  0.38516059
   0.49483328  0.05153512  0.33716341
Direct configuration=    23
   0.22067121  0.89240241  0.08901558
   0.67536760  0.16796742  0.21804442
   0.94927612  0.02809995  0.15233499
   0.39966825  0.31864177  0.28677069
   0.44927612  0.52809995  0.15233499
   0.88902015  0.31984861  0.28038061
   0.44927612  0.02809995  0.15233499
   0.91002010  0.80283411  0.28381542
   0.90282244  0.55132680  0.10484543
   0.36893106  0.83281766  0.23340285
   0.99714457  0.50597973  0.20294475
   0.28148284  0.83535671  0.36210946
   0.53851998  0.23347802  0.07318573
   0.05290579  0.47602145  0.34970634
   0.80836946  0.59830782  0.31258898
   0.87926422  0.06310591  0.05527763
   0.34153149  0.33082013  0.18299987
   0.58246139  0.21150732  0.12452493
   0.06340548  0.47328675  0.25614638
   0.59953637  0.73497113  0.38752021
   0.09516526  0.72856013  0.12156099
   0.56714441  0.45797025  0.25106710
   0.76371264  0.14084863  0.31270041
   0.85888103  0.57329750  0.05350623
   0.31166493  0.84816098  0.18040305
   0.56207820  0.72169891  0.12275353
   0.02381889  0.99565582  0.25434624
   0.80096017  0.32790885  0.18394115
   0.21396839  0.62519884  0.32150915
   0.34617716  0.60305419  0.05647018
   0.32757146  0.10947544  0.32846792
   0.79906902  0.87848934  0.18434082
   0.34617716  0.05624469  0.05647018
   0.57288114  0.99877797  0.25384422
   0.09516526  0.18175063  0.12156099
   0.13612244  0.62262398  0.39026116
   0.94640465  0.23259936  0.36985849
   0.34047062  0.60391201  0.02782883
   0.92434681  0.68523651  0.03696881
   0.34363348  0.06399961  0.02783421
   0.88838126  0.05560908  0.02665597
   0.56986955  0.78022884  0.41179818
   0.81788366  0.16920503  0.33673595
   0.98396477  0.72421527  0.40242547
   0.81099861  0.34630876  0.38516419
   0.49497224  0.05157515  0.33719456
Direct configuration=    24
   0.22067121  0.89240241  0.08901558
   0.67545753  0.16797695  0.21802769
   0.94927612  0.02809995  0.15233499
   0.39968744  0.31849771  0.28677088
   0.44927612  0.52809995  0.15233499
   0.88909031  0.31992760  0.28039951
   0.44927612  0.02809995  0.15233499
   0.91017734  0.80261459  0.28383022
   0.90282244  0.55132680  0.10484543
   0.36877894  0.83286804  0.23340738
   0.99714780  0.50599186  0.20294534
   0.28142846  0.83534171  0.36213311
   0.53851998  0.23347802  0.07318573
   0.05318555  0.47574983  0.34968302
   0.80853239  0.59828949  0.31262076
   0.87926422  0.06310591  0.05527763
   0.34156213  0.33068387  0.18298616
   0.58246139  0.21150732  0.12452493
   0.06335503  0.47335059  0.25615374
   0.59968568  0.73489537  0.38752888
   0.09516526  0.72856013  0.12156099
   0.56696563  0.45792439  0.25108373
   0.76369650  0.14075783  0.31268549
   0.85888103  0.57329750  0.05350623
   0.31169582  0.84820884  0.18039743
   0.56207820  0.72169891  0.12275353
   0.02384528  0.99562814  0.25434614
   0.80102735  0.32775487  0.18391733
   0.21399295  0.62488838  0.32144401
   0.34617716  0.60305419  0.05647018
   0.32733300  0.11004204  0.32843418
   0.79910709  0.87851720  0.18432159
   0.34617716  0.05624469  0.05647018
   0.57265339  0.99918918  0.25389659
   0.09516526  0.18175063  0.12156099
   0.13590884  0.62248715  0.39024367
   0.94640731  0.23280113  0.36984832
   0.34047062  0.60391201  0.02782883
   0.92434681  0.68523651  0.03696881
   0.34363348  0.06399961  0.02783421
   0.88838126  0.05560908  0.02665597
   0.56988557  0.78022209  0.41179677
   0.81792139  0.16920494  0.33674638
   0.98396989  0.72413519  0.40243205
   0.81097400  0.34632649  0.38516535
   0.49501694  0.05158803  0.33720458
Direct configuration=    25
   0.22067121  0.89240241  0.08901558
   0.67549536  0.16798096  0.21802066
   0.94927612  0.02809995  0.15233499
   0.39969551  0.31843712  0.28677095
   0.44927612  0.52809995  0.15233499
   0.88911982  0.31996082  0.28040746
   0.44927612  0.02809995  0.15233499
   0.91024349  0.80252225  0.28383644
   0.90282244  0.55132680  0.10484543
   0.36871495  0.83288923  0.23340928
   0.99714915  0.50599696  0.20294559
   0.28140558  0.83533539  0.36214306
   0.53851998  0.23347802  0.07318573
   0.05330323  0.47563558  0.34967321
   0.80860092  0.59828178  0.31263414
   0.87926422  0.06310591  0.05527763
   0.34157502  0.33062656  0.18298039
   0.58246139  0.21150732  0.12452493
   0.06333381  0.47337745  0.25615683
   0.59974849  0.73486351  0.38753253
   0.09516526  0.72856013  0.12156099
   0.56689043  0.45790510  0.25109072
   0.76368972  0.14071964  0.31267922
   0.85888103  0.57329750  0.05350623
   0.31170881  0.84822898  0.18039506
   0.56207820  0.72169891  0.12275353
   0.02385639  0.99561650  0.25434610
   0.80105561  0.32769010  0.18390731
   0.21400328  0.62475780  0.32141660
   0.34617716  0.60305419  0.05647018
   0.32723269  0.11028038  0.32841999
   0.79912310  0.87852892  0.18431351
   0.34617716  0.05624469  0.05647018
   0.57255759  0.99936214  0.25391861
   0.09516526  0.18175063  0.12156099
   0.13581900  0.62242960  0.39023631
   0.94640842  0.23288600  0.36984404
   0.34047062  0.60391201  0.02782883
   0.92434681  0.68523651  0.03696881
   0.34363348  0.06399961  0.02783421
   0.88838126  0.05560908  0.02665597
   0.56989231  0.78021925  0.41179618
   0.81793726  0.16920491  0.33675077
   0.98397205  0.72410150  0.40243482
   0.81096365  0.34633395  0.38516584
   0.49503575  0.05159344  0.33720879
Direct configuration=    26
   0.22067121  0.89240241  0.08901558
   0.67551297  0.16798282  0.21801738
   0.94927612  0.02809995  0.15233499
   0.39969926  0.31840891  0.28677099
   0.44927612  0.52809995  0.15233499
   0.88913355  0.31997629  0.28041116
   0.44927612  0.02809995  0.15233499
   0.91027427  0.80247927  0.28383934
   0.90282244  0.55132680  0.10484543
   0.36868517  0.83289909  0.23341017
   0.99714978  0.50599933  0.20294570
   0.28139494  0.83533246  0.36214769
   0.53851998  0.23347802  0.07318573
   0.05335801  0.47558240  0.34966864
   0.80863282  0.59827820  0.31264036
   0.87926422  0.06310591  0.05527763
   0.34158102  0.33059988  0.18297771
   0.58246139  0.21150732  0.12452493
   0.06332394  0.47338995  0.25615827
   0.59977772  0.73484867  0.38753422
   0.09516526  0.72856013  0.12156099
   0.56685542  0.45789612  0.25109398
   0.76368656  0.14070187  0.31267630
   0.85888103  0.57329750  0.05350623
   0.31171486  0.84823835  0.18039396
   0.56207820  0.72169891  0.12275353
   0.02386155  0.99561108  0.25434608
   0.80106876  0.32765996  0.18390265
   0.21400808  0.62469701  0.32140385
   0.34617716  0.60305419  0.05647018
   0.32718600  0.11039132  0.32841339
   0.79913055  0.87853438  0.18430974
   0.34617716  0.05624469  0.05647018
   0.57251299  0.99944266  0.25392887
   0.09516526  0.18175063  0.12156099
   0.13577718  0.62240281  0.39023288
   0.94640894  0.23292551  0.36984205
   0.34047062  0.60391201  0.02782883
   0.92434681  0.68523651  0.03696881
   0.34363348  0.06399961  0.02783421
   0.88838126  0.05560908  0.02665597
   0.56989544  0.78021793  0.41179591
   0.81794465  0.16920489  0.33675281
   0.98397305  0.72408582  0.40243611
   0.81095883  0.34633742  0.38516607
   0.49504450  0.05159596  0.33721075
Direct configuration=    27
   0.22067121  0.89240241  0.08901558
   0.67550313  0.16798178  0.21801921
   0.94927612  0.02809995  0.15233499
   0.39969716  0.31842467  0.28677097
   0.44927612  0.52809995  0.15233499
   0.88912588  0.31996765  0.28040909
   0.44927612  0.02809995  0.15233499
   0.91025707  0.80250329  0.28383772
   0.90282244  0.55132680  0.10484543
   0.36870181  0.83289358  0.23340967
   0.99714943  0.50599800  0.20294564
   0.28140089  0.83533410  0.36214510
   0.53851998  0.23347802  0.07318573
   0.05332740  0.47561211  0.34967120
   0.80861500  0.59828020  0.31263688
   0.87926422  0.06310591  0.05527763
   0.34157767  0.33061479  0.18297921
   0.58246139  0.21150732  0.12452493
   0.06332945  0.47338296  0.25615746
   0.59976139  0.73485696  0.38753328
   0.09516526  0.72856013  0.12156099
   0.56687498  0.45790114  0.25109216
   0.76368832  0.14071180  0.31267793
   0.85888103  0.57329750  0.05350623
   0.31171148  0.84823311  0.18039457
   0.56207820  0.72169891  0.12275353
   0.02385867  0.99561411  0.25434609
   0.80106141  0.32767680  0.18390526
   0.21400540  0.62473097  0.32141098
   0.34617716  0.60305419  0.05647018
   0.32721209  0.11032933  0.32841708
   0.79912639  0.87853133  0.18431185
   0.34617716  0.05624469  0.05647018
   0.57253791  0.99939767  0.25392314
   0.09516526  0.18175063  0.12156099
   0.13580054  0.62241778  0.39023480
   0.94640865  0.23290344  0.36984316
   0.34047062  0.60391201  0.02782883
   0.92434681  0.68523651  0.03696881
   0.34363348  0.06399961  0.02783421
   0.88838126  0.05560908  0.02665597
   0.56989369  0.78021867  0.41179606
   0.81794052  0.16920490  0.33675167
   0.98397249  0.72409458  0.40243539
   0.81096152  0.34633548  0.38516594
   0.49503961  0.05159455  0.33720966
