Mn O  H 
 1.0000000000000000
     5.7471469900000001    0.0000000000000000    0.0000000000000000
     0.0000000000000000    5.7471469900000001    0.0000000000000000
     0.0000000000000000    0.0000000000000000   38.3523056924327008
 Mn  O   H  
  14  21   6
Selective dynamics
Direct
 -0.0093835343744717  0.2391760241319369  0.2623916092900749   F   F   F
  0.7489864879576713  0.4968346817732093  0.3235847127412249   F   F   F
  0.4947752981908540  0.2486201266398559  0.3956698109417241   T   T   T
  0.7536479110941163 -0.0034975898832382  0.4574703470441934   T   T   T
  0.2503399530895252 -0.0034445427407793  0.4618836059234831   T   T   T
  0.2510151206674320  0.4955812159049278  0.3269556710605909   F   F   F
  0.4959321325690236  0.7479113117511383  0.3964506566710670   T   T   T
 -0.0100916428494874  0.7513987945614823  0.2627757334990781   F   F   F
  0.0024768544779153 -0.0045784375955736  0.3571699137271092   F   F   F
 -0.0051596143103386  0.4901964681237193  0.4292049219641562   T   T   T
  0.4811713995705064  0.5012778388443274  0.4921272145595946   T   T   T
  0.4872487909802456 -0.0043314717839424  0.2917774653642574   F   F   F
  0.5092267963354741  0.1370095905747538  0.5608332151903976   T   T   T
  0.0063630940098612  0.2395036217998741  0.5285143616064304   T   T   T
 -0.0046042880977255  0.2240698675039460  0.4670035132309812   T   T   T
  0.7747574636748692  0.4958631552600724  0.2647010163483396   F   F   F
  0.4994775423373534  0.2678073900728424  0.3280746410023943   F   F   F
  0.7246914392915443 -0.0009405215535373  0.3990550654727834   T   T   T
  0.0037645548922136  0.2690184215424850  0.3222536979589821   F   F   F
  0.7692367725186661 -0.0055241815224737  0.2597891457639432   F   F   F
  0.5005800117613322  0.2247791032550620  0.4575615393457794   T   T   T
  0.7221845492379385  0.4985771279311618  0.3935947836319073   T   T   T
  0.2111692605782599 -0.0057975698878655  0.2583053953367737   F   F   F
  0.2653184225353056  0.4988625526068793  0.3932584502536387   T   T   T
  0.2272536477132092  0.4962741366236937  0.2626329689737672   F   F   F
  0.2693350277200582 -0.0017936893084579  0.3988177254652771   T   T   T
  0.4987015056994976  0.7247605740973498  0.3278246169346272   F   F   F
  0.0005732921816702  0.7767354061907679  0.4602072720203072   T   T   T
  0.5024399875489529  0.7684858241618944  0.4567949072007062   T   T   T
  0.0041034282560547  0.7236694402594225  0.3222276800561435   F   F   F
  0.6932810867096151  0.4321537172811171  0.5362161355810668   T   T   T
  0.2178380564058465  0.2337277760438220  0.5856611767149257   T   T   T
  0.2125584038957251  0.5487088372454823  0.5278593317471173   T   T   T
  0.2928710215956853  0.0072284690931276  0.5203141895207291   T   T   T
  0.8069040694539690 -0.0471096041175195  0.5563208198605688   T   T   T
  0.3862807976787250  0.4992215041381847  0.2532026820654570   F   F   F
  0.7373923452702527  0.5838688158293601  0.5463271703764910   T   T   T
  0.2028024831864910  0.3036334300414281  0.6085547312493189   T   T   T
  0.2678062823658996  0.5270334026729155  0.5518111798453437   T   T   T
  0.2413675533312948  0.8435602359319774  0.5253750905260454   T   T   T
  0.9174172240447349  0.9522392059068467  0.5756519327071932   T   T   T
