Mn  O  H                                
   1.00000000000000     
     2.8735734950000000   -2.8735734950000000    4.7083351100000002
     5.7471469900000001    0.0000000000000000    0.0000000000000000
     0.0000000000000000   33.0656910066415008   20.1805290088081009
   Mn   O    H 
    18    28     8
Selective dynamics
Direct
  0.2206712106837827  0.8924024101981232  0.0890155841539979   F   F   F
  0.6778810357665961  0.1637974976567165  0.2156543871710142   F   F   F
  0.1322295926157594  0.4325995297121821  0.3480568562410202   T   T   T
  0.9492761232251894  0.0280999539274163  0.1523349856625060   F   F   F
  0.4067070608982554  0.2985185605705326  0.2816907824696798   T   T   T
  0.8501740355797248  0.5710680799449860  0.4126231308368598   T   T   T
  0.4492761232251894  0.5280999539274163  0.1523349856625060   F   F   F
  0.9058335277960070  0.2991263163740408  0.2818364847703771   T   T   T
  0.3580406275136319  0.5684249794494945  0.4146955697848959   T   T   T
  0.4492761232251894  0.0280999539274163  0.1523349856625060   F   F   F
  0.3579272874416933  0.0616757383594922  0.4140287887500190   T   T   T
  0.9065421062914195  0.7990382003142993  0.2818173963184968   T   T   T
  0.9028224388191362  0.5513267961304464  0.1048454345311214   F   F   F
  0.3600322639019495  0.8227218835890397  0.2314842375481376   F   F   F
  0.8072672263996420  0.0910341220283032  0.3633470207178054   T   T   T
  0.9957298076312497  0.5048731117243932  0.1998245367938836   F   F   F
  0.4517030071530505  0.7764715443907876  0.3320193964400283   T   T   T
  0.5385199825484293  0.2334780242657999  0.0731857337768673   F   F   F
  0.7969279414573691  0.6039560919072802  0.3125822363163017   T   T   T
  0.2415351697457389  0.8830181556248390  0.4473438798164812   T   T   T
  0.8792642171272149  0.0631059069764035  0.0552776342656358   F   F   F
  0.3364740422100354  0.3345009944349968  0.1819164372826521   F   F   F
  0.5824613929758371  0.2115073190520960  0.1245249348239739   F   F   F
  0.0433531552380753  0.4806301211530124  0.2535865759404594   T   T   T
  0.4927169635762296  0.7559969327190380  0.3848882074740814   T   T   T
  0.0951652613222294  0.7285601348788973  0.1215609852990625   F   F   F
  0.5565066967656013  0.4477804829253579  0.2497769694563867   T   T   T
  0.0091770437090278  0.7174376013838554  0.3829549225823572   T   T   T
  0.7673667708760812  0.1178851565516046  0.3101780029400068   T   T   T
  0.2053211895081102  0.3828925841282502  0.4430989700524395   T   T   T
  0.8588810283917283  0.5732975013441504  0.0535062334840219   F   F   F
  0.3160908534745417  0.8446925888027437  0.1801450365010382   F   F   F
  0.5620782042403505  0.7216989134198428  0.1227535340423529   F   F   F
  0.0163611833588905  0.9941775009548316  0.2515128445565197   T   T   T
  0.4623723910714613  0.2552552127265154  0.3834916488099348   T   T   T
  0.8033869851281494  0.3276397729759424  0.1831089860259496   F   F   F
  0.2566714031767836  0.5973343902615045  0.3143331069698301   T   T   T
  0.3461771600453361  0.6030541855173510  0.0564701830089334   F   F   F
  0.7139791280830184  0.3849553865459232  0.4412175781342038   T   T   T
  0.2550700988202225  0.1482411292512375  0.3136563992711331   T   T   T
  0.8033869851281494  0.8744492729759372  0.1831089860259496   F   F   F
  0.3461771600453361  0.0562446855173491  0.0564701830089334   F   F   F
  0.7035502325583715  0.8707424332537299  0.4440438260554544   T   T   T
  0.0039262802257118  0.2711437727445690  0.3818338178706395   T   T   T
  0.5576483138603037 -0.0002096946964704  0.2496894864639506   T   T   T
  0.0951652613222294  0.1817506348788953  0.1215609852990625   F   F   F
  0.3404706169097480  0.6039120138460916  0.0278288297643030   F   F   F
  0.9243468113422040  0.6852365052266407  0.0369688146645331   F   F   F
  0.3436334761770041  0.0639996102436484  0.0278342118600037   F   F   F
  0.8883812645227351  0.0556090842097916  0.0266559720288981   F   F   F
  0.7296928846984450  0.4246425006752532  0.4652091626748632   T   T   T
  0.7779104406327060  0.9891557572040165  0.4439480703741547   T   T   T
  0.3616907537123651  0.8345957060806700  0.4657879011934676   T   T   T
  0.2131430529886076  0.3631054482221458  0.4680077929961418   T   T   T
 
  0.00000000E+00  0.00000000E+00  0.00000000E+00
  0.00000000E+00  0.00000000E+00  0.00000000E+00
  0.00000000E+00  0.00000000E+00  0.00000000E+00
  0.00000000E+00  0.00000000E+00  0.00000000E+00
  0.00000000E+00  0.00000000E+00  0.00000000E+00
  0.00000000E+00  0.00000000E+00  0.00000000E+00
  0.00000000E+00  0.00000000E+00  0.00000000E+00
  0.00000000E+00  0.00000000E+00  0.00000000E+00
  0.00000000E+00  0.00000000E+00  0.00000000E+00
  0.00000000E+00  0.00000000E+00  0.00000000E+00
  0.00000000E+00  0.00000000E+00  0.00000000E+00
  0.00000000E+00  0.00000000E+00  0.00000000E+00
  0.00000000E+00  0.00000000E+00  0.00000000E+00
  0.00000000E+00  0.00000000E+00  0.00000000E+00
  0.00000000E+00  0.00000000E+00  0.00000000E+00
  0.00000000E+00  0.00000000E+00  0.00000000E+00
  0.00000000E+00  0.00000000E+00  0.00000000E+00
  0.00000000E+00  0.00000000E+00  0.00000000E+00
  0.00000000E+00  0.00000000E+00  0.00000000E+00
  0.00000000E+00  0.00000000E+00  0.00000000E+00
  0.00000000E+00  0.00000000E+00  0.00000000E+00
  0.00000000E+00  0.00000000E+00  0.00000000E+00
  0.00000000E+00  0.00000000E+00  0.00000000E+00
  0.00000000E+00  0.00000000E+00  0.00000000E+00
  0.00000000E+00  0.00000000E+00  0.00000000E+00
  0.00000000E+00  0.00000000E+00  0.00000000E+00
  0.00000000E+00  0.00000000E+00  0.00000000E+00
  0.00000000E+00  0.00000000E+00  0.00000000E+00
  0.00000000E+00  0.00000000E+00  0.00000000E+00
  0.00000000E+00  0.00000000E+00  0.00000000E+00
  0.00000000E+00  0.00000000E+00  0.00000000E+00
  0.00000000E+00  0.00000000E+00  0.00000000E+00
  0.00000000E+00  0.00000000E+00  0.00000000E+00
  0.00000000E+00  0.00000000E+00  0.00000000E+00
  0.00000000E+00  0.00000000E+00  0.00000000E+00
  0.00000000E+00  0.00000000E+00  0.00000000E+00
  0.00000000E+00  0.00000000E+00  0.00000000E+00
  0.00000000E+00  0.00000000E+00  0.00000000E+00
  0.00000000E+00  0.00000000E+00  0.00000000E+00
  0.00000000E+00  0.00000000E+00  0.00000000E+00
  0.00000000E+00  0.00000000E+00  0.00000000E+00
  0.00000000E+00  0.00000000E+00  0.00000000E+00
  0.00000000E+00  0.00000000E+00  0.00000000E+00
  0.00000000E+00  0.00000000E+00  0.00000000E+00
  0.00000000E+00  0.00000000E+00  0.00000000E+00
  0.00000000E+00  0.00000000E+00  0.00000000E+00
  0.00000000E+00  0.00000000E+00  0.00000000E+00
  0.00000000E+00  0.00000000E+00  0.00000000E+00
  0.00000000E+00  0.00000000E+00  0.00000000E+00
  0.00000000E+00  0.00000000E+00  0.00000000E+00
  0.00000000E+00  0.00000000E+00  0.00000000E+00
  0.00000000E+00  0.00000000E+00  0.00000000E+00
  0.00000000E+00  0.00000000E+00  0.00000000E+00
  0.00000000E+00  0.00000000E+00  0.00000000E+00
