Mn  O  H 
 1.0000000000000000
     2.8735734950000000   -2.8735734950000000    4.7083351100000002
     5.7471469900000001    0.0000000000000000    0.0000000000000000
     0.0000000000000000   33.0656910066415008   20.1805290088081009
 Mn  O   H  
  18  28   8
Selective dynamics
Cartesian
  5.7628827677693648  2.3092468582812549  2.8353755872843771   F   F   F
  2.8893092727693648  5.1828203532812731  7.5437106972843804   F   F   F
  2.8893092727693648 10.9299673432812643  7.5437106972843679   T   T   T
  2.8893092727693652  2.3092468582812606  7.5437106972843768   F   F   F
  2.8893092727693648  8.0563938482812514  7.5437106972843644   T   T   T
  5.7628827677693648 10.9299673432812767 12.2520458072843716   T   T   T
  4.3260960202693646  3.7460336057812604  5.1895431422843767   F   F   F
  4.3260960202693646  6.6196071007812520  9.8978782522843645   T   T   T
  4.3260960202693646 12.3667540907812761  9.8978782522843716   T   T   T
  1.4525225252693670  3.7460336057812604  5.1895431422843767   F   F   F
  1.4525225252693654 12.3667540907812761  9.8978782522843716   T   T   T
  7.1996695152693650  6.6196071007812520  9.8978782522843645   T   T   T
  5.7628827677693621  0.8724601107812541  6.3666269197843688   F   F   F
  5.7628827677693648  6.6196071007812751  6.3666269197843812   F   F   F
  2.8893092727693643  9.4931805957812667 11.0749620297843681   T   T   T
  5.7628827677693648  3.7460336057812702  8.7207944747843804   F   F   F
  5.7628827677693648  9.4931805957812596  8.7207944747843662   T   T   T
  2.8893092727693674  0.8724601107812580  4.0124593647843732   F   F   F
  5.7628827677693648  7.9218833097670478  9.9637375963027228   T   T   T
  5.7628827677693675 13.6690302997670674  9.9637375963027335   T   T   T
  2.8893092727693666 -0.6988371752329519  5.2554024863027369   F   F   F
  2.8893092727693648  5.0483098147670553  5.2554024863027342   F   F   F
  2.8893092727693674  2.4437573967954527  5.2554024863027262   F   F   F
  2.8893092727693688  8.1909043867954754  5.2554024863027351   T   T   T
  5.7628827677693648 11.0644778817954652  9.9637375963027264   T   T   T
  4.4606065587835744  3.7460336057812644  2.9012349313027381   F   F   F
  4.1915854817551592  6.6196071007812547  7.6095700413027281   T   T   T
  4.1915854817551592 12.3667540907812779  7.6095700413027352   T   T   T
  2.8893092727693643  7.9218833097670629  9.8320189082660097   T   T   T
  2.8893092727693679 13.6690302997670514  9.8320189082660026   T   T   T
  5.7628827677693648 -0.6988371752329496  5.1236837982660175   F   F   F
  5.7628827677693648  5.0483098147670384  5.1236837982660033   F   F   F
  5.7628827677693621  2.4437573967954682  5.1236837982660148   F   F   F
  5.7628827677693639  8.1909043867954576  5.1236837982660042   T   T   T
  2.8893092727693648 11.0644778817954812  9.8320189082660132   T   T   T
  4.1915854817551592  3.7460336057812578  7.4778513532660131   F   F   F
  4.1915854817551592  9.4931805957812490  7.4778513532660007   T   T   T
  4.4606065587835699  0.8724601107812570  2.7695162432660196   F   F   F
  4.4606065587835726 12.3667540907812707 12.1861864632660115   T   T   T
  1.5870330637835701  9.4931805957812490  7.4778513532660007   T   T   T
  7.3341800537835704  3.7460336057812578  7.4778513532660131   F   F   F
  1.3180119867551616  0.8724601107812570  2.7695162432660196   F   F   F
  7.0651589767551624 12.3667540907812707 12.1861864632660115   T   T   T
  1.5870330637835701 12.3667540907812779  7.6095700413027352   T   T   T
  7.3341800537835704  6.6196071007812547  7.6095700413027281   T   T   T
  1.3180119867551578  3.7460336057812644  2.9012349313027381   F   F   F
  4.4491384531785387 -0.0581878545152632  2.1646502658592355   F   F   F
  6.5943334157121383 -1.4337790946814977  5.0981847824178921   F   F   F
  1.3552712165099017 -0.0670986003607398  2.1796506807336180   F   F   F
  2.8724224361200634 -1.6714307205977854  4.7207283156058173   F   F   F
  4.5302659745330773 13.2792897504806664 12.8142997840357502   T   T   T
  7.1395986781919367 13.2712937435355993 12.8252223426137295   T   T   T
  5.8129142143192780 14.6126124479077788 10.5461890483761636   T   T   T
  2.9311768956124977 14.6246917347074170 10.3950983293968626   T   T   T
