Mn O  H                                 
   1.00000000000000     
     5.7471469900000001    0.0000000000000000    0.0000000000000000
     0.0000000000000000    5.7471469900000001    0.0000000000000000
     0.0000000000000000    0.0000000000000000   38.3523056924327008
   Mn   O    H 
    15    23     8
Selective dynamics
Direct
  0.9258091432571376  0.2595556491222628  0.2653099577820268   T   T   T
  0.6845214233527652  0.5180873255050918  0.3265713691951971   T   T   T
  0.4413161195862366  0.2740844319979169  0.3919201308766168   T   T   T
  0.7021619709118871  0.0226788942870336  0.4531742416956800   T   T   T
  0.2016667211786072  0.0208751685587135  0.4586574878244919   T   T   T
  0.1866140478315211  0.5168451033528668  0.3299771060557792   T   T   T
  0.4429015973334860  0.7723284463081316  0.3930131007047786   T   T   T
  0.9253509794597953  0.7719556979540177  0.2655860624630161   T   T   T
  0.9452219635645366  0.0153426300220270  0.3601931216890706   T   T   T
  0.9433443217985431  0.5183656896916067  0.4255411426884407   T   T   T
  0.4672388868352406  0.5466277133871886  0.4918570600416389   T   T   T
  0.4229898091008034  0.0155652725207244  0.2946108210492017   T   T   T
  0.5171772029722975  0.0830705008245686  0.6015020990005359   T   T   T
  0.9571169831979580  0.2756053678553659  0.5203725289684897   T   T   T
  0.0380947421029060  0.7770885364713069  0.5516140461598908   T   T   T
  0.9446741925410070  0.2502006342833700  0.4627252401313574   T   T   T
  0.7106466022798907  0.5167101973905598  0.2675002164652527   T   T   T
  0.4349421417917046  0.2892285592714723  0.3309808990507523   T   T   T
  0.6711432915201853  0.0252518514911656  0.3952816043801815   T   T   T
  0.9393434673424799  0.2901593707699480  0.3253652521012321   T   T   T
  0.7046807681385449  0.0150750454819636  0.2624571242583185   T   T   T
  0.4524532034418324  0.2508906975455878  0.4571328628945701   T   T   T
  0.6692337294708421  0.5231792088634856  0.3898996904380213   T   T   T
  0.1467984234647987  0.0145004772586090  0.2611645999485789   T   T   T
  0.2121377549409960  0.5236163863993518  0.3895945929342697   T   T   T
  0.1617114483379469  0.5162016690344962  0.2653168247547194   T   T   T
  0.2164771345591403  0.0233243394687334  0.3954440775133581   T   T   T
  0.4342626351247013  0.7456767485289397  0.3308406888644946   T   T   T
  0.9493483046160143  0.8019397544277266  0.4568869534446229   T   T   T
  0.4537780828981229  0.7930120849655142  0.4525927435482274   T   T   T
  0.9397857027691340  0.7445282481198184  0.3250457935436570   T   T   T
  0.7367865330641221  0.5645057666296026  0.5301994454074459   T   T   T
  0.2346313484683424  0.4908936772332600  0.5323523484941860   T   T   T
  0.8255927229642387  0.0619605195547085  0.6278352915309173   T   T   T
  0.2201125761556691  0.9934756745490769  0.5149622736274450   T   T   T
  0.8002158974973459  0.0621536418310735  0.5588150013830054   T   T   T
  0.4694010676392176  0.4259529660875348  0.5863650958465574   T   T   T
  0.2283112039152328  0.8708985274205048  0.5976216444078493   T   T   T
  0.3207490749320658  0.5166796715294595  0.2559109827389142   T   T   T
  0.6499096509518562  0.5260227545968299  0.5522536811241241   T   T   T
  0.3299803052739113  0.4496162463980312  0.5553350135751624   T   T   T
  0.8563607817833945  0.1791161999753948  0.6454964752203104   T   T   T
  0.3628385451605026  0.0570174345472962  0.5248142762185324   T   T   T
  0.8718757569462292  0.1150203613236088  0.5812634953978040   T   T   T
  0.4018918591931732  0.5523316200993060  0.6002970888201647   T   T   T
  0.1020441776027566  0.9268168561504743  0.6134321705918695   T   T   T
 
  0.00000000E+00  0.00000000E+00  0.00000000E+00
  0.00000000E+00  0.00000000E+00  0.00000000E+00
  0.00000000E+00  0.00000000E+00  0.00000000E+00
  0.00000000E+00  0.00000000E+00  0.00000000E+00
  0.00000000E+00  0.00000000E+00  0.00000000E+00
  0.00000000E+00  0.00000000E+00  0.00000000E+00
  0.00000000E+00  0.00000000E+00  0.00000000E+00
  0.00000000E+00  0.00000000E+00  0.00000000E+00
  0.00000000E+00  0.00000000E+00  0.00000000E+00
  0.00000000E+00  0.00000000E+00  0.00000000E+00
  0.00000000E+00  0.00000000E+00  0.00000000E+00
  0.00000000E+00  0.00000000E+00  0.00000000E+00
  0.00000000E+00  0.00000000E+00  0.00000000E+00
  0.00000000E+00  0.00000000E+00  0.00000000E+00
  0.00000000E+00  0.00000000E+00  0.00000000E+00
  0.00000000E+00  0.00000000E+00  0.00000000E+00
  0.00000000E+00  0.00000000E+00  0.00000000E+00
  0.00000000E+00  0.00000000E+00  0.00000000E+00
  0.00000000E+00  0.00000000E+00  0.00000000E+00
  0.00000000E+00  0.00000000E+00  0.00000000E+00
  0.00000000E+00  0.00000000E+00  0.00000000E+00
  0.00000000E+00  0.00000000E+00  0.00000000E+00
  0.00000000E+00  0.00000000E+00  0.00000000E+00
  0.00000000E+00  0.00000000E+00  0.00000000E+00
  0.00000000E+00  0.00000000E+00  0.00000000E+00
  0.00000000E+00  0.00000000E+00  0.00000000E+00
  0.00000000E+00  0.00000000E+00  0.00000000E+00
  0.00000000E+00  0.00000000E+00  0.00000000E+00
  0.00000000E+00  0.00000000E+00  0.00000000E+00
  0.00000000E+00  0.00000000E+00  0.00000000E+00
  0.00000000E+00  0.00000000E+00  0.00000000E+00
  0.00000000E+00  0.00000000E+00  0.00000000E+00
  0.00000000E+00  0.00000000E+00  0.00000000E+00
  0.00000000E+00  0.00000000E+00  0.00000000E+00
  0.00000000E+00  0.00000000E+00  0.00000000E+00
  0.00000000E+00  0.00000000E+00  0.00000000E+00
  0.00000000E+00  0.00000000E+00  0.00000000E+00
  0.00000000E+00  0.00000000E+00  0.00000000E+00
  0.00000000E+00  0.00000000E+00  0.00000000E+00
  0.00000000E+00  0.00000000E+00  0.00000000E+00
  0.00000000E+00  0.00000000E+00  0.00000000E+00
  0.00000000E+00  0.00000000E+00  0.00000000E+00
  0.00000000E+00  0.00000000E+00  0.00000000E+00
  0.00000000E+00  0.00000000E+00  0.00000000E+00
  0.00000000E+00  0.00000000E+00  0.00000000E+00
  0.00000000E+00  0.00000000E+00  0.00000000E+00
