Mn O  H                                 
   1.00000000000000     
     5.7471469900000001    0.0000000000000000    0.0000000000000000
     0.0000000000000000    5.7471469900000001    0.0000000000000000
     0.0000000000000000    0.0000000000000000   38.3523056924327008
   Mn   O    H 
    15    22     4
Selective dynamics
Direct
 -0.0334461215781152  0.2315972773350684  0.2682871660418966   T   T   T
  0.7270798335055003  0.4875233382205018  0.3291455790520128   T   T   T
  0.4822443279310274  0.2378738665665953  0.3950074156226278   T   T   T
  0.7314065219470435 -0.0163138303179327  0.4596958675758111   T   T   T
  0.2311695038297528 -0.0151453520507010  0.4588427943857106   T   T   T
  0.2296392468674191  0.4870156581818948  0.3326027394011555   T   T   T
  0.4833461504227526  0.7378983585552392  0.3948924604064175   T   T   T
 -0.0334352317032225  0.7438550590110492  0.2682816726055065   T   T   T
 -0.0181541784048136 -0.0138767816051179  0.3627744162413207   T   T   T
 -0.0187827176667325  0.4893003241692683  0.4272025117284187   T   T   T
  0.4752813635881140  0.4886950124019576  0.4918372166189313   T   T   T
  0.4637333757550564 -0.0128490471123765  0.2971191211011858   T   T   T
  0.4661197077523206  0.0353991597622490  0.5510940203385691   T   T   T
  0.9917064385875796  0.2356245412399558  0.5208177226315839   T   T   T
  0.0130152645608232  0.7420510647985499  0.5379577297685343   T   T   T
 -0.0205704367443810  0.2172136276363637  0.4633235546429758   T   T   T
  0.7520721261072725  0.4876761906185504  0.2701361248056464   T   T   T
  0.4771979005974566  0.2593970580870603  0.3333394323363805   T   T   T
  0.7102413856801915 -0.0127310678916200  0.3980086976517800   T   T   T
 -0.0185309711244559  0.2593319648588974  0.3277772892910642   T   T   T
  0.7459923795996986 -0.0122676087222522  0.2648100593681009   T   T   T
  0.4820012887199805  0.2142590854554821  0.4562622644012390   T   T   T
  0.7092035057499766  0.4885700499272284  0.3920201730050142   T   T   T
  0.1869412239904505 -0.0122850604047927  0.2635373402279212   T   T   T
  0.2531540628252125  0.4889061631617647  0.3919601569810882   T   T   T
  0.2037441945208718  0.4876640548150131  0.2684411242026610   T   T   T
  0.2541434248262739 -0.0132673917090166  0.3978982387279766   T   T   T
  0.4776107134396447  0.7158051412412120  0.3333540800476751   T   T   T
 -0.0180185799755975  0.7607248942776046  0.4614269513753442   T   T   T
  0.4818777161754287  0.7552779517853924  0.4562782875808498   T   T   T
 -0.0176709893322751  0.7149096665518202  0.3276729436706840   T   T   T
  0.7490338343108599  0.4764607238387847  0.5322655122147193   T   T   T
  0.2259156982202533  0.4547441903656467  0.5292344963611055   T   T   T
  0.6404001954116295  0.1906369114865880  0.5863250531370816   T   T   T
  0.2347509892598640 -0.0044228972294084  0.5160050937326128   T   T   T
  0.7429844719011389 -0.0004139262871674  0.5228118516961218   T   T   T
  0.2181381373571155  0.9083386147178880  0.5804657004900146   T   T   T
  0.3616390667458317  0.4877103829089677  0.2586703094821739   T   T   T
  0.6852716010372436  0.4134845467534459  0.5547044756246313   T   T   T
  0.2570930337561370  0.8626613009530100  0.6041344781351495   T   T   T
  0.5445978918324835  0.2220319302610536  0.6067187215882222   T   T   T
 
  0.00000000E+00  0.00000000E+00  0.00000000E+00
  0.00000000E+00  0.00000000E+00  0.00000000E+00
  0.00000000E+00  0.00000000E+00  0.00000000E+00
  0.00000000E+00  0.00000000E+00  0.00000000E+00
  0.00000000E+00  0.00000000E+00  0.00000000E+00
  0.00000000E+00  0.00000000E+00  0.00000000E+00
  0.00000000E+00  0.00000000E+00  0.00000000E+00
  0.00000000E+00  0.00000000E+00  0.00000000E+00
  0.00000000E+00  0.00000000E+00  0.00000000E+00
  0.00000000E+00  0.00000000E+00  0.00000000E+00
  0.00000000E+00  0.00000000E+00  0.00000000E+00
  0.00000000E+00  0.00000000E+00  0.00000000E+00
  0.00000000E+00  0.00000000E+00  0.00000000E+00
  0.00000000E+00  0.00000000E+00  0.00000000E+00
  0.00000000E+00  0.00000000E+00  0.00000000E+00
  0.00000000E+00  0.00000000E+00  0.00000000E+00
  0.00000000E+00  0.00000000E+00  0.00000000E+00
  0.00000000E+00  0.00000000E+00  0.00000000E+00
  0.00000000E+00  0.00000000E+00  0.00000000E+00
  0.00000000E+00  0.00000000E+00  0.00000000E+00
  0.00000000E+00  0.00000000E+00  0.00000000E+00
  0.00000000E+00  0.00000000E+00  0.00000000E+00
  0.00000000E+00  0.00000000E+00  0.00000000E+00
  0.00000000E+00  0.00000000E+00  0.00000000E+00
  0.00000000E+00  0.00000000E+00  0.00000000E+00
  0.00000000E+00  0.00000000E+00  0.00000000E+00
  0.00000000E+00  0.00000000E+00  0.00000000E+00
  0.00000000E+00  0.00000000E+00  0.00000000E+00
  0.00000000E+00  0.00000000E+00  0.00000000E+00
  0.00000000E+00  0.00000000E+00  0.00000000E+00
  0.00000000E+00  0.00000000E+00  0.00000000E+00
  0.00000000E+00  0.00000000E+00  0.00000000E+00
  0.00000000E+00  0.00000000E+00  0.00000000E+00
  0.00000000E+00  0.00000000E+00  0.00000000E+00
  0.00000000E+00  0.00000000E+00  0.00000000E+00
  0.00000000E+00  0.00000000E+00  0.00000000E+00
  0.00000000E+00  0.00000000E+00  0.00000000E+00
  0.00000000E+00  0.00000000E+00  0.00000000E+00
  0.00000000E+00  0.00000000E+00  0.00000000E+00
  0.00000000E+00  0.00000000E+00  0.00000000E+00
  0.00000000E+00  0.00000000E+00  0.00000000E+00
