Mn O  H                                 
   1.00000000000000     
     5.7471469900000001    0.0000000000000000    0.0000000000000000
     0.0000000000000000    5.7471469900000001    0.0000000000000000
     0.0000000000000000    0.0000000000000000   38.3523056924327008
   Mn   O    H 
    14    21     4
Selective dynamics
Direct
 -0.0190415722854746  0.2380511506837953  0.2671739657836462   T   T   T
  0.7418581452535575  0.4938369859324677  0.3284784249434919   T   T   T
  0.5027384094875340  0.2436817717316981  0.3941806000822787   T   T   T
  0.7590862690768975 -0.0031380646746816  0.4598294568120396   T   T   T
  0.2601020633202793 -0.0015056502540449  0.4590847944326221   T   T   T
  0.2441332848925380  0.4924485311415441  0.3317786951417672   T   T   T
  0.5036042974723510  0.7451518877442334  0.3942267241563187   T   T   T
 -0.0197041891786021  0.7507204180415593  0.2676246553303662   T   T   T
  0.0030227404463240 -0.0077382333962993  0.3620445952640549   T   T   T
  0.0010813525523951  0.4972241000131730  0.4260679713146528   T   T   T
  0.4984028875108021  0.4991535233941448  0.4902345812631231   T   T   T
  0.4778988340406845 -0.0082188555438098  0.2965413043226890   T   T   T
  0.0221984415818032  0.2324270196833606  0.5226556406161338   T   T   T
  0.0224184153390096  0.7507119718474730  0.5208226779525913   T   T   T
  0.0095039169291616  0.2270985580233401  0.4618270234612823   T   T   T
  0.7652961899251011  0.4950583632805437  0.2697726422898873   T   T   T
  0.4922053217782706  0.2652324213826918  0.3325549350131773   T   T   T
  0.7307734366557649 -0.0064536986407501  0.3969768493251694   T   T   T
 -0.0032015209228149  0.2659949548840377  0.3270074187048725   T   T   T
  0.7596315233462592 -0.0062435886270758  0.2643834423518300   T   T   T
  0.5102884802196085  0.2253867033333415  0.4556400638218606   T   T   T
  0.7293855621093579  0.4952119846760726  0.3909108132069786   T   T   T
  0.2017323295640784 -0.0067175175680157  0.2630284824058949   T   T   T
  0.2741305043574376  0.4956082196873089  0.3913779813586540   T   T   T
  0.2167016813197551  0.4951154513513473  0.2670968863675556   T   T   T
  0.2746471119241848 -0.0068138053395719  0.3973985740894257   T   T   T
  0.4914894132168136  0.7217966855916769  0.3326820855399972   T   T   T
  0.0094414764391586  0.7662741633248489  0.4616891494093758   T   T   T
  0.5086033154426217  0.7699530941363796  0.4555498717434988   T   T   T
 -0.0028603406642498  0.7207022279659661  0.3270083906804588   T   T   T
  0.7797519621161195  0.4928857138836081  0.5282694999394933   T   T   T
  0.2363302380839906  0.4943736574831122  0.5252559041082043   T   T   T
  0.8008095555161489 -0.0089544058367549  0.5206543947542936   T   T   T
  0.2439702402908265 -0.0074444869274448  0.5184100371672130   T   T   T
  0.2797144676433348  0.2977409734226533  0.5897582372154461   T   T   T
  0.3754934751764900  0.4962470575708542  0.2576491487547072   T   T   T
  0.7029042725276291  0.4993757782431296  0.5509629234113105   T   T   T
  0.2982083981154106  0.3891670064474169  0.5680790126508771   T   T   T
  0.3654749444655441  0.1546252010422888  0.5853871125653908   T   T   T
 
  0.00000000E+00  0.00000000E+00  0.00000000E+00
  0.00000000E+00  0.00000000E+00  0.00000000E+00
  0.00000000E+00  0.00000000E+00  0.00000000E+00
  0.00000000E+00  0.00000000E+00  0.00000000E+00
  0.00000000E+00  0.00000000E+00  0.00000000E+00
  0.00000000E+00  0.00000000E+00  0.00000000E+00
  0.00000000E+00  0.00000000E+00  0.00000000E+00
  0.00000000E+00  0.00000000E+00  0.00000000E+00
  0.00000000E+00  0.00000000E+00  0.00000000E+00
  0.00000000E+00  0.00000000E+00  0.00000000E+00
  0.00000000E+00  0.00000000E+00  0.00000000E+00
  0.00000000E+00  0.00000000E+00  0.00000000E+00
  0.00000000E+00  0.00000000E+00  0.00000000E+00
  0.00000000E+00  0.00000000E+00  0.00000000E+00
  0.00000000E+00  0.00000000E+00  0.00000000E+00
  0.00000000E+00  0.00000000E+00  0.00000000E+00
  0.00000000E+00  0.00000000E+00  0.00000000E+00
  0.00000000E+00  0.00000000E+00  0.00000000E+00
  0.00000000E+00  0.00000000E+00  0.00000000E+00
  0.00000000E+00  0.00000000E+00  0.00000000E+00
  0.00000000E+00  0.00000000E+00  0.00000000E+00
  0.00000000E+00  0.00000000E+00  0.00000000E+00
  0.00000000E+00  0.00000000E+00  0.00000000E+00
  0.00000000E+00  0.00000000E+00  0.00000000E+00
  0.00000000E+00  0.00000000E+00  0.00000000E+00
  0.00000000E+00  0.00000000E+00  0.00000000E+00
  0.00000000E+00  0.00000000E+00  0.00000000E+00
  0.00000000E+00  0.00000000E+00  0.00000000E+00
  0.00000000E+00  0.00000000E+00  0.00000000E+00
  0.00000000E+00  0.00000000E+00  0.00000000E+00
  0.00000000E+00  0.00000000E+00  0.00000000E+00
  0.00000000E+00  0.00000000E+00  0.00000000E+00
  0.00000000E+00  0.00000000E+00  0.00000000E+00
  0.00000000E+00  0.00000000E+00  0.00000000E+00
  0.00000000E+00  0.00000000E+00  0.00000000E+00
  0.00000000E+00  0.00000000E+00  0.00000000E+00
  0.00000000E+00  0.00000000E+00  0.00000000E+00
  0.00000000E+00  0.00000000E+00  0.00000000E+00
  0.00000000E+00  0.00000000E+00  0.00000000E+00
