Mn O  H                                 
   1.00000000000000     
     5.7471469900000001    0.0000000000000000    0.0000000000000000
     0.0000000000000000    5.7471469900000001    0.0000000000000000
     0.0000000000000000    0.0000000000000000   38.3523056924327008
   Mn   O    H 
    15    23     6
Selective dynamics
Direct
 -0.0186938562555076  0.2435900993511781  0.2634117208343928   T   T   T
  0.7407628991513832  0.5018026993036423  0.3242669789319201   T   T   T
  0.4951426920886097  0.2555193101840312  0.3895582924003093   T   T   T
  0.7572479399000009  0.0013624232344030  0.4509391333383428   T   T   T
  0.2560683383453916 -0.0024741252318708  0.4581634465813303   T   T   T
  0.2425362712070917  0.5022728290687601  0.3274811741318424   T   T   T
  0.4961861093753137  0.7554433169063038  0.3902592898060130   T   T   T
 -0.0178382556409586  0.7557878701374504  0.2628521374107762   T   T   T
 -0.0013824922514398 -0.0000706016008620  0.3577152356804620   T   T   T
 -0.0034178054870185  0.4987759215613810  0.4226098799051867   T   T   T
  0.4904348369159984  0.5215582669742629  0.4868123930832973   T   T   T
  0.4792874746520823  0.0026493466207245  0.2922932956648937   T   T   T
  0.4584525116927277  0.1545712558890079  0.5510296616474564   T   T   T
  0.0106973678679846  0.2530634817041056  0.5165017472391696   T   T   T
  0.0755112438891388  0.7411891216720000  0.5425562463316438   T   T   T
  0.9994576026549405  0.2299556943113493  0.4600148710374564   T   T   T
  0.7663616946173656  0.4986405381190404  0.2650871290716403   T   T   T
  0.4900775186191072  0.2738784823289743  0.3286347583027955   T   T   T
  0.7258401317352285  0.0067238767791143  0.3930333529034509   T   T   T
 -0.0052587666708189  0.2739652803956484  0.3228724990512046   T   T   T
  0.7606793074965753  0.0001622870565376  0.2600755591958207   T   T   T
  0.5052075192508130  0.2275313138399575  0.4538707498284925   T   T   T
  0.7227278760677666  0.5058267987206367  0.3873839811630143   T   T   T
  0.2027527376083330  0.0008202004336188  0.2588810417965189   T   T   T
  0.2663940376438771  0.5057872326375700  0.3870818540476987   T   T   T
  0.2185665055112935  0.4988151582050577  0.2630775090755463   T   T   T
  0.2705809691087326  0.0055394527633079  0.3924706467309856   T   T   T
  0.4915199457916685  0.7301740247079770  0.3282067928518593   T   T   T
  0.0033891195685739  0.7792420071662698  0.4547824133126664   T   T   T
  0.5063436315426298  0.7737738928520881  0.4497681249362159   T   T   T
 -0.0039292801180462  0.7287441590931670  0.3225257054093205   T   T   T
  0.7768560626144294  0.5496289558275852  0.5235312086922631   T   T   T
  0.2957626816596534  0.4559142043561465  0.5302315433338890   T   T   T
  0.3232504146149442  0.0418808044133181  0.6254931737302348   T   T   T
  0.2615939678697115 -0.0230682858433690  0.5148173986326341   T   T   T
  0.8101593508066169  0.0571141514919393  0.5554786625742848   T   T   T
  0.1114979257975222  0.6529802719641636  0.5982764558827232   T   T   T
  0.2489088029851282  0.1912395681910812  0.5955235776336452   T   T   T
  0.3784757911338393  0.4974387512751492  0.2539885337184777   T   T   T
  0.6678411775714420  0.5553649851187366  0.5431439345392768   T   T   T
  0.1843950597707499  0.4959274501757389  0.6012146202689165   T   T   T
  0.2359394735407059  0.1143373535947583  0.6444428511901923   T   T   T
  0.1988693219841608  0.7717007717022243  0.6118131840465671   T   T   T
  0.8876681296310016  0.1052889699325446  0.5771476419336616   T   T   T
 
  0.00000000E+00  0.00000000E+00  0.00000000E+00
  0.00000000E+00  0.00000000E+00  0.00000000E+00
  0.00000000E+00  0.00000000E+00  0.00000000E+00
  0.00000000E+00  0.00000000E+00  0.00000000E+00
  0.00000000E+00  0.00000000E+00  0.00000000E+00
  0.00000000E+00  0.00000000E+00  0.00000000E+00
  0.00000000E+00  0.00000000E+00  0.00000000E+00
  0.00000000E+00  0.00000000E+00  0.00000000E+00
  0.00000000E+00  0.00000000E+00  0.00000000E+00
  0.00000000E+00  0.00000000E+00  0.00000000E+00
  0.00000000E+00  0.00000000E+00  0.00000000E+00
  0.00000000E+00  0.00000000E+00  0.00000000E+00
  0.00000000E+00  0.00000000E+00  0.00000000E+00
  0.00000000E+00  0.00000000E+00  0.00000000E+00
  0.00000000E+00  0.00000000E+00  0.00000000E+00
  0.00000000E+00  0.00000000E+00  0.00000000E+00
  0.00000000E+00  0.00000000E+00  0.00000000E+00
  0.00000000E+00  0.00000000E+00  0.00000000E+00
  0.00000000E+00  0.00000000E+00  0.00000000E+00
  0.00000000E+00  0.00000000E+00  0.00000000E+00
  0.00000000E+00  0.00000000E+00  0.00000000E+00
  0.00000000E+00  0.00000000E+00  0.00000000E+00
  0.00000000E+00  0.00000000E+00  0.00000000E+00
  0.00000000E+00  0.00000000E+00  0.00000000E+00
  0.00000000E+00  0.00000000E+00  0.00000000E+00
  0.00000000E+00  0.00000000E+00  0.00000000E+00
  0.00000000E+00  0.00000000E+00  0.00000000E+00
  0.00000000E+00  0.00000000E+00  0.00000000E+00
  0.00000000E+00  0.00000000E+00  0.00000000E+00
  0.00000000E+00  0.00000000E+00  0.00000000E+00
  0.00000000E+00  0.00000000E+00  0.00000000E+00
  0.00000000E+00  0.00000000E+00  0.00000000E+00
  0.00000000E+00  0.00000000E+00  0.00000000E+00
  0.00000000E+00  0.00000000E+00  0.00000000E+00
  0.00000000E+00  0.00000000E+00  0.00000000E+00
  0.00000000E+00  0.00000000E+00  0.00000000E+00
  0.00000000E+00  0.00000000E+00  0.00000000E+00
  0.00000000E+00  0.00000000E+00  0.00000000E+00
  0.00000000E+00  0.00000000E+00  0.00000000E+00
  0.00000000E+00  0.00000000E+00  0.00000000E+00
  0.00000000E+00  0.00000000E+00  0.00000000E+00
  0.00000000E+00  0.00000000E+00  0.00000000E+00
  0.00000000E+00  0.00000000E+00  0.00000000E+00
  0.00000000E+00  0.00000000E+00  0.00000000E+00
