Mn O  H                                 
   1.00000000000000     
     5.7471469900000001    0.0000000000000000    0.0000000000000000
     0.0000000000000000    5.7471469900000001    0.0000000000000000
     0.0000000000000000    0.0000000000000000   38.3523056924327008
   Mn   O    H 
    13    18     2
Selective dynamics
Direct
 -0.0233730310624814  0.2395038076862225  0.2651049669255008   T   T   T
  0.7331172645885969  0.4941690705389603  0.3266820399280820   T   T   T
  0.4872944342846828  0.2433492705085607  0.3924771501265498   T   T   T
  0.7373114126368520 -0.0080855610229873  0.4559043211966488   T   T   T
  0.2271160624290128  0.0012795122001799  0.4562402240877083   T   T   T
  0.2356337927612330  0.4930882368870078  0.3297823505850016   T   T   T
  0.4880845740300249  0.7424772212605852  0.3930356553624066   T   T   T
 -0.0244185012707681  0.7515757325412640  0.2655704009719028   T   T   T
 -0.0102434274225089 -0.0077251277321311  0.3600493170980288   T   T   T
 -0.0223910671601970  0.4971810895170925  0.4241484239406208   T   T   T
  0.5052406121260180  0.4833434775727444  0.4850333992115382   T   T   T
  0.4732673179101369 -0.0075863576197922  0.2944800016017859   T   T   T
  0.0113326587070508  0.4932752740203440  0.5044637861559793   T   T   T
 -0.0440264833456877  0.2424463014050788  0.4633254809777653   T   T   T
  0.7611099189066310  0.4962055916638097  0.2673295680811897   T   T   T
  0.4831548970500394  0.2646342325801554  0.3307948658807271   T   T   T
  0.7184520580084447 -0.0086674942472031  0.3958500775887173   T   T   T
 -0.0115703569114794  0.2664214607443800  0.3251755736231855   T   T   T
  0.7551908695369005 -0.0048841260030177  0.2623454036757547   T   T   T
  0.4971496651923459  0.2366844582924468  0.4507569701635045   T   T   T
  0.7141588803866418  0.4945205745365069  0.3879650679515949   T   T   T
  0.1974188548379222 -0.0056532908974853  0.2609220163579590   T   T   T
  0.2571100656981216  0.4948886171575413  0.3898893071344095   T   T   T
  0.2131462636214874  0.4964469035203961  0.2655054794105356   T   T   T
  0.2584246040954526 -0.0085641320684241  0.3961263711251469   T   T   T
  0.4825220413192299  0.7224080514123538  0.3307439570026225   T   T   T
 -0.0251019754632330  0.7494523379636371  0.4638336809553598   T   T   T
  0.5034335118278480  0.7516963411829645  0.4534286697448729   T   T   T
 -0.0113917690193489  0.7213448293300114  0.3250433609174028   T   T   T
  0.7015619808211799  0.6022335606570679  0.5240275477876899   T   T   T
  0.3076118627054394  0.3548344378592482  0.5169302420745739   T   T   T
  0.3728925336331309  0.4987578767256634  0.2563953362879188   T   T   T
  0.6223590642859430  0.5346108062343313  0.5441585516123357   T   T   T
 
  0.00000000E+00  0.00000000E+00  0.00000000E+00
  0.00000000E+00  0.00000000E+00  0.00000000E+00
  0.00000000E+00  0.00000000E+00  0.00000000E+00
  0.00000000E+00  0.00000000E+00  0.00000000E+00
  0.00000000E+00  0.00000000E+00  0.00000000E+00
  0.00000000E+00  0.00000000E+00  0.00000000E+00
  0.00000000E+00  0.00000000E+00  0.00000000E+00
  0.00000000E+00  0.00000000E+00  0.00000000E+00
  0.00000000E+00  0.00000000E+00  0.00000000E+00
  0.00000000E+00  0.00000000E+00  0.00000000E+00
  0.00000000E+00  0.00000000E+00  0.00000000E+00
  0.00000000E+00  0.00000000E+00  0.00000000E+00
  0.00000000E+00  0.00000000E+00  0.00000000E+00
  0.00000000E+00  0.00000000E+00  0.00000000E+00
  0.00000000E+00  0.00000000E+00  0.00000000E+00
  0.00000000E+00  0.00000000E+00  0.00000000E+00
  0.00000000E+00  0.00000000E+00  0.00000000E+00
  0.00000000E+00  0.00000000E+00  0.00000000E+00
  0.00000000E+00  0.00000000E+00  0.00000000E+00
  0.00000000E+00  0.00000000E+00  0.00000000E+00
  0.00000000E+00  0.00000000E+00  0.00000000E+00
  0.00000000E+00  0.00000000E+00  0.00000000E+00
  0.00000000E+00  0.00000000E+00  0.00000000E+00
  0.00000000E+00  0.00000000E+00  0.00000000E+00
  0.00000000E+00  0.00000000E+00  0.00000000E+00
  0.00000000E+00  0.00000000E+00  0.00000000E+00
  0.00000000E+00  0.00000000E+00  0.00000000E+00
  0.00000000E+00  0.00000000E+00  0.00000000E+00
  0.00000000E+00  0.00000000E+00  0.00000000E+00
  0.00000000E+00  0.00000000E+00  0.00000000E+00
  0.00000000E+00  0.00000000E+00  0.00000000E+00
  0.00000000E+00  0.00000000E+00  0.00000000E+00
  0.00000000E+00  0.00000000E+00  0.00000000E+00
