Mn O  H                                 
   1.00000000000000     
     5.7471469900000001    0.0000000000000000    0.0000000000000000
     0.0000000000000000    5.7471469900000001    0.0000000000000000
     0.0000000000000000    0.0000000000000000   38.3523056924327008
   Mn   O    H 
    12    17     1
Selective dynamics
Direct
 -0.0059335581425175  0.2506447355426547  0.2645355398311324   T   T   T
  0.7551716367933274  0.5000980601561387  0.3251668305433566   T   T   T
  0.5011635217629672  0.2509638098608568  0.3875032766783412   T   T   T
  0.7553180575113014  0.0015635051937655  0.4512375653771120   T   T   T
  0.2474793384016692  0.0019770489840011  0.4506386667815424   T   T   T
  0.2582179775065688  0.4984183636976101  0.3227913728472433   T   T   T
  0.5020683150031366  0.7504092493079962  0.3875064478199475   T   T   T
 -0.0056403539376908  0.7538826000658120  0.2648332717079256   T   T   T
  0.0019053126825263 -0.0021016748028019  0.3580049857171746   T   T   T
 -0.0015259939193965  0.5030329984006863  0.4203254306166720   T   T   T
  0.4869291591004848  0.5028792576812341  0.4856378204019616   T   T   T
  0.4942868145402078 -0.0025620921949693  0.2898006007983627   T   T   T
  0.0021201183792136  0.2254275380303500  0.4535478365845194   T   T   T
  0.7660869185036142  0.5000752565143590  0.2755372699684623   T   T   T
  0.5074214560404916  0.2710358875458366  0.3278847132946352   T   T   T
  0.7259468427658050 -0.0006401590566189  0.3919850034715008   T   T   T
  0.0038138091642925  0.2748354650335444  0.3254466520583656   T   T   T
  0.7771792153027873  0.0008841878115289  0.2599199550789227   T   T   T
  0.5007909993611876  0.2276447420342065  0.4514936919316037   T   T   T
  0.7348966282021695  0.5004571236151943  0.3813551191313279   T   T   T
  0.2115323072079800  0.0008293830343695  0.2595173489477270   T   T   T
  0.2782785817116936  0.5024082396727951  0.3869379916761471   T   T   T
  0.2109973968219962  0.5018042022990210  0.2665941210936758   T   T   T
  0.2757665995082699 -0.0002211255471257  0.3921994556446426   T   T   T
  0.5061723812962697  0.7280528430868566  0.3278834385867275   T   T   T
  0.0026331300224344  0.7783472226888204  0.4538329015202696   T   T   T
  0.5008178338313501  0.7755805836155795  0.4509983385811711   T   T   T
  0.0037699412449645  0.7247885783994935  0.3249974086663251   T   T   T
  0.4984072636010479  0.5000678582568145  0.5344834045413657   T   T   T
  0.4955923698507156  0.6333095139651068  0.5499608534280310   T   T   T
 
  0.00000000E+00  0.00000000E+00  0.00000000E+00
  0.00000000E+00  0.00000000E+00  0.00000000E+00
  0.00000000E+00  0.00000000E+00  0.00000000E+00
  0.00000000E+00  0.00000000E+00  0.00000000E+00
  0.00000000E+00  0.00000000E+00  0.00000000E+00
  0.00000000E+00  0.00000000E+00  0.00000000E+00
  0.00000000E+00  0.00000000E+00  0.00000000E+00
  0.00000000E+00  0.00000000E+00  0.00000000E+00
  0.00000000E+00  0.00000000E+00  0.00000000E+00
  0.00000000E+00  0.00000000E+00  0.00000000E+00
  0.00000000E+00  0.00000000E+00  0.00000000E+00
  0.00000000E+00  0.00000000E+00  0.00000000E+00
  0.00000000E+00  0.00000000E+00  0.00000000E+00
  0.00000000E+00  0.00000000E+00  0.00000000E+00
  0.00000000E+00  0.00000000E+00  0.00000000E+00
  0.00000000E+00  0.00000000E+00  0.00000000E+00
  0.00000000E+00  0.00000000E+00  0.00000000E+00
  0.00000000E+00  0.00000000E+00  0.00000000E+00
  0.00000000E+00  0.00000000E+00  0.00000000E+00
  0.00000000E+00  0.00000000E+00  0.00000000E+00
  0.00000000E+00  0.00000000E+00  0.00000000E+00
  0.00000000E+00  0.00000000E+00  0.00000000E+00
  0.00000000E+00  0.00000000E+00  0.00000000E+00
  0.00000000E+00  0.00000000E+00  0.00000000E+00
  0.00000000E+00  0.00000000E+00  0.00000000E+00
  0.00000000E+00  0.00000000E+00  0.00000000E+00
  0.00000000E+00  0.00000000E+00  0.00000000E+00
  0.00000000E+00  0.00000000E+00  0.00000000E+00
  0.00000000E+00  0.00000000E+00  0.00000000E+00
  0.00000000E+00  0.00000000E+00  0.00000000E+00
