Mn O  H                                 
   1.00000000000000     
     5.7471469900000001    0.0000000000000000    0.0000000000000000
     0.0000000000000000    5.7471469900000001    0.0000000000000000
     0.0000000000000000    0.0000000000000000   38.3523056924327008
   Mn   O    H 
    14    19     2
Selective dynamics
Direct
 -0.0357336067569242  0.2381433986081739  0.2688975767046045   T   T   T
  0.7237200570660771  0.4959689025092796  0.3300703369447894   T   T   T
  0.4826551891215883  0.2488940317359723  0.3960076920617968   T   T   T
  0.7296466922300044 -0.0029112232163441  0.4655224211529187   T   T   T
  0.2279115100130503  0.0031070022447118  0.4559408534555635   T   T   T
  0.2257607641047896  0.4946304696367411  0.3334898289230182   T   T   T
  0.4834061146934412  0.7492742284359171  0.3950956214687943   T   T   T
 -0.0365136436082531  0.7506251152867230  0.2692124123167021   T   T   T
 -0.0210831597846175 -0.0052953318299982  0.3633525439388838   T   T   T
 -0.0247345332465801  0.5059618938014684  0.4280054178653290   T   T   T
  0.4249045281084193  0.5226186936487163  0.4925947885849599   T   T   T
  0.4608964422035998 -0.0054325817956983  0.2982686585600270   T   T   T
  0.5255685196906833  0.2114452233417319  0.5485719921260274   T   T   T
  0.9650126332173854  0.2725761381466137  0.5194540288497379   T   T   T
 -0.0167442917043445  0.2302043660273306  0.4632046299272977   T   T   T
  0.7488251576552848  0.4952278134655731  0.2710833569067029   T   T   T
  0.4737580667873246  0.2676737341384858  0.3342629966689192   T   T   T
  0.7073110580500559 -0.0018969810372464  0.3979782544418340   T   T   T
 -0.0211264319704716  0.2685474384768190  0.3285878635926801   T   T   T
  0.7425662302698894 -0.0061608853582692  0.2660967154472132   T   T   T
  0.4779598777540467  0.2287987302267124  0.4590746688014030   T   T   T
  0.7086530918343911  0.4992695461021940  0.3923366196523905   T   T   T
  0.1851690886280263 -0.0066901675245698  0.2647428865366983   T   T   T
  0.2526593772686228  0.4995110654658547  0.3932172690144489   T   T   T
  0.2001288177055798  0.4952346381027317  0.2687645821196981   T   T   T
  0.2528472364386279 -0.0012511719815275  0.3984884293516566   T   T   T
  0.4730689175829280  0.7242203623934317  0.3344117758989572   T   T   T
 -0.0117174348949721  0.7780690202329665  0.4617490189771131   T   T   T
  0.4764839272708672  0.7761825307008704  0.4571227204516335   T   T   T
 -0.0209003279505811  0.7226639682688534  0.3285255870386853   T   T   T
  0.7129928984397476  0.5229880407605583  0.5276612099135011   T   T   T
  0.7357809286084707  0.0046909367829755  0.5242671892691890   T   T   T
  0.2591804515049177  0.3884463171370199  0.5353784682531226   T   T   T
  0.3594798622812166  0.4963062586086414  0.2594896752588330   T   T   T
  0.7469930157429406  0.6913295710548845  0.5318864024581581   T   T   T
 
  0.00000000E+00  0.00000000E+00  0.00000000E+00
  0.00000000E+00  0.00000000E+00  0.00000000E+00
  0.00000000E+00  0.00000000E+00  0.00000000E+00
  0.00000000E+00  0.00000000E+00  0.00000000E+00
  0.00000000E+00  0.00000000E+00  0.00000000E+00
  0.00000000E+00  0.00000000E+00  0.00000000E+00
  0.00000000E+00  0.00000000E+00  0.00000000E+00
  0.00000000E+00  0.00000000E+00  0.00000000E+00
  0.00000000E+00  0.00000000E+00  0.00000000E+00
  0.00000000E+00  0.00000000E+00  0.00000000E+00
  0.00000000E+00  0.00000000E+00  0.00000000E+00
  0.00000000E+00  0.00000000E+00  0.00000000E+00
  0.00000000E+00  0.00000000E+00  0.00000000E+00
  0.00000000E+00  0.00000000E+00  0.00000000E+00
  0.00000000E+00  0.00000000E+00  0.00000000E+00
  0.00000000E+00  0.00000000E+00  0.00000000E+00
  0.00000000E+00  0.00000000E+00  0.00000000E+00
  0.00000000E+00  0.00000000E+00  0.00000000E+00
  0.00000000E+00  0.00000000E+00  0.00000000E+00
  0.00000000E+00  0.00000000E+00  0.00000000E+00
  0.00000000E+00  0.00000000E+00  0.00000000E+00
  0.00000000E+00  0.00000000E+00  0.00000000E+00
  0.00000000E+00  0.00000000E+00  0.00000000E+00
  0.00000000E+00  0.00000000E+00  0.00000000E+00
  0.00000000E+00  0.00000000E+00  0.00000000E+00
  0.00000000E+00  0.00000000E+00  0.00000000E+00
  0.00000000E+00  0.00000000E+00  0.00000000E+00
  0.00000000E+00  0.00000000E+00  0.00000000E+00
  0.00000000E+00  0.00000000E+00  0.00000000E+00
  0.00000000E+00  0.00000000E+00  0.00000000E+00
  0.00000000E+00  0.00000000E+00  0.00000000E+00
  0.00000000E+00  0.00000000E+00  0.00000000E+00
  0.00000000E+00  0.00000000E+00  0.00000000E+00
  0.00000000E+00  0.00000000E+00  0.00000000E+00
  0.00000000E+00  0.00000000E+00  0.00000000E+00
