Mn O  H                                 
   1.00000000000000     
     5.7471469900000001    0.0000000000000000    0.0000000000000000
     0.0000000000000000    5.7471469900000001    0.0000000000000000
     0.0000000000000000    0.0000000000000000   38.3523056924327008
   Mn   O    H 
    15    21     4
Selective dynamics
Direct
 -0.0245738134796897  0.2375628037445098  0.2689655728672284   T   T   T
  0.7335331455198377  0.4949303629038323  0.3298691821117779   T   T   T
  0.4861217714501845  0.2468195577180635  0.3954753208981991   T   T   T
  0.7425499192256192 -0.0048037227071864  0.4566263891179139   T   T   T
  0.2445079244475072 -0.0060661124716784  0.4621896928118734   T   T   T
  0.2355743254952173  0.4953063358563392  0.3330982720277478   T   T   T
  0.4873844590676193  0.7460498319045108  0.3957264441989825   T   T   T
 -0.0237887228257659  0.7499666093100075  0.2684819699434671   T   T   T
 -0.0101625151283173 -0.0062957675236155  0.3631725394673017   T   T   T
 -0.0140668443520307  0.4968935528881663  0.4285966929836700   T   T   T
  0.4638844585813960  0.4972009581904342  0.4917852556570275   T   T   T
  0.4734630488078925 -0.0038417564637522  0.2979027381826945   T   T   T
  0.4883633510598614  0.0303662305002061  0.5564023851516708   T   T   T
  0.9893851004019446  0.2269711558692812  0.5241718811213786   T   T   T
 -0.0106782567594407  0.7470174761739239  0.5259728977094217   T   T   T
 -0.0122281601754097  0.2242068153116355  0.4646612613240171   T   T   T
  0.7604003235710174  0.4928424575011584  0.2706644968493451   T   T   T
  0.4828981057861021  0.2665413536045370  0.3343189812608113   T   T   T
  0.7182758488017582 -0.0044034279647106  0.3987750640018533   T   T   T
 -0.0122884455195888  0.2671378779974474  0.3284072392323076   T   T   T
  0.7547579394734418 -0.0057092862848521  0.2656620269640639   T   T   T
  0.4914136302878533  0.2244805424398315  0.4562543736137254   T   T   T
  0.7148041755121123  0.4972228180881447  0.3929759052154154   T   T   T
  0.1970692581659762 -0.0051595811624044  0.2645047325483667   T   T   T
  0.2559713307413318  0.4977084449363064  0.3928569765038910   T   T   T
  0.2126828728732565  0.4930163863870962  0.2687991016979069   T   T   T
  0.2597432413760462 -0.0050516530406162  0.3983783871217647   T   T   T
  0.4843869576532387  0.7238017891667859  0.3339401655156338   T   T   T
 -0.0125515511698858  0.7654987130450773  0.4651401230911054   T   T   T
  0.4928895901177265  0.7636936083665717  0.4561895756554266   T   T   T
 -0.0108585542163063  0.7219831714723938  0.3281291315718852   T   T   T
  0.7256298342183086  0.4782857150899789  0.5291930945819162   T   T   T
  0.4513924694535374  0.3326267966820091  0.5847419228282427   T   T   T
  0.2309880813161802  0.4892763952432611  0.5335631755069589   T   T   T
  0.8197735234849310 -0.0130321977633478  0.5526907533901874   T   T   T
  0.2625784012854299 -0.0076649019985087  0.5177810756612129   T   T   T
  0.3724570139896063  0.4917382419159310  0.2596064622932949   T   T   T
  0.6581216674370431  0.4637094679585748  0.5529103331416290   T   T   T
  0.4185886389875195  0.3457874920737417  0.6094392054745101   T   T   T
  0.3066877454307174  0.4481803211207356  0.5573349874571127   T   T   T
 
  0.00000000E+00  0.00000000E+00  0.00000000E+00
  0.00000000E+00  0.00000000E+00  0.00000000E+00
  0.00000000E+00  0.00000000E+00  0.00000000E+00
  0.00000000E+00  0.00000000E+00  0.00000000E+00
  0.00000000E+00  0.00000000E+00  0.00000000E+00
  0.00000000E+00  0.00000000E+00  0.00000000E+00
  0.00000000E+00  0.00000000E+00  0.00000000E+00
  0.00000000E+00  0.00000000E+00  0.00000000E+00
  0.00000000E+00  0.00000000E+00  0.00000000E+00
  0.00000000E+00  0.00000000E+00  0.00000000E+00
  0.00000000E+00  0.00000000E+00  0.00000000E+00
  0.00000000E+00  0.00000000E+00  0.00000000E+00
  0.00000000E+00  0.00000000E+00  0.00000000E+00
  0.00000000E+00  0.00000000E+00  0.00000000E+00
  0.00000000E+00  0.00000000E+00  0.00000000E+00
  0.00000000E+00  0.00000000E+00  0.00000000E+00
  0.00000000E+00  0.00000000E+00  0.00000000E+00
  0.00000000E+00  0.00000000E+00  0.00000000E+00
  0.00000000E+00  0.00000000E+00  0.00000000E+00
  0.00000000E+00  0.00000000E+00  0.00000000E+00
  0.00000000E+00  0.00000000E+00  0.00000000E+00
  0.00000000E+00  0.00000000E+00  0.00000000E+00
  0.00000000E+00  0.00000000E+00  0.00000000E+00
  0.00000000E+00  0.00000000E+00  0.00000000E+00
  0.00000000E+00  0.00000000E+00  0.00000000E+00
  0.00000000E+00  0.00000000E+00  0.00000000E+00
  0.00000000E+00  0.00000000E+00  0.00000000E+00
  0.00000000E+00  0.00000000E+00  0.00000000E+00
  0.00000000E+00  0.00000000E+00  0.00000000E+00
  0.00000000E+00  0.00000000E+00  0.00000000E+00
  0.00000000E+00  0.00000000E+00  0.00000000E+00
  0.00000000E+00  0.00000000E+00  0.00000000E+00
  0.00000000E+00  0.00000000E+00  0.00000000E+00
  0.00000000E+00  0.00000000E+00  0.00000000E+00
  0.00000000E+00  0.00000000E+00  0.00000000E+00
  0.00000000E+00  0.00000000E+00  0.00000000E+00
  0.00000000E+00  0.00000000E+00  0.00000000E+00
  0.00000000E+00  0.00000000E+00  0.00000000E+00
  0.00000000E+00  0.00000000E+00  0.00000000E+00
  0.00000000E+00  0.00000000E+00  0.00000000E+00
