Mn O  H                                 
   1.00000000000000     
     5.7471469900000001    0.0000000000000000    0.0000000000000000
     0.0000000000000000    5.7471469900000001    0.0000000000000000
     0.0000000000000000    0.0000000000000000   38.3523056924327008
   Mn   O    H 
    14    20     3
Selective dynamics
Direct
 -0.0069480280297827  0.2603805101876244  0.2702325666436062   T   T   T
  0.7522604111018338  0.5195221661757088  0.3313512659566491   T   T   T
  0.5078703309854965  0.2707610156869183  0.3951222042327039   T   T   T
  0.7641500748486126  0.0206327908588544  0.4651303649375993   T   T   T
  0.2577810406218145  0.0197078450088647  0.4615512052010306   T   T   T
  0.2536273133316660  0.5186000689845232  0.3346707455200488   T   T   T
  0.5100103327892564  0.7730398834111449  0.3976622442394248   T   T   T
 -0.0077142676078598  0.7725112602072605  0.2704752747135906   T   T   T
  0.0083414160289394  0.0171103603885992  0.3651926132076752   T   T   T
  0.0029774543876035  0.5145000038905689  0.4289850786038885   T   T   T
  0.4358207132123970  0.5750645364393459  0.4954822822775454   T   T   T
  0.4897506051379695  0.0163394037045735  0.2993744176954255   T   T   T
  0.4938347305170274  0.1425976926228736  0.5312224739310791   T   T   T
 -0.0168756156017976  0.7112723663362315  0.5244683457718043   T   T   T
  0.0138789779337760  0.2427562173986124  0.4629894256092522   T   T   T
  0.7776351950702974  0.5172042048442315  0.2723343166724618   T   T   T
  0.5018343165774903  0.2898434356577930  0.3356410470801035   T   T   T
  0.7346888764878051  0.0250341251961391  0.3996690314217394   T   T   T
  0.0069007023069950  0.2912944000426907  0.3300779925251562   T   T   T
  0.7717202649514852  0.0160994681548772  0.2673017343903198   T   T   T
  0.5050640168959225  0.2462541195333801  0.4693204746113474   T   T   T
  0.7341596171776319  0.5218809936163167  0.3935356547807546   T   T   T
  0.2137657949128330  0.0152945526401442  0.2658984876253144   T   T   T
  0.2801676220104345  0.5224941867004576  0.3943366896612892   T   T   T
  0.2294101868498455  0.5169813292461426  0.2702921388832693   T   T   T
  0.2811053983105627  0.0233891208009253  0.4003512808856625   T   T   T
  0.5013885052294794  0.7468109055624561  0.3353344149912481   T   T   T
  0.0126653414407827  0.7806630482451804  0.4652446972360790   T   T   T
  0.5125290455889332  0.7962465470538246  0.4555974823030638   T   T   T
  0.0070972163914367  0.7467634413987859  0.3298334703304648   T   T   T
  0.6742829290559033  0.4627494610384636  0.5373008433154915   T   T   T
  0.2155309990343494  0.3651712339328861  0.5331458256594925   T   T   T
  0.3069346435997856 -0.1215919208580815  0.5234661911694491   T   T   T
  0.7689793616447572 -0.0106799139710960  0.5237071984196006   T   T   T
  0.3891509164624661  0.5179391369863272  0.2611709709526776   T   T   T
  0.5938321292438346  0.5530290112520253  0.5552578046797407   T   T   T
  0.0834889533880594  0.2625465231521006  0.5273568379649829   T   T   T
 
  0.00000000E+00  0.00000000E+00  0.00000000E+00
  0.00000000E+00  0.00000000E+00  0.00000000E+00
  0.00000000E+00  0.00000000E+00  0.00000000E+00
  0.00000000E+00  0.00000000E+00  0.00000000E+00
  0.00000000E+00  0.00000000E+00  0.00000000E+00
  0.00000000E+00  0.00000000E+00  0.00000000E+00
  0.00000000E+00  0.00000000E+00  0.00000000E+00
  0.00000000E+00  0.00000000E+00  0.00000000E+00
  0.00000000E+00  0.00000000E+00  0.00000000E+00
  0.00000000E+00  0.00000000E+00  0.00000000E+00
  0.00000000E+00  0.00000000E+00  0.00000000E+00
  0.00000000E+00  0.00000000E+00  0.00000000E+00
  0.00000000E+00  0.00000000E+00  0.00000000E+00
  0.00000000E+00  0.00000000E+00  0.00000000E+00
  0.00000000E+00  0.00000000E+00  0.00000000E+00
  0.00000000E+00  0.00000000E+00  0.00000000E+00
  0.00000000E+00  0.00000000E+00  0.00000000E+00
  0.00000000E+00  0.00000000E+00  0.00000000E+00
  0.00000000E+00  0.00000000E+00  0.00000000E+00
  0.00000000E+00  0.00000000E+00  0.00000000E+00
  0.00000000E+00  0.00000000E+00  0.00000000E+00
  0.00000000E+00  0.00000000E+00  0.00000000E+00
  0.00000000E+00  0.00000000E+00  0.00000000E+00
  0.00000000E+00  0.00000000E+00  0.00000000E+00
  0.00000000E+00  0.00000000E+00  0.00000000E+00
  0.00000000E+00  0.00000000E+00  0.00000000E+00
  0.00000000E+00  0.00000000E+00  0.00000000E+00
  0.00000000E+00  0.00000000E+00  0.00000000E+00
  0.00000000E+00  0.00000000E+00  0.00000000E+00
  0.00000000E+00  0.00000000E+00  0.00000000E+00
  0.00000000E+00  0.00000000E+00  0.00000000E+00
  0.00000000E+00  0.00000000E+00  0.00000000E+00
  0.00000000E+00  0.00000000E+00  0.00000000E+00
  0.00000000E+00  0.00000000E+00  0.00000000E+00
  0.00000000E+00  0.00000000E+00  0.00000000E+00
  0.00000000E+00  0.00000000E+00  0.00000000E+00
  0.00000000E+00  0.00000000E+00  0.00000000E+00
