Mn O  H                                 
   1.00000000000000     
     5.7471469900000001    0.0000000000000000    0.0000000000000000
     0.0000000000000000    5.7471469900000001    0.0000000000000000
     0.0000000000000000    0.0000000000000000   38.3523056924327008
   Mn   O    H 
    13    18     1
Selective dynamics
Direct
 -0.0154951166628912  0.2438369232959653  0.2651409261439460   T   T   T
  0.7410669243800138  0.4998351573866251  0.3263712450545419   T   T   T
  0.4956663290311656  0.2516092089145022  0.3919014131779090   T   T   T
  0.7383931357736855 -0.0127359689334824  0.4593347707943835   T   T   T
  0.2370087566246571  0.0036801031494147  0.4547468664619215   T   T   T
  0.2432467586585202  0.4982351619229768  0.3295526466071231   T   T   T
  0.4948932224118659  0.7525836678343205  0.3922356517923896   T   T   T
 -0.0162405401167853  0.7561602184626601  0.2654733666875377   T   T   T
 -0.0067517452478077 -0.0027104107288756  0.3599721144451002   T   T   T
 -0.0058526544565594  0.4901853406545429  0.4240813118670494   T   T   T
  0.4870419658702063  0.5143973976233529  0.4884011320096820   T   T   T
  0.4814403900165707 -0.0024786321143243  0.2943981654389277   T   T   T
 -0.0123144502180045  0.5590968946806436  0.5105682725027353   T   T   T
 -0.0168177044544358  0.2225676534003187  0.4608015106796383   T   T   T
  0.7690251003445499  0.5005556350587683  0.2673079225471146   T   T   T
  0.4918252620905328  0.2704174010531663  0.3306052852673289   T   T   T
  0.7221718128636938  0.0014695228808077  0.3952607550473533   T   T   T
 -0.0045757099900714  0.2718641140029731  0.3251080507914508   T   T   T
  0.7631145767427234 -0.0009271656707049  0.2621952523007162   T   T   T
  0.4893536593233876  0.2256894570339062  0.4564229224904076   T   T   T
  0.7217219620093692  0.5025491174681563  0.3892932593557054   T   T   T
  0.2052573658426202 -0.0010893257288644  0.2609567280549477   T   T   T
  0.2661286386339062  0.5016596536518952  0.3889801771471748   T   T   T
  0.2217126774960600  0.4998277915162850  0.2659476839443936   T   T   T
  0.2646686416426022  0.0044511371556048  0.3952693989858009   T   T   T
  0.4907721047718092  0.7278104947345707  0.3305527753346774   T   T   T
  0.0034414246827623  0.7671548267313830  0.4590856425563167   T   T   T
  0.4806999076147666  0.7680877186525769  0.4503352295930342   T   T   T
 -0.0040176548544285  0.7266271445783462  0.3249234814892355   T   T   T
  0.6894397048769915  0.7046904933910128  0.5126526672520338   T   T   T
  0.2773791138965114  0.4229884035202928  0.5211622420718215   T   T   T
  0.3813863703656527  0.4996894062482823  0.2567265829167293   T   T   T
 
  0.00000000E+00  0.00000000E+00  0.00000000E+00
  0.00000000E+00  0.00000000E+00  0.00000000E+00
  0.00000000E+00  0.00000000E+00  0.00000000E+00
  0.00000000E+00  0.00000000E+00  0.00000000E+00
  0.00000000E+00  0.00000000E+00  0.00000000E+00
  0.00000000E+00  0.00000000E+00  0.00000000E+00
  0.00000000E+00  0.00000000E+00  0.00000000E+00
  0.00000000E+00  0.00000000E+00  0.00000000E+00
  0.00000000E+00  0.00000000E+00  0.00000000E+00
  0.00000000E+00  0.00000000E+00  0.00000000E+00
  0.00000000E+00  0.00000000E+00  0.00000000E+00
  0.00000000E+00  0.00000000E+00  0.00000000E+00
  0.00000000E+00  0.00000000E+00  0.00000000E+00
  0.00000000E+00  0.00000000E+00  0.00000000E+00
  0.00000000E+00  0.00000000E+00  0.00000000E+00
  0.00000000E+00  0.00000000E+00  0.00000000E+00
  0.00000000E+00  0.00000000E+00  0.00000000E+00
  0.00000000E+00  0.00000000E+00  0.00000000E+00
  0.00000000E+00  0.00000000E+00  0.00000000E+00
  0.00000000E+00  0.00000000E+00  0.00000000E+00
  0.00000000E+00  0.00000000E+00  0.00000000E+00
  0.00000000E+00  0.00000000E+00  0.00000000E+00
  0.00000000E+00  0.00000000E+00  0.00000000E+00
  0.00000000E+00  0.00000000E+00  0.00000000E+00
  0.00000000E+00  0.00000000E+00  0.00000000E+00
  0.00000000E+00  0.00000000E+00  0.00000000E+00
  0.00000000E+00  0.00000000E+00  0.00000000E+00
  0.00000000E+00  0.00000000E+00  0.00000000E+00
  0.00000000E+00  0.00000000E+00  0.00000000E+00
  0.00000000E+00  0.00000000E+00  0.00000000E+00
  0.00000000E+00  0.00000000E+00  0.00000000E+00
  0.00000000E+00  0.00000000E+00  0.00000000E+00
