Mn O  H                                 
   1.00000000000000     
     5.7471469900000001    0.0000000000000000    0.0000000000000000
     0.0000000000000000    5.7471469900000001    0.0000000000000000
     0.0000000000000000    0.0000000000000000   38.3523056924327008
   Mn   O    H 
    15    22     5
Selective dynamics
Direct
 -0.0329774638742788  0.2448805811131711  0.2672725257388995   T   T   T
  0.7226543690698048  0.5004400809048944  0.3286703010174177   T   T   T
  0.4746125498278046  0.2472686979731470  0.3945365530355162   T   T   T
  0.7189260107612763 -0.0018566873589259  0.4591831688540611   T   T   T
  0.2224401586941786  0.0003891357527778  0.4589028923914932   T   T   T
  0.2243832082716115  0.5004914594279863  0.3318469152186461   T   T   T
  0.4748112580824054  0.7479221115489764  0.3944129111961012   T   T   T
 -0.0332518195790447  0.7573838108438000  0.2678211962012577   T   T   T
 -0.0268753128034045  0.0000976121777225  0.3622886746289554   T   T   T
 -0.0272997885549453  0.4997026542549458  0.4265570221517835   T   T   T
  0.4504676108610383  0.4959793308514439  0.4911403666981367   T   T   T
  0.4662733476365191 -0.0007348777540873  0.2967706223241790   T   T   T
  0.4675433979622926  0.0432070035448564  0.5561837092529966   T   T   T
  0.9740567537329055  0.2416044654397946  0.5214526929711398   T   T   T
  0.9757849757409366  0.7402983058646598  0.5196939372081694   T   T   T
  0.9694300500633740  0.2283388269384258  0.4624242410071057   T   T   T
  0.7518394261719669  0.5022568407885946  0.2691799226869404   T   T   T
  0.4737646796983693  0.2709444156584380  0.3329199761664892   T   T   T
  0.7033115854494788 -0.0041490139499279  0.3979479493496479   T   T   T
 -0.0239055702974178  0.2721656573671353  0.3270397743919622   T   T   T
  0.7453811055813665  0.0004165526612318  0.2640685363365398   T   T   T
  0.4711490375010688  0.2282100421535070  0.4553078562883933   T   T   T
  0.7013158436159016  0.4984347672856217  0.3916102430592137   T   T   T
  0.1884663078866476  0.0001815554245510  0.2635238426782816   T   T   T
  0.2458136630648290  0.4993397449988436  0.3914546194719042   T   T   T
  0.2037859768711763  0.5014233625466283  0.2677686950672458   T   T   T
  0.2452116157476592 -0.0033017187078195  0.3975013188108577   T   T   T
  0.4734931694389423  0.7297479619501192  0.3328824296957908   T   T   T
 -0.0289177208277862  0.7694689222654546  0.4622073159021217   T   T   T
  0.4700249400849638  0.7690769236186711  0.4563967808979393   T   T   T
 -0.0240028467612099  0.7289809452390545  0.3272570642904625   T   T   T
  0.7229582169012662  0.4784752941729770  0.5284475469283466   T   T   T
  0.1986182615854722  0.4759336403995892  0.5275441173334933   T   T   T
  0.5375947991473382  0.3372811622242749  0.5874110990653217   T   T   T
  0.2102999943107423  0.0094564826126340  0.5208471641909129   T   T   T
  0.7393063757266438  0.0036468012734877  0.5229061127471523   T   T   T
  0.3872729573409813  0.7593429857120148  0.5932626836862397   T   T   T
  0.3640551540068858  0.5016509529316203  0.2587532105559883   T   T   T
  0.6569713317516130  0.4457973627741296  0.5524959043928119   T   T   T
  0.4446832472178653  0.5880849074971417  0.5905951952401176   T   T   T
  0.6324593642642439  0.3096051043222957  0.6079562357542609   T   T   T
  0.2189770336630362  0.7425511202274433  0.5943513616751835   T   T   T
 
  0.00000000E+00  0.00000000E+00  0.00000000E+00
  0.00000000E+00  0.00000000E+00  0.00000000E+00
  0.00000000E+00  0.00000000E+00  0.00000000E+00
  0.00000000E+00  0.00000000E+00  0.00000000E+00
  0.00000000E+00  0.00000000E+00  0.00000000E+00
  0.00000000E+00  0.00000000E+00  0.00000000E+00
  0.00000000E+00  0.00000000E+00  0.00000000E+00
  0.00000000E+00  0.00000000E+00  0.00000000E+00
  0.00000000E+00  0.00000000E+00  0.00000000E+00
  0.00000000E+00  0.00000000E+00  0.00000000E+00
  0.00000000E+00  0.00000000E+00  0.00000000E+00
  0.00000000E+00  0.00000000E+00  0.00000000E+00
  0.00000000E+00  0.00000000E+00  0.00000000E+00
  0.00000000E+00  0.00000000E+00  0.00000000E+00
  0.00000000E+00  0.00000000E+00  0.00000000E+00
  0.00000000E+00  0.00000000E+00  0.00000000E+00
  0.00000000E+00  0.00000000E+00  0.00000000E+00
  0.00000000E+00  0.00000000E+00  0.00000000E+00
  0.00000000E+00  0.00000000E+00  0.00000000E+00
  0.00000000E+00  0.00000000E+00  0.00000000E+00
  0.00000000E+00  0.00000000E+00  0.00000000E+00
  0.00000000E+00  0.00000000E+00  0.00000000E+00
  0.00000000E+00  0.00000000E+00  0.00000000E+00
  0.00000000E+00  0.00000000E+00  0.00000000E+00
  0.00000000E+00  0.00000000E+00  0.00000000E+00
  0.00000000E+00  0.00000000E+00  0.00000000E+00
  0.00000000E+00  0.00000000E+00  0.00000000E+00
  0.00000000E+00  0.00000000E+00  0.00000000E+00
  0.00000000E+00  0.00000000E+00  0.00000000E+00
  0.00000000E+00  0.00000000E+00  0.00000000E+00
  0.00000000E+00  0.00000000E+00  0.00000000E+00
  0.00000000E+00  0.00000000E+00  0.00000000E+00
  0.00000000E+00  0.00000000E+00  0.00000000E+00
  0.00000000E+00  0.00000000E+00  0.00000000E+00
  0.00000000E+00  0.00000000E+00  0.00000000E+00
  0.00000000E+00  0.00000000E+00  0.00000000E+00
  0.00000000E+00  0.00000000E+00  0.00000000E+00
  0.00000000E+00  0.00000000E+00  0.00000000E+00
  0.00000000E+00  0.00000000E+00  0.00000000E+00
  0.00000000E+00  0.00000000E+00  0.00000000E+00
  0.00000000E+00  0.00000000E+00  0.00000000E+00
  0.00000000E+00  0.00000000E+00  0.00000000E+00
