Mn O  H                                 
   1.00000000000000     
     5.7471469900000001    0.0000000000000000    0.0000000000000000
     0.0000000000000000    5.7471469900000001    0.0000000000000000
     0.0000000000000000    0.0000000000000000   38.3523056924327008
   Mn   O    H 
    13    19     2
Selective dynamics
Direct
 -0.0211496903367882  0.2457436210189727  0.2653429984838677   T   T   T
  0.7347932574564013  0.5037564901245907  0.3265602214157950   T   T   T
  0.4828004088453582  0.2581481506701680  0.3919948849622362   T   T   T
  0.7345684039596814  0.0087848968563476  0.4539641635342500   T   T   T
  0.2288025994843471  0.0023114253259688  0.4588147734781758   T   T   T
  0.2370183102511548  0.5027209957035157  0.3296384221397220   T   T   T
  0.4846117816809979  0.7588027734232043  0.3922670237809240   T   T   T
 -0.0219177947912411  0.7579871517779760  0.2656057618922225   T   T   T
 -0.0137616685479284  0.0013105332616153  0.3601681646179120   T   T   T
 -0.0145075330345982  0.5081137926398883  0.4241127013389329   T   T   T
  0.4929472880620894  0.5093163020335700  0.4892758137862437   T   T   T
  0.4760009839084201  0.0018335729767080  0.2946287399080622   T   T   T
  0.0485963065314834  0.2997520781809784  0.5167711955343105   T   T   T
 -0.0224057143986344  0.2422814705730624  0.4607687375304630   T   T   T
  0.7632222761288472  0.5024085893171699  0.2673978620026941   T   T   T
  0.4853308491546733  0.2748229432028086  0.3307797590562320   T   T   T
  0.7122704761099619  0.0086916032796019  0.3954017668961873   T   T   T
 -0.0105347550721595  0.2759218096990576  0.3252602136248705   T   T   T
  0.7575156946094175  0.0010979963554031  0.2624657517949416   T   T   T
  0.4785865571401108  0.2298477941349562  0.4546072141273809   T   T   T
  0.7097589001066404  0.5088526176868616  0.3895763841078856   T   T   T
  0.1997081026487916  0.0004871575681777  0.2612552947321836   T   T   T
  0.2562294420240879  0.5095795933252499  0.3889621681883509   T   T   T
  0.2157917652207391  0.5022072179427562  0.2656896990159633   T   T   T
  0.2573643581154174  0.0069952213755024  0.3951612392511443   T   T   T
  0.4848254997040095  0.7322396551080793  0.3308253898602392   T   T   T
 -0.0216916223959764  0.7858271771541143  0.4561840856223182   T   T   T
  0.4851038993090129  0.7794940514357048  0.4547754694493976   T   T   T
 -0.0103623803573343  0.7303976006705065  0.3250135312375135   T   T   T
  0.7354534227195592  0.3862449152703775  0.5257003911145974   T   T   T
  0.2392539751318112  0.5173222747377556  0.5261608844037490   T   T   T
  0.1666702766807066  0.0330360647390514  0.5165768222141898   T   T   T
  0.3754563082252919  0.5033851322864349  0.2564926552770964   T   T   T
  0.6859985102220131  0.4173104529089547  0.5495065769302948   T   T   T
 
  0.00000000E+00  0.00000000E+00  0.00000000E+00
  0.00000000E+00  0.00000000E+00  0.00000000E+00
  0.00000000E+00  0.00000000E+00  0.00000000E+00
  0.00000000E+00  0.00000000E+00  0.00000000E+00
  0.00000000E+00  0.00000000E+00  0.00000000E+00
  0.00000000E+00  0.00000000E+00  0.00000000E+00
  0.00000000E+00  0.00000000E+00  0.00000000E+00
  0.00000000E+00  0.00000000E+00  0.00000000E+00
  0.00000000E+00  0.00000000E+00  0.00000000E+00
  0.00000000E+00  0.00000000E+00  0.00000000E+00
  0.00000000E+00  0.00000000E+00  0.00000000E+00
  0.00000000E+00  0.00000000E+00  0.00000000E+00
  0.00000000E+00  0.00000000E+00  0.00000000E+00
  0.00000000E+00  0.00000000E+00  0.00000000E+00
  0.00000000E+00  0.00000000E+00  0.00000000E+00
  0.00000000E+00  0.00000000E+00  0.00000000E+00
  0.00000000E+00  0.00000000E+00  0.00000000E+00
  0.00000000E+00  0.00000000E+00  0.00000000E+00
  0.00000000E+00  0.00000000E+00  0.00000000E+00
  0.00000000E+00  0.00000000E+00  0.00000000E+00
  0.00000000E+00  0.00000000E+00  0.00000000E+00
  0.00000000E+00  0.00000000E+00  0.00000000E+00
  0.00000000E+00  0.00000000E+00  0.00000000E+00
  0.00000000E+00  0.00000000E+00  0.00000000E+00
  0.00000000E+00  0.00000000E+00  0.00000000E+00
  0.00000000E+00  0.00000000E+00  0.00000000E+00
  0.00000000E+00  0.00000000E+00  0.00000000E+00
  0.00000000E+00  0.00000000E+00  0.00000000E+00
  0.00000000E+00  0.00000000E+00  0.00000000E+00
  0.00000000E+00  0.00000000E+00  0.00000000E+00
  0.00000000E+00  0.00000000E+00  0.00000000E+00
  0.00000000E+00  0.00000000E+00  0.00000000E+00
  0.00000000E+00  0.00000000E+00  0.00000000E+00
  0.00000000E+00  0.00000000E+00  0.00000000E+00
