Mn O  H                                 
   1.00000000000000     
     5.7471469900000001    0.0000000000000000    0.0000000000000000
     0.0000000000000000    5.7471469900000001    0.0000000000000000
     0.0000000000000000    0.0000000000000000   38.3523056924327008
   Mn   O    H 
    15    21     2
Selective dynamics
Direct
 -0.0288244232159791  0.2459721993375846  0.2673630927087194   T   T   T
  0.7308994154820538  0.5037200390378705  0.3281398978505256   T   T   T
  0.4836924637340926  0.2574360406853053  0.3939712797250507   T   T   T
  0.7296334852896719  0.0102378322362945  0.4590030035895659   T   T   T
  0.2286670302966288  0.0116791152282076  0.4564288502017349   T   T   T
  0.2332844437853893  0.5033422781088644  0.3316291361193062   T   T   T
  0.4846838158562460  0.7569700451606349  0.3940058557253280   T   T   T
 -0.0288324860589699  0.7577689554738838  0.2672835269297923   T   T   T
 -0.0183291408575887  0.0023538533161985  0.3618503199075333   T   T   T
 -0.0175672843401934  0.5100717164648942  0.4265472789175089   T   T   T
  0.4538155698715566  0.5151885754082002  0.4907909231172748   T   T   T
  0.4683088004281976  0.0033827020204556  0.2962723481578420   T   T   T
  0.4847861934132939  0.0973387032419833  0.5512172272226596   T   T   T
  0.9577113058596617  0.2549019131037258  0.5276820066381103   T   T   T
 -0.0315186353301281  0.7489843422584188  0.5214885319505265   T   T   T
 -0.0172915202449928  0.2343322340775888  0.4605307276104569   T   T   T
  0.7568705085612417  0.5017775222867369  0.2691508419535752   T   T   T
  0.4811065250993262  0.2754847700946809  0.3327295022677272   T   T   T
  0.7113661812444897  0.0062618099734959  0.3973796231920858   T   T   T
 -0.0148229810911252  0.2753997797658096  0.3269544015826525   T   T   T
  0.7507300641636730  0.0018593406983224  0.2639966092918649   T   T   T
  0.4760072752396490  0.2393980381024213  0.4556043844554882   T   T   T
  0.7105189397511144  0.5082689800778890  0.3914522366881474   T   T   T
  0.1919484240283661  0.0018419612495679  0.2626102325797720   T   T   T
  0.2546753603993710  0.5084821855116748  0.3910629686275245   T   T   T
  0.2086827055199347  0.5017669251450350  0.2676373535020071   T   T   T
  0.2552144773869165  0.0059307481589441  0.3967715477895074   T   T   T
  0.4815546774181901  0.7321112886993724  0.3325203099395682   T   T   T
 -0.0128877472034688  0.7819594320225578  0.4618438790869738   T   T   T
  0.4765676183271456  0.7831571249587725  0.4553024789606906   T   T   T
 -0.0140691902926156  0.7309724537671545  0.3267749110925166   T   T   T
  0.7404861048037122  0.5073364545212574  0.5221042808544627   T   T   T
  0.1906206609252337  0.4996030859720749  0.5278884288429219   T   T   T
  0.7396073906817490 -0.0022433653375697  0.5159335116616734   T   T   T
  0.7575348501166737  0.1816990601371367  0.5802900191929242   T   T   T
  0.1866587010726251  0.0052567542832283  0.5293406568662723   T   T   T
  0.3661725702742911  0.5015382034170062  0.2576695067420944   T   T   T
  0.7476936770918616  0.3084350655629030  0.5969467273004974   T   T   T
 
  0.00000000E+00  0.00000000E+00  0.00000000E+00
  0.00000000E+00  0.00000000E+00  0.00000000E+00
  0.00000000E+00  0.00000000E+00  0.00000000E+00
  0.00000000E+00  0.00000000E+00  0.00000000E+00
  0.00000000E+00  0.00000000E+00  0.00000000E+00
  0.00000000E+00  0.00000000E+00  0.00000000E+00
  0.00000000E+00  0.00000000E+00  0.00000000E+00
  0.00000000E+00  0.00000000E+00  0.00000000E+00
  0.00000000E+00  0.00000000E+00  0.00000000E+00
  0.00000000E+00  0.00000000E+00  0.00000000E+00
  0.00000000E+00  0.00000000E+00  0.00000000E+00
  0.00000000E+00  0.00000000E+00  0.00000000E+00
  0.00000000E+00  0.00000000E+00  0.00000000E+00
  0.00000000E+00  0.00000000E+00  0.00000000E+00
  0.00000000E+00  0.00000000E+00  0.00000000E+00
  0.00000000E+00  0.00000000E+00  0.00000000E+00
  0.00000000E+00  0.00000000E+00  0.00000000E+00
  0.00000000E+00  0.00000000E+00  0.00000000E+00
  0.00000000E+00  0.00000000E+00  0.00000000E+00
  0.00000000E+00  0.00000000E+00  0.00000000E+00
  0.00000000E+00  0.00000000E+00  0.00000000E+00
  0.00000000E+00  0.00000000E+00  0.00000000E+00
  0.00000000E+00  0.00000000E+00  0.00000000E+00
  0.00000000E+00  0.00000000E+00  0.00000000E+00
  0.00000000E+00  0.00000000E+00  0.00000000E+00
  0.00000000E+00  0.00000000E+00  0.00000000E+00
  0.00000000E+00  0.00000000E+00  0.00000000E+00
  0.00000000E+00  0.00000000E+00  0.00000000E+00
  0.00000000E+00  0.00000000E+00  0.00000000E+00
  0.00000000E+00  0.00000000E+00  0.00000000E+00
  0.00000000E+00  0.00000000E+00  0.00000000E+00
  0.00000000E+00  0.00000000E+00  0.00000000E+00
  0.00000000E+00  0.00000000E+00  0.00000000E+00
  0.00000000E+00  0.00000000E+00  0.00000000E+00
  0.00000000E+00  0.00000000E+00  0.00000000E+00
  0.00000000E+00  0.00000000E+00  0.00000000E+00
  0.00000000E+00  0.00000000E+00  0.00000000E+00
  0.00000000E+00  0.00000000E+00  0.00000000E+00
