Mn O  H                                 
   1.00000000000000     
     5.7471469900000001    0.0000000000000000    0.0000000000000000
     0.0000000000000000    5.7471469900000001    0.0000000000000000
     0.0000000000000000    0.0000000000000000   38.3523056924327008
   Mn   O    H 
    13    19     4
Selective dynamics
Direct
 -0.0208615545578149  0.2804078158011841  0.2683192655387275   T   T   T
  0.7368528385048856  0.5366870058870242  0.3296054265833072   T   T   T
  0.4884642448824473  0.2882252966533249  0.3943222889426067   T   T   T
  0.7480312844938544  0.0378439068884752  0.4569511550599860   T   T   T
  0.2408839015502172  0.0317066776517622  0.4609214249383768   T   T   T
  0.2387169618489352  0.5357160600550824  0.3328047966383458   T   T   T
  0.4906927548199086  0.7874635398336606  0.3957906003718257   T   T   T
 -0.0217026394423771  0.7927707853278063  0.2686701778406121   T   T   T
 -0.0078315805131300  0.0343983454744111  0.3631542674049589   T   T   T
 -0.0139293669346270  0.5298594535452591  0.4277966221574765   T   T   T
  0.4359395316653604  0.5561750330389315  0.4926046912048551   T   T   T
  0.4763010233322401  0.0340346031278568  0.2975840277601838   T   T   T
  0.4956838801581168  0.0756193697629022  0.5518406443208724   T   T   T
 -0.0040278930610121  0.2590956639685948  0.4629848371552400   T   T   T
  0.7633080326086469  0.5372112361335057  0.2704807662442236   T   T   T
  0.4869280627761110  0.3076791734487178  0.3337071613632577   T   T   T
  0.7179681189802819  0.0406475441226635  0.3982876247345379   T   T   T
 -0.0084283456344625  0.3087862532129775  0.3281236784879883   T   T   T
  0.7577501736853570  0.0359747451907570  0.2653671594958288   T   T   T
  0.4900489489420317  0.2604650824643286  0.4615168855494272   T   T   T
  0.7162143091541887  0.5376969582812600  0.3920628933887426   T   T   T
  0.1998874434232525  0.0352627173465875  0.2641548335493019   T   T   T
  0.2603950682683120  0.5387026568001483  0.3924278072392184   T   T   T
  0.2155144835193098  0.5373073069517309  0.2684819846946337   T   T   T
  0.2643779114140503  0.0378021988652679  0.3981265223059022   T   T   T
  0.4865051588197216  0.7644754917276319  0.3337065067438871   T   T   T
 -0.0093972965709469  0.8102468410926380  0.4601689053819437   T   T   T
  0.4989341326740307  0.8051619391371436  0.4551283075572314   T   T   T
 -0.0082913558890007  0.7638510560660454  0.3280117318398612   T   T   T
  0.5040885126844598  0.4114542616462183  0.5410348367016995   T   T   T
  0.6253274224938008 -0.1913403690704771  0.5767165237852823   T   T   T
  0.2893577526884651  0.8850348837436927  0.5180810788976447   T   T   T
  0.3758567424720199  0.5385807542876343  0.2595114052192652   T   T   T
  0.5513511769366374  0.5373049586298875  0.5576429885118219   T   T   T
  0.7185633032133455 -0.1825532480522105  0.5977142818391479   T   T   T
  0.1339888008171473  0.8473190787618011  0.5264924744336685   T   T   T
 
  0.00000000E+00  0.00000000E+00  0.00000000E+00
  0.00000000E+00  0.00000000E+00  0.00000000E+00
  0.00000000E+00  0.00000000E+00  0.00000000E+00
  0.00000000E+00  0.00000000E+00  0.00000000E+00
  0.00000000E+00  0.00000000E+00  0.00000000E+00
  0.00000000E+00  0.00000000E+00  0.00000000E+00
  0.00000000E+00  0.00000000E+00  0.00000000E+00
  0.00000000E+00  0.00000000E+00  0.00000000E+00
  0.00000000E+00  0.00000000E+00  0.00000000E+00
  0.00000000E+00  0.00000000E+00  0.00000000E+00
  0.00000000E+00  0.00000000E+00  0.00000000E+00
  0.00000000E+00  0.00000000E+00  0.00000000E+00
  0.00000000E+00  0.00000000E+00  0.00000000E+00
  0.00000000E+00  0.00000000E+00  0.00000000E+00
  0.00000000E+00  0.00000000E+00  0.00000000E+00
  0.00000000E+00  0.00000000E+00  0.00000000E+00
  0.00000000E+00  0.00000000E+00  0.00000000E+00
  0.00000000E+00  0.00000000E+00  0.00000000E+00
  0.00000000E+00  0.00000000E+00  0.00000000E+00
  0.00000000E+00  0.00000000E+00  0.00000000E+00
  0.00000000E+00  0.00000000E+00  0.00000000E+00
  0.00000000E+00  0.00000000E+00  0.00000000E+00
  0.00000000E+00  0.00000000E+00  0.00000000E+00
  0.00000000E+00  0.00000000E+00  0.00000000E+00
  0.00000000E+00  0.00000000E+00  0.00000000E+00
  0.00000000E+00  0.00000000E+00  0.00000000E+00
  0.00000000E+00  0.00000000E+00  0.00000000E+00
  0.00000000E+00  0.00000000E+00  0.00000000E+00
  0.00000000E+00  0.00000000E+00  0.00000000E+00
  0.00000000E+00  0.00000000E+00  0.00000000E+00
  0.00000000E+00  0.00000000E+00  0.00000000E+00
  0.00000000E+00  0.00000000E+00  0.00000000E+00
  0.00000000E+00  0.00000000E+00  0.00000000E+00
  0.00000000E+00  0.00000000E+00  0.00000000E+00
  0.00000000E+00  0.00000000E+00  0.00000000E+00
  0.00000000E+00  0.00000000E+00  0.00000000E+00
