Mn O                                    
   1.00000000000000     
     5.7471469900000001    0.0000000000000000    0.0000000000000000
     0.0000000000000000    5.7471469900000001    0.0000000000000000
     0.0000000000000000    0.0000000000000000   38.3523056924327008
   Mn   O 
    13    18
Selective dynamics
Direct
  0.0007133918669449  0.2439526567355657  0.2676086409857647   T   T   T
  0.7370374857713269  0.4954051302555220  0.3253165310643391   T   T   T
  0.4889806793876593  0.2425959456322760  0.3907007335949777   T   T   T
  0.7359425591065891  0.0008851837778486  0.4559258724001021   T   T   T
  0.2342267953966238 -0.0104302150041415  0.4547543683389158   T   T   T
  0.2406145710947223  0.4949930147248036  0.3278898208884016   T   T   T
  0.4916641833350427  0.7437654653474136  0.3905693182784372   T   T   T
  0.0007103845461852  0.7480605057703965  0.2676321599895644   T   T   T
 -0.0097844658967851 -0.0055504063661983  0.3608232441446465   T   T   T
 -0.0041429833648846  0.5023205885227940  0.4221332743103242   T   T   T
  0.4817112399522838  0.4851817184260047  0.4878553681048836   T   T   T
  0.4969439180520130 -0.0050894664172788  0.2927053429525966   T   T   T
  0.9835649221263252  0.4646975917255134  0.5068834836092264   T   T   T
 -0.0025775936434164  0.2265281809139872  0.4584982980513099   T   T   T
  0.7841815026347696  0.4960421494097556  0.2693577775102237   T   T   T
  0.4867736571314418  0.2671012367597730  0.3309585531458588   T   T   T
  0.7174888645268517 -0.0079919050192094  0.3960260061881583   T   T   T
 -0.0063312314254706  0.2704338208373986  0.3281190276868558   T   T   T
  0.7834086235444290 -0.0039019087030738  0.2629481009025254   T   T   T
  0.4771486393864554  0.2242604051375890  0.4512123510110986   T   T   T
  0.7133962151505553  0.4936837077984865  0.3901658279705390   T   T   T
  0.2173169843014658 -0.0040734266089449  0.2621361071469679   T   T   T
  0.2594787160887996  0.4964393279037320  0.3847703610175630   T   T   T
  0.2287716237407085  0.4958457412608393  0.2774961442927677   T   T   T
  0.2621833749310499 -0.0098231354578410  0.3954565377265534   T   T   T
  0.4875692790915335  0.7238382125935836  0.3309643790520067   T   T   T
 -0.0187519936233714  0.7649701044716087  0.4598359219720728   T   T   T
  0.4841103441553435  0.7650143895978446  0.4545244407202241   T   T   T
 -0.0057418666418311  0.7197171142458734  0.3280666667928553   T   T   T
  0.6899777158430395  0.3269949497014796  0.5147896309014760   T   T   T
  0.2709224576828903  0.5959933658104275  0.5189687300476066   T   T   T
 
  0.00000000E+00  0.00000000E+00  0.00000000E+00
  0.00000000E+00  0.00000000E+00  0.00000000E+00
  0.00000000E+00  0.00000000E+00  0.00000000E+00
  0.00000000E+00  0.00000000E+00  0.00000000E+00
  0.00000000E+00  0.00000000E+00  0.00000000E+00
  0.00000000E+00  0.00000000E+00  0.00000000E+00
  0.00000000E+00  0.00000000E+00  0.00000000E+00
  0.00000000E+00  0.00000000E+00  0.00000000E+00
  0.00000000E+00  0.00000000E+00  0.00000000E+00
  0.00000000E+00  0.00000000E+00  0.00000000E+00
  0.00000000E+00  0.00000000E+00  0.00000000E+00
  0.00000000E+00  0.00000000E+00  0.00000000E+00
  0.00000000E+00  0.00000000E+00  0.00000000E+00
  0.00000000E+00  0.00000000E+00  0.00000000E+00
  0.00000000E+00  0.00000000E+00  0.00000000E+00
  0.00000000E+00  0.00000000E+00  0.00000000E+00
  0.00000000E+00  0.00000000E+00  0.00000000E+00
  0.00000000E+00  0.00000000E+00  0.00000000E+00
  0.00000000E+00  0.00000000E+00  0.00000000E+00
  0.00000000E+00  0.00000000E+00  0.00000000E+00
  0.00000000E+00  0.00000000E+00  0.00000000E+00
  0.00000000E+00  0.00000000E+00  0.00000000E+00
  0.00000000E+00  0.00000000E+00  0.00000000E+00
  0.00000000E+00  0.00000000E+00  0.00000000E+00
  0.00000000E+00  0.00000000E+00  0.00000000E+00
  0.00000000E+00  0.00000000E+00  0.00000000E+00
  0.00000000E+00  0.00000000E+00  0.00000000E+00
  0.00000000E+00  0.00000000E+00  0.00000000E+00
  0.00000000E+00  0.00000000E+00  0.00000000E+00
  0.00000000E+00  0.00000000E+00  0.00000000E+00
  0.00000000E+00  0.00000000E+00  0.00000000E+00
