Mn O  H                                 
   1.00000000000000     
     5.7471469900000001    0.0000000000000000    0.0000000000000000
     0.0000000000000000    5.7471469900000001    0.0000000000000000
     0.0000000000000000    0.0000000000000000   38.3523056924327008
   Mn   O    H 
    14    21     6
Selective dynamics
Direct
 -0.0187550224957057  0.2375724587209760  0.2694240049569498   T   T   T
  0.7409584905016663  0.4950623582511334  0.3302299926663506   T   T   T
  0.4947752981908541  0.2486201266398559  0.3956698109417241   T   T   T
  0.7536479110941163 -0.0034975898832382  0.4574703470441934   T   T   T
  0.2503399530895252 -0.0034445427407793  0.4618836059234832   T   T   T
  0.2429848993549638  0.4947525368698731  0.3337411136861449   T   T   T
  0.4959321325690236  0.7479113117511385  0.3964506566710670   T   T   T
 -0.0186829288322072  0.7495144682490958  0.2692620316290470   T   T   T
 -0.0023530500671455 -0.0076600436630934  0.3638504054341353   T   T   T
 -0.0051596143103386  0.4901964681237193  0.4292049219641562   T   T   T
  0.4811713995705064  0.5012778388443274  0.4921272145595947   T   T   T
  0.4789079419285081 -0.0056061293565176  0.2982189497119731   T   T   T
  0.5092267963354741  0.1370095905747538  0.5608332151903977   T   T   T
  0.0063630940098612  0.2395036217998741  0.5285143616064304   T   T   T
 -0.0046042880977255  0.2240698675039460  0.4670035132309812   T   T   T
  0.7664816544339834  0.4935018960006938  0.2711336514955286   T   T   T
  0.4910125300923799  0.2669536814479327  0.3345420833467123   T   T   T
  0.7246914392915443 -0.0009405215535373  0.3990550654727834   T   T   T
 -0.0048429663246829  0.2668059773668734  0.3289916971595450   T   T   T
  0.7608232370737221 -0.0064054662941664  0.2658072850124752   T   T   T
  0.5005800117613322  0.2247791032550620  0.4575615393457794   T   T   T
  0.7221845492379386  0.4985771279311618  0.3935947836319073   T   T   T
  0.2019377854432861 -0.0063747869027000  0.2647161598974488   T   T   T
  0.2653184225353057  0.4988625526068793  0.3932584502536387   T   T   T
  0.2185693852543850  0.4935291725593399  0.2696944678242424   T   T   T
  0.2693350277200582 -0.0017936893084579  0.3988177254652771   T   T   T
  0.4914962886883787  0.7231390220178676  0.3344101720763157   T   T   T
  0.0005732921816702  0.7767354061907679  0.4602072720203072   T   T   T
  0.5024399875489530  0.7684858241618946  0.4567949072007062   T   T   T
 -0.0040021512128279  0.7221354923068002  0.3286417069255918   T   T   T
  0.6932810867096151  0.4321537172811172  0.5362161355810668   T   T   T
  0.2178380564058465  0.2337277760438220  0.5856611767149257   T   T   T
  0.2125584038957251  0.5487088372454823  0.5278593317471174   T   T   T
  0.2928710215956853  0.0072284690931276  0.5203141895207291   T   T   T
  0.8069040694539690 -0.0471096041175195  0.5563208198605688   T   T   T
  0.3771672225445986  0.4932916642578323  0.2601348916686850   T   T   T
  0.7373923452702528  0.5838688158293601  0.5463271703764910   T   T   T
  0.2028024831864910  0.3036334300414281  0.6085547312493191   T   T   T
  0.2678062823658996  0.5270334026729155  0.5518111798453437   T   T   T
  0.2413675533312948  0.8435602359319775  0.5253750905260454   T   T   T
  0.9174172240447349  0.9522392059068467  0.5756519327071932   T   T   T
 
  0.00000000E+00  0.00000000E+00  0.00000000E+00
  0.00000000E+00  0.00000000E+00  0.00000000E+00
  0.00000000E+00  0.00000000E+00  0.00000000E+00
  0.00000000E+00  0.00000000E+00  0.00000000E+00
  0.00000000E+00  0.00000000E+00  0.00000000E+00
  0.00000000E+00  0.00000000E+00  0.00000000E+00
  0.00000000E+00  0.00000000E+00  0.00000000E+00
  0.00000000E+00  0.00000000E+00  0.00000000E+00
  0.00000000E+00  0.00000000E+00  0.00000000E+00
  0.00000000E+00  0.00000000E+00  0.00000000E+00
  0.00000000E+00  0.00000000E+00  0.00000000E+00
  0.00000000E+00  0.00000000E+00  0.00000000E+00
  0.00000000E+00  0.00000000E+00  0.00000000E+00
  0.00000000E+00  0.00000000E+00  0.00000000E+00
  0.00000000E+00  0.00000000E+00  0.00000000E+00
  0.00000000E+00  0.00000000E+00  0.00000000E+00
  0.00000000E+00  0.00000000E+00  0.00000000E+00
  0.00000000E+00  0.00000000E+00  0.00000000E+00
  0.00000000E+00  0.00000000E+00  0.00000000E+00
  0.00000000E+00  0.00000000E+00  0.00000000E+00
  0.00000000E+00  0.00000000E+00  0.00000000E+00
  0.00000000E+00  0.00000000E+00  0.00000000E+00
  0.00000000E+00  0.00000000E+00  0.00000000E+00
  0.00000000E+00  0.00000000E+00  0.00000000E+00
  0.00000000E+00  0.00000000E+00  0.00000000E+00
  0.00000000E+00  0.00000000E+00  0.00000000E+00
  0.00000000E+00  0.00000000E+00  0.00000000E+00
  0.00000000E+00  0.00000000E+00  0.00000000E+00
  0.00000000E+00  0.00000000E+00  0.00000000E+00
  0.00000000E+00  0.00000000E+00  0.00000000E+00
  0.00000000E+00  0.00000000E+00  0.00000000E+00
  0.00000000E+00  0.00000000E+00  0.00000000E+00
  0.00000000E+00  0.00000000E+00  0.00000000E+00
  0.00000000E+00  0.00000000E+00  0.00000000E+00
  0.00000000E+00  0.00000000E+00  0.00000000E+00
  0.00000000E+00  0.00000000E+00  0.00000000E+00
  0.00000000E+00  0.00000000E+00  0.00000000E+00
  0.00000000E+00  0.00000000E+00  0.00000000E+00
  0.00000000E+00  0.00000000E+00  0.00000000E+00
  0.00000000E+00  0.00000000E+00  0.00000000E+00
  0.00000000E+00  0.00000000E+00  0.00000000E+00
