Mn O  H                                 
   1.00000000000000     
     5.7471469900000001    0.0000000000000000    0.0000000000000000
     0.0000000000000000    5.7471469900000001    0.0000000000000000
     0.0000000000000000    0.0000000000000000   38.3523056924327008
   Mn   O    H 
    14    21     5
Selective dynamics
Direct
 -0.0282387545188382  0.2432896477040787  0.2708844276218392   T   T   T
  0.7318645538693573  0.5006381516798079  0.3317335194500748   T   T   T
  0.4843091577742866  0.2510140538639022  0.3967432658385553   T   T   T
  0.7418414050978344  0.0038145609529438  0.4612229131326020   T   T   T
  0.2385716365308013 -0.0013686339058831  0.4630760303468521   T   T   T
  0.2341363266509627  0.5003716925766872  0.3350842773458104   T   T   T
  0.4866523752049459  0.7512124070669737  0.3979275670958304   T   T   T
 -0.0282672349904526  0.7555470063828273  0.2708303199813923   T   T   T
 -0.0139853611054775 -0.0005803354565096  0.3656018476122690   T   T   T
 -0.0179453490110277  0.5000931840067524  0.4292993346858605   T   T   T
  0.4321014941007765  0.5229497305142121  0.4955069124352850   T   T   T
  0.4689127799217661 -0.0001893622949968  0.2996653834920778   T   T   T
  0.5235112576402512 -0.0395090316430135  0.5517402656185086   T   T   T
 -0.0098497404468962  0.7165309197344568  0.5251559532773193   T   T   T
 -0.0068372008616049  0.2210261203064195  0.4616731871211645   T   T   T
  0.7572042058084575  0.4992917216958545  0.2727224157579780   T   T   T
  0.4815482822502608  0.2718485967234188  0.3361208677625682   T   T   T
  0.7131728255238520  0.0026792774385345  0.4007854711717146   T   T   T
 -0.0140642972983324  0.2725250448220168  0.3304930185402815   T   T   T
  0.7510372786586171 -0.0005081922181214  0.2673029413302550   T   T   T
  0.4867275096199920  0.2297281540313617  0.4642435314204828   T   T   T
  0.7112661743627973  0.5014019604864932  0.3942452273731168   T   T   T
  0.1921994442122151 -0.0004968758712372  0.2660276165601069   T   T   T
  0.2567168142725103  0.5023000702938976  0.3945083224730173   T   T   T
  0.2090852884851579  0.4995381084097130  0.2710248053781540   T   T   T
  0.2589447539112647  0.0000337751378023  0.4006269463951220   T   T   T
  0.4822329786658669  0.7283449436902323  0.3357577256323054   T   T   T
 -0.0160259899651374  0.7645939852442966  0.4659498777702083   T   T   T
  0.4929584123099430  0.7728221502080898  0.4572711309850393   T   T   T
 -0.0130333635981098  0.7282282582717501  0.3303061489971810   T   T   T
  0.6756929263515304  0.6054596257392536  0.5395472579827686   T   T   T
  0.1408783677952703  0.4144388511802226  0.5308493079617026   T   T   T
  0.4752506817132396  0.2612007325971016  0.5781972655903433   T   T   T
  0.8368840762370299  0.0203545635418324  0.5271087770965631   T   T   T
  0.2756649129449723  0.8560826491896779  0.5194185179958524   T   T   T
  0.3673042245585822  0.4995969410931693  0.2613303501653648   T   T   T
  0.6460299053932795  0.4739204090851982  0.5561448657587428   T   T   T
  0.2297652037602334  0.3840722434703659  0.5526617847821489   T   T   T
  0.4800199024181722  0.2736985442230739  0.6033882732384054   T   T   T
  0.9440068543028360  0.1565255848090762  0.5270571486497205   T   T   T
 
  0.00000000E+00  0.00000000E+00  0.00000000E+00
  0.00000000E+00  0.00000000E+00  0.00000000E+00
  0.00000000E+00  0.00000000E+00  0.00000000E+00
  0.00000000E+00  0.00000000E+00  0.00000000E+00
  0.00000000E+00  0.00000000E+00  0.00000000E+00
  0.00000000E+00  0.00000000E+00  0.00000000E+00
  0.00000000E+00  0.00000000E+00  0.00000000E+00
  0.00000000E+00  0.00000000E+00  0.00000000E+00
  0.00000000E+00  0.00000000E+00  0.00000000E+00
  0.00000000E+00  0.00000000E+00  0.00000000E+00
  0.00000000E+00  0.00000000E+00  0.00000000E+00
  0.00000000E+00  0.00000000E+00  0.00000000E+00
  0.00000000E+00  0.00000000E+00  0.00000000E+00
  0.00000000E+00  0.00000000E+00  0.00000000E+00
  0.00000000E+00  0.00000000E+00  0.00000000E+00
  0.00000000E+00  0.00000000E+00  0.00000000E+00
  0.00000000E+00  0.00000000E+00  0.00000000E+00
  0.00000000E+00  0.00000000E+00  0.00000000E+00
  0.00000000E+00  0.00000000E+00  0.00000000E+00
  0.00000000E+00  0.00000000E+00  0.00000000E+00
  0.00000000E+00  0.00000000E+00  0.00000000E+00
  0.00000000E+00  0.00000000E+00  0.00000000E+00
  0.00000000E+00  0.00000000E+00  0.00000000E+00
  0.00000000E+00  0.00000000E+00  0.00000000E+00
  0.00000000E+00  0.00000000E+00  0.00000000E+00
  0.00000000E+00  0.00000000E+00  0.00000000E+00
  0.00000000E+00  0.00000000E+00  0.00000000E+00
  0.00000000E+00  0.00000000E+00  0.00000000E+00
  0.00000000E+00  0.00000000E+00  0.00000000E+00
  0.00000000E+00  0.00000000E+00  0.00000000E+00
  0.00000000E+00  0.00000000E+00  0.00000000E+00
  0.00000000E+00  0.00000000E+00  0.00000000E+00
  0.00000000E+00  0.00000000E+00  0.00000000E+00
  0.00000000E+00  0.00000000E+00  0.00000000E+00
  0.00000000E+00  0.00000000E+00  0.00000000E+00
  0.00000000E+00  0.00000000E+00  0.00000000E+00
  0.00000000E+00  0.00000000E+00  0.00000000E+00
  0.00000000E+00  0.00000000E+00  0.00000000E+00
  0.00000000E+00  0.00000000E+00  0.00000000E+00
  0.00000000E+00  0.00000000E+00  0.00000000E+00
