Mn O  H                                 
   1.00000000000000     
     5.7471469900000001    0.0000000000000000    0.0000000000000000
     0.0000000000000000    5.7471469900000001    0.0000000000000000
     0.0000000000000000    0.0000000000000000   38.3523056924327008
   Mn   O    H 
    14    20     4
Selective dynamics
Direct
 -0.0298251154589305  0.2380811158129832  0.2673431396058457   T   T   T
  0.7296363262525383  0.4976223776696338  0.3281703558625755   T   T   T
  0.4845436938289701  0.2538516442145158  0.3937791534692047   T   T   T
  0.7457174960146887  0.0076179831277758  0.4551233546919122   T   T   T
  0.2477095525038905  0.0082355850647460  0.4619576390436171   T   T   T
  0.2318510155290682  0.4979998185130619  0.3312965477115178   T   T   T
  0.4855235333014641  0.7536016985088321  0.3940140012034981   T   T   T
 -0.0289280750285701  0.7504574357511877  0.2667171733657100   T   T   T
 -0.0112720313458889 -0.0047691498252708  0.3615765082418317   T   T   T
 -0.0163998710880731  0.4989132427656214  0.4262262921757864   T   T   T
  0.4735120029445469  0.5022282345044496  0.4904261024610814   T   T   T
  0.4681612129643178 -0.0014387200925807  0.2961788820286147   T   T   T
  0.0223877050340096  0.2225173911379375  0.5328126433030218   T   T   T
 -0.0150612550232283  0.7457973764562155  0.5171849114999780   T   T   T
 -0.0056698567702292  0.2306150035158669  0.4624838497724315   T   T   T
  0.7552946803854619  0.4933280415867619  0.2690122798350442   T   T   T
  0.4790289210183158  0.2697820282660818  0.3325619538493425   T   T   T
  0.7156346092003517  0.0025748846836280  0.3969016646514890   T   T   T
 -0.0161689368167868  0.2698039861961725  0.3268495344042737   T   T   T
  0.7494158194952603 -0.0050242205088617  0.2639759415676406   T   T   T
  0.5003937832249283  0.2400059288459811  0.4541035407543454   T   T   T
  0.7122682688271517  0.5048914579068207  0.3908212362969971   T   T   T
  0.1916278495909428 -0.0044325633987107  0.2627518976423945   T   T   T
  0.2553794520530011  0.5050418530312454  0.3909745358112172   T   T   T
  0.2075118898799422  0.4931894229804004  0.2669815758556549   T   T   T
  0.2592353434934681  0.0019477667416663  0.3966881300550601   T   T   T
  0.4804311436281072  0.7263596601866015  0.3321289808124427   T   T   T
 -0.0176142244419167  0.7723214180967573  0.4611014186828623   T   T   T
  0.4924153310899144  0.7801365239920718  0.4557293194735568   T   T   T
 -0.0146941836775219  0.7243448910013347  0.3262974599303443   T   T   T
  0.7485679165762675  0.4706714055434178  0.5261067639730632   T   T   T
  0.2539126091770255  0.5061509487328637  0.5355647582629021   T   T   T
  0.7787318336485108  0.9714138575470287  0.5470160243211413   T   T   T
  0.2553952088103612 -0.0136822273392628  0.5159788906849133   T   T   T
  0.3668461841325893  0.4910329397566701  0.2577083763696068   T   T   T
  0.6729846896089055  0.4931534848647062  0.5485775649989731   T   T   T
  0.3149116978816884  0.6184314012519417  0.5522854308819072   T   T   T
  0.6148043024330160 -0.0042439393980131  0.5406520236230259   T   T   T
 
  0.00000000E+00  0.00000000E+00  0.00000000E+00
  0.00000000E+00  0.00000000E+00  0.00000000E+00
  0.00000000E+00  0.00000000E+00  0.00000000E+00
  0.00000000E+00  0.00000000E+00  0.00000000E+00
  0.00000000E+00  0.00000000E+00  0.00000000E+00
  0.00000000E+00  0.00000000E+00  0.00000000E+00
  0.00000000E+00  0.00000000E+00  0.00000000E+00
  0.00000000E+00  0.00000000E+00  0.00000000E+00
  0.00000000E+00  0.00000000E+00  0.00000000E+00
  0.00000000E+00  0.00000000E+00  0.00000000E+00
  0.00000000E+00  0.00000000E+00  0.00000000E+00
  0.00000000E+00  0.00000000E+00  0.00000000E+00
  0.00000000E+00  0.00000000E+00  0.00000000E+00
  0.00000000E+00  0.00000000E+00  0.00000000E+00
  0.00000000E+00  0.00000000E+00  0.00000000E+00
  0.00000000E+00  0.00000000E+00  0.00000000E+00
  0.00000000E+00  0.00000000E+00  0.00000000E+00
  0.00000000E+00  0.00000000E+00  0.00000000E+00
  0.00000000E+00  0.00000000E+00  0.00000000E+00
  0.00000000E+00  0.00000000E+00  0.00000000E+00
  0.00000000E+00  0.00000000E+00  0.00000000E+00
  0.00000000E+00  0.00000000E+00  0.00000000E+00
  0.00000000E+00  0.00000000E+00  0.00000000E+00
  0.00000000E+00  0.00000000E+00  0.00000000E+00
  0.00000000E+00  0.00000000E+00  0.00000000E+00
  0.00000000E+00  0.00000000E+00  0.00000000E+00
  0.00000000E+00  0.00000000E+00  0.00000000E+00
  0.00000000E+00  0.00000000E+00  0.00000000E+00
  0.00000000E+00  0.00000000E+00  0.00000000E+00
  0.00000000E+00  0.00000000E+00  0.00000000E+00
  0.00000000E+00  0.00000000E+00  0.00000000E+00
  0.00000000E+00  0.00000000E+00  0.00000000E+00
  0.00000000E+00  0.00000000E+00  0.00000000E+00
  0.00000000E+00  0.00000000E+00  0.00000000E+00
  0.00000000E+00  0.00000000E+00  0.00000000E+00
  0.00000000E+00  0.00000000E+00  0.00000000E+00
  0.00000000E+00  0.00000000E+00  0.00000000E+00
  0.00000000E+00  0.00000000E+00  0.00000000E+00
