Mn O  H                                 
   1.00000000000000     
     5.7471469900000001    0.0000000000000000    0.0000000000000000
     0.0000000000000000    5.7471469900000001    0.0000000000000000
     0.0000000000000000    0.0000000000000000   38.3523056924327008
   Mn   O    H 
    15    23     7
Selective dynamics
Direct
  0.0577884135101150  0.1747204513511324  0.2625711947253698   T   T   T
  0.8158161265165578  0.4306180482395754  0.3238884349207140   T   T   T
  0.5714246929572342  0.1810684801534814  0.3899496266178261   T   T   T
  0.8210970570590007 -0.0524502444617239  0.4578048610489959   T   T   T
  0.3137681830753321 -0.0659169612573016  0.4513953437041437   T   T   T
  0.3172358450583490  0.4292687967923388  0.3271683716536104   T   T   T
  0.5739041107219991  0.6810525455398903  0.3884167024512197   T   T   T
  0.0570911994626018  0.6868004513819435  0.2629971446304687   T   T   T
  0.0698702856420955 -0.0701391246331729  0.3575343875338520   T   T   T
  0.0686716130821960  0.4499857207934434  0.4226326833358419   T   T   T
  0.5392746098984177  0.4023604044642414  0.4859735087511295   T   T   T
  0.5552439400679851 -0.0705921864804167  0.2918424266511466   T   T   T
  0.4313226107408455  0.2719802167126893  0.5894695925937838   T   T   T
  0.8986338683155731  0.3549304870486146  0.5459234664307145   T   T   T
  0.7003060677201970  0.8492610873815375  0.5433232717591364   T   T   T
  0.0775799359718817  0.1661211265578551  0.4549966917530183   T   T   T
  0.8421873978448594  0.4316797003553828  0.2646491081760975   T   T   T
  0.5657147431147864  0.2023489731993931  0.3279063997729043   T   T   T
  0.7977865692443756 -0.0720210404127671  0.3923760898837060   T   T   T
  0.0701503060314290  0.2029800413385680  0.3223826698173032   T   T   T
  0.8366682864676646 -0.0697315611231415  0.2595888582160222   T   T   T
  0.5603747273876750  0.1644326765894510  0.4471717954068104   T   T   T
  0.7993945111995956  0.4328348334085083  0.3867760140504024   T   T   T
  0.2786458820979475 -0.0702149418621613  0.2584332867153928   T   T   T
  0.3422158094864807  0.4341868326682179  0.3868371622581576   T   T   T
  0.2943448344723534  0.4314387528995518  0.2627713229097865   T   T   T
  0.3431164645282607 -0.0747986062498393  0.3925671315735770   T   T   T
  0.5653021374580792  0.6589882459149862  0.3281352934604901   T   T   T
  0.0683951974889316  0.7163605014113080  0.4591221324170188   T   T   T
  0.5702753219644180  0.7147709705374160  0.4581684930943992   T   T   T
  0.0706274300162831  0.6578181829463049  0.3223448172747160   T   T   T
  0.4805694049042790  0.5572515697048982  0.5352189256236353   T   T   T
  0.2643574978351531  0.5294778848117876  0.6108508186919874   T   T   T
  0.0322010000049002  0.6932860262951257  0.5523998854515512   T   T   T
  0.7304500988255379  0.1375790332568616  0.5144814894143809   T   T   T
  0.1538444675270552  0.1556813240818796  0.5683264758121039   T   T   T
  0.7327610354860115  0.4034521386177550  0.5968805188123140   T   T   T
  0.5561376741538575 -0.0419871178982625  0.5915106878984986   T   T   T
  0.4545169875635195  0.4327923973431421  0.2537452248318211   T   T   T
  0.3191733572386461  0.6183813936426775  0.5378488702549209   T   T   T
  0.3326309482545421  0.5729072931679724  0.6331384108902620   T   T   T
  0.0716053381124548  0.6694293820873531  0.5773266407197122   T   T   T
  0.4458982631770729 -0.1663604943906875  0.5979933830347886   T   T   T
  0.1527083703764384  0.9914827411118881  0.5606782627853775   T   T   T
  0.8359673674185344  0.3286598637111793  0.6136305472209654   T   T   T
 
  0.00000000E+00  0.00000000E+00  0.00000000E+00
  0.00000000E+00  0.00000000E+00  0.00000000E+00
  0.00000000E+00  0.00000000E+00  0.00000000E+00
  0.00000000E+00  0.00000000E+00  0.00000000E+00
  0.00000000E+00  0.00000000E+00  0.00000000E+00
  0.00000000E+00  0.00000000E+00  0.00000000E+00
  0.00000000E+00  0.00000000E+00  0.00000000E+00
  0.00000000E+00  0.00000000E+00  0.00000000E+00
  0.00000000E+00  0.00000000E+00  0.00000000E+00
  0.00000000E+00  0.00000000E+00  0.00000000E+00
  0.00000000E+00  0.00000000E+00  0.00000000E+00
  0.00000000E+00  0.00000000E+00  0.00000000E+00
  0.00000000E+00  0.00000000E+00  0.00000000E+00
  0.00000000E+00  0.00000000E+00  0.00000000E+00
  0.00000000E+00  0.00000000E+00  0.00000000E+00
  0.00000000E+00  0.00000000E+00  0.00000000E+00
  0.00000000E+00  0.00000000E+00  0.00000000E+00
  0.00000000E+00  0.00000000E+00  0.00000000E+00
  0.00000000E+00  0.00000000E+00  0.00000000E+00
  0.00000000E+00  0.00000000E+00  0.00000000E+00
  0.00000000E+00  0.00000000E+00  0.00000000E+00
  0.00000000E+00  0.00000000E+00  0.00000000E+00
  0.00000000E+00  0.00000000E+00  0.00000000E+00
  0.00000000E+00  0.00000000E+00  0.00000000E+00
  0.00000000E+00  0.00000000E+00  0.00000000E+00
  0.00000000E+00  0.00000000E+00  0.00000000E+00
  0.00000000E+00  0.00000000E+00  0.00000000E+00
  0.00000000E+00  0.00000000E+00  0.00000000E+00
  0.00000000E+00  0.00000000E+00  0.00000000E+00
  0.00000000E+00  0.00000000E+00  0.00000000E+00
  0.00000000E+00  0.00000000E+00  0.00000000E+00
  0.00000000E+00  0.00000000E+00  0.00000000E+00
  0.00000000E+00  0.00000000E+00  0.00000000E+00
  0.00000000E+00  0.00000000E+00  0.00000000E+00
  0.00000000E+00  0.00000000E+00  0.00000000E+00
  0.00000000E+00  0.00000000E+00  0.00000000E+00
  0.00000000E+00  0.00000000E+00  0.00000000E+00
  0.00000000E+00  0.00000000E+00  0.00000000E+00
  0.00000000E+00  0.00000000E+00  0.00000000E+00
  0.00000000E+00  0.00000000E+00  0.00000000E+00
  0.00000000E+00  0.00000000E+00  0.00000000E+00
  0.00000000E+00  0.00000000E+00  0.00000000E+00
  0.00000000E+00  0.00000000E+00  0.00000000E+00
  0.00000000E+00  0.00000000E+00  0.00000000E+00
  0.00000000E+00  0.00000000E+00  0.00000000E+00
