Mn O                                    
   1.00000000000000     
     5.7471469900000001    0.0000000000000000    0.0000000000000000
     0.0000000000000000    5.7471469900000001    0.0000000000000000
     0.0000000000000000    0.0000000000000000   38.3523056924327008
   Mn   O 
    14    19
Selective dynamics
Direct
 -0.0172604127941409  0.2511887972782365  0.2688516119732807   T   T   T
  0.7436450940308059  0.5015475535431533  0.3293659752239106   T   T   T
  0.4940413274250465  0.2532970330381074  0.3926472816585930   T   T   T
  0.7504165673666406  0.0069606187001055  0.4559828401543928   T   T   T
  0.2444768051705877  0.0117331936217984  0.4552898255598953   T   T   T
  0.2475418756825457  0.4997630637351385  0.3269781344338571   T   T   T
  0.4941718566334752  0.7535736647484197  0.3919099278080581   T   T   T
 -0.0171249435513749  0.7537857588421502  0.2691150146431686   T   T   T
 -0.0038038714839631 -0.0002892951041760  0.3618985317948715   T   T   T
 -0.0169300691323638  0.5162669533730653  0.4234815794345000   T   T   T
  0.4777886510182011  0.5109445718875865  0.4878121058786510   T   T   T
  0.4823510650687398 -0.0005245662330900  0.2943942176118898   T   T   T
  0.4887118177764615  0.3512048789685279  0.5578068422501939   T   T   T
 -0.0235683237774566  0.4940912014982917  0.5028587370054257   T   T   T
 -0.0165301151271621  0.2487273533300697  0.4604239281309173   T   T   T
  0.7553644635442542  0.5002881931295756  0.2791839501125493   T   T   T
  0.4954154732811651  0.2719751898078377  0.3327786996900131   T   T   T
  0.7225440718496063 -0.0001608681838771  0.3967323966454066   T   T   T
 -0.0062320511314801  0.2765429977990636  0.3297950309608416   T   T   T
  0.7652183472243929  0.0011778400177136  0.2646435810823498   T   T   T
  0.5137429945561376  0.2417199314082112  0.4533428901421605   T   T   T
  0.7250294215445492  0.5041857602324954  0.3858193977087716   T   T   T
  0.1999427604006360  0.0011060388646572  0.2640737412022802   T   T   T
  0.2701161859355412  0.5057813207419535  0.3923361447310939   T   T   T
  0.2003253408612385  0.5020043328770610  0.2710191309229668   T   T   T
  0.2659456359153313  0.0013506353804244  0.3972600267338197   T   T   T
  0.4936534714379924  0.7303608749898265  0.3325644873734044   T   T   T
 -0.0108830298381802  0.7662946847080867  0.4639756891997464   T   T   T
  0.5080293374995603  0.7773608951788411  0.4548405593770192   T   T   T
 -0.0064370149412746  0.7258853864206304  0.3292668320278873   T   T   T
  0.6952871968310410  0.5150581401396904  0.5315038236076619   T   T   T
  0.2583647650141596  0.3748681542963692  0.5254319791003251   T   T   T
  0.5376191025011289  0.1233801524201198  0.5825539159509832   T   T   T
 
  0.00000000E+00  0.00000000E+00  0.00000000E+00
  0.00000000E+00  0.00000000E+00  0.00000000E+00
  0.00000000E+00  0.00000000E+00  0.00000000E+00
  0.00000000E+00  0.00000000E+00  0.00000000E+00
  0.00000000E+00  0.00000000E+00  0.00000000E+00
  0.00000000E+00  0.00000000E+00  0.00000000E+00
  0.00000000E+00  0.00000000E+00  0.00000000E+00
  0.00000000E+00  0.00000000E+00  0.00000000E+00
  0.00000000E+00  0.00000000E+00  0.00000000E+00
  0.00000000E+00  0.00000000E+00  0.00000000E+00
  0.00000000E+00  0.00000000E+00  0.00000000E+00
  0.00000000E+00  0.00000000E+00  0.00000000E+00
  0.00000000E+00  0.00000000E+00  0.00000000E+00
  0.00000000E+00  0.00000000E+00  0.00000000E+00
  0.00000000E+00  0.00000000E+00  0.00000000E+00
  0.00000000E+00  0.00000000E+00  0.00000000E+00
  0.00000000E+00  0.00000000E+00  0.00000000E+00
  0.00000000E+00  0.00000000E+00  0.00000000E+00
  0.00000000E+00  0.00000000E+00  0.00000000E+00
  0.00000000E+00  0.00000000E+00  0.00000000E+00
  0.00000000E+00  0.00000000E+00  0.00000000E+00
  0.00000000E+00  0.00000000E+00  0.00000000E+00
  0.00000000E+00  0.00000000E+00  0.00000000E+00
  0.00000000E+00  0.00000000E+00  0.00000000E+00
  0.00000000E+00  0.00000000E+00  0.00000000E+00
  0.00000000E+00  0.00000000E+00  0.00000000E+00
  0.00000000E+00  0.00000000E+00  0.00000000E+00
  0.00000000E+00  0.00000000E+00  0.00000000E+00
  0.00000000E+00  0.00000000E+00  0.00000000E+00
  0.00000000E+00  0.00000000E+00  0.00000000E+00
  0.00000000E+00  0.00000000E+00  0.00000000E+00
  0.00000000E+00  0.00000000E+00  0.00000000E+00
  0.00000000E+00  0.00000000E+00  0.00000000E+00
