Mn O  H                                 
   1.00000000000000     
     5.7471469900000001    0.0000000000000000    0.0000000000000000
     0.0000000000000000    5.7471469900000001    0.0000000000000000
     0.0000000000000000    0.0000000000000000   38.3523056924327008
   Mn   O    H 
    14    19     1
Selective dynamics
Direct
 -0.0137570270066116  0.2511107062770127  0.2682596164275632   T   T   T
  0.7485091348275391  0.5011833542955065  0.3288562530318813   T   T   T
  0.4962915677760887  0.2521736684243087  0.3916339795433527   T   T   T
  0.7370314893450071  0.0050733640714515  0.4597632471820240   T   T   T
  0.2376043263264229  0.0070981922945206  0.4528086055871124   T   T   T
  0.2522005048449602  0.4996004560536810  0.3263463050956135   T   T   T
  0.4970282894705400  0.7530359734370752  0.3912616052387304   T   T   T
 -0.0135213800957933  0.7546310751821760  0.2685461584597537   T   T   T
 -0.0062894613836184 -0.0008434722961397  0.3613916143302342   T   T   T
 -0.0091131499013390  0.5065354272609822  0.4233982369682653   T   T   T
  0.4454498568729154  0.5091722524501041  0.4885535617947503   T   T   T
  0.4858857475010104 -0.0008875567442047  0.2935644291161050   T   T   T
  0.9745911631241017  0.2571634184587185  0.5212688000488471   T   T   T
  0.9745230458485178  0.7508564736004514  0.5210536154906457   T   T   T
 -0.0062710379006489  0.2351570412830265  0.4591471634355413   T   T   T
  0.7586622137755158  0.5007051016026598  0.2792871386451261   T   T   T
  0.5008642211509056  0.2725706467372218  0.3315962493341172   T   T   T
  0.7199812480584097  0.0012662060902937  0.3953915889729090   T   T   T
 -0.0022995169424511  0.2761874049343789  0.3289979074662692   T   T   T
  0.7690192955348376  0.0014743351315184  0.2637122934531925   T   T   T
  0.4871463604299325  0.2336297393829655  0.4537354628525113   T   T   T
  0.7297530461533674  0.5022624376355525  0.3849234033508793   T   T   T
  0.2036850158256989  0.0014282928801617  0.2630922956424767   T   T   T
  0.2730989143535995  0.5044362212782840  0.3907256232487536   T   T   T
  0.2032321897142296  0.5024302336824540  0.2700141695527625   T   T   T
  0.2669067945157760  0.0016503816367544  0.3957767784286222   T   T   T
  0.4995237962132255  0.7292859886994244  0.3315441587933490   T   T   T
 -0.0052232176794458  0.7766519519869660  0.4589400182634340   T   T   T
  0.4861350663008272  0.7786625467787707  0.4533873401784792   T   T   T
 -0.0024844270352599  0.7257131063636714  0.3285576277262922   T   T   T
  0.7048574097237915  0.5042011766995582  0.5275711098689245   T   T   T
  0.2059690926295968  0.5043474116046487  0.5267575543124974   T   T   T
  0.7641687774263158  0.0046885983509701  0.5159668435785777   T   T   T
  0.6011932705446883  0.5050115535934676  0.5477339922031943   T   T   T
 
  0.00000000E+00  0.00000000E+00  0.00000000E+00
  0.00000000E+00  0.00000000E+00  0.00000000E+00
  0.00000000E+00  0.00000000E+00  0.00000000E+00
  0.00000000E+00  0.00000000E+00  0.00000000E+00
  0.00000000E+00  0.00000000E+00  0.00000000E+00
  0.00000000E+00  0.00000000E+00  0.00000000E+00
  0.00000000E+00  0.00000000E+00  0.00000000E+00
  0.00000000E+00  0.00000000E+00  0.00000000E+00
  0.00000000E+00  0.00000000E+00  0.00000000E+00
  0.00000000E+00  0.00000000E+00  0.00000000E+00
  0.00000000E+00  0.00000000E+00  0.00000000E+00
  0.00000000E+00  0.00000000E+00  0.00000000E+00
  0.00000000E+00  0.00000000E+00  0.00000000E+00
  0.00000000E+00  0.00000000E+00  0.00000000E+00
  0.00000000E+00  0.00000000E+00  0.00000000E+00
  0.00000000E+00  0.00000000E+00  0.00000000E+00
  0.00000000E+00  0.00000000E+00  0.00000000E+00
  0.00000000E+00  0.00000000E+00  0.00000000E+00
  0.00000000E+00  0.00000000E+00  0.00000000E+00
  0.00000000E+00  0.00000000E+00  0.00000000E+00
  0.00000000E+00  0.00000000E+00  0.00000000E+00
  0.00000000E+00  0.00000000E+00  0.00000000E+00
  0.00000000E+00  0.00000000E+00  0.00000000E+00
  0.00000000E+00  0.00000000E+00  0.00000000E+00
  0.00000000E+00  0.00000000E+00  0.00000000E+00
  0.00000000E+00  0.00000000E+00  0.00000000E+00
  0.00000000E+00  0.00000000E+00  0.00000000E+00
  0.00000000E+00  0.00000000E+00  0.00000000E+00
  0.00000000E+00  0.00000000E+00  0.00000000E+00
  0.00000000E+00  0.00000000E+00  0.00000000E+00
  0.00000000E+00  0.00000000E+00  0.00000000E+00
  0.00000000E+00  0.00000000E+00  0.00000000E+00
  0.00000000E+00  0.00000000E+00  0.00000000E+00
  0.00000000E+00  0.00000000E+00  0.00000000E+00
