Mn O  H                                 
   1.00000000000000     
     5.7471469900000001    0.0000000000000000    0.0000000000000000
     0.0000000000000000    5.7471469900000001    0.0000000000000000
     0.0000000000000000    0.0000000000000000   38.3523056924327008
   Mn   O    H 
    15    22     6
Selective dynamics
Direct
 -0.0401118599441398  0.2322647640288559  0.2671589547897484   T   T   T
  0.7166942560028472  0.4891375300541140  0.3286270975531073   T   T   T
  0.4715341896300961  0.2428879324795478  0.3939822735381665   T   T   T
  0.7295456388254046 -0.0071095900344232  0.4547159420327815   T   T   T
  0.2344781796666542 -0.0053455991998253  0.4602258959196536   T   T   T
  0.2191311047055327  0.4886815315438098  0.3313631331116219   T   T   T
  0.4727600301430209  0.7417112700052675  0.3941736813510647   T   T   T
 -0.0400758322117614  0.7425783222366279  0.2670883769293002   T   T   T
 -0.0237377233192048 -0.0122203089943842  0.3616300227214797   T   T   T
 -0.0292736076138113  0.4962134836624754  0.4268575137828720   T   T   T
  0.4548013513014637  0.5012056858057369  0.4926007903649420   T   T   T
  0.4577156255941151 -0.0113975202567984  0.2962817741542999   T   T   T
  0.4415139600057342  0.0929890870902169  0.5579212321354626   T   T   T
 -0.0043000108801065  0.2354925531283885  0.5211182527481434   T   T   T
 -0.0009318007207035  0.7347880819626226  0.5226744204180167   T   T   T
  0.9746709645453573  0.2207969118276038  0.4620626000186816   T   T   T
  0.7438146202839800  0.4874280156920224  0.2692456365577858   T   T   T
  0.4666696183347127  0.2603583579940036  0.3327069822920171   T   T   T
  0.7031228385687578 -0.0084587944292670  0.3969466385454019   T   T   T
 -0.0284605766062281  0.2618938657884222  0.3268435682753000   T   T   T
  0.7384952022487670 -0.0122649449964632  0.2640272327800961   T   T   T
  0.4808393900059611  0.2243440679026622  0.4551602180335588   T   T   T
  0.7001710211509395  0.4931186534385713  0.3910358250696267   T   T   T
  0.1817177657362874 -0.0122990768683845  0.2629723188675359   T   T   T
  0.2419486049881537  0.4937200093896675  0.3912521101739773   T   T   T
  0.1983942245546729  0.4874276745877898  0.2672484645132277   T   T   T
  0.2458849992357518 -0.0091695197121566  0.3969156669696899   T   T   T
  0.4670945639911619  0.7175268427707030  0.3323994664598540   T   T   T
 -0.0232146767560416  0.7671927193983125  0.4627887833091985   T   T   T
  0.4817258536306986  0.7629553189241779  0.4546398249334701   T   T   T
 -0.0275859034774116  0.7156899999163282  0.3266050634414754   T   T   T
  0.7334458502349752  0.4868542127699982  0.5262606283913487   T   T   T
  0.2392196042671322  0.4802101605605935  0.5353292449126076   T   T   T
  0.6174487912380423  0.3270355736411987  0.5876927089613272   T   T   T
  0.2536876309689610 -0.0108823657773174  0.5155502532899096   T   T   T
  0.8002414995902779 -0.0188029473658803  0.5518195322209037   T   T   T
  0.3276851565735711  0.7651965846623984  0.5857644094855096   T   T   T
  0.3576796802843683  0.4876622080801693  0.2579021359767136   T   T   T
  0.6812110148381048  0.4556566431383665  0.5517153503007987   T   T   T
  0.2959017669746760  0.6362027698883995  0.5666811154459868   T   T   T
  0.5408208799632150  0.4463492111725813  0.6014613135766039   T   T   T
  0.2063317114641957  0.7524544196340970  0.6033065825869970   T   T   T
  0.8385541363192319  0.0309019906770532  0.5755224045034013   T   T   T
 
  0.00000000E+00  0.00000000E+00  0.00000000E+00
  0.00000000E+00  0.00000000E+00  0.00000000E+00
  0.00000000E+00  0.00000000E+00  0.00000000E+00
  0.00000000E+00  0.00000000E+00  0.00000000E+00
  0.00000000E+00  0.00000000E+00  0.00000000E+00
  0.00000000E+00  0.00000000E+00  0.00000000E+00
  0.00000000E+00  0.00000000E+00  0.00000000E+00
  0.00000000E+00  0.00000000E+00  0.00000000E+00
  0.00000000E+00  0.00000000E+00  0.00000000E+00
  0.00000000E+00  0.00000000E+00  0.00000000E+00
  0.00000000E+00  0.00000000E+00  0.00000000E+00
  0.00000000E+00  0.00000000E+00  0.00000000E+00
  0.00000000E+00  0.00000000E+00  0.00000000E+00
  0.00000000E+00  0.00000000E+00  0.00000000E+00
  0.00000000E+00  0.00000000E+00  0.00000000E+00
  0.00000000E+00  0.00000000E+00  0.00000000E+00
  0.00000000E+00  0.00000000E+00  0.00000000E+00
  0.00000000E+00  0.00000000E+00  0.00000000E+00
  0.00000000E+00  0.00000000E+00  0.00000000E+00
  0.00000000E+00  0.00000000E+00  0.00000000E+00
  0.00000000E+00  0.00000000E+00  0.00000000E+00
  0.00000000E+00  0.00000000E+00  0.00000000E+00
  0.00000000E+00  0.00000000E+00  0.00000000E+00
  0.00000000E+00  0.00000000E+00  0.00000000E+00
  0.00000000E+00  0.00000000E+00  0.00000000E+00
  0.00000000E+00  0.00000000E+00  0.00000000E+00
  0.00000000E+00  0.00000000E+00  0.00000000E+00
  0.00000000E+00  0.00000000E+00  0.00000000E+00
  0.00000000E+00  0.00000000E+00  0.00000000E+00
  0.00000000E+00  0.00000000E+00  0.00000000E+00
  0.00000000E+00  0.00000000E+00  0.00000000E+00
  0.00000000E+00  0.00000000E+00  0.00000000E+00
  0.00000000E+00  0.00000000E+00  0.00000000E+00
  0.00000000E+00  0.00000000E+00  0.00000000E+00
  0.00000000E+00  0.00000000E+00  0.00000000E+00
  0.00000000E+00  0.00000000E+00  0.00000000E+00
  0.00000000E+00  0.00000000E+00  0.00000000E+00
  0.00000000E+00  0.00000000E+00  0.00000000E+00
  0.00000000E+00  0.00000000E+00  0.00000000E+00
  0.00000000E+00  0.00000000E+00  0.00000000E+00
  0.00000000E+00  0.00000000E+00  0.00000000E+00
  0.00000000E+00  0.00000000E+00  0.00000000E+00
  0.00000000E+00  0.00000000E+00  0.00000000E+00
