Mn O  H                                 
   1.00000000000000     
     5.7471469900000001    0.0000000000000000    0.0000000000000000
     0.0000000000000000    5.7471469900000001    0.0000000000000000
     0.0000000000000000    0.0000000000000000   38.3523056924327008
   Mn   O    H 
    14    20     2
Selective dynamics
Direct
 -0.0154612044659593  0.2456050172256453  0.2671446254818209   T   T   T
  0.7432447939670975  0.5016646583617881  0.3280308975625312   T   T   T
  0.4958448276280006  0.2522296608039715  0.3939706150890306   T   T   T
  0.7377729998308727  0.0036879559817819  0.4609772512037924   T   T   T
  0.2357037737856199  0.0031033317350850  0.4549627090509316   T   T   T
  0.2456129477932366  0.5012652655052496  0.3314784190712884   T   T   T
  0.4971665641712315  0.7520278395793700  0.3939338411274135   T   T   T
 -0.0155478290803243  0.7574393231395556  0.2671259263257955   T   T   T
 -0.0077721921214622  0.0005774693684883  0.3616337799448527   T   T   T
 -0.0052865374245570  0.5015839454773483  0.4263976085653023   T   T   T
  0.4737249494983884  0.5125971731231184  0.4910806518324560   T   T   T
  0.4816346426288416  0.0014573489286879  0.2960641585966097   T   T   T
  0.6800639335617505  0.1520825560706477  0.5487998196633441   T   T   T
  0.9462741174101358  0.6813132305705031  0.5195405992518388   T   T   T
 -0.0079901731802060  0.2241736247198327  0.4598054166122857   T   T   T
  0.7700113541224819  0.5014702447445024  0.2690844706314235   T   T   T
  0.4934104716508723  0.2733282302688066  0.3325149266306691   T   T   T
  0.7221261377855891  0.0014502811698388  0.3970094962067196   T   T   T
 -0.0025631040093395  0.2737502076223933  0.3267944378289711   T   T   T
  0.7640666103284918  0.0015990807248178  0.2638642762223147   T   T   T
  0.4840064589939296  0.2309155508993228  0.4564338434257935   T   T   T
  0.7229092313646756  0.5025898264621732  0.3913562541590491   T   T   T
  0.2050155686695553  0.0014909512751602  0.2625170951269295   T   T   T
  0.2668388349173132  0.5032269732094222  0.3909953795022268   T   T   T
  0.2221247242201302  0.5015474041482415  0.2675569127951739   T   T   T
  0.2657162159801542  0.0012825873964514  0.3966882652376710   T   T   T
  0.4938459188983497  0.7299386781024892  0.3323445126620427   T   T   T
 -0.0058676875474924  0.7701263837066920  0.4630138565812109   T   T   T
  0.4854080569423170  0.7752052528356992  0.4540917602674139   T   T   T
 -0.0017395221994179  0.7289707971182080  0.3266758028665476   T   T   T
  0.7149159440855254  0.4283993689238576  0.5290189997079684   T   T   T
  0.2566300319244354  0.5748664145506789  0.5322755411694883   T   T   T
  0.5735203955151497  0.1019547221497501  0.5874481868687844   T   T   T
  0.7037892626840099  0.9314386766415977  0.5167917356180064   T   T   T
  0.3794893753832180  0.5014756875055064  0.2575501854290509   T   T   T
  0.3427569778774894  0.6099581632796468  0.5534072249482698   T   T   T
 
  0.00000000E+00  0.00000000E+00  0.00000000E+00
  0.00000000E+00  0.00000000E+00  0.00000000E+00
  0.00000000E+00  0.00000000E+00  0.00000000E+00
  0.00000000E+00  0.00000000E+00  0.00000000E+00
  0.00000000E+00  0.00000000E+00  0.00000000E+00
  0.00000000E+00  0.00000000E+00  0.00000000E+00
  0.00000000E+00  0.00000000E+00  0.00000000E+00
  0.00000000E+00  0.00000000E+00  0.00000000E+00
  0.00000000E+00  0.00000000E+00  0.00000000E+00
  0.00000000E+00  0.00000000E+00  0.00000000E+00
  0.00000000E+00  0.00000000E+00  0.00000000E+00
  0.00000000E+00  0.00000000E+00  0.00000000E+00
  0.00000000E+00  0.00000000E+00  0.00000000E+00
  0.00000000E+00  0.00000000E+00  0.00000000E+00
  0.00000000E+00  0.00000000E+00  0.00000000E+00
  0.00000000E+00  0.00000000E+00  0.00000000E+00
  0.00000000E+00  0.00000000E+00  0.00000000E+00
  0.00000000E+00  0.00000000E+00  0.00000000E+00
  0.00000000E+00  0.00000000E+00  0.00000000E+00
  0.00000000E+00  0.00000000E+00  0.00000000E+00
  0.00000000E+00  0.00000000E+00  0.00000000E+00
  0.00000000E+00  0.00000000E+00  0.00000000E+00
  0.00000000E+00  0.00000000E+00  0.00000000E+00
  0.00000000E+00  0.00000000E+00  0.00000000E+00
  0.00000000E+00  0.00000000E+00  0.00000000E+00
  0.00000000E+00  0.00000000E+00  0.00000000E+00
  0.00000000E+00  0.00000000E+00  0.00000000E+00
  0.00000000E+00  0.00000000E+00  0.00000000E+00
  0.00000000E+00  0.00000000E+00  0.00000000E+00
  0.00000000E+00  0.00000000E+00  0.00000000E+00
  0.00000000E+00  0.00000000E+00  0.00000000E+00
  0.00000000E+00  0.00000000E+00  0.00000000E+00
  0.00000000E+00  0.00000000E+00  0.00000000E+00
  0.00000000E+00  0.00000000E+00  0.00000000E+00
  0.00000000E+00  0.00000000E+00  0.00000000E+00
  0.00000000E+00  0.00000000E+00  0.00000000E+00
