Mn O  H                                 
   1.00000000000000     
     5.7471469900000001    0.0000000000000000    0.0000000000000000
     0.0000000000000000    5.7471469900000001    0.0000000000000000
     0.0000000000000000    0.0000000000000000   38.3523056924327008
   Mn   O    H 
    13    19     3
Selective dynamics
Direct
 -0.0067184765509737  0.2469727284990241  0.2670923799875022   T   T   T
  0.7516048698113557  0.5034342187288382  0.3282314717931669   T   T   T
  0.5053010593430691  0.2553378883797556  0.3943120824087713   T   T   T
  0.7469731153322469  0.0135621656986558  0.4585263275980518   T   T   T
  0.2519188041002817  0.0037122883635335  0.4545139183721560   T   T   T
  0.2540407384072171  0.5025505249696849  0.3315495733196467   T   T   T
  0.5088491796570860  0.7532912167359310  0.3941743924311842   T   T   T
 -0.0075611705987468  0.7595695025831031  0.2675398093328141   T   T   T
 -0.0004057283304128  0.0020712047750210  0.3620121013956370   T   T   T
  0.0085183877659834  0.4987221044503904  0.4253077404767093   T   T   T
  0.4132996859428283  0.5065515139611612  0.4878581920024509   T   T   T
  0.4899232387842817  0.0023863615825085  0.2964024679864632   T   T   T
  0.9120539900249971  0.7002542106885199  0.5122966079632485   T   T   T
  0.0051466034032910  0.2206046172271200  0.4576973481366960   T   T   T
  0.7779813182039746  0.5042067479553390  0.2692289738983515   T   T   T
  0.5030306997756642  0.2744878441755257  0.3324562258851302   T   T   T
  0.7376198403109694  0.0043429935774556  0.4001290578185402   T   T   T
  0.0059069880376118  0.2752481337017017  0.3270292927097511   T   T   T
  0.7716917836374797  0.0029833604066485  0.2642039361666309   T   T   T
  0.4711964026312159  0.2502099299909383  0.4521764080329547   T   T   T
  0.7339070737869658  0.5047492680399102  0.3909141469490049   T   T   T
  0.2139713234416660  0.0024350343084053  0.2629476194832409   T   T   T
  0.2774261699008969  0.5068433410630935  0.3896816323203124   T   T   T
  0.2300091958896438  0.5041707791086982  0.2676683419437416   T   T   T
  0.2783076132621059  0.0001956178513673  0.3955842085797373   T   T   T
  0.5028184530692299  0.7321893898138150  0.3324987504116728   T   T   T
  0.0515120697141486  0.7413686109755135  0.4652706198334499   T   T   T
  0.5044813001433220  0.7785371272945342  0.4533901664472108   T   T   T
  0.0059675938790685  0.7307944633512639  0.3269768077792540   T   T   T
  0.6636049898077139  0.5099848794486177  0.5301367617577710   T   T   T
  0.1698443726107328  0.5112498153257952  0.5290770472501766   T   T   T
  0.7523669168318196 -0.0313561752609993  0.5080805647103432   T   T   T
  0.3903021814625866  0.5054710345722714  0.2586766419651686   T   T   T
  0.5676589731467643  0.5807164988427794  0.5481945898406060   T   T   T
  0.1153395310413916  0.3650561821509671  0.5389539597252221   T   T   T
 
  0.00000000E+00  0.00000000E+00  0.00000000E+00
  0.00000000E+00  0.00000000E+00  0.00000000E+00
  0.00000000E+00  0.00000000E+00  0.00000000E+00
  0.00000000E+00  0.00000000E+00  0.00000000E+00
  0.00000000E+00  0.00000000E+00  0.00000000E+00
  0.00000000E+00  0.00000000E+00  0.00000000E+00
  0.00000000E+00  0.00000000E+00  0.00000000E+00
  0.00000000E+00  0.00000000E+00  0.00000000E+00
  0.00000000E+00  0.00000000E+00  0.00000000E+00
  0.00000000E+00  0.00000000E+00  0.00000000E+00
  0.00000000E+00  0.00000000E+00  0.00000000E+00
  0.00000000E+00  0.00000000E+00  0.00000000E+00
  0.00000000E+00  0.00000000E+00  0.00000000E+00
  0.00000000E+00  0.00000000E+00  0.00000000E+00
  0.00000000E+00  0.00000000E+00  0.00000000E+00
  0.00000000E+00  0.00000000E+00  0.00000000E+00
  0.00000000E+00  0.00000000E+00  0.00000000E+00
  0.00000000E+00  0.00000000E+00  0.00000000E+00
  0.00000000E+00  0.00000000E+00  0.00000000E+00
  0.00000000E+00  0.00000000E+00  0.00000000E+00
  0.00000000E+00  0.00000000E+00  0.00000000E+00
  0.00000000E+00  0.00000000E+00  0.00000000E+00
  0.00000000E+00  0.00000000E+00  0.00000000E+00
  0.00000000E+00  0.00000000E+00  0.00000000E+00
  0.00000000E+00  0.00000000E+00  0.00000000E+00
  0.00000000E+00  0.00000000E+00  0.00000000E+00
  0.00000000E+00  0.00000000E+00  0.00000000E+00
  0.00000000E+00  0.00000000E+00  0.00000000E+00
  0.00000000E+00  0.00000000E+00  0.00000000E+00
  0.00000000E+00  0.00000000E+00  0.00000000E+00
  0.00000000E+00  0.00000000E+00  0.00000000E+00
  0.00000000E+00  0.00000000E+00  0.00000000E+00
  0.00000000E+00  0.00000000E+00  0.00000000E+00
  0.00000000E+00  0.00000000E+00  0.00000000E+00
  0.00000000E+00  0.00000000E+00  0.00000000E+00
