Mn O  H                                 
   1.00000000000000     
     5.7471469900000001    0.0000000000000000    0.0000000000000000
     0.0000000000000000    5.7471469900000001    0.0000000000000000
     0.0000000000000000    0.0000000000000000   38.3523056924327008
   Mn   O    H 
    15    21     3
Selective dynamics
Direct
 -0.0295799827700209  0.2417057362324549  0.2694688405346086   T   T   T
  0.7287956587768412  0.4984811839436656  0.3303755945549917   T   T   T
  0.4822636887857442  0.2474904101412592  0.3960939261642260   T   T   T
  0.7289630839202732 -0.0058300280641042  0.4609407432167104   T   T   T
  0.2304486074620941 -0.0049295850267135  0.4602202063452690   T   T   T
  0.2308749763223439  0.4988823028404906  0.3335717253066388   T   T   T
  0.4834780099394667  0.7479135361586331  0.3960096397070286   T   T   T
 -0.0286532870588179  0.7540402560102847  0.2690631717362985   T   T   T
 -0.0175192513787928 -0.0024858348767264  0.3639479444625012   T   T   T
 -0.0192898958374596  0.4948748893988035  0.4280851060243119   T   T   T
  0.4699214471807294  0.5029741158469355  0.4921286914481335   T   T   T
  0.4681191000097421 -0.0001135279166020  0.2983931247225937   T   T   T
  0.4730731896952050  0.1218273397730330  0.5512030651158784   T   T   T
  0.9836394021768017  0.2236613133397592  0.5228250838472988   T   T   T
  0.9885212954112255  0.7210885017675724  0.5227830289848632   T   T   T
 -0.0217070628229929  0.2249204425180950  0.4642670348501845   T   T   T
  0.7556902319967289  0.4973738164871445  0.2712638081698407   T   T   T
  0.4777792706877432  0.2702208180892128  0.3346720158660936   T   T   T
  0.7110945022974628 -0.0028169089648864  0.3993274034863040   T   T   T
 -0.0169106336754680  0.2707565820016392  0.3289515554422800   T   T   T
  0.7497600466910513 -0.0012097192275771  0.2662810686600740   T   T   T
  0.4811115908780095  0.2251407873683195  0.4577241999716020   T   T   T
  0.7097479702545225  0.4982449079209145  0.3929775150105145   T   T   T
  0.1922032755657026 -0.0006912139383755  0.2649000043832044   T   T   T
  0.2532532842706929  0.4986919198658115  0.3930449248853186   T   T   T
  0.2076384613534587  0.4975476336772795  0.2691732421464703   T   T   T
  0.2535617340290874 -0.0034415531657348  0.3993474188390915   T   T   T
  0.4795560180398470  0.7274378747045123  0.3344292701695611   T   T   T
 -0.0198539573849637  0.7621434497130863  0.4641596515258411   T   T   T
  0.4816163060402235  0.7656718484210031  0.4569827290184573   T   T   T
 -0.0153902406645695  0.7256811883871487  0.3287474841757937   T   T   T
  0.7382268330038102  0.4660953162934913  0.5309803435762587   T   T   T
  0.6462500079426224  0.2899153050560483  0.5887228646022566   T   T   T
  0.2215435358495942  0.4487985521101885  0.5296249367659961   T   T   T
  0.7464991695868070 -0.0091374625969015  0.5218583299706899   T   T   T
  0.2165511022968040 -0.0140723293679055  0.5238349460602286   T   T   T
  0.3671290316311506  0.4963879098105066  0.2599600099665520   T   T   T
  0.6971777963878959  0.4419659533279489  0.5575423187659561   T   T   T
  0.5797963228052414  0.3551694998187533  0.6097672074369993   T   T   T
 
  0.00000000E+00  0.00000000E+00  0.00000000E+00
  0.00000000E+00  0.00000000E+00  0.00000000E+00
  0.00000000E+00  0.00000000E+00  0.00000000E+00
  0.00000000E+00  0.00000000E+00  0.00000000E+00
  0.00000000E+00  0.00000000E+00  0.00000000E+00
  0.00000000E+00  0.00000000E+00  0.00000000E+00
  0.00000000E+00  0.00000000E+00  0.00000000E+00
  0.00000000E+00  0.00000000E+00  0.00000000E+00
  0.00000000E+00  0.00000000E+00  0.00000000E+00
  0.00000000E+00  0.00000000E+00  0.00000000E+00
  0.00000000E+00  0.00000000E+00  0.00000000E+00
  0.00000000E+00  0.00000000E+00  0.00000000E+00
  0.00000000E+00  0.00000000E+00  0.00000000E+00
  0.00000000E+00  0.00000000E+00  0.00000000E+00
  0.00000000E+00  0.00000000E+00  0.00000000E+00
  0.00000000E+00  0.00000000E+00  0.00000000E+00
  0.00000000E+00  0.00000000E+00  0.00000000E+00
  0.00000000E+00  0.00000000E+00  0.00000000E+00
  0.00000000E+00  0.00000000E+00  0.00000000E+00
  0.00000000E+00  0.00000000E+00  0.00000000E+00
  0.00000000E+00  0.00000000E+00  0.00000000E+00
  0.00000000E+00  0.00000000E+00  0.00000000E+00
  0.00000000E+00  0.00000000E+00  0.00000000E+00
  0.00000000E+00  0.00000000E+00  0.00000000E+00
  0.00000000E+00  0.00000000E+00  0.00000000E+00
  0.00000000E+00  0.00000000E+00  0.00000000E+00
  0.00000000E+00  0.00000000E+00  0.00000000E+00
  0.00000000E+00  0.00000000E+00  0.00000000E+00
  0.00000000E+00  0.00000000E+00  0.00000000E+00
  0.00000000E+00  0.00000000E+00  0.00000000E+00
  0.00000000E+00  0.00000000E+00  0.00000000E+00
  0.00000000E+00  0.00000000E+00  0.00000000E+00
  0.00000000E+00  0.00000000E+00  0.00000000E+00
  0.00000000E+00  0.00000000E+00  0.00000000E+00
  0.00000000E+00  0.00000000E+00  0.00000000E+00
  0.00000000E+00  0.00000000E+00  0.00000000E+00
  0.00000000E+00  0.00000000E+00  0.00000000E+00
  0.00000000E+00  0.00000000E+00  0.00000000E+00
  0.00000000E+00  0.00000000E+00  0.00000000E+00
