Mn O  H 
 1.0000000000000000
     5.7471469900000001    0.0000000000000000    0.0000000000000000
     0.0000000000000000    5.7471469900000001    0.0000000000000000
     0.0000000000000000    0.0000000000000000   38.3523056924327008
 Mn  O   H  
  15  22   6
Selective dynamics
Direct
  0.0000000000000000  0.2500000000000000  0.2636795641709782   T   T   T
  0.7499999999999999  0.4999999999999999  0.3250622506221957   T   T   T
  0.4994931485689257  0.2520878949089419  0.3888199045193967   T   T   T
  0.7552667326552691  0.0007769413121218  0.4513454974592556   T   T   T
  0.2446830440785062  0.0007842663034922  0.4513976826116746   T   T   T
  0.2500000000000000  0.4999999999999999  0.3250622506221957   T   T   T
  0.4994548932496934  0.7493760113402057  0.3888109358823729   T   T   T
  0.0000000000000000  0.7499999999999999  0.2636795641709782   T   T   T
  0.0000000000000000  0.0000000000000000  0.3557535938478081   T   T   T
  0.9995069159864851  0.5003710846688815  0.4218929272331723   T   T   T
  0.4996848667372090  0.5005911950081043  0.4856151173117113   T   T   T
  0.4999999999999999  0.0000000000000000  0.2943709073965906   T   T   T
  0.4931836224020288  0.0978108267474482  0.5752798168104647   T   T   T
  0.9931890511454853  0.2428141425446738  0.5436017398125443   T   T   T
  0.9934464190774646  0.7350964320261182  0.5451526217563227   T   T   T
  0.9999560599597273  0.2235943722015754  0.4553729263674636   T   T   T
  0.7717739101379165  0.4999999999999999  0.2666186117170781   T   T   T
  0.4999999999999999  0.2717739101379166  0.3280012981683029   T   T   T
  0.7274022930056059  0.0008472224073395  0.3914962547545394   T   T   T
  0.0000000000000000  0.2717739101379166  0.3221232030760959   T   T   T
  0.7717739101379165  0.0000000000000000  0.2607405166248711   T   T   T
  0.4999718459227982  0.2265516571680866  0.4513402636455703   T   T   T
  0.7277122743963768  0.5006968254551070  0.3860899984519873   T   T   T
  0.2282260898620904  0.0000000000000000  0.2607405166248711   T   T   T
  0.2708851723160700  0.5006656465983358  0.3858873441607580   T   T   T
  0.2282260898620904  0.4999999999999999  0.2666186117170781   T   T   T
  0.2716630903768124  0.0008610861580315  0.3916148132692320   T   T   T
  0.4999999999999999  0.7282260898620905  0.3280012981683029   T   T   T
  0.9999588621684070  0.7778440863767079  0.4552535387941398   T   T   T
  0.4999642954381188  0.7758005705959458  0.4511002425079252   T   T   T
  0.0000000000000000  0.7282260898620905  0.3221232030760959   T   T   T
  0.4990147975458442  0.5028776103283635  0.5346394796738740   T   T   T
  0.5100248122085418  0.1394972814433402  0.6240151105778011   T   T   T
  0.2197006506979378  0.4853194304078982  0.5482389643397810   T   T   T
  0.7663524793028953  0.9905405012465849  0.5440141083879482   T   T   T
  0.2207699047517053  0.9913701383575809  0.5441871957653248   T   T   T
  0.6644177406055908  0.2586103668691338  0.6079122525991175   T   T   T
  0.3670248677823693  0.4336362085618219  0.2491215480665048   T   T   T
  0.4970457277129975  0.6401667320618601  0.5493049966796734   T   T   T
  0.5662888745235637  0.1628026191284272  0.6474817570740398   T   T   T
  0.1963953130128507  0.5415834927229201  0.5717056108360196   T   T   T
  0.7100884169878734  0.9672351635614976  0.5674807548841868   T   T   T
  0.2440752424367922  0.9351060760425590  0.5676538422615635   T   T   T
