Mn  O  H                                
   1.00000000000000     
     2.8735734950000000   -2.8735734950000000    4.7083351100000002
     5.7471469900000001    0.0000000000000000    0.0000000000000000
     0.0000000000000000   33.0656910066415008   20.1805290088081009
   Mn   O    H 
    14    22     7
Selective dynamics
Direct
  0.2206712106837827  0.8924024101981232  0.0890155841539979   F   F   F
  0.6722047890848717  0.1713454670803201  0.2183381533819539   T   T   T
  0.9492761232251894  0.0280999539274163  0.1523349856625060   F   F   F
  0.3777318688126792  0.3239565686121089  0.2823508303479527   T   T   T
  0.4492761232251894  0.5280999539274163  0.1523349856625060   F   F   F
  0.8878085301529820  0.3298959895621993  0.2852619182634015   T   T   T
  0.4492761232251894  0.0280999539274163  0.1523349856625060   F   F   F
  0.8828401674224031  0.8238610311814275  0.2839302838098310   T   T   T
  0.9028224388191362  0.5513267961304464  0.1048454345311214   F   F   F
  0.3402844430283399  0.8419431986605802  0.2338162842187461   T   T   T
  0.9936462096547874  0.5048054419315053  0.2023151136144391   T   T   T
  0.4222488637060229  0.8016933979942857  0.3352700972867036   T   T   T
  0.5385199825484293  0.2334780242657999  0.0731857337768673   F   F   F
  0.1223173395265417  0.4934697122535129  0.3482797900583752   T   T   T
  0.7833014314900578  0.6267665977079625  0.3186630880581426   T   T   T
  0.8792642171272149  0.0631059069764035  0.0552776342656358   F   F   F
  0.3399228501986610  0.3306321340494652  0.1830152263170998   T   T   T
  0.5824613929758371  0.2115073190520960  0.1245249348239739   F   F   F
  0.0242070978506991  0.4923139003577158  0.2553525730316639   T   T   T
  0.0951652613222294  0.7285601348788973  0.1215609852990625   F   F   F
  0.5386501037008756  0.4645789607250637  0.2520697500423654   T   T   T
  0.7406185305162083  0.1600729714191483  0.3148839244267390   T   T   T
  0.8588810283917283  0.5732975013441504  0.0535062334840219   F   F   F
  0.3122928035331849  0.8470283118924326  0.1806527409092729   T   T   T
  0.5620782042403505  0.7216989134198428  0.1227535340423529   F   F   F
  0.9958698878674730  0.0293506327911384  0.2542632254489774   T   T   T
  0.7976241920385814  0.3282933956727233  0.1837887871086968   T   T   T
  0.2324249068689538  0.6347245010124025  0.3105122409255772   T   T   T
  0.3461771600453361  0.6030541855173510  0.0564701830089334   F   F   F
  0.2374500126758945  0.1845505313483611  0.3179059585638151   T   T   T
  0.7999082751923384  0.8812046276475766  0.1849089198448232   T   T   T
  0.3461771600453361  0.0562446855173491  0.0564701830089334   F   F   F
  0.5416830398451277  0.0136936181061507  0.2534784323226704   T   T   T
  0.0951652613222294  0.1817506348788953  0.1215609852990625   F   F   F
  0.1944651611570662  0.7516794228067959  0.3741509772093087   T   T   T
  0.0502753103098932  0.3584620358926285  0.3873104784052783   T   T   T
  0.3404706169097480  0.6039120138460916  0.0278288297643030   F   F   F
  0.9243468113422040  0.6852365052266407  0.0369688146645331   F   F   F
  0.3436334761770041  0.0639996102436484  0.0278342118600037   F   F   F
  0.8883812645227351  0.0556090842097916  0.0266559720288981   F   F   F
  0.7897435696453488  0.1430399464636311  0.3390745017069594   T   T   T
  0.2139229684504005  0.7165901712065486  0.3988345285718476   T   T   T
  0.0695330810936158  0.1802199189860041  0.3851981389701168   T   T   T
 
  0.00000000E+00  0.00000000E+00  0.00000000E+00
  0.00000000E+00  0.00000000E+00  0.00000000E+00
  0.00000000E+00  0.00000000E+00  0.00000000E+00
  0.00000000E+00  0.00000000E+00  0.00000000E+00
  0.00000000E+00  0.00000000E+00  0.00000000E+00
  0.00000000E+00  0.00000000E+00  0.00000000E+00
  0.00000000E+00  0.00000000E+00  0.00000000E+00
  0.00000000E+00  0.00000000E+00  0.00000000E+00
  0.00000000E+00  0.00000000E+00  0.00000000E+00
  0.00000000E+00  0.00000000E+00  0.00000000E+00
  0.00000000E+00  0.00000000E+00  0.00000000E+00
  0.00000000E+00  0.00000000E+00  0.00000000E+00
  0.00000000E+00  0.00000000E+00  0.00000000E+00
  0.00000000E+00  0.00000000E+00  0.00000000E+00
  0.00000000E+00  0.00000000E+00  0.00000000E+00
  0.00000000E+00  0.00000000E+00  0.00000000E+00
  0.00000000E+00  0.00000000E+00  0.00000000E+00
  0.00000000E+00  0.00000000E+00  0.00000000E+00
  0.00000000E+00  0.00000000E+00  0.00000000E+00
  0.00000000E+00  0.00000000E+00  0.00000000E+00
  0.00000000E+00  0.00000000E+00  0.00000000E+00
  0.00000000E+00  0.00000000E+00  0.00000000E+00
  0.00000000E+00  0.00000000E+00  0.00000000E+00
  0.00000000E+00  0.00000000E+00  0.00000000E+00
  0.00000000E+00  0.00000000E+00  0.00000000E+00
  0.00000000E+00  0.00000000E+00  0.00000000E+00
  0.00000000E+00  0.00000000E+00  0.00000000E+00
  0.00000000E+00  0.00000000E+00  0.00000000E+00
  0.00000000E+00  0.00000000E+00  0.00000000E+00
  0.00000000E+00  0.00000000E+00  0.00000000E+00
  0.00000000E+00  0.00000000E+00  0.00000000E+00
  0.00000000E+00  0.00000000E+00  0.00000000E+00
  0.00000000E+00  0.00000000E+00  0.00000000E+00
  0.00000000E+00  0.00000000E+00  0.00000000E+00
  0.00000000E+00  0.00000000E+00  0.00000000E+00
  0.00000000E+00  0.00000000E+00  0.00000000E+00
  0.00000000E+00  0.00000000E+00  0.00000000E+00
  0.00000000E+00  0.00000000E+00  0.00000000E+00
  0.00000000E+00  0.00000000E+00  0.00000000E+00
  0.00000000E+00  0.00000000E+00  0.00000000E+00
  0.00000000E+00  0.00000000E+00  0.00000000E+00
  0.00000000E+00  0.00000000E+00  0.00000000E+00
  0.00000000E+00  0.00000000E+00  0.00000000E+00
