unknown system                          
           1
     2.873573   -2.873573    4.708335
     5.747147    0.000000    0.000000
     0.000000   33.065691   20.180529
   Mn   O    H 
  14  22   7
Direct configuration=     1
   0.22067121  0.89240241  0.08901558
   0.67091764  0.17322078  0.21836058
   0.94927612  0.02809995  0.15233499
   0.37844128  0.32340975  0.28231179
   0.44927612  0.52809995  0.15233499
   0.88500910  0.33113396  0.28538621
   0.44927612  0.02809995  0.15233499
   0.88158868  0.82372090  0.28404168
   0.90282244  0.55132680  0.10484543
   0.33942171  0.84276101  0.23377674
   0.99276026  0.50650943  0.20249432
   0.42102865  0.80231338  0.33521124
   0.53851998  0.23347802  0.07318573
   0.12405762  0.49264826  0.34886607
   0.77543064  0.63041226  0.31792884
   0.87926422  0.06310591  0.05527763
   0.33838294  0.33349534  0.18320990
   0.58246139  0.21150732  0.12452493
   0.02363252  0.49304833  0.25563590
   0.09516526  0.72856013  0.12156099
   0.54019921  0.46643080  0.25209086
   0.74015426  0.15893327  0.31512799
   0.85888103  0.57329750  0.05350623
   0.31017965  0.84846298  0.18072990
   0.56207820  0.72169891  0.12275353
   0.99595470  0.02893978  0.25464330
   0.79627659  0.33156328  0.18413981
   0.23409130  0.63291621  0.31092832
   0.34617716  0.60305419  0.05647018
   0.23751440  0.18276490  0.31820538
   0.79754413  0.88181772  0.18511591
   0.34617716  0.05624469  0.05647018
   0.54050622  0.01497749  0.25323998
   0.09516526  0.18175063  0.12156099
   0.19264495  0.75711043  0.37447315
   0.04579185  0.35897185  0.38788953
   0.34047062  0.60391201  0.02782883
   0.92434681  0.68523651  0.03696881
   0.34363348  0.06399961  0.02783421
   0.88838126  0.05560908  0.02665597
   0.78981372  0.14233234  0.33925798
   0.21522023  0.72054669  0.39911753
   0.06841196  0.17972015  0.38536214
Direct configuration=     2
   0.22067121  0.89240241  0.08901558
   0.67063774  0.17340978  0.21852420
   0.94927612  0.02809995  0.15233499
   0.37719956  0.32471871  0.28242725
   0.44927612  0.52809995  0.15233499
   0.88568949  0.33037844  0.28543856
   0.44927612  0.02809995  0.15233499
   0.88226695  0.82427829  0.28424335
   0.90282244  0.55132680  0.10484543
   0.33975868  0.84245527  0.23387791
   0.99291809  0.50659283  0.20260231
   0.42043717  0.80270617  0.33525660
   0.53851998  0.23347802  0.07318573
   0.12478927  0.49205260  0.34845970
   0.77895363  0.63161426  0.31778300
   0.87926422  0.06310591  0.05527763
   0.33913213  0.33172801  0.18293410
   0.58246139  0.21150732  0.12452493
   0.02341490  0.49539253  0.25583394
   0.09516526  0.72856013  0.12156099
   0.53973045  0.46503565  0.25217198
   0.74036025  0.15686458  0.31472610
   0.85888103  0.57329750  0.05350623
   0.31047898  0.84910144  0.18046544
   0.56207820  0.72169891  0.12275353
   0.99458641  0.02685504  0.25484915
   0.79717899  0.32909916  0.18375987
   0.23358586  0.63149119  0.31100998
   0.34617716  0.60305419  0.05647018
   0.23703307  0.18454257  0.31838745
   0.79814287  0.88282148  0.18478488
   0.34617716  0.05624469  0.05647018
   0.54028479  0.01572485  0.25324694
   0.09516526  0.18175063  0.12156099
   0.19251793  0.75564621  0.37445087
   0.04630246  0.36043668  0.38757591
   0.34047062  0.60391201  0.02782883
   0.92434681  0.68523651  0.03696881
   0.34363348  0.06399961  0.02783421
   0.88838126  0.05560908  0.02665597
   0.79035379  0.14185674  0.33933960
   0.21509597  0.72030610  0.39911661
   0.06870547  0.17864883  0.38539424
Direct configuration=     3
   0.22067121  0.89240241  0.08901558
   0.67064519  0.17340476  0.21851985
   0.94927612  0.02809995  0.15233499
   0.37723258  0.32468391  0.28242418
   0.44927612  0.52809995  0.15233499
   0.88567140  0.33039852  0.28543717
   0.44927612  0.02809995  0.15233499
   0.88224892  0.82426347  0.28423799
   0.90282244  0.55132680  0.10484543
   0.33974972  0.84246340  0.23387522
   0.99291389  0.50659061  0.20259944
   0.42045290  0.80269573  0.33525539
   0.53851998  0.23347802  0.07318573
   0.12476981  0.49206844  0.34847051
   0.77885996  0.63158230  0.31778688
   0.87926422  0.06310591  0.05527763
   0.33911221  0.33177500  0.18294143
   0.58246139  0.21150732  0.12452493
   0.02342068  0.49533020  0.25582867
   0.09516526  0.72856013  0.12156099
   0.53974291  0.46507274  0.25216982
   0.74035477  0.15691958  0.31473679
   0.85888103  0.57329750  0.05350623
   0.31047102  0.84908447  0.18047247
   0.56207820  0.72169891  0.12275353
   0.99462279  0.02691047  0.25484367
   0.79715499  0.32916467  0.18376997
   0.23359930  0.63152908  0.31100781
   0.34617716  0.60305419  0.05647018
   0.23704587  0.18449530  0.31838261
   0.79812695  0.88279479  0.18479368
   0.34617716  0.05624469  0.05647018
   0.54029067  0.01570498  0.25324675
   0.09516526  0.18175063  0.12156099
   0.19252131  0.75568514  0.37445146
   0.04628888  0.36039774  0.38758425
   0.34047062  0.60391201  0.02782883
   0.92434681  0.68523651  0.03696881
   0.34363348  0.06399961  0.02783421
   0.88838126  0.05560908  0.02665597
   0.79033943  0.14186939  0.33933743
   0.21509928  0.72031249  0.39911663
   0.06869767  0.17867732  0.38539339
Direct configuration=     4
   0.22067121  0.89240241  0.08901558
   0.67074758  0.17333561  0.21845999
   0.94927612  0.02809995  0.15233499
   0.37768683  0.32420505  0.28238194
   0.44927612  0.52809995  0.15233499
   0.88542249  0.33067492  0.28541802
   0.44927612  0.02809995  0.15233499
   0.88200079  0.82405956  0.28416421
   0.90282244  0.55132680  0.10484543
   0.33962645  0.84257524  0.23383821
   0.99285615  0.50656010  0.20255993
   0.42066928  0.80255203  0.33523880
   0.53851998  0.23347802  0.07318573
   0.12450216  0.49228635  0.34861917
   0.77757114  0.63114257  0.31784023
   0.87926422  0.06310591  0.05527763
   0.33883813  0.33242154  0.18304233
   0.58246139  0.21150732  0.12452493
   0.02350030  0.49447262  0.25575622
   0.09516526  0.72856013  0.12156099
   0.53991440  0.46558313  0.25214015
   0.74027942  0.15767637  0.31488381
   0.85888103  0.57329750  0.05350623
   0.31036152  0.84885090  0.18056922
   0.56207820  0.72169891  0.12275353
   0.99512335  0.02767313  0.25476837
   0.79682487  0.33006612  0.18390896
   0.23378420  0.63205039  0.31097794
   0.34617716  0.60305419  0.05647018
   0.23722195  0.18384498  0.31831600
   0.79790791  0.88242759  0.18491478
   0.34617716  0.05624469  0.05647018
   0.54037168  0.01543157  0.25324421
   0.09516526  0.18175063  0.12156099
   0.19256777  0.75622079  0.37445961
   0.04610209  0.35986186  0.38769898
   0.34047062  0.60391201  0.02782883
   0.92434681  0.68523651  0.03696881
   0.34363348  0.06399961  0.02783421
   0.88838126  0.05560908  0.02665597
   0.79014186  0.14204337  0.33930757
   0.21514473  0.72040051  0.39911697
   0.06859029  0.17906923  0.38538164
Direct configuration=     5
   0.22067121  0.89240241  0.08901558
   0.67079077  0.17330645  0.21843474
   0.94927612  0.02809995  0.15233499
   0.37787843  0.32400308  0.28236413
   0.44927612  0.52809995  0.15233499
   0.88531751  0.33079150  0.28540994
   0.44927612  0.02809995  0.15233499
   0.88189613  0.82397356  0.28413310
   0.90282244  0.55132680  0.10484543
   0.33957445  0.84262242  0.23382260
   0.99283180  0.50654723  0.20254327
   0.42076054  0.80249142  0.33523180
   0.53851998  0.23347802  0.07318573
   0.12438926  0.49237826  0.34868187
   0.77702755  0.63095710  0.31786273
   0.87926422  0.06310591  0.05527763
   0.33872253  0.33269423  0.18308488
   0.58246139  0.21150732  0.12452493
   0.02353388  0.49411092  0.25572567
   0.09516526  0.72856013  0.12156099
   0.53998673  0.46579840  0.25212763
   0.74024763  0.15799557  0.31494582
   0.85888103  0.57329750  0.05350623
   0.31031533  0.84875238  0.18061003
   0.56207820  0.72169891  0.12275353
   0.99533448  0.02799480  0.25473661
   0.79668563  0.33044633  0.18396759
   0.23386219  0.63227027  0.31096534
   0.34617716  0.60305419  0.05647018
   0.23729622  0.18357069  0.31828791
   0.79781553  0.88227271  0.18496586
   0.34617716  0.05624469  0.05647018
   0.54040585  0.01531625  0.25324313
   0.09516526  0.18175063  0.12156099
   0.19258737  0.75644672  0.37446305
   0.04602330  0.35963584  0.38774737
   0.34047062  0.60391201  0.02782883
   0.92434681  0.68523651  0.03696881
   0.34363348  0.06399961  0.02783421
   0.88838126  0.05560908  0.02665597
   0.79005852  0.14211676  0.33929498
   0.21516391  0.72043763  0.39911711
   0.06854500  0.17923454  0.38537669
Direct configuration=     6
   0.22067121  0.89240241  0.08901558
   0.67101553  0.17294841  0.21829556
   0.94927612  0.02809995  0.15233499
   0.37693167  0.32487326  0.28244996
   0.44927612  0.52809995  0.15233499
   0.88644629  0.33024944  0.28535373
   0.44927612  0.02809995  0.15233499
   0.88241777  0.82411542  0.28422801
   0.90282244  0.55132680  0.10484543
   0.33941604  0.84266717  0.23377009
   0.99304577  0.50649270  0.20253460
   0.42038798  0.80251336  0.33531512
   0.53851998  0.23347802  0.07318573
   0.12441583  0.49132049  0.34843958
   0.77959569  0.63066423  0.31794192
   0.87926422  0.06310591  0.05527763
   0.33903460  0.33135604  0.18299173
   0.58246139  0.21150732  0.12452493
   0.02360309  0.49429575  0.25576257
   0.09516526  0.72856013  0.12156099
   0.53934279  0.46471587  0.25228243
   0.74111005  0.15725053  0.31518244
   0.85888103  0.57329750  0.05350623
   0.31045641  0.84905308  0.18058617
   0.56207820  0.72169891  0.12275353
   0.99502732  0.02775892  0.25479604
   0.79751367  0.32849936  0.18379138
   0.23356141  0.63171548  0.31086376
   0.34617716  0.60305419  0.05647018
   0.23677956  0.18580445  0.31836039
   0.79847259  0.88287262  0.18484654
   0.34617716  0.05624469  0.05647018
   0.54024116  0.01588868  0.25334417
   0.09516526  0.18175063  0.12156099
   0.19253661  0.75479551  0.37440210
   0.04692023  0.35876452  0.38744687
   0.34047062  0.60391201  0.02782883
   0.92434681  0.68523651  0.03696881
   0.34363348  0.06399961  0.02783421
   0.88838126  0.05560908  0.02665597
   0.78948570  0.14218548  0.33892909
   0.21505682  0.72012292  0.39910599
   0.06857347  0.18070695  0.38541043
Direct configuration=     7
   0.22067121  0.89240241  0.08901558
   0.67092244  0.17309669  0.21835320
   0.94927612  0.02809995  0.15233499
   0.37732378  0.32451287  0.28241441
   0.44927612  0.52809995  0.15233499
   0.88597879  0.33047394  0.28537701
   0.44927612  0.02809995  0.15233499
   0.88220173  0.82405666  0.28418870
   0.90282244  0.55132680  0.10484543
   0.33948165  0.84264864  0.23379184
   0.99295715  0.50651528  0.20253819
   0.42054228  0.80250428  0.33528061
   0.53851998  0.23347802  0.07318573
   0.12440483  0.49175858  0.34853993
   0.77853207  0.63078553  0.31790912
   0.87926422  0.06310591  0.05527763
   0.33890536  0.33191027  0.18303031
   0.58246139  0.21150732  0.12452493
   0.02357442  0.49421920  0.25574728
   0.09516526  0.72856013  0.12156099
   0.53960949  0.46516421  0.25221832
   0.74075287  0.15755909  0.31508444
   0.85888103  0.57329750  0.05350623
   0.31039798  0.84892854  0.18059605
   0.56207820  0.72169891  0.12275353
   0.99515453  0.02785661  0.25477143
   0.79717073  0.32930572  0.18386436
   0.23368598  0.63194526  0.31090583
   0.34617716  0.60305419  0.05647018
   0.23699354  0.18487931  0.31833037
   0.79820046  0.88262416  0.18489596
   0.34617716  0.05624469  0.05647018
   0.54030937  0.01565160  0.25330232
   0.09516526  0.18175063  0.12156099
   0.19255763  0.75547938  0.37442734
   0.04654875  0.35912538  0.38757133
   0.34047062  0.60391201  0.02782883
   0.92434681  0.68523651  0.03696881
   0.34363348  0.06399961  0.02783421
   0.88838126  0.05560908  0.02665597
   0.78972294  0.14215702  0.33908063
   0.21510117  0.72025326  0.39911059
   0.06856168  0.18009713  0.38539646
Direct configuration=     8
   0.22067121  0.89240241  0.08901558
   0.67090589  0.17312306  0.21836345
   0.94927612  0.02809995  0.15233499
   0.37739350  0.32444879  0.28240809
   0.44927612  0.52809995  0.15233499
   0.88589567  0.33051385  0.28538115
   0.44927612  0.02809995  0.15233499
   0.88216331  0.82404622  0.28418171
   0.90282244  0.55132680  0.10484543
   0.33949331  0.84264534  0.23379570
   0.99294139  0.50651930  0.20253883
   0.42056972  0.80250266  0.33527448
   0.53851998  0.23347802  0.07318573
   0.12440287  0.49183647  0.34855777
   0.77834296  0.63080709  0.31790329
   0.87926422  0.06310591  0.05527763
   0.33888238  0.33200881  0.18303717
   0.58246139  0.21150732  0.12452493
   0.02356933  0.49420559  0.25574457
   0.09516526  0.72856013  0.12156099
   0.53965690  0.46524393  0.25220692
   0.74068936  0.15761396  0.31506702
   0.85888103  0.57329750  0.05350623
   0.31038759  0.84890640  0.18059781
   0.56207820  0.72169891  0.12275353
   0.99517715  0.02787398  0.25476705
   0.79710975  0.32944909  0.18387733
   0.23370813  0.63198611  0.31091331
   0.34617716  0.60305419  0.05647018
   0.23703159  0.18471482  0.31832504
   0.79815208  0.88257999  0.18490474
   0.34617716  0.05624469  0.05647018
   0.54032149  0.01560945  0.25329488
   0.09516526  0.18175063  0.12156099
   0.19256137  0.75560097  0.37443183
   0.04648271  0.35918954  0.38759346
   0.34047062  0.60391201  0.02782883
   0.92434681  0.68523651  0.03696881
   0.34363348  0.06399961  0.02783421
   0.88838126  0.05560908  0.02665597
   0.78976512  0.14215196  0.33910757
   0.21510906  0.72027644  0.39911141
   0.06855958  0.17998871  0.38539397
Direct configuration=     9
   0.22067121  0.89240241  0.08901558
   0.67113291  0.17263837  0.21821062
   0.94927612  0.02809995  0.15233499
   0.37716910  0.32454708  0.28241557
   0.44927612  0.52809995  0.15233499
   0.88668392  0.33018712  0.28533030
   0.44927612  0.02809995  0.15233499
   0.88230979  0.82418580  0.28421566
   0.90282244  0.55132680  0.10484543
   0.33924423  0.84277816  0.23372247
   0.99309188  0.50638364  0.20249131
   0.42051932  0.80231440  0.33533843
   0.53851998  0.23347802  0.07318573
   0.12413874  0.49119675  0.34849907
   0.77967854  0.62982130  0.31808641
   0.87926422  0.06310591  0.05527763
   0.33889374  0.33125292  0.18304299
   0.58246139  0.21150732  0.12452493
   0.02380023  0.49328077  0.25565494
   0.09516526  0.72856013  0.12156099
   0.53911305  0.46471720  0.25232228
   0.74063760  0.15815431  0.31495304
   0.85888103  0.57329750  0.05350623
   0.31051252  0.84888294  0.18067451
   0.56207820  0.72169891  0.12275353
   0.99559081  0.02856284  0.25471558
   0.79776024  0.32847239  0.18383034
   0.23353950  0.63238026  0.31078792
   0.34617716  0.60305419  0.05647018
   0.23676391  0.18598232  0.31832226
   0.79878225  0.88252146  0.18489672
   0.34617716  0.05624469  0.05647018
   0.54018813  0.01588264  0.25339649
   0.09516526  0.18175063  0.12156099
   0.19262477  0.75413169  0.37436546
   0.04717717  0.35943695  0.38737874
   0.34047062  0.60391201  0.02782883
   0.92434681  0.68523651  0.03696881
   0.34363348  0.06399961  0.02783421
   0.88838126  0.05560908  0.02665597
   0.78991933  0.14209785  0.33916355
   0.21498413  0.71991707  0.39906995
   0.06871253  0.18024362  0.38539537
Direct configuration=    10
   0.22067121  0.89240241  0.08901558
   0.67117143  0.17255611  0.21818468
   0.94927612  0.02809995  0.15233499
   0.37713102  0.32456377  0.28241683
   0.44927612  0.52809995  0.15233499
   0.88681770  0.33013167  0.28532167
   0.44927612  0.02809995  0.15233499
   0.88233465  0.82420949  0.28422143
   0.90282244  0.55132680  0.10484543
   0.33920196  0.84280070  0.23371004
   0.99311742  0.50636062  0.20248325
   0.42051076  0.80228245  0.33534928
   0.53851998  0.23347802  0.07318573
   0.12409391  0.49108817  0.34848911
   0.77990521  0.62965399  0.31811749
   0.87926422  0.06310591  0.05527763
   0.33889567  0.33112463  0.18304397
   0.58246139  0.21150732  0.12452493
   0.02383942  0.49312381  0.25563972
   0.09516526  0.72856013  0.12156099
   0.53902075  0.46462781  0.25234185
   0.74062881  0.15824602  0.31493369
   0.85888103  0.57329750  0.05350623
   0.31053373  0.84887896  0.18068753
   0.56207820  0.72169891  0.12275353
   0.99566102  0.02867975  0.25470685
   0.79787064  0.32830663  0.18382237
   0.23351088  0.63244715  0.31076664
   0.34617716  0.60305419  0.05647018
   0.23671848  0.18619744  0.31832179
   0.79888920  0.88251152  0.18489536
   0.34617716  0.05624469  0.05647018
   0.54016549  0.01592901  0.25341373
   0.09516526  0.18175063  0.12156099
   0.19263553  0.75388232  0.37435420
   0.04729503  0.35947894  0.38734230
   0.34047062  0.60391201  0.02782883
   0.92434681  0.68523651  0.03696881
   0.34363348  0.06399961  0.02783421
   0.88838126  0.05560908  0.02665597
   0.78994550  0.14208866  0.33917305
   0.21496292  0.71985607  0.39906291
   0.06873849  0.18028688  0.38539561
Direct configuration=    11
   0.22067121  0.89240241  0.08901558
   0.67114628  0.17260983  0.21820162
   0.94927612  0.02809995  0.15233499
   0.37715589  0.32455287  0.28241601
   0.44927612  0.52809995  0.15233499
   0.88673034  0.33016788  0.28532731
   0.44927612  0.02809995  0.15233499
   0.88231841  0.82419402  0.28421766
   0.90282244  0.55132680  0.10484543
   0.33922956  0.84278598  0.23371816
   0.99310074  0.50637565  0.20248852
   0.42051635  0.80230331  0.33534219
   0.53851998  0.23347802  0.07318573
   0.12412318  0.49115907  0.34849562
   0.77975720  0.62976324  0.31809720
   0.87926422  0.06310591  0.05527763
   0.33889441  0.33120840  0.18304333
   0.58246139  0.21150732  0.12452493
   0.02381383  0.49322630  0.25564966
   0.09516526  0.72856013  0.12156099
   0.53908102  0.46468618  0.25232907
   0.74063455  0.15818614  0.31494632
   0.85888103  0.57329750  0.05350623
   0.31051988  0.84888156  0.18067903
   0.56207820  0.72169891  0.12275353
   0.99561517  0.02860341  0.25471255
   0.79779855  0.32841487  0.18382757
   0.23352957  0.63240347  0.31078053
   0.34617716  0.60305419  0.05647018
   0.23674814  0.18605697  0.31832210
   0.79881936  0.88251801  0.18489624
   0.34617716  0.05624469  0.05647018
   0.54018027  0.01589874  0.25340247
   0.09516526  0.18175063  0.12156099
   0.19262850  0.75404515  0.37436155
   0.04721807  0.35945153  0.38736609
   0.34047062  0.60391201  0.02782883
   0.92434681  0.68523651  0.03696881
   0.34363348  0.06399961  0.02783421
   0.88838126  0.05560908  0.02665597
   0.78992841  0.14209466  0.33916685
   0.21497677  0.71989590  0.39906751
   0.06872154  0.18025863  0.38539545
Direct configuration=    12
   0.22067121  0.89240241  0.08901558
   0.67116419  0.17257158  0.21818956
   0.94927612  0.02809995  0.15233499
   0.37713818  0.32456063  0.28241660
   0.44927612  0.52809995  0.15233499
   0.88679255  0.33014209  0.28532330
   0.44927612  0.02809995  0.15233499
   0.88232997  0.82420504  0.28422034
   0.90282244  0.55132680  0.10484543
   0.33920990  0.84279646  0.23371238
   0.99311262  0.50636494  0.20248477
   0.42051237  0.80228845  0.33534724
   0.53851998  0.23347802  0.07318573
   0.12410234  0.49110858  0.34849098
   0.77986261  0.62968544  0.31811165
   0.87926422  0.06310591  0.05527763
   0.33889530  0.33114874  0.18304379
   0.58246139  0.21150732  0.12452493
   0.02383206  0.49315332  0.25564258
   0.09516526  0.72856013  0.12156099
   0.53903810  0.46464461  0.25233817
   0.74063046  0.15822878  0.31493733
   0.85888103  0.57329750  0.05350623
   0.31052974  0.84887971  0.18068509
   0.56207820  0.72169891  0.12275353
   0.99564782  0.02865778  0.25470849
   0.79784989  0.32833779  0.18382387
   0.23351626  0.63243458  0.31077064
   0.34617716  0.60305419  0.05647018
   0.23672702  0.18615700  0.31832188
   0.79886909  0.88251339  0.18489561
   0.34617716  0.05624469  0.05647018
   0.54016975  0.01592030  0.25341049
   0.09516526  0.18175063  0.12156099
   0.19263351  0.75392919  0.37435632
   0.04727288  0.35947105  0.38734915
   0.34047062  0.60391201  0.02782883
   0.92434681  0.68523651  0.03696881
   0.34363348  0.06399961  0.02783421
   0.88838126  0.05560908  0.02665597
   0.78994058  0.14209039  0.33917127
   0.21496691  0.71986754  0.39906424
   0.06873361  0.18027875  0.38539556
Direct configuration=    13
   0.22067121  0.89240241  0.08901558
   0.67116909  0.17256111  0.21818626
   0.94927612  0.02809995  0.15233499
   0.37713333  0.32456275  0.28241676
   0.44927612  0.52809995  0.15233499
   0.88680957  0.33013504  0.28532220
   0.44927612  0.02809995  0.15233499
   0.88233314  0.82420806  0.28422108
   0.90282244  0.55132680  0.10484543
   0.33920452  0.84279933  0.23371079
   0.99311587  0.50636202  0.20248374
   0.42051128  0.80228439  0.33534862
   0.53851998  0.23347802  0.07318573
   0.12409664  0.49109477  0.34848972
   0.77989145  0.62966415  0.31811560
   0.87926422  0.06310591  0.05527763
   0.33889555  0.33113242  0.18304391
   0.58246139  0.21150732  0.12452493
   0.02383704  0.49313335  0.25564065
   0.09516526  0.72856013  0.12156099
   0.53902635  0.46463324  0.25234066
   0.74062934  0.15824045  0.31493487
   0.85888103  0.57329750  0.05350623
   0.31053244  0.84887920  0.18068674
   0.56207820  0.72169891  0.12275353
   0.99565675  0.02867265  0.25470738
   0.79786393  0.32831670  0.18382285
   0.23351262  0.63244309  0.31076793
   0.34617716  0.60305419  0.05647018
   0.23672124  0.18618437  0.31832182
   0.79888270  0.88251212  0.18489544
   0.34617716  0.05624469  0.05647018
   0.54016687  0.01592620  0.25341269
   0.09516526  0.18175063  0.12156099
   0.19263487  0.75389747  0.37435488
   0.04728787  0.35947640  0.38734451
   0.34047062  0.60391201  0.02782883
   0.92434681  0.68523651  0.03696881
   0.34363348  0.06399961  0.02783421
   0.88838126  0.05560908  0.02665597
   0.78994391  0.14208922  0.33917248
   0.21496421  0.71985978  0.39906334
   0.06873692  0.18028426  0.38539559
Direct configuration=    14
   0.22067121  0.89240241  0.08901558
   0.67116664  0.17256634  0.21818791
   0.94927612  0.02809995  0.15233499
   0.37713575  0.32456169  0.28241668
   0.44927612  0.52809995  0.15233499
   0.88680106  0.33013857  0.28532275
   0.44927612  0.02809995  0.15233499
   0.88233156  0.82420655  0.28422071
   0.90282244  0.55132680  0.10484543
   0.33920721  0.84279789  0.23371159
   0.99311424  0.50636348  0.20248425
   0.42051183  0.80228642  0.33534793
   0.53851998  0.23347802  0.07318573
   0.12409949  0.49110167  0.34849035
   0.77987703  0.62967480  0.31811362
   0.87926422  0.06310591  0.05527763
   0.33889543  0.33114058  0.18304385
   0.58246139  0.21150732  0.12452493
   0.02383455  0.49314333  0.25564162
   0.09516526  0.72856013  0.12156099
   0.53903222  0.46463892  0.25233942
   0.74062990  0.15823462  0.31493610
   0.85888103  0.57329750  0.05350623
   0.31053109  0.84887945  0.18068591
   0.56207820  0.72169891  0.12275353
   0.99565229  0.02866521  0.25470793
   0.79785691  0.32832724  0.18382336
   0.23351444  0.63243884  0.31076928
   0.34617716  0.60305419  0.05647018
   0.23672413  0.18617069  0.31832185
   0.79887590  0.88251276  0.18489552
   0.34617716  0.05624469  0.05647018
   0.54016831  0.01592325  0.25341159
   0.09516526  0.18175063  0.12156099
   0.19263419  0.75391333  0.37435560
   0.04728037  0.35947372  0.38734683
   0.34047062  0.60391201  0.02782883
   0.92434681  0.68523651  0.03696881
   0.34363348  0.06399961  0.02783421
   0.88838126  0.05560908  0.02665597
   0.78994224  0.14208980  0.33917187
   0.21496556  0.71986366  0.39906379
   0.06873526  0.18028150  0.38539558
Direct configuration=    15
   0.22067121  0.89240241  0.08901558
   0.67117284  0.17229500  0.21817810
   0.94927612  0.02809995  0.15233499
   0.37715466  0.32451342  0.28240093
   0.44927612  0.52809995  0.15233499
   0.88726146  0.33000671  0.28528419
   0.44927612  0.02809995  0.15233499
   0.88241289  0.82422598  0.28420121
   0.90282244  0.55132680  0.10484543
   0.33911348  0.84284330  0.23369466
   0.99320788  0.50616945  0.20245473
   0.42062605  0.80206929  0.33537247
   0.53851998  0.23347802  0.07318573
   0.12389571  0.49134854  0.34840552
   0.78062205  0.62858665  0.31832492
   0.87926422  0.06310591  0.05527763
   0.33896679  0.33068049  0.18305069
   0.58246139  0.21150732  0.12452493
   0.02408399  0.49216011  0.25550731
   0.09516526  0.72856013  0.12156099
   0.53868738  0.46440981  0.25236479
   0.74076974  0.15899277  0.31499247
   0.85888103  0.57329750  0.05350623
   0.31078118  0.84861406  0.18073113
   0.56207820  0.72169891  0.12275353
   0.99622617  0.02941938  0.25460195
   0.79831195  0.32792559  0.18379706
   0.23328588  0.63313218  0.31068834
   0.34617716  0.60305419  0.05647018
   0.23666061  0.18643124  0.31829677
   0.79943837  0.88210177  0.18489294
   0.34617716  0.05624469  0.05647018
   0.54019278  0.01582858  0.25346077
   0.09516526  0.18175063  0.12156099
   0.19278466  0.75274734  0.37430208
   0.04781982  0.35939904  0.38724831
   0.34047062  0.60391201  0.02782883
   0.92434681  0.68523651  0.03696881
   0.34363348  0.06399961  0.02783421
   0.88838126  0.05560908  0.02665597
   0.78981284  0.14219645  0.33911026
   0.21481458  0.71946101  0.39901128
   0.06888099  0.18040586  0.38538800
Direct configuration=    16
   0.22067121  0.89240241  0.08901558
   0.67117526  0.17218945  0.21817428
   0.94927612  0.02809995  0.15233499
   0.37716202  0.32449465  0.28239480
   0.44927612  0.52809995  0.15233499
   0.88744054  0.32995541  0.28526919
   0.44927612  0.02809995  0.15233499
   0.88244453  0.82423354  0.28419362
   0.90282244  0.55132680  0.10484543
   0.33907702  0.84286096  0.23368808
   0.99324431  0.50609398  0.20244325
   0.42067049  0.80198482  0.33538201
   0.53851998  0.23347802  0.07318573
   0.12381645  0.49144457  0.34837252
   0.78091186  0.62816337  0.31840710
   0.87926422  0.06310591  0.05527763
   0.33899455  0.33050152  0.18305335
   0.58246139  0.21150732  0.12452493
   0.02418102  0.49177764  0.25545507
   0.09516526  0.72856013  0.12156099
   0.53855323  0.46432069  0.25237466
   0.74082413  0.15928768  0.31501440
   0.85888103  0.57329750  0.05350623
   0.31087846  0.84851082  0.18074872
   0.56207820  0.72169891  0.12275353
   0.99644940  0.02971274  0.25456073
   0.79848895  0.32776935  0.18378683
   0.23319698  0.63340189  0.31065685
   0.34617716  0.60305419  0.05647018
   0.23663590  0.18653260  0.31828701
   0.79965717  0.88194189  0.18489193
   0.34617716  0.05624469  0.05647018
   0.54020230  0.01579175  0.25347990
   0.09516526  0.18175063  0.12156099
   0.19284319  0.75229378  0.37428126
   0.04802966  0.35936999  0.38720998
   0.34047062  0.60391201  0.02782883
   0.92434681  0.68523651  0.03696881
   0.34363348  0.06399961  0.02783421
   0.88838126  0.05560908  0.02665597
   0.78976250  0.14223794  0.33908629
   0.21475585  0.71930438  0.39899085
   0.06893768  0.18045424  0.38538505
Direct configuration=    17
   0.22067121  0.89240241  0.08901558
   0.67117357  0.17226331  0.21817695
   0.94927612  0.02809995  0.15233499
   0.37715687  0.32450778  0.28239909
   0.44927612  0.52809995  0.15233499
   0.88731523  0.32999130  0.28527969
   0.44927612  0.02809995  0.15233499
   0.88242240  0.82422825  0.28419893
   0.90282244  0.55132680  0.10484543
   0.33910253  0.84284860  0.23369268
   0.99321882  0.50614679  0.20245128
   0.42063940  0.80204392  0.33537534
   0.53851998  0.23347802  0.07318573
   0.12387191  0.49137738  0.34839561
   0.78070908  0.62845954  0.31834960
   0.87926422  0.06310591  0.05527763
   0.33897513  0.33062675  0.18305149
   0.58246139  0.21150732  0.12452493
   0.02411313  0.49204525  0.25549163
   0.09516526  0.72856013  0.12156099
   0.53864709  0.46438305  0.25236775
   0.74078607  0.15908133  0.31499905
   0.85888103  0.57329750  0.05350623
   0.31081039  0.84858306  0.18073642
   0.56207820  0.72169891  0.12275353
   0.99629321  0.02950748  0.25458957
   0.79836510  0.32787867  0.18379399
   0.23325918  0.63321317  0.31067888
   0.34617716  0.60305419  0.05647018
   0.23665319  0.18646168  0.31829384
   0.79950408  0.88205376  0.18489264
   0.34617716  0.05624469  0.05647018
   0.54019564  0.01581752  0.25346652
   0.09516526  0.18175063  0.12156099
   0.19280224  0.75261114  0.37429583
   0.04788284  0.35939032  0.38723680
   0.34047062  0.60391201  0.02782883
   0.92434681  0.68523651  0.03696881
   0.34363348  0.06399961  0.02783421
   0.88838126  0.05560908  0.02665597
   0.78979772  0.14220891  0.33910306
   0.21479694  0.71941397  0.39900514
   0.06889801  0.18042039  0.38538712
Direct configuration=    18
   0.22067121  0.89240241  0.08901558
   0.67117326  0.17227685  0.21817744
   0.94927612  0.02809995  0.15233499
   0.37715593  0.32451019  0.28239988
   0.44927612  0.52809995  0.15233499
   0.88729226  0.32999788  0.28528161
   0.44927612  0.02809995  0.15233499
   0.88241834  0.82422728  0.28419990
   0.90282244  0.55132680  0.10484543
   0.33910721  0.84284634  0.23369353
   0.99321415  0.50615647  0.20245276
   0.42063370  0.80205476  0.33537411
   0.53851998  0.23347802  0.07318573
   0.12388208  0.49136506  0.34839984
   0.78067191  0.62851384  0.31833905
   0.87926422  0.06310591  0.05527763
   0.33897157  0.33064971  0.18305115
   0.58246139  0.21150732  0.12452493
   0.02410068  0.49209431  0.25549833
   0.09516526  0.72856013  0.12156099
   0.53866430  0.46439448  0.25236649
   0.74077910  0.15904350  0.31499624
   0.85888103  0.57329750  0.05350623
   0.31079791  0.84859630  0.18073416
   0.56207820  0.72169891  0.12275353
   0.99626457  0.02946984  0.25459486
   0.79834240  0.32789871  0.18379530
   0.23327059  0.63317858  0.31068292
   0.34617716  0.60305419  0.05647018
   0.23665636  0.18644868  0.31829509
   0.79947601  0.88207426  0.18489276
   0.34617716  0.05624469  0.05647018
   0.54019442  0.01582224  0.25346406
   0.09516526  0.18175063  0.12156099
   0.19279473  0.75266932  0.37429850
   0.04785592  0.35939404  0.38724171
   0.34047062  0.60391201  0.02782883
   0.92434681  0.68523651  0.03696881
   0.34363348  0.06399961  0.02783421
   0.88838126  0.05560908  0.02665597
   0.78980418  0.14220359  0.33910614
   0.21480447  0.71943406  0.39900776
   0.06889074  0.18041418  0.38538749
Direct configuration=    19
   0.22067121  0.89240241  0.08901558
   0.67117300  0.17228798  0.21817784
   0.94927612  0.02809995  0.15233499
   0.37715515  0.32451217  0.28240052
   0.44927612  0.52809995  0.15233499
   0.88727337  0.33000329  0.28528319
   0.44927612  0.02809995  0.15233499
   0.88241500  0.82422649  0.28420070
   0.90282244  0.55132680  0.10484543
   0.33911105  0.84284447  0.23369422
   0.99321031  0.50616443  0.20245397
   0.42062901  0.80206367  0.33537310
   0.53851998  0.23347802  0.07318573
   0.12389044  0.49135493  0.34840333
   0.78064134  0.62855848  0.31833038
   0.87926422  0.06310591  0.05527763
   0.33896864  0.33066858  0.18305087
   0.58246139  0.21150732  0.12452493
   0.02409045  0.49213465  0.25550384
   0.09516526  0.72856013  0.12156099
   0.53867845  0.46440388  0.25236545
   0.74077336  0.15901239  0.31499393
   0.85888103  0.57329750  0.05350623
   0.31078765  0.84860719  0.18073230
   0.56207820  0.72169891  0.12275353
   0.99624102  0.02943890  0.25459921
   0.79832373  0.32791519  0.18379638
   0.23327997  0.63315013  0.31068624
   0.34617716  0.60305419  0.05647018
   0.23665897  0.18643799  0.31829612
   0.79945293  0.88209113  0.18489287
   0.34617716  0.05624469  0.05647018
   0.54019342  0.01582613  0.25346204
   0.09516526  0.18175063  0.12156099
   0.19278856  0.75271716  0.37430069
   0.04783379  0.35939711  0.38724576
   0.34047062  0.60391201  0.02782883
   0.92434681  0.68523651  0.03696881
   0.34363348  0.06399961  0.02783421
   0.88838126  0.05560908  0.02665597
   0.78980949  0.14219921  0.33910866
   0.21481067  0.71945058  0.39900992
   0.06888476  0.18040908  0.38538780
Direct configuration=    20
   0.22067121  0.89240241  0.08901558
   0.67117322  0.17227850  0.21817750
   0.94927612  0.02809995  0.15233499
   0.37715581  0.32451049  0.28239997
   0.44927612  0.52809995  0.15233499
   0.88728946  0.32999869  0.28528185
   0.44927612  0.02809995  0.15233499
   0.88241784  0.82422716  0.28420002
   0.90282244  0.55132680  0.10484543
   0.33910778  0.84284606  0.23369363
   0.99321358  0.50615765  0.20245294
   0.42063300  0.80205608  0.33537396
   0.53851998  0.23347802  0.07318573
   0.12388332  0.49136356  0.34840036
   0.78066737  0.62852047  0.31833777
   0.87926422  0.06310591  0.05527763
   0.33897113  0.33065251  0.18305111
   0.58246139  0.21150732  0.12452493
   0.02409916  0.49210031  0.25549915
   0.09516526  0.72856013  0.12156099
   0.53866640  0.46439588  0.25236633
   0.74077824  0.15903887  0.31499590
   0.85888103  0.57329750  0.05350623
   0.31079639  0.84859792  0.18073388
   0.56207820  0.72169891  0.12275353
   0.99626107  0.02946525  0.25459551
   0.79833962  0.32790116  0.18379546
   0.23327198  0.63317435  0.31068341
   0.34617716  0.60305419  0.05647018
   0.23665675  0.18644709  0.31829524
   0.79947258  0.88207677  0.18489278
   0.34617716  0.05624469  0.05647018
   0.54019427  0.01582282  0.25346376
   0.09516526  0.18175063  0.12156099
   0.19279381  0.75267642  0.37429882
   0.04785263  0.35939450  0.38724231
   0.34047062  0.60391201  0.02782883
   0.92434681  0.68523651  0.03696881
   0.34363348  0.06399961  0.02783421
   0.88838126  0.05560908  0.02665597
   0.78980497  0.14220294  0.33910651
   0.21480539  0.71943652  0.39900808
   0.06888985  0.18041343  0.38538754
Direct configuration=    21
   0.22067121  0.89240241  0.08901558
   0.67117325  0.17227709  0.21817745
   0.94927612  0.02809995  0.15233499
   0.37715591  0.32451024  0.28239989
   0.44927612  0.52809995  0.15233499
   0.88729184  0.32999800  0.28528165
   0.44927612  0.02809995  0.15233499
   0.88241826  0.82422727  0.28419992
   0.90282244  0.55132680  0.10484543
   0.33910729  0.84284630  0.23369354
   0.99321407  0.50615665  0.20245278
   0.42063359  0.80205495  0.33537409
   0.53851998  0.23347802  0.07318573
   0.12388226  0.49136484  0.34839992
   0.78067123  0.62851483  0.31833886
   0.87926422  0.06310591  0.05527763
   0.33897150  0.33065012  0.18305114
   0.58246139  0.21150732  0.12452493
   0.02410045  0.49209521  0.25549845
   0.09516526  0.72856013  0.12156099
   0.53866461  0.46439469  0.25236646
   0.74077897  0.15904281  0.31499619
   0.85888103  0.57329750  0.05350623
   0.31079768  0.84859654  0.18073412
   0.56207820  0.72169891  0.12275353
   0.99626405  0.02946916  0.25459496
   0.79834198  0.32789908  0.18379532
   0.23327080  0.63317795  0.31068299
   0.34617716  0.60305419  0.05647018
   0.23665642  0.18644844  0.31829511
   0.79947550  0.88207464  0.18489277
   0.34617716  0.05624469  0.05647018
   0.54019440  0.01582233  0.25346402
   0.09516526  0.18175063  0.12156099
   0.19279459  0.75267038  0.37429855
   0.04785543  0.35939411  0.38724180
   0.34047062  0.60391201  0.02782883
   0.92434681  0.68523651  0.03696881
   0.34363348  0.06399961  0.02783421
   0.88838126  0.05560908  0.02665597
   0.78980430  0.14220349  0.33910619
   0.21480461  0.71943443  0.39900781
   0.06889061  0.18041407  0.38538750
Direct configuration=    22
   0.22067121  0.89240241  0.08901558
   0.67104643  0.17232013  0.21828066
   0.94927612  0.02809995  0.15233499
   0.37725329  0.32444755  0.28239648
   0.44927612  0.52809995  0.15233499
   0.88722174  0.33005787  0.28529745
   0.44927612  0.02809995  0.15233499
   0.88247372  0.82415647  0.28416018
   0.90282244  0.55132680  0.10484543
   0.33931231  0.84269877  0.23373434
   0.99322602  0.50599319  0.20244433
   0.42077520  0.80200337  0.33536130
   0.53851998  0.23347802  0.07318573
   0.12376845  0.49211969  0.34835315
   0.78089234  0.62811564  0.31841614
   0.87926422  0.06310591  0.05527763
   0.33912211  0.33063744  0.18304305
   0.58246139  0.21150732  0.12452493
   0.02414880  0.49199702  0.25543572
   0.09516526  0.72856013  0.12156099
   0.53866346  0.46450739  0.25229747
   0.74073459  0.15941693  0.31495691
   0.85888103  0.57329750  0.05350623
   0.31105355  0.84826909  0.18071270
   0.56207820  0.72169891  0.12275353
   0.99641116  0.02952909  0.25452703
   0.79835632  0.32806762  0.18378950
   0.23308474  0.63363682  0.31066525
   0.34617716  0.60305419  0.05647018
   0.23682089  0.18580985  0.31824942
   0.79966039  0.88169657  0.18488683
   0.34617716  0.05624469  0.05647018
   0.54040903  0.01541141  0.25344482
   0.09516526  0.18175063  0.12156099
   0.19297831  0.75238614  0.37426639
   0.04806337  0.35917335  0.38727506
   0.34047062  0.60391201  0.02782883
   0.92434681  0.68523651  0.03696881
   0.34363348  0.06399961  0.02783421
   0.88838126  0.05560908  0.02665597
   0.78986589  0.14225798  0.33913924
   0.21469697  0.71910987  0.39898647
   0.06896726  0.18033330  0.38537137
Direct configuration=    23
   0.22067121  0.89240241  0.08901558
   0.67099737  0.17233677  0.21832060
   0.94927612  0.02809995  0.15233499
   0.37729097  0.32442330  0.28239516
   0.44927612  0.52809995  0.15233499
   0.88719462  0.33008104  0.28530356
   0.44927612  0.02809995  0.15233499
   0.88249518  0.82412908  0.28414480
   0.90282244  0.55132680  0.10484543
   0.33939163  0.84264169  0.23375012
   0.99323065  0.50592995  0.20244106
   0.42082999  0.80198341  0.33535635
   0.53851998  0.23347802  0.07318573
   0.12372441  0.49241174  0.34833506
   0.78097788  0.62796120  0.31844604
   0.87926422  0.06310591  0.05527763
   0.33918038  0.33063253  0.18303992
   0.58246139  0.21150732  0.12452493
   0.02416751  0.49195903  0.25541145
   0.09516526  0.72856013  0.12156099
   0.53866302  0.46455099  0.25227078
   0.74071742  0.15956168  0.31494172
   0.85888103  0.57329750  0.05350623
   0.31115254  0.84814240  0.18070442
   0.56207820  0.72169891  0.12275353
   0.99646807  0.02955228  0.25450075
   0.79836186  0.32813283  0.18378725
   0.23301276  0.63381435  0.31065838
   0.34617716  0.60305419  0.05647018
   0.23688453  0.18556278  0.31823174
   0.79973193  0.88155029  0.18488454
   0.34617716  0.05624469  0.05647018
   0.54049207  0.01525243  0.25343740
   0.09516526  0.18175063  0.12156099
   0.19304940  0.75227617  0.37425395
   0.04814383  0.35908794  0.38728792
   0.34047062  0.60391201  0.02782883
   0.92434681  0.68523651  0.03696881
   0.34363348  0.06399961  0.02783421
   0.88838126  0.05560908  0.02665597
   0.78988972  0.14227906  0.33915202
   0.21465533  0.71898431  0.39897821
   0.06899692  0.18030205  0.38536513
Direct configuration=    24
   0.22067121  0.89240241  0.08901558
   0.67089923  0.17237007  0.21840046
   0.94927612  0.02809995  0.15233499
   0.37736632  0.32437479  0.28239252
   0.44927612  0.52809995  0.15233499
   0.88714038  0.33012736  0.28531579
   0.44927612  0.02809995  0.15233499
   0.88253809  0.82407430  0.28411405
   0.90282244  0.55132680  0.10484543
   0.33955027  0.84252753  0.23378169
   0.99323990  0.50580347  0.20243451
   0.42093956  0.80194349  0.33534645
   0.53851998  0.23347802  0.07318573
   0.12363634  0.49299584  0.34829887
   0.78114898  0.62765231  0.31850584
   0.87926422  0.06310591  0.05527763
   0.33929692  0.33062272  0.18303366
   0.58246139  0.21150732  0.12452493
   0.02420492  0.49188305  0.25536290
   0.09516526  0.72856013  0.12156099
   0.53866213  0.46463820  0.25221739
   0.74068309  0.15985117  0.31491133
   0.85888103  0.57329750  0.05350623
   0.31135053  0.84788903  0.18068785
   0.56207820  0.72169891  0.12275353
   0.99658190  0.02959866  0.25444818
   0.79837295  0.32826324  0.18378274
   0.23286879  0.63416942  0.31064465
   0.34617716  0.60305419  0.05647018
   0.23701180  0.18506864  0.31819638
   0.79987500  0.88125774  0.18487994
   0.34617716  0.05624469  0.05647018
   0.54065815  0.01493447  0.25342255
   0.09516526  0.18175063  0.12156099
   0.19319156  0.75205623  0.37422907
   0.04830473  0.35891712  0.38731366
   0.34047062  0.60391201  0.02782883
   0.92434681  0.68523651  0.03696881
   0.34363348  0.06399961  0.02783421
   0.88838126  0.05560908  0.02665597
   0.78993738  0.14232122  0.33917759
   0.21457204  0.71873317  0.39896170
   0.06905623  0.18023955  0.38535265
Direct configuration=    25
   0.22067121  0.89240241  0.08901558
   0.67094438  0.17235475  0.21836372
   0.94927612  0.02809995  0.15233499
   0.37733165  0.32439711  0.28239373
   0.44927612  0.52809995  0.15233499
   0.88716534  0.33010605  0.28531016
   0.44927612  0.02809995  0.15233499
   0.88251834  0.82409950  0.28412820
   0.90282244  0.55132680  0.10484543
   0.33947728  0.84258005  0.23376717
   0.99323564  0.50586166  0.20243752
   0.42088915  0.80196186  0.33535101
   0.53851998  0.23347802  0.07318573
   0.12367686  0.49272711  0.34831552
   0.78107026  0.62779443  0.31847833
   0.87926422  0.06310591  0.05527763
   0.33924330  0.33062723  0.18303654
   0.58246139  0.21150732  0.12452493
   0.02418771  0.49191801  0.25538524
   0.09516526  0.72856013  0.12156099
   0.53866254  0.46459807  0.25224195
   0.74069889  0.15971798  0.31492531
   0.85888103  0.57329750  0.05350623
   0.31125944  0.84800560  0.18069547
   0.56207820  0.72169891  0.12275353
   0.99652953  0.02957732  0.25447237
   0.79836785  0.32820324  0.18378481
   0.23293503  0.63400606  0.31065097
   0.34617716  0.60305419  0.05647018
   0.23695325  0.18529599  0.31821264
   0.79980918  0.88139234  0.18488206
   0.34617716  0.05624469  0.05647018
   0.54058174  0.01508076  0.25342938
   0.09516526  0.18175063  0.12156099
   0.19312615  0.75215742  0.37424052
   0.04823070  0.35899571  0.38730182
   0.34047062  0.60391201  0.02782883
   0.92434681  0.68523651  0.03696881
   0.34363348  0.06399961  0.02783421
   0.88838126  0.05560908  0.02665597
   0.78991546  0.14230182  0.33916582
   0.21461036  0.71884871  0.39896930
   0.06902894  0.18026831  0.38535839
Direct configuration=    26
   0.22067121  0.89240241  0.08901558
   0.67090718  0.17236738  0.21839400
   0.94927612  0.02809995  0.15233499
   0.37736022  0.32437871  0.28239273
   0.44927612  0.52809995  0.15233499
   0.88714477  0.33012361  0.28531480
   0.44927612  0.02809995  0.15233499
   0.88253461  0.82407873  0.28411654
   0.90282244  0.55132680  0.10484543
   0.33953743  0.84253677  0.23377914
   0.99323915  0.50581371  0.20243504
   0.42093069  0.80194672  0.33534725
   0.53851998  0.23347802  0.07318573
   0.12364347  0.49294856  0.34830180
   0.78113513  0.62767732  0.31850100
   0.87926422  0.06310591  0.05527763
   0.33928748  0.33062351  0.18303416
   0.58246139  0.21150732  0.12452493
   0.02420190  0.49188920  0.25536683
   0.09516526  0.72856013  0.12156099
   0.53866220  0.46463114  0.25222171
   0.74068587  0.15982774  0.31491379
   0.85888103  0.57329750  0.05350623
   0.31133450  0.84790954  0.18068919
   0.56207820  0.72169891  0.12275353
   0.99657269  0.02959490  0.25445244
   0.79837206  0.32825269  0.18378311
   0.23288045  0.63414068  0.31064576
   0.34617716  0.60305419  0.05647018
   0.23700150  0.18510864  0.31819924
   0.79986342  0.88128142  0.18488031
   0.34617716  0.05624469  0.05647018
   0.54064471  0.01496021  0.25342375
   0.09516526  0.18175063  0.12156099
   0.19318005  0.75207403  0.37423109
   0.04829171  0.35893095  0.38731157
   0.34047062  0.60391201  0.02782883
   0.92434681  0.68523651  0.03696881
   0.34363348  0.06399961  0.02783421
   0.88838126  0.05560908  0.02665597
   0.78993353  0.14231780  0.33917552
   0.21457878  0.71875350  0.39896304
   0.06905143  0.18024461  0.38535366
Direct configuration=    27
   0.22067121  0.89240241  0.08901558
   0.67107977  0.17221496  0.21845107
   0.94927612  0.02809995  0.15233499
   0.37745543  0.32421583  0.28238732
   0.44927612  0.52809995  0.15233499
   0.88721379  0.33020125  0.28531486
   0.44927612  0.02809995  0.15233499
   0.88263632  0.82393629  0.28404710
   0.90282244  0.55132680  0.10484543
   0.33982510  0.84232358  0.23381857
   0.99329829  0.50553935  0.20241030
   0.42125418  0.80190254  0.33532963
   0.53851998  0.23347802  0.07318573
   0.12327810  0.49345477  0.34830743
   0.78158955  0.62728011  0.31857640
   0.87926422  0.06310591  0.05527763
   0.33953112  0.33064878  0.18302129
   0.58246139  0.21150732  0.12452493
   0.02421823  0.49195841  0.25533327
   0.09516526  0.72856013  0.12156099
   0.53864306  0.46479294  0.25214238
   0.74079966  0.16004651  0.31498367
   0.85888103  0.57329750  0.05350623
   0.31170120  0.84748200  0.18066065
   0.56207820  0.72169891  0.12275353
   0.99653254  0.02955127  0.25437759
   0.79820273  0.32840259  0.18378544
   0.23268290  0.63459025  0.31060391
   0.34617716  0.60305419  0.05647018
   0.23721672  0.18453092  0.31811336
   0.79995091  0.88105756  0.18488479
   0.34617716  0.05624469  0.05647018
   0.54095710  0.01444491  0.25341722
   0.09516526  0.18175063  0.12156099
   0.19353167  0.75184237  0.37421413
   0.04871383  0.35901634  0.38732395
   0.34047062  0.60391201  0.02782883
   0.92434681  0.68523651  0.03696881
   0.34363348  0.06399961  0.02783421
   0.88838126  0.05560908  0.02665597
   0.78976671  0.14253292  0.33909475
   0.21437741  0.71822386  0.39891134
   0.06920029  0.17994750  0.38531566
Direct configuration=    28
   0.22067121  0.89240241  0.08901558
   0.67107257  0.17222132  0.21844869
   0.94927612  0.02809995  0.15233499
   0.37745146  0.32422263  0.28238755
   0.44927612  0.52809995  0.15233499
   0.88721091  0.33019801  0.28531486
   0.44927612  0.02809995  0.15233499
   0.88263208  0.82394224  0.28404999
   0.90282244  0.55132680  0.10484543
   0.33981309  0.84233248  0.23381693
   0.99329582  0.50555080  0.20241133
   0.42124067  0.80190439  0.33533037
   0.53851998  0.23347802  0.07318573
   0.12329335  0.49343363  0.34830719
   0.78157058  0.62729669  0.31857325
   0.87926422  0.06310591  0.05527763
   0.33952095  0.33064773  0.18302183
   0.58246139  0.21150732  0.12452493
   0.02421755  0.49195552  0.25533467
   0.09516526  0.72856013  0.12156099
   0.53864386  0.46478618  0.25214569
   0.74079491  0.16003738  0.31498075
   0.85888103  0.57329750  0.05350623
   0.31168589  0.84749985  0.18066184
   0.56207820  0.72169891  0.12275353
   0.99653422  0.02955309  0.25438072
   0.79820980  0.32839633  0.18378534
   0.23269114  0.63457149  0.31060566
   0.34617716  0.60305419  0.05647018
   0.23720774  0.18455503  0.31811694
   0.79994726  0.88106691  0.18488460
   0.34617716  0.05624469  0.05647018
   0.54094406  0.01446642  0.25341749
   0.09516526  0.18175063  0.12156099
   0.19351700  0.75185204  0.37421484
   0.04869621  0.35901278  0.38732343
   0.34047062  0.60391201  0.02782883
   0.92434681  0.68523651  0.03696881
   0.34363348  0.06399961  0.02783421
   0.88838126  0.05560908  0.02665597
   0.78977367  0.14252394  0.33909812
   0.21438582  0.71824597  0.39891350
   0.06919408  0.17995990  0.38531725
Direct configuration=    29
   0.22067121  0.89240241  0.08901558
   0.67151062  0.17189590  0.21840908
   0.94927612  0.02809995  0.15233499
   0.37751791  0.32408431  0.28238083
   0.44927612  0.52809995  0.15233499
   0.88742127  0.33014958  0.28529828
   0.44927612  0.02809995  0.15233499
   0.88269931  0.82388194  0.28399669
   0.90282244  0.55132680  0.10484543
   0.33998578  0.84219350  0.23382351
   0.99340580  0.50528434  0.20237960
   0.42161617  0.80184173  0.33531431
   0.53851998  0.23347802  0.07318573
   0.12288945  0.49341795  0.34832776
   0.78209938  0.62706107  0.31861620
   0.87926422  0.06310591  0.05527763
   0.33969818  0.33065875  0.18301648
   0.58246139  0.21150732  0.12452493
   0.02422584  0.49204857  0.25533900
   0.09516526  0.72856013  0.12156099
   0.53862022  0.46480428  0.25211181
   0.74070168  0.16012359  0.31495032
   0.85888103  0.57329750  0.05350623
   0.31194310  0.84726202  0.18065183
   0.56207820  0.72169891  0.12275353
   0.99633262  0.02952210  0.25433335
   0.79797045  0.32838148  0.18379189
   0.23258230  0.63470521  0.31056240
   0.34617716  0.60305419  0.05647018
   0.23732606  0.18448647  0.31803554
   0.79991102  0.88113326  0.18489723
   0.34617716  0.05624469  0.05647018
   0.54120346  0.01415603  0.25343754
   0.09516526  0.18175063  0.12156099
   0.19385139  0.75180626  0.37418825
   0.04923618  0.35878779  0.38730960
   0.34047062  0.60391201  0.02782883
   0.92434681  0.68523651  0.03696881
   0.34363348  0.06399961  0.02783421
   0.88838126  0.05560908  0.02665597
   0.78977237  0.14270216  0.33909871
   0.21421833  0.71768199  0.39888862
   0.06929613  0.18012434  0.38527807
Direct configuration=    30
   0.22067121  0.89240241  0.08901558
   0.67175732  0.17171263  0.21838677
   0.94927612  0.02809995  0.15233499
   0.37755534  0.32400641  0.28237705
   0.44927612  0.52809995  0.15233499
   0.88753974  0.33012230  0.28528894
   0.44927612  0.02809995  0.15233499
   0.88273717  0.82384798  0.28396667
   0.90282244  0.55132680  0.10484543
   0.34008304  0.84211523  0.23382722
   0.99346774  0.50513428  0.20236172
   0.42182764  0.80180644  0.33530527
   0.53851998  0.23347802  0.07318573
   0.12266198  0.49340912  0.34833934
   0.78239719  0.62692838  0.31864038
   0.87926422  0.06310591  0.05527763
   0.33979799  0.33066495  0.18301347
   0.58246139  0.21150732  0.12452493
   0.02423051  0.49210098  0.25534144
   0.09516526  0.72856013  0.12156099
   0.53860691  0.46481447  0.25209273
   0.74064917  0.16017214  0.31493318
   0.85888103  0.57329750  0.05350623
   0.31208796  0.84712808  0.18064619
   0.56207820  0.72169891  0.12275353
   0.99621909  0.02950465  0.25430668
   0.79783566  0.32837311  0.18379557
   0.23252100  0.63478053  0.31053803
   0.34617716  0.60305419  0.05647018
   0.23739269  0.18444785  0.31798970
   0.79989061  0.88117063  0.18490434
   0.34617716  0.05624469  0.05647018
   0.54134954  0.01398123  0.25344882
   0.09516526  0.18175063  0.12156099
   0.19403971  0.75178047  0.37417328
   0.04954028  0.35866108  0.38730181
   0.34047062  0.60391201  0.02782883
   0.92434681  0.68523651  0.03696881
   0.34363348  0.06399961  0.02783421
   0.88838126  0.05560908  0.02665597
   0.78977164  0.14280252  0.33909904
   0.21412401  0.71736437  0.39887461
   0.06935360  0.18021694  0.38525601
Direct configuration=    31
   0.22067121  0.89240241  0.08901558
   0.67225072  0.17134609  0.21834216
   0.94927612  0.02809995  0.15233499
   0.37763019  0.32385062  0.28236948
   0.44927612  0.52809995  0.15233499
   0.88777668  0.33006774  0.28527027
   0.44927612  0.02809995  0.15233499
   0.88281290  0.82378006  0.28390663
   0.90282244  0.55132680  0.10484543
   0.34027756  0.84195869  0.23383464
   0.99359161  0.50483415  0.20232598
   0.42225057  0.80173587  0.33528718
   0.53851998  0.23347802  0.07318573
   0.12220705  0.49339145  0.34836250
   0.78299280  0.62666299  0.31868876
   0.87926422  0.06310591  0.05527763
   0.33999761  0.33067737  0.18300745
   0.58246139  0.21150732  0.12452493
   0.02423986  0.49220578  0.25534632
   0.09516526  0.72856013  0.12156099
   0.53858029  0.46483486  0.25205456
   0.74054415  0.16026925  0.31489890
   0.85888103  0.57329750  0.05350623
   0.31237767  0.84686020  0.18063491
   0.56207820  0.72169891  0.12275353
   0.99599203  0.02946974  0.25425333
   0.79756607  0.32835638  0.18380295
   0.23239841  0.63493115  0.31048930
   0.34617716  0.60305419  0.05647018
   0.23752597  0.18437063  0.31789802
   0.79984979  0.88124537  0.18491856
   0.34617716  0.05624469  0.05647018
   0.54164172  0.01363162  0.25347140
   0.09516526  0.18175063  0.12156099
   0.19441636  0.75172890  0.37414333
   0.05014847  0.35840766  0.38728624
   0.34047062  0.60391201  0.02782883
   0.92434681  0.68523651  0.03696881
   0.34363348  0.06399961  0.02783421
   0.88838126  0.05560908  0.02665597
   0.78977017  0.14300326  0.33909970
   0.21393536  0.71672914  0.39884659
   0.06946854  0.18040215  0.38521188
Direct configuration=    32
   0.22067121  0.89240241  0.08901558
   0.67198418  0.17154410  0.21836626
   0.94927612  0.02809995  0.15233499
   0.37758976  0.32393478  0.28237357
   0.44927612  0.52809995  0.15233499
   0.88764868  0.33009721  0.28528036
   0.44927612  0.02809995  0.15233499
   0.88277199  0.82381675  0.28393906
   0.90282244  0.55132680  0.10484543
   0.34017248  0.84204326  0.23383063
   0.99352469  0.50499629  0.20234529
   0.42202210  0.80177399  0.33529695
   0.53851998  0.23347802  0.07318573
   0.12245281  0.49340100  0.34834999
   0.78267104  0.62680636  0.31866262
   0.87926422  0.06310591  0.05527763
   0.33988977  0.33067066  0.18301070
   0.58246139  0.21150732  0.12452493
   0.02423481  0.49214917  0.25534368
   0.09516526  0.72856013  0.12156099
   0.53859467  0.46482385  0.25207518
   0.74060088  0.16021679  0.31491742
   0.85888103  0.57329750  0.05350623
   0.31222116  0.84700491  0.18064100
   0.56207820  0.72169891  0.12275353
   0.99611469  0.02948860  0.25428215
   0.79771170  0.32836542  0.18379897
   0.23246463  0.63484978  0.31051562
   0.34617716  0.60305419  0.05647018
   0.23745397  0.18441235  0.31794755
   0.79987184  0.88120499  0.18491088
   0.34617716  0.05624469  0.05647018
   0.54148388  0.01382048  0.25345921
   0.09516526  0.18175063  0.12156099
   0.19421289  0.75175676  0.37415951
   0.04981992  0.35854456  0.38729465
   0.34047062  0.60391201  0.02782883
   0.92434681  0.68523651  0.03696881
   0.34363348  0.06399961  0.02783421
   0.88838126  0.05560908  0.02665597
   0.78977096  0.14289482  0.33909934
   0.21403727  0.71707230  0.39886172
   0.06940644  0.18030210  0.38523572
Direct configuration=    33
   0.22067121  0.89240241  0.08901558
   0.67226686  0.17128958  0.21833025
   0.94927612  0.02809995  0.15233499
   0.37777185  0.32396270  0.28234443
   0.44927612  0.52809995  0.15233499
   0.88785350  0.32983937  0.28525673
   0.44927612  0.02809995  0.15233499
   0.88285935  0.82387349  0.28392781
   0.90282244  0.55132680  0.10484543
   0.34031595  0.84191505  0.23381225
   0.99368040  0.50475175  0.20230662
   0.42231267  0.80167072  0.33526254
   0.53851998  0.23347802  0.07318573
   0.12227922  0.49348905  0.34826004
   0.78347880  0.62675541  0.31866322
   0.87926422  0.06310591  0.05527763
   0.33993216  0.33062129  0.18301650
   0.58246139  0.21150732  0.12452493
   0.02419930  0.49236025  0.25535507
   0.09516526  0.72856013  0.12156099
   0.53866570  0.46451006  0.25206822
   0.74062350  0.16003251  0.31487450
   0.85888103  0.57329750  0.05350623
   0.31231296  0.84703490  0.18065604
   0.56207820  0.72169891  0.12275353
   0.99580101  0.02931182  0.25425790
   0.79759957  0.32827313  0.18378592
   0.23241373  0.63468925  0.31051129
   0.34617716  0.60305419  0.05647018
   0.23744890  0.18458941  0.31789426
   0.79991853  0.88120452  0.18490837
   0.34617716  0.05624469  0.05647018
   0.54173908  0.01365792  0.25348384
   0.09516526  0.18175063  0.12156099
   0.19453614  0.75165766  0.37414858
   0.05040344  0.35843882  0.38731493
   0.34047062  0.60391201  0.02782883
   0.92434681  0.68523651  0.03696881
   0.34363348  0.06399961  0.02783421
   0.88838126  0.05560908  0.02665597
   0.78973586  0.14308078  0.33906751
   0.21389081  0.71645452  0.39882688
   0.06956871  0.18019680  0.38518757
Direct configuration=    34
   0.22067121  0.89240241  0.08901558
   0.67209249  0.17144658  0.21835246
   0.94927612  0.02809995  0.15233499
   0.37765953  0.32394548  0.28236240
   0.44927612  0.52809995  0.15233499
   0.88772716  0.32999842  0.28527130
   0.44927612  0.02809995  0.15233499
   0.88280546  0.82383849  0.28393475
   0.90282244  0.55132680  0.10484543
   0.34022745  0.84199413  0.23382359
   0.99358435  0.50490259  0.20233047
   0.42213343  0.80173443  0.33528377
   0.53851998  0.23347802  0.07318573
   0.12238630  0.49343473  0.34831553
   0.78298053  0.62678684  0.31866285
   0.87926422  0.06310591  0.05527763
   0.33990601  0.33065175  0.18301292
   0.58246139  0.21150732  0.12452493
   0.02422121  0.49223004  0.25534805
   0.09516526  0.72856013  0.12156099
   0.53862188  0.46470362  0.25207251
   0.74060955  0.16014618  0.31490097
   0.85888103  0.57329750  0.05350623
   0.31225633  0.84701640  0.18064676
   0.56207820  0.72169891  0.12275353
   0.99599450  0.02942086  0.25427286
   0.79766874  0.32833006  0.18379397
   0.23244513  0.63478828  0.31051396
   0.34617716  0.60305419  0.05647018
   0.23745203  0.18448019  0.31792713
   0.79988973  0.88120481  0.18490992
   0.34617716  0.05624469  0.05647018
   0.54158166  0.01375820  0.25346864
   0.09516526  0.18175063  0.12156099
   0.19433674  0.75171879  0.37415532
   0.05004349  0.35850404  0.38730242
   0.34047062  0.60391201  0.02782883
   0.92434681  0.68523651  0.03696881
   0.34363348  0.06399961  0.02783421
   0.88838126  0.05560908  0.02665597
   0.78975751  0.14296607  0.33908715
   0.21398115  0.71683560  0.39884837
   0.06946862  0.18026175  0.38521727
Direct configuration=    35
   0.22067121  0.89240241  0.08901558
   0.67214272  0.17140135  0.21834606
   0.94927612  0.02809995  0.15233499
   0.37769188  0.32395044  0.28235723
   0.44927612  0.52809995  0.15233499
   0.88776356  0.32995261  0.28526711
   0.44927612  0.02809995  0.15233499
   0.88282099  0.82384857  0.28393275
   0.90282244  0.55132680  0.10484543
   0.34025294  0.84197135  0.23382032
   0.99361202  0.50485914  0.20232360
   0.42218506  0.80171607  0.33527765
   0.53851998  0.23347802  0.07318573
   0.12235546  0.49345038  0.34829954
   0.78312407  0.62677778  0.31866296
   0.87926422  0.06310591  0.05527763
   0.33991354  0.33064297  0.18301395
   0.58246139  0.21150732  0.12452493
   0.02421490  0.49226755  0.25535007
   0.09516526  0.72856013  0.12156099
   0.53863451  0.46464786  0.25207128
   0.74061357  0.16011344  0.31489335
   0.85888103  0.57329750  0.05350623
   0.31227265  0.84702173  0.18064944
   0.56207820  0.72169891  0.12275353
   0.99593877  0.02938945  0.25426855
   0.79764881  0.32831366  0.18379165
   0.23243608  0.63475975  0.31051319
   0.34617716  0.60305419  0.05647018
   0.23745113  0.18451165  0.31791766
   0.79989802  0.88120473  0.18490947
   0.34617716  0.05624469  0.05647018
   0.54162700  0.01372931  0.25347302
   0.09516526  0.18175063  0.12156099
   0.19439418  0.75170118  0.37415338
   0.05014718  0.35848525  0.38730603
   0.34047062  0.60391201  0.02782883
   0.92434681  0.68523651  0.03696881
   0.34363348  0.06399961  0.02783421
   0.88838126  0.05560908  0.02665597
   0.78975128  0.14299911  0.33908149
   0.21395513  0.71672582  0.39884218
   0.06949745  0.18024304  0.38520871
Direct configuration=    36
   0.22067121  0.89240241  0.08901558
   0.67220479  0.17134547  0.21833815
   0.94927612  0.02809995  0.15233499
   0.37773187  0.32395657  0.28235083
   0.44927612  0.52809995  0.15233499
   0.88780853  0.32989599  0.28526192
   0.44927612  0.02809995  0.15233499
   0.88284017  0.82386103  0.28393028
   0.90282244  0.55132680  0.10484543
   0.34028444  0.84194320  0.23381628
   0.99364621  0.50480544  0.20231511
   0.42224886  0.80169340  0.33527010
   0.53851998  0.23347802  0.07318573
   0.12231734  0.49346971  0.34827979
   0.78330143  0.62676660  0.31866309
   0.87926422  0.06310591  0.05527763
   0.33992285  0.33063213  0.18301523
   0.58246139  0.21150732  0.12452493
   0.02420710  0.49231390  0.25535257
   0.09516526  0.72856013  0.12156099
   0.53865010  0.46457896  0.25206975
   0.74061853  0.16007297  0.31488392
   0.85888103  0.57329750  0.05350623
   0.31229280  0.84702831  0.18065274
   0.56207820  0.72169891  0.12275353
   0.99586989  0.02935063  0.25426323
   0.79762419  0.32829340  0.18378879
   0.23242491  0.63472450  0.31051224
   0.34617716  0.60305419  0.05647018
   0.23745001  0.18455053  0.31790596
   0.79990828  0.88120463  0.18490892
   0.34617716  0.05624469  0.05647018
   0.54168304  0.01369362  0.25347843
   0.09516526  0.18175063  0.12156099
   0.19446516  0.75167942  0.37415098
   0.05027531  0.35846204  0.38731048
   0.34047062  0.60391201  0.02782883
   0.92434681  0.68523651  0.03696881
   0.34363348  0.06399961  0.02783421
   0.88838126  0.05560908  0.02665597
   0.78974357  0.14303995  0.33907450
   0.21392297  0.71659017  0.39883453
   0.06953308  0.18021992  0.38519814
