Mn O  H 
 1.0000000000000000
     5.7471469900000001    0.0000000000000000    0.0000000000000000
     0.0000000000000000    5.7471469900000001    0.0000000000000000
     0.0000000000000000    0.0000000000000000   38.3523056924327008
 Mn  O   H  
  14  19   2
Selective dynamics
Direct
 -0.0093835343744717  0.2391760241319369  0.2623916092900749   F   F   F
  0.7489864879576713  0.4968346817732093  0.3235847127412249   F   F   F
  0.4826551891215883  0.2488940317359723  0.3960076920617968   T   T   T
  0.7296466922300044 -0.0029112232163441  0.4655224211529187   T   T   T
  0.2279115100130502  0.0031070022447118  0.4559408534555634   T   T   T
  0.2510151206674320  0.4955812159049278  0.3269556710605909   F   F   F
  0.4834061146934411  0.7492742284359170  0.3950956214687943   T   T   T
 -0.0100916428494874  0.7513987945614823  0.2627757334990781   F   F   F
  0.0024768544779153 -0.0045784375955736  0.3571699137271092   F   F   F
 -0.0247345332465801  0.5059618938014684  0.4280054178653290   T   T   T
  0.4249045281084193  0.5226186936487163  0.4925947885849599   T   T   T
  0.4872487909802456 -0.0043314717839424  0.2917774653642574   F   F   F
  0.5255685196906833  0.2114452233417319  0.5485719921260274   T   T   T
  0.9650126332173854  0.2725761381466137  0.5194540288497378   T   T   T
 -0.0167442917043445  0.2302043660273306  0.4632046299272977   T   T   T
  0.7747574636748692  0.4958631552600724  0.2647010163483396   F   F   F
  0.4994775423373534  0.2678073900728424  0.3280746410023943   F   F   F
  0.7073110580500557 -0.0018969810372464  0.3979782544418340   T   T   T
  0.0037645548922136  0.2690184215424850  0.3222536979589821   F   F   F
  0.7692367725186661 -0.0055241815224737  0.2597891457639432   F   F   F
  0.4779598777540467  0.2287987302267124  0.4590746688014030   T   T   T
  0.7086530918343911  0.4992695461021939  0.3923366196523904   T   T   T
  0.2111692605782599 -0.0057975698878655  0.2583053953367737   F   F   F
  0.2526593772686228  0.4995110654658546  0.3932172690144489   T   T   T
  0.2272536477132092  0.4962741366236937  0.2626329689737672   F   F   F
  0.2528472364386279 -0.0012511719815275  0.3984884293516566   T   T   T
  0.4987015056994976  0.7247605740973498  0.3278246169346272   F   F   F
 -0.0117174348949721  0.7780690202329663  0.4617490189771131   T   T   T
  0.4764839272708672  0.7761825307008703  0.4571227204516334   T   T   T
  0.0041034282560547  0.7236694402594225  0.3222276800561435   F   F   F
  0.7129928984397476  0.5229880407605583  0.5276612099135010   T   T   T
  0.7357809286084704  0.0046909367829755  0.5242671892691890   T   T   T
  0.2591804515049177  0.3884463171370199  0.5353784682531226   T   T   T
  0.3862807976787250  0.4992215041381847  0.2532026820654570   F   F   F
  0.7469930157429406  0.6913295710548845  0.5318864024581581   T   T   T
